 <VTKFile type="UnstructuredGrid"  version="0.1"   >
 <UnstructuredGrid>
 <Piece  NumberOfPoints="          1600 "  NumberOfCells="         1024 ">
 <Points>
 <DataArray  type="Float64" NumberOfComponents="3"  format="ascii" >
   0.0000000000000000        0.0000000000000000        0.0000000000000000     
   3.1250000000000000E-002   0.0000000000000000        0.0000000000000000     
   6.2500000000000000E-002   0.0000000000000000        0.0000000000000000     
   9.3750000000000000E-002   0.0000000000000000        0.0000000000000000     
  0.12500000000000000        0.0000000000000000        0.0000000000000000     
   0.0000000000000000        3.1250000000000000E-002   0.0000000000000000     
   3.1250000000000000E-002   3.1250000000000000E-002   0.0000000000000000     
   6.2500000000000000E-002   3.1250000000000000E-002   0.0000000000000000     
   9.3750000000000000E-002   3.1250000000000000E-002   0.0000000000000000     
  0.12500000000000000        3.1250000000000000E-002   0.0000000000000000     
   0.0000000000000000        6.2500000000000000E-002   0.0000000000000000     
   3.1250000000000000E-002   6.2500000000000000E-002   0.0000000000000000     
   6.2500000000000000E-002   6.2500000000000000E-002   0.0000000000000000     
   9.3750000000000000E-002   6.2500000000000000E-002   0.0000000000000000     
  0.12500000000000000        6.2500000000000000E-002   0.0000000000000000     
   0.0000000000000000        9.3750000000000000E-002   0.0000000000000000     
   3.1250000000000000E-002   9.3750000000000000E-002   0.0000000000000000     
   6.2500000000000000E-002   9.3750000000000000E-002   0.0000000000000000     
   9.3750000000000000E-002   9.3750000000000000E-002   0.0000000000000000     
  0.12500000000000000        9.3750000000000000E-002   0.0000000000000000     
   0.0000000000000000       0.12500000000000000        0.0000000000000000     
   3.1250000000000000E-002  0.12500000000000000        0.0000000000000000     
   6.2500000000000000E-002  0.12500000000000000        0.0000000000000000     
   9.3750000000000000E-002  0.12500000000000000        0.0000000000000000     
  0.12500000000000000       0.12500000000000000        0.0000000000000000     
  0.12500000000000000        0.0000000000000000        0.0000000000000000     
  0.15625000000000000        0.0000000000000000        0.0000000000000000     
  0.18750000000000000        0.0000000000000000        0.0000000000000000     
  0.21875000000000000        0.0000000000000000        0.0000000000000000     
  0.25000000000000000        0.0000000000000000        0.0000000000000000     
  0.12500000000000000        3.1250000000000000E-002   0.0000000000000000     
  0.15625000000000000        3.1250000000000000E-002   0.0000000000000000     
  0.18750000000000000        3.1250000000000000E-002   0.0000000000000000     
  0.21875000000000000        3.1250000000000000E-002   0.0000000000000000     
  0.25000000000000000        3.1250000000000000E-002   0.0000000000000000     
  0.12500000000000000        6.2500000000000000E-002   0.0000000000000000     
  0.15625000000000000        6.2500000000000000E-002   0.0000000000000000     
  0.18750000000000000        6.2500000000000000E-002   0.0000000000000000     
  0.21875000000000000        6.2500000000000000E-002   0.0000000000000000     
  0.25000000000000000        6.2500000000000000E-002   0.0000000000000000     
  0.12500000000000000        9.3750000000000000E-002   0.0000000000000000     
  0.15625000000000000        9.3750000000000000E-002   0.0000000000000000     
  0.18750000000000000        9.3750000000000000E-002   0.0000000000000000     
  0.21875000000000000        9.3750000000000000E-002   0.0000000000000000     
  0.25000000000000000        9.3750000000000000E-002   0.0000000000000000     
  0.12500000000000000       0.12500000000000000        0.0000000000000000     
  0.15625000000000000       0.12500000000000000        0.0000000000000000     
  0.18750000000000000       0.12500000000000000        0.0000000000000000     
  0.21875000000000000       0.12500000000000000        0.0000000000000000     
  0.25000000000000000       0.12500000000000000        0.0000000000000000     
  0.25000000000000000        0.0000000000000000        0.0000000000000000     
  0.28125000000000000        0.0000000000000000        0.0000000000000000     
  0.31250000000000000        0.0000000000000000        0.0000000000000000     
  0.34375000000000000        0.0000000000000000        0.0000000000000000     
  0.37500000000000000        0.0000000000000000        0.0000000000000000     
  0.25000000000000000        3.1250000000000000E-002   0.0000000000000000     
  0.28125000000000000        3.1250000000000000E-002   0.0000000000000000     
  0.31250000000000000        3.1250000000000000E-002   0.0000000000000000     
  0.34375000000000000        3.1250000000000000E-002   0.0000000000000000     
  0.37500000000000000        3.1250000000000000E-002   0.0000000000000000     
  0.25000000000000000        6.2500000000000000E-002   0.0000000000000000     
  0.28125000000000000        6.2500000000000000E-002   0.0000000000000000     
  0.31250000000000000        6.2500000000000000E-002   0.0000000000000000     
  0.34375000000000000        6.2500000000000000E-002   0.0000000000000000     
  0.37500000000000000        6.2500000000000000E-002   0.0000000000000000     
  0.25000000000000000        9.3750000000000000E-002   0.0000000000000000     
  0.28125000000000000        9.3750000000000000E-002   0.0000000000000000     
  0.31250000000000000        9.3750000000000000E-002   0.0000000000000000     
  0.34375000000000000        9.3750000000000000E-002   0.0000000000000000     
  0.37500000000000000        9.3750000000000000E-002   0.0000000000000000     
  0.25000000000000000       0.12500000000000000        0.0000000000000000     
  0.28125000000000000       0.12500000000000000        0.0000000000000000     
  0.31250000000000000       0.12500000000000000        0.0000000000000000     
  0.34375000000000000       0.12500000000000000        0.0000000000000000     
  0.37500000000000000       0.12500000000000000        0.0000000000000000     
  0.37500000000000000        0.0000000000000000        0.0000000000000000     
  0.40625000000000000        0.0000000000000000        0.0000000000000000     
  0.43750000000000000        0.0000000000000000        0.0000000000000000     
  0.46875000000000000        0.0000000000000000        0.0000000000000000     
  0.50000000000000000        0.0000000000000000        0.0000000000000000     
  0.37500000000000000        3.1250000000000000E-002   0.0000000000000000     
  0.40625000000000000        3.1250000000000000E-002   0.0000000000000000     
  0.43750000000000000        3.1250000000000000E-002   0.0000000000000000     
  0.46875000000000000        3.1250000000000000E-002   0.0000000000000000     
  0.50000000000000000        3.1250000000000000E-002   0.0000000000000000     
  0.37500000000000000        6.2500000000000000E-002   0.0000000000000000     
  0.40625000000000000        6.2500000000000000E-002   0.0000000000000000     
  0.43750000000000000        6.2500000000000000E-002   0.0000000000000000     
  0.46875000000000000        6.2500000000000000E-002   0.0000000000000000     
  0.50000000000000000        6.2500000000000000E-002   0.0000000000000000     
  0.37500000000000000        9.3750000000000000E-002   0.0000000000000000     
  0.40625000000000000        9.3750000000000000E-002   0.0000000000000000     
  0.43750000000000000        9.3750000000000000E-002   0.0000000000000000     
  0.46875000000000000        9.3750000000000000E-002   0.0000000000000000     
  0.50000000000000000        9.3750000000000000E-002   0.0000000000000000     
  0.37500000000000000       0.12500000000000000        0.0000000000000000     
  0.40625000000000000       0.12500000000000000        0.0000000000000000     
  0.43750000000000000       0.12500000000000000        0.0000000000000000     
  0.46875000000000000       0.12500000000000000        0.0000000000000000     
  0.50000000000000000       0.12500000000000000        0.0000000000000000     
  0.50000000000000000        0.0000000000000000        0.0000000000000000     
  0.53125000000000000        0.0000000000000000        0.0000000000000000     
  0.56250000000000000        0.0000000000000000        0.0000000000000000     
  0.59375000000000000        0.0000000000000000        0.0000000000000000     
  0.62500000000000000        0.0000000000000000        0.0000000000000000     
  0.50000000000000000        3.1250000000000000E-002   0.0000000000000000     
  0.53125000000000000        3.1250000000000000E-002   0.0000000000000000     
  0.56250000000000000        3.1250000000000000E-002   0.0000000000000000     
  0.59375000000000000        3.1250000000000000E-002   0.0000000000000000     
  0.62500000000000000        3.1250000000000000E-002   0.0000000000000000     
  0.50000000000000000        6.2500000000000000E-002   0.0000000000000000     
  0.53125000000000000        6.2500000000000000E-002   0.0000000000000000     
  0.56250000000000000        6.2500000000000000E-002   0.0000000000000000     
  0.59375000000000000        6.2500000000000000E-002   0.0000000000000000     
  0.62500000000000000        6.2500000000000000E-002   0.0000000000000000     
  0.50000000000000000        9.3750000000000000E-002   0.0000000000000000     
  0.53125000000000000        9.3750000000000000E-002   0.0000000000000000     
  0.56250000000000000        9.3750000000000000E-002   0.0000000000000000     
  0.59375000000000000        9.3750000000000000E-002   0.0000000000000000     
  0.62500000000000000        9.3750000000000000E-002   0.0000000000000000     
  0.50000000000000000       0.12500000000000000        0.0000000000000000     
  0.53125000000000000       0.12500000000000000        0.0000000000000000     
  0.56250000000000000       0.12500000000000000        0.0000000000000000     
  0.59375000000000000       0.12500000000000000        0.0000000000000000     
  0.62500000000000000       0.12500000000000000        0.0000000000000000     
  0.62500000000000000        0.0000000000000000        0.0000000000000000     
  0.65625000000000000        0.0000000000000000        0.0000000000000000     
  0.68750000000000000        0.0000000000000000        0.0000000000000000     
  0.71875000000000000        0.0000000000000000        0.0000000000000000     
  0.75000000000000000        0.0000000000000000        0.0000000000000000     
  0.62500000000000000        3.1250000000000000E-002   0.0000000000000000     
  0.65625000000000000        3.1250000000000000E-002   0.0000000000000000     
  0.68750000000000000        3.1250000000000000E-002   0.0000000000000000     
  0.71875000000000000        3.1250000000000000E-002   0.0000000000000000     
  0.75000000000000000        3.1250000000000000E-002   0.0000000000000000     
  0.62500000000000000        6.2500000000000000E-002   0.0000000000000000     
  0.65625000000000000        6.2500000000000000E-002   0.0000000000000000     
  0.68750000000000000        6.2500000000000000E-002   0.0000000000000000     
  0.71875000000000000        6.2500000000000000E-002   0.0000000000000000     
  0.75000000000000000        6.2500000000000000E-002   0.0000000000000000     
  0.62500000000000000        9.3750000000000000E-002   0.0000000000000000     
  0.65625000000000000        9.3750000000000000E-002   0.0000000000000000     
  0.68750000000000000        9.3750000000000000E-002   0.0000000000000000     
  0.71875000000000000        9.3750000000000000E-002   0.0000000000000000     
  0.75000000000000000        9.3750000000000000E-002   0.0000000000000000     
  0.62500000000000000       0.12500000000000000        0.0000000000000000     
  0.65625000000000000       0.12500000000000000        0.0000000000000000     
  0.68750000000000000       0.12500000000000000        0.0000000000000000     
  0.71875000000000000       0.12500000000000000        0.0000000000000000     
  0.75000000000000000       0.12500000000000000        0.0000000000000000     
  0.75000000000000000        0.0000000000000000        0.0000000000000000     
  0.78125000000000000        0.0000000000000000        0.0000000000000000     
  0.81250000000000000        0.0000000000000000        0.0000000000000000     
  0.84375000000000000        0.0000000000000000        0.0000000000000000     
  0.87500000000000000        0.0000000000000000        0.0000000000000000     
  0.75000000000000000        3.1250000000000000E-002   0.0000000000000000     
  0.78125000000000000        3.1250000000000000E-002   0.0000000000000000     
  0.81250000000000000        3.1250000000000000E-002   0.0000000000000000     
  0.84375000000000000        3.1250000000000000E-002   0.0000000000000000     
  0.87500000000000000        3.1250000000000000E-002   0.0000000000000000     
  0.75000000000000000        6.2500000000000000E-002   0.0000000000000000     
  0.78125000000000000        6.2500000000000000E-002   0.0000000000000000     
  0.81250000000000000        6.2500000000000000E-002   0.0000000000000000     
  0.84375000000000000        6.2500000000000000E-002   0.0000000000000000     
  0.87500000000000000        6.2500000000000000E-002   0.0000000000000000     
  0.75000000000000000        9.3750000000000000E-002   0.0000000000000000     
  0.78125000000000000        9.3750000000000000E-002   0.0000000000000000     
  0.81250000000000000        9.3750000000000000E-002   0.0000000000000000     
  0.84375000000000000        9.3750000000000000E-002   0.0000000000000000     
  0.87500000000000000        9.3750000000000000E-002   0.0000000000000000     
  0.75000000000000000       0.12500000000000000        0.0000000000000000     
  0.78125000000000000       0.12500000000000000        0.0000000000000000     
  0.81250000000000000       0.12500000000000000        0.0000000000000000     
  0.84375000000000000       0.12500000000000000        0.0000000000000000     
  0.87500000000000000       0.12500000000000000        0.0000000000000000     
  0.87500000000000000        0.0000000000000000        0.0000000000000000     
  0.90625000000000000        0.0000000000000000        0.0000000000000000     
  0.93750000000000000        0.0000000000000000        0.0000000000000000     
  0.96875000000000000        0.0000000000000000        0.0000000000000000     
   1.0000000000000000        0.0000000000000000        0.0000000000000000     
  0.87500000000000000        3.1250000000000000E-002   0.0000000000000000     
  0.90625000000000000        3.1250000000000000E-002   0.0000000000000000     
  0.93750000000000000        3.1250000000000000E-002   0.0000000000000000     
  0.96875000000000000        3.1250000000000000E-002   0.0000000000000000     
   1.0000000000000000        3.1250000000000000E-002   0.0000000000000000     
  0.87500000000000000        6.2500000000000000E-002   0.0000000000000000     
  0.90625000000000000        6.2500000000000000E-002   0.0000000000000000     
  0.93750000000000000        6.2500000000000000E-002   0.0000000000000000     
  0.96875000000000000        6.2500000000000000E-002   0.0000000000000000     
   1.0000000000000000        6.2500000000000000E-002   0.0000000000000000     
  0.87500000000000000        9.3750000000000000E-002   0.0000000000000000     
  0.90625000000000000        9.3750000000000000E-002   0.0000000000000000     
  0.93750000000000000        9.3750000000000000E-002   0.0000000000000000     
  0.96875000000000000        9.3750000000000000E-002   0.0000000000000000     
   1.0000000000000000        9.3750000000000000E-002   0.0000000000000000     
  0.87500000000000000       0.12500000000000000        0.0000000000000000     
  0.90625000000000000       0.12500000000000000        0.0000000000000000     
  0.93750000000000000       0.12500000000000000        0.0000000000000000     
  0.96875000000000000       0.12500000000000000        0.0000000000000000     
   1.0000000000000000       0.12500000000000000        0.0000000000000000     
   0.0000000000000000       0.12500000000000000        0.0000000000000000     
   3.1250000000000000E-002  0.12500000000000000        0.0000000000000000     
   6.2500000000000000E-002  0.12500000000000000        0.0000000000000000     
   9.3750000000000000E-002  0.12500000000000000        0.0000000000000000     
  0.12500000000000000       0.12500000000000000        0.0000000000000000     
   0.0000000000000000       0.15625000000000000        0.0000000000000000     
   3.1250000000000000E-002  0.15625000000000000        0.0000000000000000     
   6.2500000000000000E-002  0.15625000000000000        0.0000000000000000     
   9.3750000000000000E-002  0.15625000000000000        0.0000000000000000     
  0.12500000000000000       0.15625000000000000        0.0000000000000000     
   0.0000000000000000       0.18750000000000000        0.0000000000000000     
   3.1250000000000000E-002  0.18750000000000000        0.0000000000000000     
   6.2500000000000000E-002  0.18750000000000000        0.0000000000000000     
   9.3750000000000000E-002  0.18750000000000000        0.0000000000000000     
  0.12500000000000000       0.18750000000000000        0.0000000000000000     
   0.0000000000000000       0.21875000000000000        0.0000000000000000     
   3.1250000000000000E-002  0.21875000000000000        0.0000000000000000     
   6.2500000000000000E-002  0.21875000000000000        0.0000000000000000     
   9.3750000000000000E-002  0.21875000000000000        0.0000000000000000     
  0.12500000000000000       0.21875000000000000        0.0000000000000000     
   0.0000000000000000       0.25000000000000000        0.0000000000000000     
   3.1250000000000000E-002  0.25000000000000000        0.0000000000000000     
   6.2500000000000000E-002  0.25000000000000000        0.0000000000000000     
   9.3750000000000000E-002  0.25000000000000000        0.0000000000000000     
  0.12500000000000000       0.25000000000000000        0.0000000000000000     
  0.12500000000000000       0.12500000000000000        0.0000000000000000     
  0.15625000000000000       0.12500000000000000        0.0000000000000000     
  0.18750000000000000       0.12500000000000000        0.0000000000000000     
  0.21875000000000000       0.12500000000000000        0.0000000000000000     
  0.25000000000000000       0.12500000000000000        0.0000000000000000     
  0.12500000000000000       0.15625000000000000        0.0000000000000000     
  0.15625000000000000       0.15625000000000000        0.0000000000000000     
  0.18750000000000000       0.15625000000000000        0.0000000000000000     
  0.21875000000000000       0.15625000000000000        0.0000000000000000     
  0.25000000000000000       0.15625000000000000        0.0000000000000000     
  0.12500000000000000       0.18750000000000000        0.0000000000000000     
  0.15625000000000000       0.18750000000000000        0.0000000000000000     
  0.18750000000000000       0.18750000000000000        0.0000000000000000     
  0.21875000000000000       0.18750000000000000        0.0000000000000000     
  0.25000000000000000       0.18750000000000000        0.0000000000000000     
  0.12500000000000000       0.21875000000000000        0.0000000000000000     
  0.15625000000000000       0.21875000000000000        0.0000000000000000     
  0.18750000000000000       0.21875000000000000        0.0000000000000000     
  0.21875000000000000       0.21875000000000000        0.0000000000000000     
  0.25000000000000000       0.21875000000000000        0.0000000000000000     
  0.12500000000000000       0.25000000000000000        0.0000000000000000     
  0.15625000000000000       0.25000000000000000        0.0000000000000000     
  0.18750000000000000       0.25000000000000000        0.0000000000000000     
  0.21875000000000000       0.25000000000000000        0.0000000000000000     
  0.25000000000000000       0.25000000000000000        0.0000000000000000     
  0.25000000000000000       0.12500000000000000        0.0000000000000000     
  0.28125000000000000       0.12500000000000000        0.0000000000000000     
  0.31250000000000000       0.12500000000000000        0.0000000000000000     
  0.34375000000000000       0.12500000000000000        0.0000000000000000     
  0.37500000000000000       0.12500000000000000        0.0000000000000000     
  0.25000000000000000       0.15625000000000000        0.0000000000000000     
  0.28125000000000000       0.15625000000000000        0.0000000000000000     
  0.31250000000000000       0.15625000000000000        0.0000000000000000     
  0.34375000000000000       0.15625000000000000        0.0000000000000000     
  0.37500000000000000       0.15625000000000000        0.0000000000000000     
  0.25000000000000000       0.18750000000000000        0.0000000000000000     
  0.28125000000000000       0.18750000000000000        0.0000000000000000     
  0.31250000000000000       0.18750000000000000        0.0000000000000000     
  0.34375000000000000       0.18750000000000000        0.0000000000000000     
  0.37500000000000000       0.18750000000000000        0.0000000000000000     
  0.25000000000000000       0.21875000000000000        0.0000000000000000     
  0.28125000000000000       0.21875000000000000        0.0000000000000000     
  0.31250000000000000       0.21875000000000000        0.0000000000000000     
  0.34375000000000000       0.21875000000000000        0.0000000000000000     
  0.37500000000000000       0.21875000000000000        0.0000000000000000     
  0.25000000000000000       0.25000000000000000        0.0000000000000000     
  0.28125000000000000       0.25000000000000000        0.0000000000000000     
  0.31250000000000000       0.25000000000000000        0.0000000000000000     
  0.34375000000000000       0.25000000000000000        0.0000000000000000     
  0.37500000000000000       0.25000000000000000        0.0000000000000000     
  0.37500000000000000       0.12500000000000000        0.0000000000000000     
  0.40625000000000000       0.12500000000000000        0.0000000000000000     
  0.43750000000000000       0.12500000000000000        0.0000000000000000     
  0.46875000000000000       0.12500000000000000        0.0000000000000000     
  0.50000000000000000       0.12500000000000000        0.0000000000000000     
  0.37500000000000000       0.15625000000000000        0.0000000000000000     
  0.40625000000000000       0.15625000000000000        0.0000000000000000     
  0.43750000000000000       0.15625000000000000        0.0000000000000000     
  0.46875000000000000       0.15625000000000000        0.0000000000000000     
  0.50000000000000000       0.15625000000000000        0.0000000000000000     
  0.37500000000000000       0.18750000000000000        0.0000000000000000     
  0.40625000000000000       0.18750000000000000        0.0000000000000000     
  0.43750000000000000       0.18750000000000000        0.0000000000000000     
  0.46875000000000000       0.18750000000000000        0.0000000000000000     
  0.50000000000000000       0.18750000000000000        0.0000000000000000     
  0.37500000000000000       0.21875000000000000        0.0000000000000000     
  0.40625000000000000       0.21875000000000000        0.0000000000000000     
  0.43750000000000000       0.21875000000000000        0.0000000000000000     
  0.46875000000000000       0.21875000000000000        0.0000000000000000     
  0.50000000000000000       0.21875000000000000        0.0000000000000000     
  0.37500000000000000       0.25000000000000000        0.0000000000000000     
  0.40625000000000000       0.25000000000000000        0.0000000000000000     
  0.43750000000000000       0.25000000000000000        0.0000000000000000     
  0.46875000000000000       0.25000000000000000        0.0000000000000000     
  0.50000000000000000       0.25000000000000000        0.0000000000000000     
  0.50000000000000000       0.12500000000000000        0.0000000000000000     
  0.53125000000000000       0.12500000000000000        0.0000000000000000     
  0.56250000000000000       0.12500000000000000        0.0000000000000000     
  0.59375000000000000       0.12500000000000000        0.0000000000000000     
  0.62500000000000000       0.12500000000000000        0.0000000000000000     
  0.50000000000000000       0.15625000000000000        0.0000000000000000     
  0.53125000000000000       0.15625000000000000        0.0000000000000000     
  0.56250000000000000       0.15625000000000000        0.0000000000000000     
  0.59375000000000000       0.15625000000000000        0.0000000000000000     
  0.62500000000000000       0.15625000000000000        0.0000000000000000     
  0.50000000000000000       0.18750000000000000        0.0000000000000000     
  0.53125000000000000       0.18750000000000000        0.0000000000000000     
  0.56250000000000000       0.18750000000000000        0.0000000000000000     
  0.59375000000000000       0.18750000000000000        0.0000000000000000     
  0.62500000000000000       0.18750000000000000        0.0000000000000000     
  0.50000000000000000       0.21875000000000000        0.0000000000000000     
  0.53125000000000000       0.21875000000000000        0.0000000000000000     
  0.56250000000000000       0.21875000000000000        0.0000000000000000     
  0.59375000000000000       0.21875000000000000        0.0000000000000000     
  0.62500000000000000       0.21875000000000000        0.0000000000000000     
  0.50000000000000000       0.25000000000000000        0.0000000000000000     
  0.53125000000000000       0.25000000000000000        0.0000000000000000     
  0.56250000000000000       0.25000000000000000        0.0000000000000000     
  0.59375000000000000       0.25000000000000000        0.0000000000000000     
  0.62500000000000000       0.25000000000000000        0.0000000000000000     
  0.62500000000000000       0.12500000000000000        0.0000000000000000     
  0.65625000000000000       0.12500000000000000        0.0000000000000000     
  0.68750000000000000       0.12500000000000000        0.0000000000000000     
  0.71875000000000000       0.12500000000000000        0.0000000000000000     
  0.75000000000000000       0.12500000000000000        0.0000000000000000     
  0.62500000000000000       0.15625000000000000        0.0000000000000000     
  0.65625000000000000       0.15625000000000000        0.0000000000000000     
  0.68750000000000000       0.15625000000000000        0.0000000000000000     
  0.71875000000000000       0.15625000000000000        0.0000000000000000     
  0.75000000000000000       0.15625000000000000        0.0000000000000000     
  0.62500000000000000       0.18750000000000000        0.0000000000000000     
  0.65625000000000000       0.18750000000000000        0.0000000000000000     
  0.68750000000000000       0.18750000000000000        0.0000000000000000     
  0.71875000000000000       0.18750000000000000        0.0000000000000000     
  0.75000000000000000       0.18750000000000000        0.0000000000000000     
  0.62500000000000000       0.21875000000000000        0.0000000000000000     
  0.65625000000000000       0.21875000000000000        0.0000000000000000     
  0.68750000000000000       0.21875000000000000        0.0000000000000000     
  0.71875000000000000       0.21875000000000000        0.0000000000000000     
  0.75000000000000000       0.21875000000000000        0.0000000000000000     
  0.62500000000000000       0.25000000000000000        0.0000000000000000     
  0.65625000000000000       0.25000000000000000        0.0000000000000000     
  0.68750000000000000       0.25000000000000000        0.0000000000000000     
  0.71875000000000000       0.25000000000000000        0.0000000000000000     
  0.75000000000000000       0.25000000000000000        0.0000000000000000     
  0.75000000000000000       0.12500000000000000        0.0000000000000000     
  0.78125000000000000       0.12500000000000000        0.0000000000000000     
  0.81250000000000000       0.12500000000000000        0.0000000000000000     
  0.84375000000000000       0.12500000000000000        0.0000000000000000     
  0.87500000000000000       0.12500000000000000        0.0000000000000000     
  0.75000000000000000       0.15625000000000000        0.0000000000000000     
  0.78125000000000000       0.15625000000000000        0.0000000000000000     
  0.81250000000000000       0.15625000000000000        0.0000000000000000     
  0.84375000000000000       0.15625000000000000        0.0000000000000000     
  0.87500000000000000       0.15625000000000000        0.0000000000000000     
  0.75000000000000000       0.18750000000000000        0.0000000000000000     
  0.78125000000000000       0.18750000000000000        0.0000000000000000     
  0.81250000000000000       0.18750000000000000        0.0000000000000000     
  0.84375000000000000       0.18750000000000000        0.0000000000000000     
  0.87500000000000000       0.18750000000000000        0.0000000000000000     
  0.75000000000000000       0.21875000000000000        0.0000000000000000     
  0.78125000000000000       0.21875000000000000        0.0000000000000000     
  0.81250000000000000       0.21875000000000000        0.0000000000000000     
  0.84375000000000000       0.21875000000000000        0.0000000000000000     
  0.87500000000000000       0.21875000000000000        0.0000000000000000     
  0.75000000000000000       0.25000000000000000        0.0000000000000000     
  0.78125000000000000       0.25000000000000000        0.0000000000000000     
  0.81250000000000000       0.25000000000000000        0.0000000000000000     
  0.84375000000000000       0.25000000000000000        0.0000000000000000     
  0.87500000000000000       0.25000000000000000        0.0000000000000000     
  0.87500000000000000       0.12500000000000000        0.0000000000000000     
  0.90625000000000000       0.12500000000000000        0.0000000000000000     
  0.93750000000000000       0.12500000000000000        0.0000000000000000     
  0.96875000000000000       0.12500000000000000        0.0000000000000000     
   1.0000000000000000       0.12500000000000000        0.0000000000000000     
  0.87500000000000000       0.15625000000000000        0.0000000000000000     
  0.90625000000000000       0.15625000000000000        0.0000000000000000     
  0.93750000000000000       0.15625000000000000        0.0000000000000000     
  0.96875000000000000       0.15625000000000000        0.0000000000000000     
   1.0000000000000000       0.15625000000000000        0.0000000000000000     
  0.87500000000000000       0.18750000000000000        0.0000000000000000     
  0.90625000000000000       0.18750000000000000        0.0000000000000000     
  0.93750000000000000       0.18750000000000000        0.0000000000000000     
  0.96875000000000000       0.18750000000000000        0.0000000000000000     
   1.0000000000000000       0.18750000000000000        0.0000000000000000     
  0.87500000000000000       0.21875000000000000        0.0000000000000000     
  0.90625000000000000       0.21875000000000000        0.0000000000000000     
  0.93750000000000000       0.21875000000000000        0.0000000000000000     
  0.96875000000000000       0.21875000000000000        0.0000000000000000     
   1.0000000000000000       0.21875000000000000        0.0000000000000000     
  0.87500000000000000       0.25000000000000000        0.0000000000000000     
  0.90625000000000000       0.25000000000000000        0.0000000000000000     
  0.93750000000000000       0.25000000000000000        0.0000000000000000     
  0.96875000000000000       0.25000000000000000        0.0000000000000000     
   1.0000000000000000       0.25000000000000000        0.0000000000000000     
   0.0000000000000000       0.25000000000000000        0.0000000000000000     
   3.1250000000000000E-002  0.25000000000000000        0.0000000000000000     
   6.2500000000000000E-002  0.25000000000000000        0.0000000000000000     
   9.3750000000000000E-002  0.25000000000000000        0.0000000000000000     
  0.12500000000000000       0.25000000000000000        0.0000000000000000     
   0.0000000000000000       0.28125000000000000        0.0000000000000000     
   3.1250000000000000E-002  0.28125000000000000        0.0000000000000000     
   6.2500000000000000E-002  0.28125000000000000        0.0000000000000000     
   9.3750000000000000E-002  0.28125000000000000        0.0000000000000000     
  0.12500000000000000       0.28125000000000000        0.0000000000000000     
   0.0000000000000000       0.31250000000000000        0.0000000000000000     
   3.1250000000000000E-002  0.31250000000000000        0.0000000000000000     
   6.2500000000000000E-002  0.31250000000000000        0.0000000000000000     
   9.3750000000000000E-002  0.31250000000000000        0.0000000000000000     
  0.12500000000000000       0.31250000000000000        0.0000000000000000     
   0.0000000000000000       0.34375000000000000        0.0000000000000000     
   3.1250000000000000E-002  0.34375000000000000        0.0000000000000000     
   6.2500000000000000E-002  0.34375000000000000        0.0000000000000000     
   9.3750000000000000E-002  0.34375000000000000        0.0000000000000000     
  0.12500000000000000       0.34375000000000000        0.0000000000000000     
   0.0000000000000000       0.37500000000000000        0.0000000000000000     
   3.1250000000000000E-002  0.37500000000000000        0.0000000000000000     
   6.2500000000000000E-002  0.37500000000000000        0.0000000000000000     
   9.3750000000000000E-002  0.37500000000000000        0.0000000000000000     
  0.12500000000000000       0.37500000000000000        0.0000000000000000     
  0.12500000000000000       0.25000000000000000        0.0000000000000000     
  0.15625000000000000       0.25000000000000000        0.0000000000000000     
  0.18750000000000000       0.25000000000000000        0.0000000000000000     
  0.21875000000000000       0.25000000000000000        0.0000000000000000     
  0.25000000000000000       0.25000000000000000        0.0000000000000000     
  0.12500000000000000       0.28125000000000000        0.0000000000000000     
  0.15625000000000000       0.28125000000000000        0.0000000000000000     
  0.18750000000000000       0.28125000000000000        0.0000000000000000     
  0.21875000000000000       0.28125000000000000        0.0000000000000000     
  0.25000000000000000       0.28125000000000000        0.0000000000000000     
  0.12500000000000000       0.31250000000000000        0.0000000000000000     
  0.15625000000000000       0.31250000000000000        0.0000000000000000     
  0.18750000000000000       0.31250000000000000        0.0000000000000000     
  0.21875000000000000       0.31250000000000000        0.0000000000000000     
  0.25000000000000000       0.31250000000000000        0.0000000000000000     
  0.12500000000000000       0.34375000000000000        0.0000000000000000     
  0.15625000000000000       0.34375000000000000        0.0000000000000000     
  0.18750000000000000       0.34375000000000000        0.0000000000000000     
  0.21875000000000000       0.34375000000000000        0.0000000000000000     
  0.25000000000000000       0.34375000000000000        0.0000000000000000     
  0.12500000000000000       0.37500000000000000        0.0000000000000000     
  0.15625000000000000       0.37500000000000000        0.0000000000000000     
  0.18750000000000000       0.37500000000000000        0.0000000000000000     
  0.21875000000000000       0.37500000000000000        0.0000000000000000     
  0.25000000000000000       0.37500000000000000        0.0000000000000000     
  0.25000000000000000       0.25000000000000000        0.0000000000000000     
  0.28125000000000000       0.25000000000000000        0.0000000000000000     
  0.31250000000000000       0.25000000000000000        0.0000000000000000     
  0.34375000000000000       0.25000000000000000        0.0000000000000000     
  0.37500000000000000       0.25000000000000000        0.0000000000000000     
  0.25000000000000000       0.28125000000000000        0.0000000000000000     
  0.28125000000000000       0.28125000000000000        0.0000000000000000     
  0.31250000000000000       0.28125000000000000        0.0000000000000000     
  0.34375000000000000       0.28125000000000000        0.0000000000000000     
  0.37500000000000000       0.28125000000000000        0.0000000000000000     
  0.25000000000000000       0.31250000000000000        0.0000000000000000     
  0.28125000000000000       0.31250000000000000        0.0000000000000000     
  0.31250000000000000       0.31250000000000000        0.0000000000000000     
  0.34375000000000000       0.31250000000000000        0.0000000000000000     
  0.37500000000000000       0.31250000000000000        0.0000000000000000     
  0.25000000000000000       0.34375000000000000        0.0000000000000000     
  0.28125000000000000       0.34375000000000000        0.0000000000000000     
  0.31250000000000000       0.34375000000000000        0.0000000000000000     
  0.34375000000000000       0.34375000000000000        0.0000000000000000     
  0.37500000000000000       0.34375000000000000        0.0000000000000000     
  0.25000000000000000       0.37500000000000000        0.0000000000000000     
  0.28125000000000000       0.37500000000000000        0.0000000000000000     
  0.31250000000000000       0.37500000000000000        0.0000000000000000     
  0.34375000000000000       0.37500000000000000        0.0000000000000000     
  0.37500000000000000       0.37500000000000000        0.0000000000000000     
  0.37500000000000000       0.25000000000000000        0.0000000000000000     
  0.40625000000000000       0.25000000000000000        0.0000000000000000     
  0.43750000000000000       0.25000000000000000        0.0000000000000000     
  0.46875000000000000       0.25000000000000000        0.0000000000000000     
  0.50000000000000000       0.25000000000000000        0.0000000000000000     
  0.37500000000000000       0.28125000000000000        0.0000000000000000     
  0.40625000000000000       0.28125000000000000        0.0000000000000000     
  0.43750000000000000       0.28125000000000000        0.0000000000000000     
  0.46875000000000000       0.28125000000000000        0.0000000000000000     
  0.50000000000000000       0.28125000000000000        0.0000000000000000     
  0.37500000000000000       0.31250000000000000        0.0000000000000000     
  0.40625000000000000       0.31250000000000000        0.0000000000000000     
  0.43750000000000000       0.31250000000000000        0.0000000000000000     
  0.46875000000000000       0.31250000000000000        0.0000000000000000     
  0.50000000000000000       0.31250000000000000        0.0000000000000000     
  0.37500000000000000       0.34375000000000000        0.0000000000000000     
  0.40625000000000000       0.34375000000000000        0.0000000000000000     
  0.43750000000000000       0.34375000000000000        0.0000000000000000     
  0.46875000000000000       0.34375000000000000        0.0000000000000000     
  0.50000000000000000       0.34375000000000000        0.0000000000000000     
  0.37500000000000000       0.37500000000000000        0.0000000000000000     
  0.40625000000000000       0.37500000000000000        0.0000000000000000     
  0.43750000000000000       0.37500000000000000        0.0000000000000000     
  0.46875000000000000       0.37500000000000000        0.0000000000000000     
  0.50000000000000000       0.37500000000000000        0.0000000000000000     
  0.50000000000000000       0.25000000000000000        0.0000000000000000     
  0.53125000000000000       0.25000000000000000        0.0000000000000000     
  0.56250000000000000       0.25000000000000000        0.0000000000000000     
  0.59375000000000000       0.25000000000000000        0.0000000000000000     
  0.62500000000000000       0.25000000000000000        0.0000000000000000     
  0.50000000000000000       0.28125000000000000        0.0000000000000000     
  0.53125000000000000       0.28125000000000000        0.0000000000000000     
  0.56250000000000000       0.28125000000000000        0.0000000000000000     
  0.59375000000000000       0.28125000000000000        0.0000000000000000     
  0.62500000000000000       0.28125000000000000        0.0000000000000000     
  0.50000000000000000       0.31250000000000000        0.0000000000000000     
  0.53125000000000000       0.31250000000000000        0.0000000000000000     
  0.56250000000000000       0.31250000000000000        0.0000000000000000     
  0.59375000000000000       0.31250000000000000        0.0000000000000000     
  0.62500000000000000       0.31250000000000000        0.0000000000000000     
  0.50000000000000000       0.34375000000000000        0.0000000000000000     
  0.53125000000000000       0.34375000000000000        0.0000000000000000     
  0.56250000000000000       0.34375000000000000        0.0000000000000000     
  0.59375000000000000       0.34375000000000000        0.0000000000000000     
  0.62500000000000000       0.34375000000000000        0.0000000000000000     
  0.50000000000000000       0.37500000000000000        0.0000000000000000     
  0.53125000000000000       0.37500000000000000        0.0000000000000000     
  0.56250000000000000       0.37500000000000000        0.0000000000000000     
  0.59375000000000000       0.37500000000000000        0.0000000000000000     
  0.62500000000000000       0.37500000000000000        0.0000000000000000     
  0.62500000000000000       0.25000000000000000        0.0000000000000000     
  0.65625000000000000       0.25000000000000000        0.0000000000000000     
  0.68750000000000000       0.25000000000000000        0.0000000000000000     
  0.71875000000000000       0.25000000000000000        0.0000000000000000     
  0.75000000000000000       0.25000000000000000        0.0000000000000000     
  0.62500000000000000       0.28125000000000000        0.0000000000000000     
  0.65625000000000000       0.28125000000000000        0.0000000000000000     
  0.68750000000000000       0.28125000000000000        0.0000000000000000     
  0.71875000000000000       0.28125000000000000        0.0000000000000000     
  0.75000000000000000       0.28125000000000000        0.0000000000000000     
  0.62500000000000000       0.31250000000000000        0.0000000000000000     
  0.65625000000000000       0.31250000000000000        0.0000000000000000     
  0.68750000000000000       0.31250000000000000        0.0000000000000000     
  0.71875000000000000       0.31250000000000000        0.0000000000000000     
  0.75000000000000000       0.31250000000000000        0.0000000000000000     
  0.62500000000000000       0.34375000000000000        0.0000000000000000     
  0.65625000000000000       0.34375000000000000        0.0000000000000000     
  0.68750000000000000       0.34375000000000000        0.0000000000000000     
  0.71875000000000000       0.34375000000000000        0.0000000000000000     
  0.75000000000000000       0.34375000000000000        0.0000000000000000     
  0.62500000000000000       0.37500000000000000        0.0000000000000000     
  0.65625000000000000       0.37500000000000000        0.0000000000000000     
  0.68750000000000000       0.37500000000000000        0.0000000000000000     
  0.71875000000000000       0.37500000000000000        0.0000000000000000     
  0.75000000000000000       0.37500000000000000        0.0000000000000000     
  0.75000000000000000       0.25000000000000000        0.0000000000000000     
  0.78125000000000000       0.25000000000000000        0.0000000000000000     
  0.81250000000000000       0.25000000000000000        0.0000000000000000     
  0.84375000000000000       0.25000000000000000        0.0000000000000000     
  0.87500000000000000       0.25000000000000000        0.0000000000000000     
  0.75000000000000000       0.28125000000000000        0.0000000000000000     
  0.78125000000000000       0.28125000000000000        0.0000000000000000     
  0.81250000000000000       0.28125000000000000        0.0000000000000000     
  0.84375000000000000       0.28125000000000000        0.0000000000000000     
  0.87500000000000000       0.28125000000000000        0.0000000000000000     
  0.75000000000000000       0.31250000000000000        0.0000000000000000     
  0.78125000000000000       0.31250000000000000        0.0000000000000000     
  0.81250000000000000       0.31250000000000000        0.0000000000000000     
  0.84375000000000000       0.31250000000000000        0.0000000000000000     
  0.87500000000000000       0.31250000000000000        0.0000000000000000     
  0.75000000000000000       0.34375000000000000        0.0000000000000000     
  0.78125000000000000       0.34375000000000000        0.0000000000000000     
  0.81250000000000000       0.34375000000000000        0.0000000000000000     
  0.84375000000000000       0.34375000000000000        0.0000000000000000     
  0.87500000000000000       0.34375000000000000        0.0000000000000000     
  0.75000000000000000       0.37500000000000000        0.0000000000000000     
  0.78125000000000000       0.37500000000000000        0.0000000000000000     
  0.81250000000000000       0.37500000000000000        0.0000000000000000     
  0.84375000000000000       0.37500000000000000        0.0000000000000000     
  0.87500000000000000       0.37500000000000000        0.0000000000000000     
  0.87500000000000000       0.25000000000000000        0.0000000000000000     
  0.90625000000000000       0.25000000000000000        0.0000000000000000     
  0.93750000000000000       0.25000000000000000        0.0000000000000000     
  0.96875000000000000       0.25000000000000000        0.0000000000000000     
   1.0000000000000000       0.25000000000000000        0.0000000000000000     
  0.87500000000000000       0.28125000000000000        0.0000000000000000     
  0.90625000000000000       0.28125000000000000        0.0000000000000000     
  0.93750000000000000       0.28125000000000000        0.0000000000000000     
  0.96875000000000000       0.28125000000000000        0.0000000000000000     
   1.0000000000000000       0.28125000000000000        0.0000000000000000     
  0.87500000000000000       0.31250000000000000        0.0000000000000000     
  0.90625000000000000       0.31250000000000000        0.0000000000000000     
  0.93750000000000000       0.31250000000000000        0.0000000000000000     
  0.96875000000000000       0.31250000000000000        0.0000000000000000     
   1.0000000000000000       0.31250000000000000        0.0000000000000000     
  0.87500000000000000       0.34375000000000000        0.0000000000000000     
  0.90625000000000000       0.34375000000000000        0.0000000000000000     
  0.93750000000000000       0.34375000000000000        0.0000000000000000     
  0.96875000000000000       0.34375000000000000        0.0000000000000000     
   1.0000000000000000       0.34375000000000000        0.0000000000000000     
  0.87500000000000000       0.37500000000000000        0.0000000000000000     
  0.90625000000000000       0.37500000000000000        0.0000000000000000     
  0.93750000000000000       0.37500000000000000        0.0000000000000000     
  0.96875000000000000       0.37500000000000000        0.0000000000000000     
   1.0000000000000000       0.37500000000000000        0.0000000000000000     
   0.0000000000000000       0.37500000000000000        0.0000000000000000     
   3.1250000000000000E-002  0.37500000000000000        0.0000000000000000     
   6.2500000000000000E-002  0.37500000000000000        0.0000000000000000     
   9.3750000000000000E-002  0.37500000000000000        0.0000000000000000     
  0.12500000000000000       0.37500000000000000        0.0000000000000000     
   0.0000000000000000       0.40625000000000000        0.0000000000000000     
   3.1250000000000000E-002  0.40625000000000000        0.0000000000000000     
   6.2500000000000000E-002  0.40625000000000000        0.0000000000000000     
   9.3750000000000000E-002  0.40625000000000000        0.0000000000000000     
  0.12500000000000000       0.40625000000000000        0.0000000000000000     
   0.0000000000000000       0.43750000000000000        0.0000000000000000     
   3.1250000000000000E-002  0.43750000000000000        0.0000000000000000     
   6.2500000000000000E-002  0.43750000000000000        0.0000000000000000     
   9.3750000000000000E-002  0.43750000000000000        0.0000000000000000     
  0.12500000000000000       0.43750000000000000        0.0000000000000000     
   0.0000000000000000       0.46875000000000000        0.0000000000000000     
   3.1250000000000000E-002  0.46875000000000000        0.0000000000000000     
   6.2500000000000000E-002  0.46875000000000000        0.0000000000000000     
   9.3750000000000000E-002  0.46875000000000000        0.0000000000000000     
  0.12500000000000000       0.46875000000000000        0.0000000000000000     
   0.0000000000000000       0.50000000000000000        0.0000000000000000     
   3.1250000000000000E-002  0.50000000000000000        0.0000000000000000     
   6.2500000000000000E-002  0.50000000000000000        0.0000000000000000     
   9.3750000000000000E-002  0.50000000000000000        0.0000000000000000     
  0.12500000000000000       0.50000000000000000        0.0000000000000000     
  0.12500000000000000       0.37500000000000000        0.0000000000000000     
  0.15625000000000000       0.37500000000000000        0.0000000000000000     
  0.18750000000000000       0.37500000000000000        0.0000000000000000     
  0.21875000000000000       0.37500000000000000        0.0000000000000000     
  0.25000000000000000       0.37500000000000000        0.0000000000000000     
  0.12500000000000000       0.40625000000000000        0.0000000000000000     
  0.15625000000000000       0.40625000000000000        0.0000000000000000     
  0.18750000000000000       0.40625000000000000        0.0000000000000000     
  0.21875000000000000       0.40625000000000000        0.0000000000000000     
  0.25000000000000000       0.40625000000000000        0.0000000000000000     
  0.12500000000000000       0.43750000000000000        0.0000000000000000     
  0.15625000000000000       0.43750000000000000        0.0000000000000000     
  0.18750000000000000       0.43750000000000000        0.0000000000000000     
  0.21875000000000000       0.43750000000000000        0.0000000000000000     
  0.25000000000000000       0.43750000000000000        0.0000000000000000     
  0.12500000000000000       0.46875000000000000        0.0000000000000000     
  0.15625000000000000       0.46875000000000000        0.0000000000000000     
  0.18750000000000000       0.46875000000000000        0.0000000000000000     
  0.21875000000000000       0.46875000000000000        0.0000000000000000     
  0.25000000000000000       0.46875000000000000        0.0000000000000000     
  0.12500000000000000       0.50000000000000000        0.0000000000000000     
  0.15625000000000000       0.50000000000000000        0.0000000000000000     
  0.18750000000000000       0.50000000000000000        0.0000000000000000     
  0.21875000000000000       0.50000000000000000        0.0000000000000000     
  0.25000000000000000       0.50000000000000000        0.0000000000000000     
  0.25000000000000000       0.37500000000000000        0.0000000000000000     
  0.28125000000000000       0.37500000000000000        0.0000000000000000     
  0.31250000000000000       0.37500000000000000        0.0000000000000000     
  0.34375000000000000       0.37500000000000000        0.0000000000000000     
  0.37500000000000000       0.37500000000000000        0.0000000000000000     
  0.25000000000000000       0.40625000000000000        0.0000000000000000     
  0.28125000000000000       0.40625000000000000        0.0000000000000000     
  0.31250000000000000       0.40625000000000000        0.0000000000000000     
  0.34375000000000000       0.40625000000000000        0.0000000000000000     
  0.37500000000000000       0.40625000000000000        0.0000000000000000     
  0.25000000000000000       0.43750000000000000        0.0000000000000000     
  0.28125000000000000       0.43750000000000000        0.0000000000000000     
  0.31250000000000000       0.43750000000000000        0.0000000000000000     
  0.34375000000000000       0.43750000000000000        0.0000000000000000     
  0.37500000000000000       0.43750000000000000        0.0000000000000000     
  0.25000000000000000       0.46875000000000000        0.0000000000000000     
  0.28125000000000000       0.46875000000000000        0.0000000000000000     
  0.31250000000000000       0.46875000000000000        0.0000000000000000     
  0.34375000000000000       0.46875000000000000        0.0000000000000000     
  0.37500000000000000       0.46875000000000000        0.0000000000000000     
  0.25000000000000000       0.50000000000000000        0.0000000000000000     
  0.28125000000000000       0.50000000000000000        0.0000000000000000     
  0.31250000000000000       0.50000000000000000        0.0000000000000000     
  0.34375000000000000       0.50000000000000000        0.0000000000000000     
  0.37500000000000000       0.50000000000000000        0.0000000000000000     
  0.37500000000000000       0.37500000000000000        0.0000000000000000     
  0.40625000000000000       0.37500000000000000        0.0000000000000000     
  0.43750000000000000       0.37500000000000000        0.0000000000000000     
  0.46875000000000000       0.37500000000000000        0.0000000000000000     
  0.50000000000000000       0.37500000000000000        0.0000000000000000     
  0.37500000000000000       0.40625000000000000        0.0000000000000000     
  0.40625000000000000       0.40625000000000000        0.0000000000000000     
  0.43750000000000000       0.40625000000000000        0.0000000000000000     
  0.46875000000000000       0.40625000000000000        0.0000000000000000     
  0.50000000000000000       0.40625000000000000        0.0000000000000000     
  0.37500000000000000       0.43750000000000000        0.0000000000000000     
  0.40625000000000000       0.43750000000000000        0.0000000000000000     
  0.43750000000000000       0.43750000000000000        0.0000000000000000     
  0.46875000000000000       0.43750000000000000        0.0000000000000000     
  0.50000000000000000       0.43750000000000000        0.0000000000000000     
  0.37500000000000000       0.46875000000000000        0.0000000000000000     
  0.40625000000000000       0.46875000000000000        0.0000000000000000     
  0.43750000000000000       0.46875000000000000        0.0000000000000000     
  0.46875000000000000       0.46875000000000000        0.0000000000000000     
  0.50000000000000000       0.46875000000000000        0.0000000000000000     
  0.37500000000000000       0.50000000000000000        0.0000000000000000     
  0.40625000000000000       0.50000000000000000        0.0000000000000000     
  0.43750000000000000       0.50000000000000000        0.0000000000000000     
  0.46875000000000000       0.50000000000000000        0.0000000000000000     
  0.50000000000000000       0.50000000000000000        0.0000000000000000     
  0.50000000000000000       0.37500000000000000        0.0000000000000000     
  0.53125000000000000       0.37500000000000000        0.0000000000000000     
  0.56250000000000000       0.37500000000000000        0.0000000000000000     
  0.59375000000000000       0.37500000000000000        0.0000000000000000     
  0.62500000000000000       0.37500000000000000        0.0000000000000000     
  0.50000000000000000       0.40625000000000000        0.0000000000000000     
  0.53125000000000000       0.40625000000000000        0.0000000000000000     
  0.56250000000000000       0.40625000000000000        0.0000000000000000     
  0.59375000000000000       0.40625000000000000        0.0000000000000000     
  0.62500000000000000       0.40625000000000000        0.0000000000000000     
  0.50000000000000000       0.43750000000000000        0.0000000000000000     
  0.53125000000000000       0.43750000000000000        0.0000000000000000     
  0.56250000000000000       0.43750000000000000        0.0000000000000000     
  0.59375000000000000       0.43750000000000000        0.0000000000000000     
  0.62500000000000000       0.43750000000000000        0.0000000000000000     
  0.50000000000000000       0.46875000000000000        0.0000000000000000     
  0.53125000000000000       0.46875000000000000        0.0000000000000000     
  0.56250000000000000       0.46875000000000000        0.0000000000000000     
  0.59375000000000000       0.46875000000000000        0.0000000000000000     
  0.62500000000000000       0.46875000000000000        0.0000000000000000     
  0.50000000000000000       0.50000000000000000        0.0000000000000000     
  0.53125000000000000       0.50000000000000000        0.0000000000000000     
  0.56250000000000000       0.50000000000000000        0.0000000000000000     
  0.59375000000000000       0.50000000000000000        0.0000000000000000     
  0.62500000000000000       0.50000000000000000        0.0000000000000000     
  0.62500000000000000       0.37500000000000000        0.0000000000000000     
  0.65625000000000000       0.37500000000000000        0.0000000000000000     
  0.68750000000000000       0.37500000000000000        0.0000000000000000     
  0.71875000000000000       0.37500000000000000        0.0000000000000000     
  0.75000000000000000       0.37500000000000000        0.0000000000000000     
  0.62500000000000000       0.40625000000000000        0.0000000000000000     
  0.65625000000000000       0.40625000000000000        0.0000000000000000     
  0.68750000000000000       0.40625000000000000        0.0000000000000000     
  0.71875000000000000       0.40625000000000000        0.0000000000000000     
  0.75000000000000000       0.40625000000000000        0.0000000000000000     
  0.62500000000000000       0.43750000000000000        0.0000000000000000     
  0.65625000000000000       0.43750000000000000        0.0000000000000000     
  0.68750000000000000       0.43750000000000000        0.0000000000000000     
  0.71875000000000000       0.43750000000000000        0.0000000000000000     
  0.75000000000000000       0.43750000000000000        0.0000000000000000     
  0.62500000000000000       0.46875000000000000        0.0000000000000000     
  0.65625000000000000       0.46875000000000000        0.0000000000000000     
  0.68750000000000000       0.46875000000000000        0.0000000000000000     
  0.71875000000000000       0.46875000000000000        0.0000000000000000     
  0.75000000000000000       0.46875000000000000        0.0000000000000000     
  0.62500000000000000       0.50000000000000000        0.0000000000000000     
  0.65625000000000000       0.50000000000000000        0.0000000000000000     
  0.68750000000000000       0.50000000000000000        0.0000000000000000     
  0.71875000000000000       0.50000000000000000        0.0000000000000000     
  0.75000000000000000       0.50000000000000000        0.0000000000000000     
  0.75000000000000000       0.37500000000000000        0.0000000000000000     
  0.78125000000000000       0.37500000000000000        0.0000000000000000     
  0.81250000000000000       0.37500000000000000        0.0000000000000000     
  0.84375000000000000       0.37500000000000000        0.0000000000000000     
  0.87500000000000000       0.37500000000000000        0.0000000000000000     
  0.75000000000000000       0.40625000000000000        0.0000000000000000     
  0.78125000000000000       0.40625000000000000        0.0000000000000000     
  0.81250000000000000       0.40625000000000000        0.0000000000000000     
  0.84375000000000000       0.40625000000000000        0.0000000000000000     
  0.87500000000000000       0.40625000000000000        0.0000000000000000     
  0.75000000000000000       0.43750000000000000        0.0000000000000000     
  0.78125000000000000       0.43750000000000000        0.0000000000000000     
  0.81250000000000000       0.43750000000000000        0.0000000000000000     
  0.84375000000000000       0.43750000000000000        0.0000000000000000     
  0.87500000000000000       0.43750000000000000        0.0000000000000000     
  0.75000000000000000       0.46875000000000000        0.0000000000000000     
  0.78125000000000000       0.46875000000000000        0.0000000000000000     
  0.81250000000000000       0.46875000000000000        0.0000000000000000     
  0.84375000000000000       0.46875000000000000        0.0000000000000000     
  0.87500000000000000       0.46875000000000000        0.0000000000000000     
  0.75000000000000000       0.50000000000000000        0.0000000000000000     
  0.78125000000000000       0.50000000000000000        0.0000000000000000     
  0.81250000000000000       0.50000000000000000        0.0000000000000000     
  0.84375000000000000       0.50000000000000000        0.0000000000000000     
  0.87500000000000000       0.50000000000000000        0.0000000000000000     
  0.87500000000000000       0.37500000000000000        0.0000000000000000     
  0.90625000000000000       0.37500000000000000        0.0000000000000000     
  0.93750000000000000       0.37500000000000000        0.0000000000000000     
  0.96875000000000000       0.37500000000000000        0.0000000000000000     
   1.0000000000000000       0.37500000000000000        0.0000000000000000     
  0.87500000000000000       0.40625000000000000        0.0000000000000000     
  0.90625000000000000       0.40625000000000000        0.0000000000000000     
  0.93750000000000000       0.40625000000000000        0.0000000000000000     
  0.96875000000000000       0.40625000000000000        0.0000000000000000     
   1.0000000000000000       0.40625000000000000        0.0000000000000000     
  0.87500000000000000       0.43750000000000000        0.0000000000000000     
  0.90625000000000000       0.43750000000000000        0.0000000000000000     
  0.93750000000000000       0.43750000000000000        0.0000000000000000     
  0.96875000000000000       0.43750000000000000        0.0000000000000000     
   1.0000000000000000       0.43750000000000000        0.0000000000000000     
  0.87500000000000000       0.46875000000000000        0.0000000000000000     
  0.90625000000000000       0.46875000000000000        0.0000000000000000     
  0.93750000000000000       0.46875000000000000        0.0000000000000000     
  0.96875000000000000       0.46875000000000000        0.0000000000000000     
   1.0000000000000000       0.46875000000000000        0.0000000000000000     
  0.87500000000000000       0.50000000000000000        0.0000000000000000     
  0.90625000000000000       0.50000000000000000        0.0000000000000000     
  0.93750000000000000       0.50000000000000000        0.0000000000000000     
  0.96875000000000000       0.50000000000000000        0.0000000000000000     
   1.0000000000000000       0.50000000000000000        0.0000000000000000     
   0.0000000000000000       0.50000000000000000        0.0000000000000000     
   3.1250000000000000E-002  0.50000000000000000        0.0000000000000000     
   6.2500000000000000E-002  0.50000000000000000        0.0000000000000000     
   9.3750000000000000E-002  0.50000000000000000        0.0000000000000000     
  0.12500000000000000       0.50000000000000000        0.0000000000000000     
   0.0000000000000000       0.53125000000000000        0.0000000000000000     
   3.1250000000000000E-002  0.53125000000000000        0.0000000000000000     
   6.2500000000000000E-002  0.53125000000000000        0.0000000000000000     
   9.3750000000000000E-002  0.53125000000000000        0.0000000000000000     
  0.12500000000000000       0.53125000000000000        0.0000000000000000     
   0.0000000000000000       0.56250000000000000        0.0000000000000000     
   3.1250000000000000E-002  0.56250000000000000        0.0000000000000000     
   6.2500000000000000E-002  0.56250000000000000        0.0000000000000000     
   9.3750000000000000E-002  0.56250000000000000        0.0000000000000000     
  0.12500000000000000       0.56250000000000000        0.0000000000000000     
   0.0000000000000000       0.59375000000000000        0.0000000000000000     
   3.1250000000000000E-002  0.59375000000000000        0.0000000000000000     
   6.2500000000000000E-002  0.59375000000000000        0.0000000000000000     
   9.3750000000000000E-002  0.59375000000000000        0.0000000000000000     
  0.12500000000000000       0.59375000000000000        0.0000000000000000     
   0.0000000000000000       0.62500000000000000        0.0000000000000000     
   3.1250000000000000E-002  0.62500000000000000        0.0000000000000000     
   6.2500000000000000E-002  0.62500000000000000        0.0000000000000000     
   9.3750000000000000E-002  0.62500000000000000        0.0000000000000000     
  0.12500000000000000       0.62500000000000000        0.0000000000000000     
  0.12500000000000000       0.50000000000000000        0.0000000000000000     
  0.15625000000000000       0.50000000000000000        0.0000000000000000     
  0.18750000000000000       0.50000000000000000        0.0000000000000000     
  0.21875000000000000       0.50000000000000000        0.0000000000000000     
  0.25000000000000000       0.50000000000000000        0.0000000000000000     
  0.12500000000000000       0.53125000000000000        0.0000000000000000     
  0.15625000000000000       0.53125000000000000        0.0000000000000000     
  0.18750000000000000       0.53125000000000000        0.0000000000000000     
  0.21875000000000000       0.53125000000000000        0.0000000000000000     
  0.25000000000000000       0.53125000000000000        0.0000000000000000     
  0.12500000000000000       0.56250000000000000        0.0000000000000000     
  0.15625000000000000       0.56250000000000000        0.0000000000000000     
  0.18750000000000000       0.56250000000000000        0.0000000000000000     
  0.21875000000000000       0.56250000000000000        0.0000000000000000     
  0.25000000000000000       0.56250000000000000        0.0000000000000000     
  0.12500000000000000       0.59375000000000000        0.0000000000000000     
  0.15625000000000000       0.59375000000000000        0.0000000000000000     
  0.18750000000000000       0.59375000000000000        0.0000000000000000     
  0.21875000000000000       0.59375000000000000        0.0000000000000000     
  0.25000000000000000       0.59375000000000000        0.0000000000000000     
  0.12500000000000000       0.62500000000000000        0.0000000000000000     
  0.15625000000000000       0.62500000000000000        0.0000000000000000     
  0.18750000000000000       0.62500000000000000        0.0000000000000000     
  0.21875000000000000       0.62500000000000000        0.0000000000000000     
  0.25000000000000000       0.62500000000000000        0.0000000000000000     
  0.25000000000000000       0.50000000000000000        0.0000000000000000     
  0.28125000000000000       0.50000000000000000        0.0000000000000000     
  0.31250000000000000       0.50000000000000000        0.0000000000000000     
  0.34375000000000000       0.50000000000000000        0.0000000000000000     
  0.37500000000000000       0.50000000000000000        0.0000000000000000     
  0.25000000000000000       0.53125000000000000        0.0000000000000000     
  0.28125000000000000       0.53125000000000000        0.0000000000000000     
  0.31250000000000000       0.53125000000000000        0.0000000000000000     
  0.34375000000000000       0.53125000000000000        0.0000000000000000     
  0.37500000000000000       0.53125000000000000        0.0000000000000000     
  0.25000000000000000       0.56250000000000000        0.0000000000000000     
  0.28125000000000000       0.56250000000000000        0.0000000000000000     
  0.31250000000000000       0.56250000000000000        0.0000000000000000     
  0.34375000000000000       0.56250000000000000        0.0000000000000000     
  0.37500000000000000       0.56250000000000000        0.0000000000000000     
  0.25000000000000000       0.59375000000000000        0.0000000000000000     
  0.28125000000000000       0.59375000000000000        0.0000000000000000     
  0.31250000000000000       0.59375000000000000        0.0000000000000000     
  0.34375000000000000       0.59375000000000000        0.0000000000000000     
  0.37500000000000000       0.59375000000000000        0.0000000000000000     
  0.25000000000000000       0.62500000000000000        0.0000000000000000     
  0.28125000000000000       0.62500000000000000        0.0000000000000000     
  0.31250000000000000       0.62500000000000000        0.0000000000000000     
  0.34375000000000000       0.62500000000000000        0.0000000000000000     
  0.37500000000000000       0.62500000000000000        0.0000000000000000     
  0.37500000000000000       0.50000000000000000        0.0000000000000000     
  0.40625000000000000       0.50000000000000000        0.0000000000000000     
  0.43750000000000000       0.50000000000000000        0.0000000000000000     
  0.46875000000000000       0.50000000000000000        0.0000000000000000     
  0.50000000000000000       0.50000000000000000        0.0000000000000000     
  0.37500000000000000       0.53125000000000000        0.0000000000000000     
  0.40625000000000000       0.53125000000000000        0.0000000000000000     
  0.43750000000000000       0.53125000000000000        0.0000000000000000     
  0.46875000000000000       0.53125000000000000        0.0000000000000000     
  0.50000000000000000       0.53125000000000000        0.0000000000000000     
  0.37500000000000000       0.56250000000000000        0.0000000000000000     
  0.40625000000000000       0.56250000000000000        0.0000000000000000     
  0.43750000000000000       0.56250000000000000        0.0000000000000000     
  0.46875000000000000       0.56250000000000000        0.0000000000000000     
  0.50000000000000000       0.56250000000000000        0.0000000000000000     
  0.37500000000000000       0.59375000000000000        0.0000000000000000     
  0.40625000000000000       0.59375000000000000        0.0000000000000000     
  0.43750000000000000       0.59375000000000000        0.0000000000000000     
  0.46875000000000000       0.59375000000000000        0.0000000000000000     
  0.50000000000000000       0.59375000000000000        0.0000000000000000     
  0.37500000000000000       0.62500000000000000        0.0000000000000000     
  0.40625000000000000       0.62500000000000000        0.0000000000000000     
  0.43750000000000000       0.62500000000000000        0.0000000000000000     
  0.46875000000000000       0.62500000000000000        0.0000000000000000     
  0.50000000000000000       0.62500000000000000        0.0000000000000000     
  0.50000000000000000       0.50000000000000000        0.0000000000000000     
  0.53125000000000000       0.50000000000000000        0.0000000000000000     
  0.56250000000000000       0.50000000000000000        0.0000000000000000     
  0.59375000000000000       0.50000000000000000        0.0000000000000000     
  0.62500000000000000       0.50000000000000000        0.0000000000000000     
  0.50000000000000000       0.53125000000000000        0.0000000000000000     
  0.53125000000000000       0.53125000000000000        0.0000000000000000     
  0.56250000000000000       0.53125000000000000        0.0000000000000000     
  0.59375000000000000       0.53125000000000000        0.0000000000000000     
  0.62500000000000000       0.53125000000000000        0.0000000000000000     
  0.50000000000000000       0.56250000000000000        0.0000000000000000     
  0.53125000000000000       0.56250000000000000        0.0000000000000000     
  0.56250000000000000       0.56250000000000000        0.0000000000000000     
  0.59375000000000000       0.56250000000000000        0.0000000000000000     
  0.62500000000000000       0.56250000000000000        0.0000000000000000     
  0.50000000000000000       0.59375000000000000        0.0000000000000000     
  0.53125000000000000       0.59375000000000000        0.0000000000000000     
  0.56250000000000000       0.59375000000000000        0.0000000000000000     
  0.59375000000000000       0.59375000000000000        0.0000000000000000     
  0.62500000000000000       0.59375000000000000        0.0000000000000000     
  0.50000000000000000       0.62500000000000000        0.0000000000000000     
  0.53125000000000000       0.62500000000000000        0.0000000000000000     
  0.56250000000000000       0.62500000000000000        0.0000000000000000     
  0.59375000000000000       0.62500000000000000        0.0000000000000000     
  0.62500000000000000       0.62500000000000000        0.0000000000000000     
  0.62500000000000000       0.50000000000000000        0.0000000000000000     
  0.65625000000000000       0.50000000000000000        0.0000000000000000     
  0.68750000000000000       0.50000000000000000        0.0000000000000000     
  0.71875000000000000       0.50000000000000000        0.0000000000000000     
  0.75000000000000000       0.50000000000000000        0.0000000000000000     
  0.62500000000000000       0.53125000000000000        0.0000000000000000     
  0.65625000000000000       0.53125000000000000        0.0000000000000000     
  0.68750000000000000       0.53125000000000000        0.0000000000000000     
  0.71875000000000000       0.53125000000000000        0.0000000000000000     
  0.75000000000000000       0.53125000000000000        0.0000000000000000     
  0.62500000000000000       0.56250000000000000        0.0000000000000000     
  0.65625000000000000       0.56250000000000000        0.0000000000000000     
  0.68750000000000000       0.56250000000000000        0.0000000000000000     
  0.71875000000000000       0.56250000000000000        0.0000000000000000     
  0.75000000000000000       0.56250000000000000        0.0000000000000000     
  0.62500000000000000       0.59375000000000000        0.0000000000000000     
  0.65625000000000000       0.59375000000000000        0.0000000000000000     
  0.68750000000000000       0.59375000000000000        0.0000000000000000     
  0.71875000000000000       0.59375000000000000        0.0000000000000000     
  0.75000000000000000       0.59375000000000000        0.0000000000000000     
  0.62500000000000000       0.62500000000000000        0.0000000000000000     
  0.65625000000000000       0.62500000000000000        0.0000000000000000     
  0.68750000000000000       0.62500000000000000        0.0000000000000000     
  0.71875000000000000       0.62500000000000000        0.0000000000000000     
  0.75000000000000000       0.62500000000000000        0.0000000000000000     
  0.75000000000000000       0.50000000000000000        0.0000000000000000     
  0.78125000000000000       0.50000000000000000        0.0000000000000000     
  0.81250000000000000       0.50000000000000000        0.0000000000000000     
  0.84375000000000000       0.50000000000000000        0.0000000000000000     
  0.87500000000000000       0.50000000000000000        0.0000000000000000     
  0.75000000000000000       0.53125000000000000        0.0000000000000000     
  0.78125000000000000       0.53125000000000000        0.0000000000000000     
  0.81250000000000000       0.53125000000000000        0.0000000000000000     
  0.84375000000000000       0.53125000000000000        0.0000000000000000     
  0.87500000000000000       0.53125000000000000        0.0000000000000000     
  0.75000000000000000       0.56250000000000000        0.0000000000000000     
  0.78125000000000000       0.56250000000000000        0.0000000000000000     
  0.81250000000000000       0.56250000000000000        0.0000000000000000     
  0.84375000000000000       0.56250000000000000        0.0000000000000000     
  0.87500000000000000       0.56250000000000000        0.0000000000000000     
  0.75000000000000000       0.59375000000000000        0.0000000000000000     
  0.78125000000000000       0.59375000000000000        0.0000000000000000     
  0.81250000000000000       0.59375000000000000        0.0000000000000000     
  0.84375000000000000       0.59375000000000000        0.0000000000000000     
  0.87500000000000000       0.59375000000000000        0.0000000000000000     
  0.75000000000000000       0.62500000000000000        0.0000000000000000     
  0.78125000000000000       0.62500000000000000        0.0000000000000000     
  0.81250000000000000       0.62500000000000000        0.0000000000000000     
  0.84375000000000000       0.62500000000000000        0.0000000000000000     
  0.87500000000000000       0.62500000000000000        0.0000000000000000     
  0.87500000000000000       0.50000000000000000        0.0000000000000000     
  0.90625000000000000       0.50000000000000000        0.0000000000000000     
  0.93750000000000000       0.50000000000000000        0.0000000000000000     
  0.96875000000000000       0.50000000000000000        0.0000000000000000     
   1.0000000000000000       0.50000000000000000        0.0000000000000000     
  0.87500000000000000       0.53125000000000000        0.0000000000000000     
  0.90625000000000000       0.53125000000000000        0.0000000000000000     
  0.93750000000000000       0.53125000000000000        0.0000000000000000     
  0.96875000000000000       0.53125000000000000        0.0000000000000000     
   1.0000000000000000       0.53125000000000000        0.0000000000000000     
  0.87500000000000000       0.56250000000000000        0.0000000000000000     
  0.90625000000000000       0.56250000000000000        0.0000000000000000     
  0.93750000000000000       0.56250000000000000        0.0000000000000000     
  0.96875000000000000       0.56250000000000000        0.0000000000000000     
   1.0000000000000000       0.56250000000000000        0.0000000000000000     
  0.87500000000000000       0.59375000000000000        0.0000000000000000     
  0.90625000000000000       0.59375000000000000        0.0000000000000000     
  0.93750000000000000       0.59375000000000000        0.0000000000000000     
  0.96875000000000000       0.59375000000000000        0.0000000000000000     
   1.0000000000000000       0.59375000000000000        0.0000000000000000     
  0.87500000000000000       0.62500000000000000        0.0000000000000000     
  0.90625000000000000       0.62500000000000000        0.0000000000000000     
  0.93750000000000000       0.62500000000000000        0.0000000000000000     
  0.96875000000000000       0.62500000000000000        0.0000000000000000     
   1.0000000000000000       0.62500000000000000        0.0000000000000000     
   0.0000000000000000       0.62500000000000000        0.0000000000000000     
   3.1250000000000000E-002  0.62500000000000000        0.0000000000000000     
   6.2500000000000000E-002  0.62500000000000000        0.0000000000000000     
   9.3750000000000000E-002  0.62500000000000000        0.0000000000000000     
  0.12500000000000000       0.62500000000000000        0.0000000000000000     
   0.0000000000000000       0.65625000000000000        0.0000000000000000     
   3.1250000000000000E-002  0.65625000000000000        0.0000000000000000     
   6.2500000000000000E-002  0.65625000000000000        0.0000000000000000     
   9.3750000000000000E-002  0.65625000000000000        0.0000000000000000     
  0.12500000000000000       0.65625000000000000        0.0000000000000000     
   0.0000000000000000       0.68750000000000000        0.0000000000000000     
   3.1250000000000000E-002  0.68750000000000000        0.0000000000000000     
   6.2500000000000000E-002  0.68750000000000000        0.0000000000000000     
   9.3750000000000000E-002  0.68750000000000000        0.0000000000000000     
  0.12500000000000000       0.68750000000000000        0.0000000000000000     
   0.0000000000000000       0.71875000000000000        0.0000000000000000     
   3.1250000000000000E-002  0.71875000000000000        0.0000000000000000     
   6.2500000000000000E-002  0.71875000000000000        0.0000000000000000     
   9.3750000000000000E-002  0.71875000000000000        0.0000000000000000     
  0.12500000000000000       0.71875000000000000        0.0000000000000000     
   0.0000000000000000       0.75000000000000000        0.0000000000000000     
   3.1250000000000000E-002  0.75000000000000000        0.0000000000000000     
   6.2500000000000000E-002  0.75000000000000000        0.0000000000000000     
   9.3750000000000000E-002  0.75000000000000000        0.0000000000000000     
  0.12500000000000000       0.75000000000000000        0.0000000000000000     
  0.12500000000000000       0.62500000000000000        0.0000000000000000     
  0.15625000000000000       0.62500000000000000        0.0000000000000000     
  0.18750000000000000       0.62500000000000000        0.0000000000000000     
  0.21875000000000000       0.62500000000000000        0.0000000000000000     
  0.25000000000000000       0.62500000000000000        0.0000000000000000     
  0.12500000000000000       0.65625000000000000        0.0000000000000000     
  0.15625000000000000       0.65625000000000000        0.0000000000000000     
  0.18750000000000000       0.65625000000000000        0.0000000000000000     
  0.21875000000000000       0.65625000000000000        0.0000000000000000     
  0.25000000000000000       0.65625000000000000        0.0000000000000000     
  0.12500000000000000       0.68750000000000000        0.0000000000000000     
  0.15625000000000000       0.68750000000000000        0.0000000000000000     
  0.18750000000000000       0.68750000000000000        0.0000000000000000     
  0.21875000000000000       0.68750000000000000        0.0000000000000000     
  0.25000000000000000       0.68750000000000000        0.0000000000000000     
  0.12500000000000000       0.71875000000000000        0.0000000000000000     
  0.15625000000000000       0.71875000000000000        0.0000000000000000     
  0.18750000000000000       0.71875000000000000        0.0000000000000000     
  0.21875000000000000       0.71875000000000000        0.0000000000000000     
  0.25000000000000000       0.71875000000000000        0.0000000000000000     
  0.12500000000000000       0.75000000000000000        0.0000000000000000     
  0.15625000000000000       0.75000000000000000        0.0000000000000000     
  0.18750000000000000       0.75000000000000000        0.0000000000000000     
  0.21875000000000000       0.75000000000000000        0.0000000000000000     
  0.25000000000000000       0.75000000000000000        0.0000000000000000     
  0.25000000000000000       0.62500000000000000        0.0000000000000000     
  0.28125000000000000       0.62500000000000000        0.0000000000000000     
  0.31250000000000000       0.62500000000000000        0.0000000000000000     
  0.34375000000000000       0.62500000000000000        0.0000000000000000     
  0.37500000000000000       0.62500000000000000        0.0000000000000000     
  0.25000000000000000       0.65625000000000000        0.0000000000000000     
  0.28125000000000000       0.65625000000000000        0.0000000000000000     
  0.31250000000000000       0.65625000000000000        0.0000000000000000     
  0.34375000000000000       0.65625000000000000        0.0000000000000000     
  0.37500000000000000       0.65625000000000000        0.0000000000000000     
  0.25000000000000000       0.68750000000000000        0.0000000000000000     
  0.28125000000000000       0.68750000000000000        0.0000000000000000     
  0.31250000000000000       0.68750000000000000        0.0000000000000000     
  0.34375000000000000       0.68750000000000000        0.0000000000000000     
  0.37500000000000000       0.68750000000000000        0.0000000000000000     
  0.25000000000000000       0.71875000000000000        0.0000000000000000     
  0.28125000000000000       0.71875000000000000        0.0000000000000000     
  0.31250000000000000       0.71875000000000000        0.0000000000000000     
  0.34375000000000000       0.71875000000000000        0.0000000000000000     
  0.37500000000000000       0.71875000000000000        0.0000000000000000     
  0.25000000000000000       0.75000000000000000        0.0000000000000000     
  0.28125000000000000       0.75000000000000000        0.0000000000000000     
  0.31250000000000000       0.75000000000000000        0.0000000000000000     
  0.34375000000000000       0.75000000000000000        0.0000000000000000     
  0.37500000000000000       0.75000000000000000        0.0000000000000000     
  0.37500000000000000       0.62500000000000000        0.0000000000000000     
  0.40625000000000000       0.62500000000000000        0.0000000000000000     
  0.43750000000000000       0.62500000000000000        0.0000000000000000     
  0.46875000000000000       0.62500000000000000        0.0000000000000000     
  0.50000000000000000       0.62500000000000000        0.0000000000000000     
  0.37500000000000000       0.65625000000000000        0.0000000000000000     
  0.40625000000000000       0.65625000000000000        0.0000000000000000     
  0.43750000000000000       0.65625000000000000        0.0000000000000000     
  0.46875000000000000       0.65625000000000000        0.0000000000000000     
  0.50000000000000000       0.65625000000000000        0.0000000000000000     
  0.37500000000000000       0.68750000000000000        0.0000000000000000     
  0.40625000000000000       0.68750000000000000        0.0000000000000000     
  0.43750000000000000       0.68750000000000000        0.0000000000000000     
  0.46875000000000000       0.68750000000000000        0.0000000000000000     
  0.50000000000000000       0.68750000000000000        0.0000000000000000     
  0.37500000000000000       0.71875000000000000        0.0000000000000000     
  0.40625000000000000       0.71875000000000000        0.0000000000000000     
  0.43750000000000000       0.71875000000000000        0.0000000000000000     
  0.46875000000000000       0.71875000000000000        0.0000000000000000     
  0.50000000000000000       0.71875000000000000        0.0000000000000000     
  0.37500000000000000       0.75000000000000000        0.0000000000000000     
  0.40625000000000000       0.75000000000000000        0.0000000000000000     
  0.43750000000000000       0.75000000000000000        0.0000000000000000     
  0.46875000000000000       0.75000000000000000        0.0000000000000000     
  0.50000000000000000       0.75000000000000000        0.0000000000000000     
  0.50000000000000000       0.62500000000000000        0.0000000000000000     
  0.53125000000000000       0.62500000000000000        0.0000000000000000     
  0.56250000000000000       0.62500000000000000        0.0000000000000000     
  0.59375000000000000       0.62500000000000000        0.0000000000000000     
  0.62500000000000000       0.62500000000000000        0.0000000000000000     
  0.50000000000000000       0.65625000000000000        0.0000000000000000     
  0.53125000000000000       0.65625000000000000        0.0000000000000000     
  0.56250000000000000       0.65625000000000000        0.0000000000000000     
  0.59375000000000000       0.65625000000000000        0.0000000000000000     
  0.62500000000000000       0.65625000000000000        0.0000000000000000     
  0.50000000000000000       0.68750000000000000        0.0000000000000000     
  0.53125000000000000       0.68750000000000000        0.0000000000000000     
  0.56250000000000000       0.68750000000000000        0.0000000000000000     
  0.59375000000000000       0.68750000000000000        0.0000000000000000     
  0.62500000000000000       0.68750000000000000        0.0000000000000000     
  0.50000000000000000       0.71875000000000000        0.0000000000000000     
  0.53125000000000000       0.71875000000000000        0.0000000000000000     
  0.56250000000000000       0.71875000000000000        0.0000000000000000     
  0.59375000000000000       0.71875000000000000        0.0000000000000000     
  0.62500000000000000       0.71875000000000000        0.0000000000000000     
  0.50000000000000000       0.75000000000000000        0.0000000000000000     
  0.53125000000000000       0.75000000000000000        0.0000000000000000     
  0.56250000000000000       0.75000000000000000        0.0000000000000000     
  0.59375000000000000       0.75000000000000000        0.0000000000000000     
  0.62500000000000000       0.75000000000000000        0.0000000000000000     
  0.62500000000000000       0.62500000000000000        0.0000000000000000     
  0.65625000000000000       0.62500000000000000        0.0000000000000000     
  0.68750000000000000       0.62500000000000000        0.0000000000000000     
  0.71875000000000000       0.62500000000000000        0.0000000000000000     
  0.75000000000000000       0.62500000000000000        0.0000000000000000     
  0.62500000000000000       0.65625000000000000        0.0000000000000000     
  0.65625000000000000       0.65625000000000000        0.0000000000000000     
  0.68750000000000000       0.65625000000000000        0.0000000000000000     
  0.71875000000000000       0.65625000000000000        0.0000000000000000     
  0.75000000000000000       0.65625000000000000        0.0000000000000000     
  0.62500000000000000       0.68750000000000000        0.0000000000000000     
  0.65625000000000000       0.68750000000000000        0.0000000000000000     
  0.68750000000000000       0.68750000000000000        0.0000000000000000     
  0.71875000000000000       0.68750000000000000        0.0000000000000000     
  0.75000000000000000       0.68750000000000000        0.0000000000000000     
  0.62500000000000000       0.71875000000000000        0.0000000000000000     
  0.65625000000000000       0.71875000000000000        0.0000000000000000     
  0.68750000000000000       0.71875000000000000        0.0000000000000000     
  0.71875000000000000       0.71875000000000000        0.0000000000000000     
  0.75000000000000000       0.71875000000000000        0.0000000000000000     
  0.62500000000000000       0.75000000000000000        0.0000000000000000     
  0.65625000000000000       0.75000000000000000        0.0000000000000000     
  0.68750000000000000       0.75000000000000000        0.0000000000000000     
  0.71875000000000000       0.75000000000000000        0.0000000000000000     
  0.75000000000000000       0.75000000000000000        0.0000000000000000     
  0.75000000000000000       0.62500000000000000        0.0000000000000000     
  0.78125000000000000       0.62500000000000000        0.0000000000000000     
  0.81250000000000000       0.62500000000000000        0.0000000000000000     
  0.84375000000000000       0.62500000000000000        0.0000000000000000     
  0.87500000000000000       0.62500000000000000        0.0000000000000000     
  0.75000000000000000       0.65625000000000000        0.0000000000000000     
  0.78125000000000000       0.65625000000000000        0.0000000000000000     
  0.81250000000000000       0.65625000000000000        0.0000000000000000     
  0.84375000000000000       0.65625000000000000        0.0000000000000000     
  0.87500000000000000       0.65625000000000000        0.0000000000000000     
  0.75000000000000000       0.68750000000000000        0.0000000000000000     
  0.78125000000000000       0.68750000000000000        0.0000000000000000     
  0.81250000000000000       0.68750000000000000        0.0000000000000000     
  0.84375000000000000       0.68750000000000000        0.0000000000000000     
  0.87500000000000000       0.68750000000000000        0.0000000000000000     
  0.75000000000000000       0.71875000000000000        0.0000000000000000     
  0.78125000000000000       0.71875000000000000        0.0000000000000000     
  0.81250000000000000       0.71875000000000000        0.0000000000000000     
  0.84375000000000000       0.71875000000000000        0.0000000000000000     
  0.87500000000000000       0.71875000000000000        0.0000000000000000     
  0.75000000000000000       0.75000000000000000        0.0000000000000000     
  0.78125000000000000       0.75000000000000000        0.0000000000000000     
  0.81250000000000000       0.75000000000000000        0.0000000000000000     
  0.84375000000000000       0.75000000000000000        0.0000000000000000     
  0.87500000000000000       0.75000000000000000        0.0000000000000000     
  0.87500000000000000       0.62500000000000000        0.0000000000000000     
  0.90625000000000000       0.62500000000000000        0.0000000000000000     
  0.93750000000000000       0.62500000000000000        0.0000000000000000     
  0.96875000000000000       0.62500000000000000        0.0000000000000000     
   1.0000000000000000       0.62500000000000000        0.0000000000000000     
  0.87500000000000000       0.65625000000000000        0.0000000000000000     
  0.90625000000000000       0.65625000000000000        0.0000000000000000     
  0.93750000000000000       0.65625000000000000        0.0000000000000000     
  0.96875000000000000       0.65625000000000000        0.0000000000000000     
   1.0000000000000000       0.65625000000000000        0.0000000000000000     
  0.87500000000000000       0.68750000000000000        0.0000000000000000     
  0.90625000000000000       0.68750000000000000        0.0000000000000000     
  0.93750000000000000       0.68750000000000000        0.0000000000000000     
  0.96875000000000000       0.68750000000000000        0.0000000000000000     
   1.0000000000000000       0.68750000000000000        0.0000000000000000     
  0.87500000000000000       0.71875000000000000        0.0000000000000000     
  0.90625000000000000       0.71875000000000000        0.0000000000000000     
  0.93750000000000000       0.71875000000000000        0.0000000000000000     
  0.96875000000000000       0.71875000000000000        0.0000000000000000     
   1.0000000000000000       0.71875000000000000        0.0000000000000000     
  0.87500000000000000       0.75000000000000000        0.0000000000000000     
  0.90625000000000000       0.75000000000000000        0.0000000000000000     
  0.93750000000000000       0.75000000000000000        0.0000000000000000     
  0.96875000000000000       0.75000000000000000        0.0000000000000000     
   1.0000000000000000       0.75000000000000000        0.0000000000000000     
   0.0000000000000000       0.75000000000000000        0.0000000000000000     
   3.1250000000000000E-002  0.75000000000000000        0.0000000000000000     
   6.2500000000000000E-002  0.75000000000000000        0.0000000000000000     
   9.3750000000000000E-002  0.75000000000000000        0.0000000000000000     
  0.12500000000000000       0.75000000000000000        0.0000000000000000     
   0.0000000000000000       0.78125000000000000        0.0000000000000000     
   3.1250000000000000E-002  0.78125000000000000        0.0000000000000000     
   6.2500000000000000E-002  0.78125000000000000        0.0000000000000000     
   9.3750000000000000E-002  0.78125000000000000        0.0000000000000000     
  0.12500000000000000       0.78125000000000000        0.0000000000000000     
   0.0000000000000000       0.81250000000000000        0.0000000000000000     
   3.1250000000000000E-002  0.81250000000000000        0.0000000000000000     
   6.2500000000000000E-002  0.81250000000000000        0.0000000000000000     
   9.3750000000000000E-002  0.81250000000000000        0.0000000000000000     
  0.12500000000000000       0.81250000000000000        0.0000000000000000     
   0.0000000000000000       0.84375000000000000        0.0000000000000000     
   3.1250000000000000E-002  0.84375000000000000        0.0000000000000000     
   6.2500000000000000E-002  0.84375000000000000        0.0000000000000000     
   9.3750000000000000E-002  0.84375000000000000        0.0000000000000000     
  0.12500000000000000       0.84375000000000000        0.0000000000000000     
   0.0000000000000000       0.87500000000000000        0.0000000000000000     
   3.1250000000000000E-002  0.87500000000000000        0.0000000000000000     
   6.2500000000000000E-002  0.87500000000000000        0.0000000000000000     
   9.3750000000000000E-002  0.87500000000000000        0.0000000000000000     
  0.12500000000000000       0.87500000000000000        0.0000000000000000     
  0.12500000000000000       0.75000000000000000        0.0000000000000000     
  0.15625000000000000       0.75000000000000000        0.0000000000000000     
  0.18750000000000000       0.75000000000000000        0.0000000000000000     
  0.21875000000000000       0.75000000000000000        0.0000000000000000     
  0.25000000000000000       0.75000000000000000        0.0000000000000000     
  0.12500000000000000       0.78125000000000000        0.0000000000000000     
  0.15625000000000000       0.78125000000000000        0.0000000000000000     
  0.18750000000000000       0.78125000000000000        0.0000000000000000     
  0.21875000000000000       0.78125000000000000        0.0000000000000000     
  0.25000000000000000       0.78125000000000000        0.0000000000000000     
  0.12500000000000000       0.81250000000000000        0.0000000000000000     
  0.15625000000000000       0.81250000000000000        0.0000000000000000     
  0.18750000000000000       0.81250000000000000        0.0000000000000000     
  0.21875000000000000       0.81250000000000000        0.0000000000000000     
  0.25000000000000000       0.81250000000000000        0.0000000000000000     
  0.12500000000000000       0.84375000000000000        0.0000000000000000     
  0.15625000000000000       0.84375000000000000        0.0000000000000000     
  0.18750000000000000       0.84375000000000000        0.0000000000000000     
  0.21875000000000000       0.84375000000000000        0.0000000000000000     
  0.25000000000000000       0.84375000000000000        0.0000000000000000     
  0.12500000000000000       0.87500000000000000        0.0000000000000000     
  0.15625000000000000       0.87500000000000000        0.0000000000000000     
  0.18750000000000000       0.87500000000000000        0.0000000000000000     
  0.21875000000000000       0.87500000000000000        0.0000000000000000     
  0.25000000000000000       0.87500000000000000        0.0000000000000000     
  0.25000000000000000       0.75000000000000000        0.0000000000000000     
  0.28125000000000000       0.75000000000000000        0.0000000000000000     
  0.31250000000000000       0.75000000000000000        0.0000000000000000     
  0.34375000000000000       0.75000000000000000        0.0000000000000000     
  0.37500000000000000       0.75000000000000000        0.0000000000000000     
  0.25000000000000000       0.78125000000000000        0.0000000000000000     
  0.28125000000000000       0.78125000000000000        0.0000000000000000     
  0.31250000000000000       0.78125000000000000        0.0000000000000000     
  0.34375000000000000       0.78125000000000000        0.0000000000000000     
  0.37500000000000000       0.78125000000000000        0.0000000000000000     
  0.25000000000000000       0.81250000000000000        0.0000000000000000     
  0.28125000000000000       0.81250000000000000        0.0000000000000000     
  0.31250000000000000       0.81250000000000000        0.0000000000000000     
  0.34375000000000000       0.81250000000000000        0.0000000000000000     
  0.37500000000000000       0.81250000000000000        0.0000000000000000     
  0.25000000000000000       0.84375000000000000        0.0000000000000000     
  0.28125000000000000       0.84375000000000000        0.0000000000000000     
  0.31250000000000000       0.84375000000000000        0.0000000000000000     
  0.34375000000000000       0.84375000000000000        0.0000000000000000     
  0.37500000000000000       0.84375000000000000        0.0000000000000000     
  0.25000000000000000       0.87500000000000000        0.0000000000000000     
  0.28125000000000000       0.87500000000000000        0.0000000000000000     
  0.31250000000000000       0.87500000000000000        0.0000000000000000     
  0.34375000000000000       0.87500000000000000        0.0000000000000000     
  0.37500000000000000       0.87500000000000000        0.0000000000000000     
  0.37500000000000000       0.75000000000000000        0.0000000000000000     
  0.40625000000000000       0.75000000000000000        0.0000000000000000     
  0.43750000000000000       0.75000000000000000        0.0000000000000000     
  0.46875000000000000       0.75000000000000000        0.0000000000000000     
  0.50000000000000000       0.75000000000000000        0.0000000000000000     
  0.37500000000000000       0.78125000000000000        0.0000000000000000     
  0.40625000000000000       0.78125000000000000        0.0000000000000000     
  0.43750000000000000       0.78125000000000000        0.0000000000000000     
  0.46875000000000000       0.78125000000000000        0.0000000000000000     
  0.50000000000000000       0.78125000000000000        0.0000000000000000     
  0.37500000000000000       0.81250000000000000        0.0000000000000000     
  0.40625000000000000       0.81250000000000000        0.0000000000000000     
  0.43750000000000000       0.81250000000000000        0.0000000000000000     
  0.46875000000000000       0.81250000000000000        0.0000000000000000     
  0.50000000000000000       0.81250000000000000        0.0000000000000000     
  0.37500000000000000       0.84375000000000000        0.0000000000000000     
  0.40625000000000000       0.84375000000000000        0.0000000000000000     
  0.43750000000000000       0.84375000000000000        0.0000000000000000     
  0.46875000000000000       0.84375000000000000        0.0000000000000000     
  0.50000000000000000       0.84375000000000000        0.0000000000000000     
  0.37500000000000000       0.87500000000000000        0.0000000000000000     
  0.40625000000000000       0.87500000000000000        0.0000000000000000     
  0.43750000000000000       0.87500000000000000        0.0000000000000000     
  0.46875000000000000       0.87500000000000000        0.0000000000000000     
  0.50000000000000000       0.87500000000000000        0.0000000000000000     
  0.50000000000000000       0.75000000000000000        0.0000000000000000     
  0.53125000000000000       0.75000000000000000        0.0000000000000000     
  0.56250000000000000       0.75000000000000000        0.0000000000000000     
  0.59375000000000000       0.75000000000000000        0.0000000000000000     
  0.62500000000000000       0.75000000000000000        0.0000000000000000     
  0.50000000000000000       0.78125000000000000        0.0000000000000000     
  0.53125000000000000       0.78125000000000000        0.0000000000000000     
  0.56250000000000000       0.78125000000000000        0.0000000000000000     
  0.59375000000000000       0.78125000000000000        0.0000000000000000     
  0.62500000000000000       0.78125000000000000        0.0000000000000000     
  0.50000000000000000       0.81250000000000000        0.0000000000000000     
  0.53125000000000000       0.81250000000000000        0.0000000000000000     
  0.56250000000000000       0.81250000000000000        0.0000000000000000     
  0.59375000000000000       0.81250000000000000        0.0000000000000000     
  0.62500000000000000       0.81250000000000000        0.0000000000000000     
  0.50000000000000000       0.84375000000000000        0.0000000000000000     
  0.53125000000000000       0.84375000000000000        0.0000000000000000     
  0.56250000000000000       0.84375000000000000        0.0000000000000000     
  0.59375000000000000       0.84375000000000000        0.0000000000000000     
  0.62500000000000000       0.84375000000000000        0.0000000000000000     
  0.50000000000000000       0.87500000000000000        0.0000000000000000     
  0.53125000000000000       0.87500000000000000        0.0000000000000000     
  0.56250000000000000       0.87500000000000000        0.0000000000000000     
  0.59375000000000000       0.87500000000000000        0.0000000000000000     
  0.62500000000000000       0.87500000000000000        0.0000000000000000     
  0.62500000000000000       0.75000000000000000        0.0000000000000000     
  0.65625000000000000       0.75000000000000000        0.0000000000000000     
  0.68750000000000000       0.75000000000000000        0.0000000000000000     
  0.71875000000000000       0.75000000000000000        0.0000000000000000     
  0.75000000000000000       0.75000000000000000        0.0000000000000000     
  0.62500000000000000       0.78125000000000000        0.0000000000000000     
  0.65625000000000000       0.78125000000000000        0.0000000000000000     
  0.68750000000000000       0.78125000000000000        0.0000000000000000     
  0.71875000000000000       0.78125000000000000        0.0000000000000000     
  0.75000000000000000       0.78125000000000000        0.0000000000000000     
  0.62500000000000000       0.81250000000000000        0.0000000000000000     
  0.65625000000000000       0.81250000000000000        0.0000000000000000     
  0.68750000000000000       0.81250000000000000        0.0000000000000000     
  0.71875000000000000       0.81250000000000000        0.0000000000000000     
  0.75000000000000000       0.81250000000000000        0.0000000000000000     
  0.62500000000000000       0.84375000000000000        0.0000000000000000     
  0.65625000000000000       0.84375000000000000        0.0000000000000000     
  0.68750000000000000       0.84375000000000000        0.0000000000000000     
  0.71875000000000000       0.84375000000000000        0.0000000000000000     
  0.75000000000000000       0.84375000000000000        0.0000000000000000     
  0.62500000000000000       0.87500000000000000        0.0000000000000000     
  0.65625000000000000       0.87500000000000000        0.0000000000000000     
  0.68750000000000000       0.87500000000000000        0.0000000000000000     
  0.71875000000000000       0.87500000000000000        0.0000000000000000     
  0.75000000000000000       0.87500000000000000        0.0000000000000000     
  0.75000000000000000       0.75000000000000000        0.0000000000000000     
  0.78125000000000000       0.75000000000000000        0.0000000000000000     
  0.81250000000000000       0.75000000000000000        0.0000000000000000     
  0.84375000000000000       0.75000000000000000        0.0000000000000000     
  0.87500000000000000       0.75000000000000000        0.0000000000000000     
  0.75000000000000000       0.78125000000000000        0.0000000000000000     
  0.78125000000000000       0.78125000000000000        0.0000000000000000     
  0.81250000000000000       0.78125000000000000        0.0000000000000000     
  0.84375000000000000       0.78125000000000000        0.0000000000000000     
  0.87500000000000000       0.78125000000000000        0.0000000000000000     
  0.75000000000000000       0.81250000000000000        0.0000000000000000     
  0.78125000000000000       0.81250000000000000        0.0000000000000000     
  0.81250000000000000       0.81250000000000000        0.0000000000000000     
  0.84375000000000000       0.81250000000000000        0.0000000000000000     
  0.87500000000000000       0.81250000000000000        0.0000000000000000     
  0.75000000000000000       0.84375000000000000        0.0000000000000000     
  0.78125000000000000       0.84375000000000000        0.0000000000000000     
  0.81250000000000000       0.84375000000000000        0.0000000000000000     
  0.84375000000000000       0.84375000000000000        0.0000000000000000     
  0.87500000000000000       0.84375000000000000        0.0000000000000000     
  0.75000000000000000       0.87500000000000000        0.0000000000000000     
  0.78125000000000000       0.87500000000000000        0.0000000000000000     
  0.81250000000000000       0.87500000000000000        0.0000000000000000     
  0.84375000000000000       0.87500000000000000        0.0000000000000000     
  0.87500000000000000       0.87500000000000000        0.0000000000000000     
  0.87500000000000000       0.75000000000000000        0.0000000000000000     
  0.90625000000000000       0.75000000000000000        0.0000000000000000     
  0.93750000000000000       0.75000000000000000        0.0000000000000000     
  0.96875000000000000       0.75000000000000000        0.0000000000000000     
   1.0000000000000000       0.75000000000000000        0.0000000000000000     
  0.87500000000000000       0.78125000000000000        0.0000000000000000     
  0.90625000000000000       0.78125000000000000        0.0000000000000000     
  0.93750000000000000       0.78125000000000000        0.0000000000000000     
  0.96875000000000000       0.78125000000000000        0.0000000000000000     
   1.0000000000000000       0.78125000000000000        0.0000000000000000     
  0.87500000000000000       0.81250000000000000        0.0000000000000000     
  0.90625000000000000       0.81250000000000000        0.0000000000000000     
  0.93750000000000000       0.81250000000000000        0.0000000000000000     
  0.96875000000000000       0.81250000000000000        0.0000000000000000     
   1.0000000000000000       0.81250000000000000        0.0000000000000000     
  0.87500000000000000       0.84375000000000000        0.0000000000000000     
  0.90625000000000000       0.84375000000000000        0.0000000000000000     
  0.93750000000000000       0.84375000000000000        0.0000000000000000     
  0.96875000000000000       0.84375000000000000        0.0000000000000000     
   1.0000000000000000       0.84375000000000000        0.0000000000000000     
  0.87500000000000000       0.87500000000000000        0.0000000000000000     
  0.90625000000000000       0.87500000000000000        0.0000000000000000     
  0.93750000000000000       0.87500000000000000        0.0000000000000000     
  0.96875000000000000       0.87500000000000000        0.0000000000000000     
   1.0000000000000000       0.87500000000000000        0.0000000000000000     
   0.0000000000000000       0.87500000000000000        0.0000000000000000     
   3.1250000000000000E-002  0.87500000000000000        0.0000000000000000     
   6.2500000000000000E-002  0.87500000000000000        0.0000000000000000     
   9.3750000000000000E-002  0.87500000000000000        0.0000000000000000     
  0.12500000000000000       0.87500000000000000        0.0000000000000000     
   0.0000000000000000       0.90625000000000000        0.0000000000000000     
   3.1250000000000000E-002  0.90625000000000000        0.0000000000000000     
   6.2500000000000000E-002  0.90625000000000000        0.0000000000000000     
   9.3750000000000000E-002  0.90625000000000000        0.0000000000000000     
  0.12500000000000000       0.90625000000000000        0.0000000000000000     
   0.0000000000000000       0.93750000000000000        0.0000000000000000     
   3.1250000000000000E-002  0.93750000000000000        0.0000000000000000     
   6.2500000000000000E-002  0.93750000000000000        0.0000000000000000     
   9.3750000000000000E-002  0.93750000000000000        0.0000000000000000     
  0.12500000000000000       0.93750000000000000        0.0000000000000000     
   0.0000000000000000       0.96875000000000000        0.0000000000000000     
   3.1250000000000000E-002  0.96875000000000000        0.0000000000000000     
   6.2500000000000000E-002  0.96875000000000000        0.0000000000000000     
   9.3750000000000000E-002  0.96875000000000000        0.0000000000000000     
  0.12500000000000000       0.96875000000000000        0.0000000000000000     
   0.0000000000000000        1.0000000000000000        0.0000000000000000     
   3.1250000000000000E-002   1.0000000000000000        0.0000000000000000     
   6.2500000000000000E-002   1.0000000000000000        0.0000000000000000     
   9.3750000000000000E-002   1.0000000000000000        0.0000000000000000     
  0.12500000000000000        1.0000000000000000        0.0000000000000000     
  0.12500000000000000       0.87500000000000000        0.0000000000000000     
  0.15625000000000000       0.87500000000000000        0.0000000000000000     
  0.18750000000000000       0.87500000000000000        0.0000000000000000     
  0.21875000000000000       0.87500000000000000        0.0000000000000000     
  0.25000000000000000       0.87500000000000000        0.0000000000000000     
  0.12500000000000000       0.90625000000000000        0.0000000000000000     
  0.15625000000000000       0.90625000000000000        0.0000000000000000     
  0.18750000000000000       0.90625000000000000        0.0000000000000000     
  0.21875000000000000       0.90625000000000000        0.0000000000000000     
  0.25000000000000000       0.90625000000000000        0.0000000000000000     
  0.12500000000000000       0.93750000000000000        0.0000000000000000     
  0.15625000000000000       0.93750000000000000        0.0000000000000000     
  0.18750000000000000       0.93750000000000000        0.0000000000000000     
  0.21875000000000000       0.93750000000000000        0.0000000000000000     
  0.25000000000000000       0.93750000000000000        0.0000000000000000     
  0.12500000000000000       0.96875000000000000        0.0000000000000000     
  0.15625000000000000       0.96875000000000000        0.0000000000000000     
  0.18750000000000000       0.96875000000000000        0.0000000000000000     
  0.21875000000000000       0.96875000000000000        0.0000000000000000     
  0.25000000000000000       0.96875000000000000        0.0000000000000000     
  0.12500000000000000        1.0000000000000000        0.0000000000000000     
  0.15625000000000000        1.0000000000000000        0.0000000000000000     
  0.18750000000000000        1.0000000000000000        0.0000000000000000     
  0.21875000000000000        1.0000000000000000        0.0000000000000000     
  0.25000000000000000        1.0000000000000000        0.0000000000000000     
  0.25000000000000000       0.87500000000000000        0.0000000000000000     
  0.28125000000000000       0.87500000000000000        0.0000000000000000     
  0.31250000000000000       0.87500000000000000        0.0000000000000000     
  0.34375000000000000       0.87500000000000000        0.0000000000000000     
  0.37500000000000000       0.87500000000000000        0.0000000000000000     
  0.25000000000000000       0.90625000000000000        0.0000000000000000     
  0.28125000000000000       0.90625000000000000        0.0000000000000000     
  0.31250000000000000       0.90625000000000000        0.0000000000000000     
  0.34375000000000000       0.90625000000000000        0.0000000000000000     
  0.37500000000000000       0.90625000000000000        0.0000000000000000     
  0.25000000000000000       0.93750000000000000        0.0000000000000000     
  0.28125000000000000       0.93750000000000000        0.0000000000000000     
  0.31250000000000000       0.93750000000000000        0.0000000000000000     
  0.34375000000000000       0.93750000000000000        0.0000000000000000     
  0.37500000000000000       0.93750000000000000        0.0000000000000000     
  0.25000000000000000       0.96875000000000000        0.0000000000000000     
  0.28125000000000000       0.96875000000000000        0.0000000000000000     
  0.31250000000000000       0.96875000000000000        0.0000000000000000     
  0.34375000000000000       0.96875000000000000        0.0000000000000000     
  0.37500000000000000       0.96875000000000000        0.0000000000000000     
  0.25000000000000000        1.0000000000000000        0.0000000000000000     
  0.28125000000000000        1.0000000000000000        0.0000000000000000     
  0.31250000000000000        1.0000000000000000        0.0000000000000000     
  0.34375000000000000        1.0000000000000000        0.0000000000000000     
  0.37500000000000000        1.0000000000000000        0.0000000000000000     
  0.37500000000000000       0.87500000000000000        0.0000000000000000     
  0.40625000000000000       0.87500000000000000        0.0000000000000000     
  0.43750000000000000       0.87500000000000000        0.0000000000000000     
  0.46875000000000000       0.87500000000000000        0.0000000000000000     
  0.50000000000000000       0.87500000000000000        0.0000000000000000     
  0.37500000000000000       0.90625000000000000        0.0000000000000000     
  0.40625000000000000       0.90625000000000000        0.0000000000000000     
  0.43750000000000000       0.90625000000000000        0.0000000000000000     
  0.46875000000000000       0.90625000000000000        0.0000000000000000     
  0.50000000000000000       0.90625000000000000        0.0000000000000000     
  0.37500000000000000       0.93750000000000000        0.0000000000000000     
  0.40625000000000000       0.93750000000000000        0.0000000000000000     
  0.43750000000000000       0.93750000000000000        0.0000000000000000     
  0.46875000000000000       0.93750000000000000        0.0000000000000000     
  0.50000000000000000       0.93750000000000000        0.0000000000000000     
  0.37500000000000000       0.96875000000000000        0.0000000000000000     
  0.40625000000000000       0.96875000000000000        0.0000000000000000     
  0.43750000000000000       0.96875000000000000        0.0000000000000000     
  0.46875000000000000       0.96875000000000000        0.0000000000000000     
  0.50000000000000000       0.96875000000000000        0.0000000000000000     
  0.37500000000000000        1.0000000000000000        0.0000000000000000     
  0.40625000000000000        1.0000000000000000        0.0000000000000000     
  0.43750000000000000        1.0000000000000000        0.0000000000000000     
  0.46875000000000000        1.0000000000000000        0.0000000000000000     
  0.50000000000000000        1.0000000000000000        0.0000000000000000     
  0.50000000000000000       0.87500000000000000        0.0000000000000000     
  0.53125000000000000       0.87500000000000000        0.0000000000000000     
  0.56250000000000000       0.87500000000000000        0.0000000000000000     
  0.59375000000000000       0.87500000000000000        0.0000000000000000     
  0.62500000000000000       0.87500000000000000        0.0000000000000000     
  0.50000000000000000       0.90625000000000000        0.0000000000000000     
  0.53125000000000000       0.90625000000000000        0.0000000000000000     
  0.56250000000000000       0.90625000000000000        0.0000000000000000     
  0.59375000000000000       0.90625000000000000        0.0000000000000000     
  0.62500000000000000       0.90625000000000000        0.0000000000000000     
  0.50000000000000000       0.93750000000000000        0.0000000000000000     
  0.53125000000000000       0.93750000000000000        0.0000000000000000     
  0.56250000000000000       0.93750000000000000        0.0000000000000000     
  0.59375000000000000       0.93750000000000000        0.0000000000000000     
  0.62500000000000000       0.93750000000000000        0.0000000000000000     
  0.50000000000000000       0.96875000000000000        0.0000000000000000     
  0.53125000000000000       0.96875000000000000        0.0000000000000000     
  0.56250000000000000       0.96875000000000000        0.0000000000000000     
  0.59375000000000000       0.96875000000000000        0.0000000000000000     
  0.62500000000000000       0.96875000000000000        0.0000000000000000     
  0.50000000000000000        1.0000000000000000        0.0000000000000000     
  0.53125000000000000        1.0000000000000000        0.0000000000000000     
  0.56250000000000000        1.0000000000000000        0.0000000000000000     
  0.59375000000000000        1.0000000000000000        0.0000000000000000     
  0.62500000000000000        1.0000000000000000        0.0000000000000000     
  0.62500000000000000       0.87500000000000000        0.0000000000000000     
  0.65625000000000000       0.87500000000000000        0.0000000000000000     
  0.68750000000000000       0.87500000000000000        0.0000000000000000     
  0.71875000000000000       0.87500000000000000        0.0000000000000000     
  0.75000000000000000       0.87500000000000000        0.0000000000000000     
  0.62500000000000000       0.90625000000000000        0.0000000000000000     
  0.65625000000000000       0.90625000000000000        0.0000000000000000     
  0.68750000000000000       0.90625000000000000        0.0000000000000000     
  0.71875000000000000       0.90625000000000000        0.0000000000000000     
  0.75000000000000000       0.90625000000000000        0.0000000000000000     
  0.62500000000000000       0.93750000000000000        0.0000000000000000     
  0.65625000000000000       0.93750000000000000        0.0000000000000000     
  0.68750000000000000       0.93750000000000000        0.0000000000000000     
  0.71875000000000000       0.93750000000000000        0.0000000000000000     
  0.75000000000000000       0.93750000000000000        0.0000000000000000     
  0.62500000000000000       0.96875000000000000        0.0000000000000000     
  0.65625000000000000       0.96875000000000000        0.0000000000000000     
  0.68750000000000000       0.96875000000000000        0.0000000000000000     
  0.71875000000000000       0.96875000000000000        0.0000000000000000     
  0.75000000000000000       0.96875000000000000        0.0000000000000000     
  0.62500000000000000        1.0000000000000000        0.0000000000000000     
  0.65625000000000000        1.0000000000000000        0.0000000000000000     
  0.68750000000000000        1.0000000000000000        0.0000000000000000     
  0.71875000000000000        1.0000000000000000        0.0000000000000000     
  0.75000000000000000        1.0000000000000000        0.0000000000000000     
  0.75000000000000000       0.87500000000000000        0.0000000000000000     
  0.78125000000000000       0.87500000000000000        0.0000000000000000     
  0.81250000000000000       0.87500000000000000        0.0000000000000000     
  0.84375000000000000       0.87500000000000000        0.0000000000000000     
  0.87500000000000000       0.87500000000000000        0.0000000000000000     
  0.75000000000000000       0.90625000000000000        0.0000000000000000     
  0.78125000000000000       0.90625000000000000        0.0000000000000000     
  0.81250000000000000       0.90625000000000000        0.0000000000000000     
  0.84375000000000000       0.90625000000000000        0.0000000000000000     
  0.87500000000000000       0.90625000000000000        0.0000000000000000     
  0.75000000000000000       0.93750000000000000        0.0000000000000000     
  0.78125000000000000       0.93750000000000000        0.0000000000000000     
  0.81250000000000000       0.93750000000000000        0.0000000000000000     
  0.84375000000000000       0.93750000000000000        0.0000000000000000     
  0.87500000000000000       0.93750000000000000        0.0000000000000000     
  0.75000000000000000       0.96875000000000000        0.0000000000000000     
  0.78125000000000000       0.96875000000000000        0.0000000000000000     
  0.81250000000000000       0.96875000000000000        0.0000000000000000     
  0.84375000000000000       0.96875000000000000        0.0000000000000000     
  0.87500000000000000       0.96875000000000000        0.0000000000000000     
  0.75000000000000000        1.0000000000000000        0.0000000000000000     
  0.78125000000000000        1.0000000000000000        0.0000000000000000     
  0.81250000000000000        1.0000000000000000        0.0000000000000000     
  0.84375000000000000        1.0000000000000000        0.0000000000000000     
  0.87500000000000000        1.0000000000000000        0.0000000000000000     
  0.87500000000000000       0.87500000000000000        0.0000000000000000     
  0.90625000000000000       0.87500000000000000        0.0000000000000000     
  0.93750000000000000       0.87500000000000000        0.0000000000000000     
  0.96875000000000000       0.87500000000000000        0.0000000000000000     
   1.0000000000000000       0.87500000000000000        0.0000000000000000     
  0.87500000000000000       0.90625000000000000        0.0000000000000000     
  0.90625000000000000       0.90625000000000000        0.0000000000000000     
  0.93750000000000000       0.90625000000000000        0.0000000000000000     
  0.96875000000000000       0.90625000000000000        0.0000000000000000     
   1.0000000000000000       0.90625000000000000        0.0000000000000000     
  0.87500000000000000       0.93750000000000000        0.0000000000000000     
  0.90625000000000000       0.93750000000000000        0.0000000000000000     
  0.93750000000000000       0.93750000000000000        0.0000000000000000     
  0.96875000000000000       0.93750000000000000        0.0000000000000000     
   1.0000000000000000       0.93750000000000000        0.0000000000000000     
  0.87500000000000000       0.96875000000000000        0.0000000000000000     
  0.90625000000000000       0.96875000000000000        0.0000000000000000     
  0.93750000000000000       0.96875000000000000        0.0000000000000000     
  0.96875000000000000       0.96875000000000000        0.0000000000000000     
   1.0000000000000000       0.96875000000000000        0.0000000000000000     
  0.87500000000000000        1.0000000000000000        0.0000000000000000     
  0.90625000000000000        1.0000000000000000        0.0000000000000000     
  0.93750000000000000        1.0000000000000000        0.0000000000000000     
  0.96875000000000000        1.0000000000000000        0.0000000000000000     
   1.0000000000000000        1.0000000000000000        0.0000000000000000     
 </DataArray>
 </Points>
 <Cells>
 <DataArray  type="Int32"  Name="connectivity"  format="ascii">
           0           1           6           5
           1           2           7           6
           2           3           8           7
           3           4           9           8
           5           6          11          10
           6           7          12          11
           7           8          13          12
           8           9          14          13
          10          11          16          15
          11          12          17          16
          12          13          18          17
          13          14          19          18
          15          16          21          20
          16          17          22          21
          17          18          23          22
          18          19          24          23
          25          26          31          30
          26          27          32          31
          27          28          33          32
          28          29          34          33
          30          31          36          35
          31          32          37          36
          32          33          38          37
          33          34          39          38
          35          36          41          40
          36          37          42          41
          37          38          43          42
          38          39          44          43
          40          41          46          45
          41          42          47          46
          42          43          48          47
          43          44          49          48
          50          51          56          55
          51          52          57          56
          52          53          58          57
          53          54          59          58
          55          56          61          60
          56          57          62          61
          57          58          63          62
          58          59          64          63
          60          61          66          65
          61          62          67          66
          62          63          68          67
          63          64          69          68
          65          66          71          70
          66          67          72          71
          67          68          73          72
          68          69          74          73
          75          76          81          80
          76          77          82          81
          77          78          83          82
          78          79          84          83
          80          81          86          85
          81          82          87          86
          82          83          88          87
          83          84          89          88
          85          86          91          90
          86          87          92          91
          87          88          93          92
          88          89          94          93
          90          91          96          95
          91          92          97          96
          92          93          98          97
          93          94          99          98
         100         101         106         105
         101         102         107         106
         102         103         108         107
         103         104         109         108
         105         106         111         110
         106         107         112         111
         107         108         113         112
         108         109         114         113
         110         111         116         115
         111         112         117         116
         112         113         118         117
         113         114         119         118
         115         116         121         120
         116         117         122         121
         117         118         123         122
         118         119         124         123
         125         126         131         130
         126         127         132         131
         127         128         133         132
         128         129         134         133
         130         131         136         135
         131         132         137         136
         132         133         138         137
         133         134         139         138
         135         136         141         140
         136         137         142         141
         137         138         143         142
         138         139         144         143
         140         141         146         145
         141         142         147         146
         142         143         148         147
         143         144         149         148
         150         151         156         155
         151         152         157         156
         152         153         158         157
         153         154         159         158
         155         156         161         160
         156         157         162         161
         157         158         163         162
         158         159         164         163
         160         161         166         165
         161         162         167         166
         162         163         168         167
         163         164         169         168
         165         166         171         170
         166         167         172         171
         167         168         173         172
         168         169         174         173
         175         176         181         180
         176         177         182         181
         177         178         183         182
         178         179         184         183
         180         181         186         185
         181         182         187         186
         182         183         188         187
         183         184         189         188
         185         186         191         190
         186         187         192         191
         187         188         193         192
         188         189         194         193
         190         191         196         195
         191         192         197         196
         192         193         198         197
         193         194         199         198
         200         201         206         205
         201         202         207         206
         202         203         208         207
         203         204         209         208
         205         206         211         210
         206         207         212         211
         207         208         213         212
         208         209         214         213
         210         211         216         215
         211         212         217         216
         212         213         218         217
         213         214         219         218
         215         216         221         220
         216         217         222         221
         217         218         223         222
         218         219         224         223
         225         226         231         230
         226         227         232         231
         227         228         233         232
         228         229         234         233
         230         231         236         235
         231         232         237         236
         232         233         238         237
         233         234         239         238
         235         236         241         240
         236         237         242         241
         237         238         243         242
         238         239         244         243
         240         241         246         245
         241         242         247         246
         242         243         248         247
         243         244         249         248
         250         251         256         255
         251         252         257         256
         252         253         258         257
         253         254         259         258
         255         256         261         260
         256         257         262         261
         257         258         263         262
         258         259         264         263
         260         261         266         265
         261         262         267         266
         262         263         268         267
         263         264         269         268
         265         266         271         270
         266         267         272         271
         267         268         273         272
         268         269         274         273
         275         276         281         280
         276         277         282         281
         277         278         283         282
         278         279         284         283
         280         281         286         285
         281         282         287         286
         282         283         288         287
         283         284         289         288
         285         286         291         290
         286         287         292         291
         287         288         293         292
         288         289         294         293
         290         291         296         295
         291         292         297         296
         292         293         298         297
         293         294         299         298
         300         301         306         305
         301         302         307         306
         302         303         308         307
         303         304         309         308
         305         306         311         310
         306         307         312         311
         307         308         313         312
         308         309         314         313
         310         311         316         315
         311         312         317         316
         312         313         318         317
         313         314         319         318
         315         316         321         320
         316         317         322         321
         317         318         323         322
         318         319         324         323
         325         326         331         330
         326         327         332         331
         327         328         333         332
         328         329         334         333
         330         331         336         335
         331         332         337         336
         332         333         338         337
         333         334         339         338
         335         336         341         340
         336         337         342         341
         337         338         343         342
         338         339         344         343
         340         341         346         345
         341         342         347         346
         342         343         348         347
         343         344         349         348
         350         351         356         355
         351         352         357         356
         352         353         358         357
         353         354         359         358
         355         356         361         360
         356         357         362         361
         357         358         363         362
         358         359         364         363
         360         361         366         365
         361         362         367         366
         362         363         368         367
         363         364         369         368
         365         366         371         370
         366         367         372         371
         367         368         373         372
         368         369         374         373
         375         376         381         380
         376         377         382         381
         377         378         383         382
         378         379         384         383
         380         381         386         385
         381         382         387         386
         382         383         388         387
         383         384         389         388
         385         386         391         390
         386         387         392         391
         387         388         393         392
         388         389         394         393
         390         391         396         395
         391         392         397         396
         392         393         398         397
         393         394         399         398
         400         401         406         405
         401         402         407         406
         402         403         408         407
         403         404         409         408
         405         406         411         410
         406         407         412         411
         407         408         413         412
         408         409         414         413
         410         411         416         415
         411         412         417         416
         412         413         418         417
         413         414         419         418
         415         416         421         420
         416         417         422         421
         417         418         423         422
         418         419         424         423
         425         426         431         430
         426         427         432         431
         427         428         433         432
         428         429         434         433
         430         431         436         435
         431         432         437         436
         432         433         438         437
         433         434         439         438
         435         436         441         440
         436         437         442         441
         437         438         443         442
         438         439         444         443
         440         441         446         445
         441         442         447         446
         442         443         448         447
         443         444         449         448
         450         451         456         455
         451         452         457         456
         452         453         458         457
         453         454         459         458
         455         456         461         460
         456         457         462         461
         457         458         463         462
         458         459         464         463
         460         461         466         465
         461         462         467         466
         462         463         468         467
         463         464         469         468
         465         466         471         470
         466         467         472         471
         467         468         473         472
         468         469         474         473
         475         476         481         480
         476         477         482         481
         477         478         483         482
         478         479         484         483
         480         481         486         485
         481         482         487         486
         482         483         488         487
         483         484         489         488
         485         486         491         490
         486         487         492         491
         487         488         493         492
         488         489         494         493
         490         491         496         495
         491         492         497         496
         492         493         498         497
         493         494         499         498
         500         501         506         505
         501         502         507         506
         502         503         508         507
         503         504         509         508
         505         506         511         510
         506         507         512         511
         507         508         513         512
         508         509         514         513
         510         511         516         515
         511         512         517         516
         512         513         518         517
         513         514         519         518
         515         516         521         520
         516         517         522         521
         517         518         523         522
         518         519         524         523
         525         526         531         530
         526         527         532         531
         527         528         533         532
         528         529         534         533
         530         531         536         535
         531         532         537         536
         532         533         538         537
         533         534         539         538
         535         536         541         540
         536         537         542         541
         537         538         543         542
         538         539         544         543
         540         541         546         545
         541         542         547         546
         542         543         548         547
         543         544         549         548
         550         551         556         555
         551         552         557         556
         552         553         558         557
         553         554         559         558
         555         556         561         560
         556         557         562         561
         557         558         563         562
         558         559         564         563
         560         561         566         565
         561         562         567         566
         562         563         568         567
         563         564         569         568
         565         566         571         570
         566         567         572         571
         567         568         573         572
         568         569         574         573
         575         576         581         580
         576         577         582         581
         577         578         583         582
         578         579         584         583
         580         581         586         585
         581         582         587         586
         582         583         588         587
         583         584         589         588
         585         586         591         590
         586         587         592         591
         587         588         593         592
         588         589         594         593
         590         591         596         595
         591         592         597         596
         592         593         598         597
         593         594         599         598
         600         601         606         605
         601         602         607         606
         602         603         608         607
         603         604         609         608
         605         606         611         610
         606         607         612         611
         607         608         613         612
         608         609         614         613
         610         611         616         615
         611         612         617         616
         612         613         618         617
         613         614         619         618
         615         616         621         620
         616         617         622         621
         617         618         623         622
         618         619         624         623
         625         626         631         630
         626         627         632         631
         627         628         633         632
         628         629         634         633
         630         631         636         635
         631         632         637         636
         632         633         638         637
         633         634         639         638
         635         636         641         640
         636         637         642         641
         637         638         643         642
         638         639         644         643
         640         641         646         645
         641         642         647         646
         642         643         648         647
         643         644         649         648
         650         651         656         655
         651         652         657         656
         652         653         658         657
         653         654         659         658
         655         656         661         660
         656         657         662         661
         657         658         663         662
         658         659         664         663
         660         661         666         665
         661         662         667         666
         662         663         668         667
         663         664         669         668
         665         666         671         670
         666         667         672         671
         667         668         673         672
         668         669         674         673
         675         676         681         680
         676         677         682         681
         677         678         683         682
         678         679         684         683
         680         681         686         685
         681         682         687         686
         682         683         688         687
         683         684         689         688
         685         686         691         690
         686         687         692         691
         687         688         693         692
         688         689         694         693
         690         691         696         695
         691         692         697         696
         692         693         698         697
         693         694         699         698
         700         701         706         705
         701         702         707         706
         702         703         708         707
         703         704         709         708
         705         706         711         710
         706         707         712         711
         707         708         713         712
         708         709         714         713
         710         711         716         715
         711         712         717         716
         712         713         718         717
         713         714         719         718
         715         716         721         720
         716         717         722         721
         717         718         723         722
         718         719         724         723
         725         726         731         730
         726         727         732         731
         727         728         733         732
         728         729         734         733
         730         731         736         735
         731         732         737         736
         732         733         738         737
         733         734         739         738
         735         736         741         740
         736         737         742         741
         737         738         743         742
         738         739         744         743
         740         741         746         745
         741         742         747         746
         742         743         748         747
         743         744         749         748
         750         751         756         755
         751         752         757         756
         752         753         758         757
         753         754         759         758
         755         756         761         760
         756         757         762         761
         757         758         763         762
         758         759         764         763
         760         761         766         765
         761         762         767         766
         762         763         768         767
         763         764         769         768
         765         766         771         770
         766         767         772         771
         767         768         773         772
         768         769         774         773
         775         776         781         780
         776         777         782         781
         777         778         783         782
         778         779         784         783
         780         781         786         785
         781         782         787         786
         782         783         788         787
         783         784         789         788
         785         786         791         790
         786         787         792         791
         787         788         793         792
         788         789         794         793
         790         791         796         795
         791         792         797         796
         792         793         798         797
         793         794         799         798
         800         801         806         805
         801         802         807         806
         802         803         808         807
         803         804         809         808
         805         806         811         810
         806         807         812         811
         807         808         813         812
         808         809         814         813
         810         811         816         815
         811         812         817         816
         812         813         818         817
         813         814         819         818
         815         816         821         820
         816         817         822         821
         817         818         823         822
         818         819         824         823
         825         826         831         830
         826         827         832         831
         827         828         833         832
         828         829         834         833
         830         831         836         835
         831         832         837         836
         832         833         838         837
         833         834         839         838
         835         836         841         840
         836         837         842         841
         837         838         843         842
         838         839         844         843
         840         841         846         845
         841         842         847         846
         842         843         848         847
         843         844         849         848
         850         851         856         855
         851         852         857         856
         852         853         858         857
         853         854         859         858
         855         856         861         860
         856         857         862         861
         857         858         863         862
         858         859         864         863
         860         861         866         865
         861         862         867         866
         862         863         868         867
         863         864         869         868
         865         866         871         870
         866         867         872         871
         867         868         873         872
         868         869         874         873
         875         876         881         880
         876         877         882         881
         877         878         883         882
         878         879         884         883
         880         881         886         885
         881         882         887         886
         882         883         888         887
         883         884         889         888
         885         886         891         890
         886         887         892         891
         887         888         893         892
         888         889         894         893
         890         891         896         895
         891         892         897         896
         892         893         898         897
         893         894         899         898
         900         901         906         905
         901         902         907         906
         902         903         908         907
         903         904         909         908
         905         906         911         910
         906         907         912         911
         907         908         913         912
         908         909         914         913
         910         911         916         915
         911         912         917         916
         912         913         918         917
         913         914         919         918
         915         916         921         920
         916         917         922         921
         917         918         923         922
         918         919         924         923
         925         926         931         930
         926         927         932         931
         927         928         933         932
         928         929         934         933
         930         931         936         935
         931         932         937         936
         932         933         938         937
         933         934         939         938
         935         936         941         940
         936         937         942         941
         937         938         943         942
         938         939         944         943
         940         941         946         945
         941         942         947         946
         942         943         948         947
         943         944         949         948
         950         951         956         955
         951         952         957         956
         952         953         958         957
         953         954         959         958
         955         956         961         960
         956         957         962         961
         957         958         963         962
         958         959         964         963
         960         961         966         965
         961         962         967         966
         962         963         968         967
         963         964         969         968
         965         966         971         970
         966         967         972         971
         967         968         973         972
         968         969         974         973
         975         976         981         980
         976         977         982         981
         977         978         983         982
         978         979         984         983
         980         981         986         985
         981         982         987         986
         982         983         988         987
         983         984         989         988
         985         986         991         990
         986         987         992         991
         987         988         993         992
         988         989         994         993
         990         991         996         995
         991         992         997         996
         992         993         998         997
         993         994         999         998
        1000        1001        1006        1005
        1001        1002        1007        1006
        1002        1003        1008        1007
        1003        1004        1009        1008
        1005        1006        1011        1010
        1006        1007        1012        1011
        1007        1008        1013        1012
        1008        1009        1014        1013
        1010        1011        1016        1015
        1011        1012        1017        1016
        1012        1013        1018        1017
        1013        1014        1019        1018
        1015        1016        1021        1020
        1016        1017        1022        1021
        1017        1018        1023        1022
        1018        1019        1024        1023
        1025        1026        1031        1030
        1026        1027        1032        1031
        1027        1028        1033        1032
        1028        1029        1034        1033
        1030        1031        1036        1035
        1031        1032        1037        1036
        1032        1033        1038        1037
        1033        1034        1039        1038
        1035        1036        1041        1040
        1036        1037        1042        1041
        1037        1038        1043        1042
        1038        1039        1044        1043
        1040        1041        1046        1045
        1041        1042        1047        1046
        1042        1043        1048        1047
        1043        1044        1049        1048
        1050        1051        1056        1055
        1051        1052        1057        1056
        1052        1053        1058        1057
        1053        1054        1059        1058
        1055        1056        1061        1060
        1056        1057        1062        1061
        1057        1058        1063        1062
        1058        1059        1064        1063
        1060        1061        1066        1065
        1061        1062        1067        1066
        1062        1063        1068        1067
        1063        1064        1069        1068
        1065        1066        1071        1070
        1066        1067        1072        1071
        1067        1068        1073        1072
        1068        1069        1074        1073
        1075        1076        1081        1080
        1076        1077        1082        1081
        1077        1078        1083        1082
        1078        1079        1084        1083
        1080        1081        1086        1085
        1081        1082        1087        1086
        1082        1083        1088        1087
        1083        1084        1089        1088
        1085        1086        1091        1090
        1086        1087        1092        1091
        1087        1088        1093        1092
        1088        1089        1094        1093
        1090        1091        1096        1095
        1091        1092        1097        1096
        1092        1093        1098        1097
        1093        1094        1099        1098
        1100        1101        1106        1105
        1101        1102        1107        1106
        1102        1103        1108        1107
        1103        1104        1109        1108
        1105        1106        1111        1110
        1106        1107        1112        1111
        1107        1108        1113        1112
        1108        1109        1114        1113
        1110        1111        1116        1115
        1111        1112        1117        1116
        1112        1113        1118        1117
        1113        1114        1119        1118
        1115        1116        1121        1120
        1116        1117        1122        1121
        1117        1118        1123        1122
        1118        1119        1124        1123
        1125        1126        1131        1130
        1126        1127        1132        1131
        1127        1128        1133        1132
        1128        1129        1134        1133
        1130        1131        1136        1135
        1131        1132        1137        1136
        1132        1133        1138        1137
        1133        1134        1139        1138
        1135        1136        1141        1140
        1136        1137        1142        1141
        1137        1138        1143        1142
        1138        1139        1144        1143
        1140        1141        1146        1145
        1141        1142        1147        1146
        1142        1143        1148        1147
        1143        1144        1149        1148
        1150        1151        1156        1155
        1151        1152        1157        1156
        1152        1153        1158        1157
        1153        1154        1159        1158
        1155        1156        1161        1160
        1156        1157        1162        1161
        1157        1158        1163        1162
        1158        1159        1164        1163
        1160        1161        1166        1165
        1161        1162        1167        1166
        1162        1163        1168        1167
        1163        1164        1169        1168
        1165        1166        1171        1170
        1166        1167        1172        1171
        1167        1168        1173        1172
        1168        1169        1174        1173
        1175        1176        1181        1180
        1176        1177        1182        1181
        1177        1178        1183        1182
        1178        1179        1184        1183
        1180        1181        1186        1185
        1181        1182        1187        1186
        1182        1183        1188        1187
        1183        1184        1189        1188
        1185        1186        1191        1190
        1186        1187        1192        1191
        1187        1188        1193        1192
        1188        1189        1194        1193
        1190        1191        1196        1195
        1191        1192        1197        1196
        1192        1193        1198        1197
        1193        1194        1199        1198
        1200        1201        1206        1205
        1201        1202        1207        1206
        1202        1203        1208        1207
        1203        1204        1209        1208
        1205        1206        1211        1210
        1206        1207        1212        1211
        1207        1208        1213        1212
        1208        1209        1214        1213
        1210        1211        1216        1215
        1211        1212        1217        1216
        1212        1213        1218        1217
        1213        1214        1219        1218
        1215        1216        1221        1220
        1216        1217        1222        1221
        1217        1218        1223        1222
        1218        1219        1224        1223
        1225        1226        1231        1230
        1226        1227        1232        1231
        1227        1228        1233        1232
        1228        1229        1234        1233
        1230        1231        1236        1235
        1231        1232        1237        1236
        1232        1233        1238        1237
        1233        1234        1239        1238
        1235        1236        1241        1240
        1236        1237        1242        1241
        1237        1238        1243        1242
        1238        1239        1244        1243
        1240        1241        1246        1245
        1241        1242        1247        1246
        1242        1243        1248        1247
        1243        1244        1249        1248
        1250        1251        1256        1255
        1251        1252        1257        1256
        1252        1253        1258        1257
        1253        1254        1259        1258
        1255        1256        1261        1260
        1256        1257        1262        1261
        1257        1258        1263        1262
        1258        1259        1264        1263
        1260        1261        1266        1265
        1261        1262        1267        1266
        1262        1263        1268        1267
        1263        1264        1269        1268
        1265        1266        1271        1270
        1266        1267        1272        1271
        1267        1268        1273        1272
        1268        1269        1274        1273
        1275        1276        1281        1280
        1276        1277        1282        1281
        1277        1278        1283        1282
        1278        1279        1284        1283
        1280        1281        1286        1285
        1281        1282        1287        1286
        1282        1283        1288        1287
        1283        1284        1289        1288
        1285        1286        1291        1290
        1286        1287        1292        1291
        1287        1288        1293        1292
        1288        1289        1294        1293
        1290        1291        1296        1295
        1291        1292        1297        1296
        1292        1293        1298        1297
        1293        1294        1299        1298
        1300        1301        1306        1305
        1301        1302        1307        1306
        1302        1303        1308        1307
        1303        1304        1309        1308
        1305        1306        1311        1310
        1306        1307        1312        1311
        1307        1308        1313        1312
        1308        1309        1314        1313
        1310        1311        1316        1315
        1311        1312        1317        1316
        1312        1313        1318        1317
        1313        1314        1319        1318
        1315        1316        1321        1320
        1316        1317        1322        1321
        1317        1318        1323        1322
        1318        1319        1324        1323
        1325        1326        1331        1330
        1326        1327        1332        1331
        1327        1328        1333        1332
        1328        1329        1334        1333
        1330        1331        1336        1335
        1331        1332        1337        1336
        1332        1333        1338        1337
        1333        1334        1339        1338
        1335        1336        1341        1340
        1336        1337        1342        1341
        1337        1338        1343        1342
        1338        1339        1344        1343
        1340        1341        1346        1345
        1341        1342        1347        1346
        1342        1343        1348        1347
        1343        1344        1349        1348
        1350        1351        1356        1355
        1351        1352        1357        1356
        1352        1353        1358        1357
        1353        1354        1359        1358
        1355        1356        1361        1360
        1356        1357        1362        1361
        1357        1358        1363        1362
        1358        1359        1364        1363
        1360        1361        1366        1365
        1361        1362        1367        1366
        1362        1363        1368        1367
        1363        1364        1369        1368
        1365        1366        1371        1370
        1366        1367        1372        1371
        1367        1368        1373        1372
        1368        1369        1374        1373
        1375        1376        1381        1380
        1376        1377        1382        1381
        1377        1378        1383        1382
        1378        1379        1384        1383
        1380        1381        1386        1385
        1381        1382        1387        1386
        1382        1383        1388        1387
        1383        1384        1389        1388
        1385        1386        1391        1390
        1386        1387        1392        1391
        1387        1388        1393        1392
        1388        1389        1394        1393
        1390        1391        1396        1395
        1391        1392        1397        1396
        1392        1393        1398        1397
        1393        1394        1399        1398
        1400        1401        1406        1405
        1401        1402        1407        1406
        1402        1403        1408        1407
        1403        1404        1409        1408
        1405        1406        1411        1410
        1406        1407        1412        1411
        1407        1408        1413        1412
        1408        1409        1414        1413
        1410        1411        1416        1415
        1411        1412        1417        1416
        1412        1413        1418        1417
        1413        1414        1419        1418
        1415        1416        1421        1420
        1416        1417        1422        1421
        1417        1418        1423        1422
        1418        1419        1424        1423
        1425        1426        1431        1430
        1426        1427        1432        1431
        1427        1428        1433        1432
        1428        1429        1434        1433
        1430        1431        1436        1435
        1431        1432        1437        1436
        1432        1433        1438        1437
        1433        1434        1439        1438
        1435        1436        1441        1440
        1436        1437        1442        1441
        1437        1438        1443        1442
        1438        1439        1444        1443
        1440        1441        1446        1445
        1441        1442        1447        1446
        1442        1443        1448        1447
        1443        1444        1449        1448
        1450        1451        1456        1455
        1451        1452        1457        1456
        1452        1453        1458        1457
        1453        1454        1459        1458
        1455        1456        1461        1460
        1456        1457        1462        1461
        1457        1458        1463        1462
        1458        1459        1464        1463
        1460        1461        1466        1465
        1461        1462        1467        1466
        1462        1463        1468        1467
        1463        1464        1469        1468
        1465        1466        1471        1470
        1466        1467        1472        1471
        1467        1468        1473        1472
        1468        1469        1474        1473
        1475        1476        1481        1480
        1476        1477        1482        1481
        1477        1478        1483        1482
        1478        1479        1484        1483
        1480        1481        1486        1485
        1481        1482        1487        1486
        1482        1483        1488        1487
        1483        1484        1489        1488
        1485        1486        1491        1490
        1486        1487        1492        1491
        1487        1488        1493        1492
        1488        1489        1494        1493
        1490        1491        1496        1495
        1491        1492        1497        1496
        1492        1493        1498        1497
        1493        1494        1499        1498
        1500        1501        1506        1505
        1501        1502        1507        1506
        1502        1503        1508        1507
        1503        1504        1509        1508
        1505        1506        1511        1510
        1506        1507        1512        1511
        1507        1508        1513        1512
        1508        1509        1514        1513
        1510        1511        1516        1515
        1511        1512        1517        1516
        1512        1513        1518        1517
        1513        1514        1519        1518
        1515        1516        1521        1520
        1516        1517        1522        1521
        1517        1518        1523        1522
        1518        1519        1524        1523
        1525        1526        1531        1530
        1526        1527        1532        1531
        1527        1528        1533        1532
        1528        1529        1534        1533
        1530        1531        1536        1535
        1531        1532        1537        1536
        1532        1533        1538        1537
        1533        1534        1539        1538
        1535        1536        1541        1540
        1536        1537        1542        1541
        1537        1538        1543        1542
        1538        1539        1544        1543
        1540        1541        1546        1545
        1541        1542        1547        1546
        1542        1543        1548        1547
        1543        1544        1549        1548
        1550        1551        1556        1555
        1551        1552        1557        1556
        1552        1553        1558        1557
        1553        1554        1559        1558
        1555        1556        1561        1560
        1556        1557        1562        1561
        1557        1558        1563        1562
        1558        1559        1564        1563
        1560        1561        1566        1565
        1561        1562        1567        1566
        1562        1563        1568        1567
        1563        1564        1569        1568
        1565        1566        1571        1570
        1566        1567        1572        1571
        1567        1568        1573        1572
        1568        1569        1574        1573
        1575        1576        1581        1580
        1576        1577        1582        1581
        1577        1578        1583        1582
        1578        1579        1584        1583
        1580        1581        1586        1585
        1581        1582        1587        1586
        1582        1583        1588        1587
        1583        1584        1589        1588
        1585        1586        1591        1590
        1586        1587        1592        1591
        1587        1588        1593        1592
        1588        1589        1594        1593
        1590        1591        1596        1595
        1591        1592        1597        1596
        1592        1593        1598        1597
        1593        1594        1599        1598
 </DataArray>
 <DataArray  type="Int32"  Name="offsets"  format="ascii"> 
           4
           8
          12
          16
          20
          24
          28
          32
          36
          40
          44
          48
          52
          56
          60
          64
          68
          72
          76
          80
          84
          88
          92
          96
         100
         104
         108
         112
         116
         120
         124
         128
         132
         136
         140
         144
         148
         152
         156
         160
         164
         168
         172
         176
         180
         184
         188
         192
         196
         200
         204
         208
         212
         216
         220
         224
         228
         232
         236
         240
         244
         248
         252
         256
         260
         264
         268
         272
         276
         280
         284
         288
         292
         296
         300
         304
         308
         312
         316
         320
         324
         328
         332
         336
         340
         344
         348
         352
         356
         360
         364
         368
         372
         376
         380
         384
         388
         392
         396
         400
         404
         408
         412
         416
         420
         424
         428
         432
         436
         440
         444
         448
         452
         456
         460
         464
         468
         472
         476
         480
         484
         488
         492
         496
         500
         504
         508
         512
         516
         520
         524
         528
         532
         536
         540
         544
         548
         552
         556
         560
         564
         568
         572
         576
         580
         584
         588
         592
         596
         600
         604
         608
         612
         616
         620
         624
         628
         632
         636
         640
         644
         648
         652
         656
         660
         664
         668
         672
         676
         680
         684
         688
         692
         696
         700
         704
         708
         712
         716
         720
         724
         728
         732
         736
         740
         744
         748
         752
         756
         760
         764
         768
         772
         776
         780
         784
         788
         792
         796
         800
         804
         808
         812
         816
         820
         824
         828
         832
         836
         840
         844
         848
         852
         856
         860
         864
         868
         872
         876
         880
         884
         888
         892
         896
         900
         904
         908
         912
         916
         920
         924
         928
         932
         936
         940
         944
         948
         952
         956
         960
         964
         968
         972
         976
         980
         984
         988
         992
         996
        1000
        1004
        1008
        1012
        1016
        1020
        1024
        1028
        1032
        1036
        1040
        1044
        1048
        1052
        1056
        1060
        1064
        1068
        1072
        1076
        1080
        1084
        1088
        1092
        1096
        1100
        1104
        1108
        1112
        1116
        1120
        1124
        1128
        1132
        1136
        1140
        1144
        1148
        1152
        1156
        1160
        1164
        1168
        1172
        1176
        1180
        1184
        1188
        1192
        1196
        1200
        1204
        1208
        1212
        1216
        1220
        1224
        1228
        1232
        1236
        1240
        1244
        1248
        1252
        1256
        1260
        1264
        1268
        1272
        1276
        1280
        1284
        1288
        1292
        1296
        1300
        1304
        1308
        1312
        1316
        1320
        1324
        1328
        1332
        1336
        1340
        1344
        1348
        1352
        1356
        1360
        1364
        1368
        1372
        1376
        1380
        1384
        1388
        1392
        1396
        1400
        1404
        1408
        1412
        1416
        1420
        1424
        1428
        1432
        1436
        1440
        1444
        1448
        1452
        1456
        1460
        1464
        1468
        1472
        1476
        1480
        1484
        1488
        1492
        1496
        1500
        1504
        1508
        1512
        1516
        1520
        1524
        1528
        1532
        1536
        1540
        1544
        1548
        1552
        1556
        1560
        1564
        1568
        1572
        1576
        1580
        1584
        1588
        1592
        1596
        1600
        1604
        1608
        1612
        1616
        1620
        1624
        1628
        1632
        1636
        1640
        1644
        1648
        1652
        1656
        1660
        1664
        1668
        1672
        1676
        1680
        1684
        1688
        1692
        1696
        1700
        1704
        1708
        1712
        1716
        1720
        1724
        1728
        1732
        1736
        1740
        1744
        1748
        1752
        1756
        1760
        1764
        1768
        1772
        1776
        1780
        1784
        1788
        1792
        1796
        1800
        1804
        1808
        1812
        1816
        1820
        1824
        1828
        1832
        1836
        1840
        1844
        1848
        1852
        1856
        1860
        1864
        1868
        1872
        1876
        1880
        1884
        1888
        1892
        1896
        1900
        1904
        1908
        1912
        1916
        1920
        1924
        1928
        1932
        1936
        1940
        1944
        1948
        1952
        1956
        1960
        1964
        1968
        1972
        1976
        1980
        1984
        1988
        1992
        1996
        2000
        2004
        2008
        2012
        2016
        2020
        2024
        2028
        2032
        2036
        2040
        2044
        2048
        2052
        2056
        2060
        2064
        2068
        2072
        2076
        2080
        2084
        2088
        2092
        2096
        2100
        2104
        2108
        2112
        2116
        2120
        2124
        2128
        2132
        2136
        2140
        2144
        2148
        2152
        2156
        2160
        2164
        2168
        2172
        2176
        2180
        2184
        2188
        2192
        2196
        2200
        2204
        2208
        2212
        2216
        2220
        2224
        2228
        2232
        2236
        2240
        2244
        2248
        2252
        2256
        2260
        2264
        2268
        2272
        2276
        2280
        2284
        2288
        2292
        2296
        2300
        2304
        2308
        2312
        2316
        2320
        2324
        2328
        2332
        2336
        2340
        2344
        2348
        2352
        2356
        2360
        2364
        2368
        2372
        2376
        2380
        2384
        2388
        2392
        2396
        2400
        2404
        2408
        2412
        2416
        2420
        2424
        2428
        2432
        2436
        2440
        2444
        2448
        2452
        2456
        2460
        2464
        2468
        2472
        2476
        2480
        2484
        2488
        2492
        2496
        2500
        2504
        2508
        2512
        2516
        2520
        2524
        2528
        2532
        2536
        2540
        2544
        2548
        2552
        2556
        2560
        2564
        2568
        2572
        2576
        2580
        2584
        2588
        2592
        2596
        2600
        2604
        2608
        2612
        2616
        2620
        2624
        2628
        2632
        2636
        2640
        2644
        2648
        2652
        2656
        2660
        2664
        2668
        2672
        2676
        2680
        2684
        2688
        2692
        2696
        2700
        2704
        2708
        2712
        2716
        2720
        2724
        2728
        2732
        2736
        2740
        2744
        2748
        2752
        2756
        2760
        2764
        2768
        2772
        2776
        2780
        2784
        2788
        2792
        2796
        2800
        2804
        2808
        2812
        2816
        2820
        2824
        2828
        2832
        2836
        2840
        2844
        2848
        2852
        2856
        2860
        2864
        2868
        2872
        2876
        2880
        2884
        2888
        2892
        2896
        2900
        2904
        2908
        2912
        2916
        2920
        2924
        2928
        2932
        2936
        2940
        2944
        2948
        2952
        2956
        2960
        2964
        2968
        2972
        2976
        2980
        2984
        2988
        2992
        2996
        3000
        3004
        3008
        3012
        3016
        3020
        3024
        3028
        3032
        3036
        3040
        3044
        3048
        3052
        3056
        3060
        3064
        3068
        3072
        3076
        3080
        3084
        3088
        3092
        3096
        3100
        3104
        3108
        3112
        3116
        3120
        3124
        3128
        3132
        3136
        3140
        3144
        3148
        3152
        3156
        3160
        3164
        3168
        3172
        3176
        3180
        3184
        3188
        3192
        3196
        3200
        3204
        3208
        3212
        3216
        3220
        3224
        3228
        3232
        3236
        3240
        3244
        3248
        3252
        3256
        3260
        3264
        3268
        3272
        3276
        3280
        3284
        3288
        3292
        3296
        3300
        3304
        3308
        3312
        3316
        3320
        3324
        3328
        3332
        3336
        3340
        3344
        3348
        3352
        3356
        3360
        3364
        3368
        3372
        3376
        3380
        3384
        3388
        3392
        3396
        3400
        3404
        3408
        3412
        3416
        3420
        3424
        3428
        3432
        3436
        3440
        3444
        3448
        3452
        3456
        3460
        3464
        3468
        3472
        3476
        3480
        3484
        3488
        3492
        3496
        3500
        3504
        3508
        3512
        3516
        3520
        3524
        3528
        3532
        3536
        3540
        3544
        3548
        3552
        3556
        3560
        3564
        3568
        3572
        3576
        3580
        3584
        3588
        3592
        3596
        3600
        3604
        3608
        3612
        3616
        3620
        3624
        3628
        3632
        3636
        3640
        3644
        3648
        3652
        3656
        3660
        3664
        3668
        3672
        3676
        3680
        3684
        3688
        3692
        3696
        3700
        3704
        3708
        3712
        3716
        3720
        3724
        3728
        3732
        3736
        3740
        3744
        3748
        3752
        3756
        3760
        3764
        3768
        3772
        3776
        3780
        3784
        3788
        3792
        3796
        3800
        3804
        3808
        3812
        3816
        3820
        3824
        3828
        3832
        3836
        3840
        3844
        3848
        3852
        3856
        3860
        3864
        3868
        3872
        3876
        3880
        3884
        3888
        3892
        3896
        3900
        3904
        3908
        3912
        3916
        3920
        3924
        3928
        3932
        3936
        3940
        3944
        3948
        3952
        3956
        3960
        3964
        3968
        3972
        3976
        3980
        3984
        3988
        3992
        3996
        4000
        4004
        4008
        4012
        4016
        4020
        4024
        4028
        4032
        4036
        4040
        4044
        4048
        4052
        4056
        4060
        4064
        4068
        4072
        4076
        4080
        4084
        4088
        4092
        4096
 </DataArray>
 <DataArray  type="UInt8"  Name="types"  format="ascii">
 9
 9
 9
 9
 9
 9
 9
 9
 9
 9
 9
 9
 9
 9
 9
 9
 9
 9
 9
 9
 9
 9
 9
 9
 9
 9
 9
 9
 9
 9
 9
 9
 9
 9
 9
 9
 9
 9
 9
 9
 9
 9
 9
 9
 9
 9
 9
 9
 9
 9
 9
 9
 9
 9
 9
 9
 9
 9
 9
 9
 9
 9
 9
 9
 9
 9
 9
 9
 9
 9
 9
 9
 9
 9
 9
 9
 9
 9
 9
 9
 9
 9
 9
 9
 9
 9
 9
 9
 9
 9
 9
 9
 9
 9
 9
 9
 9
 9
 9
 9
 9
 9
 9
 9
 9
 9
 9
 9
 9
 9
 9
 9
 9
 9
 9
 9
 9
 9
 9
 9
 9
 9
 9
 9
 9
 9
 9
 9
 9
 9
 9
 9
 9
 9
 9
 9
 9
 9
 9
 9
 9
 9
 9
 9
 9
 9
 9
 9
 9
 9
 9
 9
 9
 9
 9
 9
 9
 9
 9
 9
 9
 9
 9
 9
 9
 9
 9
 9
 9
 9
 9
 9
 9
 9
 9
 9
 9
 9
 9
 9
 9
 9
 9
 9
 9
 9
 9
 9
 9
 9
 9
 9
 9
 9
 9
 9
 9
 9
 9
 9
 9
 9
 9
 9
 9
 9
 9
 9
 9
 9
 9
 9
 9
 9
 9
 9
 9
 9
 9
 9
 9
 9
 9
 9
 9
 9
 9
 9
 9
 9
 9
 9
 9
 9
 9
 9
 9
 9
 9
 9
 9
 9
 9
 9
 9
 9
 9
 9
 9
 9
 9
 9
 9
 9
 9
 9
 9
 9
 9
 9
 9
 9
 9
 9
 9
 9
 9
 9
 9
 9
 9
 9
 9
 9
 9
 9
 9
 9
 9
 9
 9
 9
 9
 9
 9
 9
 9
 9
 9
 9
 9
 9
 9
 9
 9
 9
 9
 9
 9
 9
 9
 9
 9
 9
 9
 9
 9
 9
 9
 9
 9
 9
 9
 9
 9
 9
 9
 9
 9
 9
 9
 9
 9
 9
 9
 9
 9
 9
 9
 9
 9
 9
 9
 9
 9
 9
 9
 9
 9
 9
 9
 9
 9
 9
 9
 9
 9
 9
 9
 9
 9
 9
 9
 9
 9
 9
 9
 9
 9
 9
 9
 9
 9
 9
 9
 9
 9
 9
 9
 9
 9
 9
 9
 9
 9
 9
 9
 9
 9
 9
 9
 9
 9
 9
 9
 9
 9
 9
 9
 9
 9
 9
 9
 9
 9
 9
 9
 9
 9
 9
 9
 9
 9
 9
 9
 9
 9
 9
 9
 9
 9
 9
 9
 9
 9
 9
 9
 9
 9
 9
 9
 9
 9
 9
 9
 9
 9
 9
 9
 9
 9
 9
 9
 9
 9
 9
 9
 9
 9
 9
 9
 9
 9
 9
 9
 9
 9
 9
 9
 9
 9
 9
 9
 9
 9
 9
 9
 9
 9
 9
 9
 9
 9
 9
 9
 9
 9
 9
 9
 9
 9
 9
 9
 9
 9
 9
 9
 9
 9
 9
 9
 9
 9
 9
 9
 9
 9
 9
 9
 9
 9
 9
 9
 9
 9
 9
 9
 9
 9
 9
 9
 9
 9
 9
 9
 9
 9
 9
 9
 9
 9
 9
 9
 9
 9
 9
 9
 9
 9
 9
 9
 9
 9
 9
 9
 9
 9
 9
 9
 9
 9
 9
 9
 9
 9
 9
 9
 9
 9
 9
 9
 9
 9
 9
 9
 9
 9
 9
 9
 9
 9
 9
 9
 9
 9
 9
 9
 9
 9
 9
 9
 9
 9
 9
 9
 9
 9
 9
 9
 9
 9
 9
 9
 9
 9
 9
 9
 9
 9
 9
 9
 9
 9
 9
 9
 9
 9
 9
 9
 9
 9
 9
 9
 9
 9
 9
 9
 9
 9
 9
 9
 9
 9
 9
 9
 9
 9
 9
 9
 9
 9
 9
 9
 9
 9
 9
 9
 9
 9
 9
 9
 9
 9
 9
 9
 9
 9
 9
 9
 9
 9
 9
 9
 9
 9
 9
 9
 9
 9
 9
 9
 9
 9
 9
 9
 9
 9
 9
 9
 9
 9
 9
 9
 9
 9
 9
 9
 9
 9
 9
 9
 9
 9
 9
 9
 9
 9
 9
 9
 9
 9
 9
 9
 9
 9
 9
 9
 9
 9
 9
 9
 9
 9
 9
 9
 9
 9
 9
 9
 9
 9
 9
 9
 9
 9
 9
 9
 9
 9
 9
 9
 9
 9
 9
 9
 9
 9
 9
 9
 9
 9
 9
 9
 9
 9
 9
 9
 9
 9
 9
 9
 9
 9
 9
 9
 9
 9
 9
 9
 9
 9
 9
 9
 9
 9
 9
 9
 9
 9
 9
 9
 9
 9
 9
 9
 9
 9
 9
 9
 9
 9
 9
 9
 9
 9
 9
 9
 9
 9
 9
 9
 9
 9
 9
 9
 9
 9
 9
 9
 9
 9
 9
 9
 9
 9
 9
 9
 9
 9
 9
 9
 9
 9
 9
 9
 9
 9
 9
 9
 9
 9
 9
 9
 9
 9
 9
 9
 9
 9
 9
 9
 9
 9
 9
 9
 9
 9
 9
 9
 9
 9
 9
 9
 9
 9
 9
 9
 9
 9
 9
 9
 9
 9
 9
 9
 9
 9
 9
 9
 9
 9
 9
 9
 9
 9
 9
 9
 9
 9
 9
 9
 9
 9
 9
 9
 9
 9
 9
 9
 9
 9
 9
 9
 9
 9
 9
 9
 9
 9
 9
 9
 9
 9
 9
 9
 9
 9
 9
 9
 9
 9
 9
 9
 9
 9
 9
 9
 9
 9
 9
 9
 9
 9
 9
 9
 9
 9
 9
 9
 9
 9
 9
 9
 9
 9
 9
 9
 9
 9
 9
 9
 9
 9
 9
 9
 9
 9
 9
 9
 9
 9
 9
 9
 9
 9
 9
 9
 9
 9
 9
 9
 9
 9
 9
 9
 9
 9
 9
 9
 9
 9
 9
 9
 9
 9
 9
 9
 9
 9
 9
 9
 9
 9
 9
 9
 9
 9
 9
 9
 9
 9
 9
 9
 9
 9
 9
 9
 9
 9
 9
 9
 9
 9
 9
 9
 9
 9
 9
 9
 9
 9
 9
 9
 9
 9
 9
 9
 9
 9
 9
 9
 9
 9
 9
 9
 9
 9
 9
 9
 9
 9
 9
 9
 9
 9
 9
 9
 9
 9
 9
 9
 9
 9
 9
 9
 9
 9
 9
 9
 9
 9
 9
 9
 9
 9
 9
 9
 9
 9
 9
 9
 9
 9
 9
 </DataArray>
 </Cells> 
 <PointData>
 <DataArray  type="Float64" Name="disp" NumberOfComponents="3" format="ascii">
   0.0000000000000000        0.0000000000000000        0.0000000000000000     
   6.0959864499156614E-003   3.7905950752531344E-003   0.0000000000000000     
   1.1665980928241297E-002   7.3241109802011876E-003   0.0000000000000000     
   1.6709983434976906E-002   1.0600547714844158E-002   0.0000000000000000     
   2.1227993970122493E-002   1.3619905279182051E-002   0.0000000000000000     
   0.0000000000000000        0.0000000000000000        0.0000000000000000     
   4.8911330046635237E-003   3.0223042933036947E-003   0.0000000000000000     
   9.5735614004697558E-003   6.0608075967449691E-003   0.0000000000000000     
   1.4047285187418698E-002   9.1155099103238223E-003   0.0000000000000000     
   1.8312304365510349E-002   1.2186411234040254E-002   0.0000000000000000     
   0.0000000000000000        0.0000000000000000        0.0000000000000000     
   3.9535289550384958E-003   2.4252665775359819E-003   0.0000000000000000     
   7.9105323309027285E-003   5.0631617042162062E-003   0.0000000000000000     
   1.1871010127592700E-002   7.9136853800406744E-003   0.0000000000000000     
   1.5834962345108412E-002   1.0976837605009384E-002   0.0000000000000000     
   0.0000000000000000        0.0000000000000000        0.0000000000000000     
   3.2831743010405773E-003   1.9994819279499955E-003   0.0000000000000000     
   6.6768937195402162E-003   4.3311733026149017E-003   0.0000000000000000     
   1.0181158255498915E-002   6.9950741239947168E-003   0.0000000000000000     
   1.3795967908916674E-002   9.9911843920894444E-003   0.0000000000000000     
   0.0000000000000000        0.0000000000000000        0.0000000000000000     
   2.8800690426697695E-003   1.7449503445457356E-003   0.0000000000000000     
   5.8726455663822164E-003   3.8648423919410515E-003   0.0000000000000000     
   8.9777295711373425E-003   6.3596761421859486E-003   0.0000000000000000     
   1.2195321056935146E-002   9.2294515952804253E-003   0.0000000000000000     
   2.1227993970122493E-002   1.3619905279182051E-002   0.0000000000000000     
   2.5432929754080888E-002   1.6612886432540434E-002   0.0000000000000000     
   2.9537708007254922E-002   1.9810193934244900E-002   0.0000000000000000     
   3.3542328729644598E-002   2.3211827784295435E-002   0.0000000000000000     
   3.7446791921249917E-002   2.6817787982692045E-002   0.0000000000000000     
   1.8312304365510349E-002   1.2186411234040254E-002   0.0000000000000000     
   2.2406832415362780E-002   1.5341941511342340E-002   0.0000000000000000     
   2.6369082817594057E-002   1.8650530685678145E-002   0.0000000000000000     
   3.0199055572204186E-002   2.2112178757047685E-002   0.0000000000000000     
   3.3896750679193156E-002   2.5726885725450947E-002   0.0000000000000000     
   1.5834962345108412E-002   1.0976837605009384E-002   0.0000000000000000     
   1.9730595150681016E-002   1.4211496799940057E-002   0.0000000000000000     
   2.3486114711541675E-002   1.7576541385650415E-002   0.0000000000000000     
   2.7101521027690399E-002   2.1071971362140462E-002   0.0000000000000000     
   3.0576814099127166E-002   2.4697786729410188E-002   0.0000000000000000     
   1.3795967908916674E-002   9.9911843920894444E-003   0.0000000000000000     
   1.7404217960035599E-002   1.3221552298333597E-002   0.0000000000000000     
   2.0888803689097783E-002   1.6588226034161706E-002   0.0000000000000000     
   2.4249725096103236E-002   2.0091205599573760E-002   0.0000000000000000     
   2.7486982181051944E-002   2.3730490994569767E-002   0.0000000000000000     
   1.2195321056935146E-002   9.2294515952804253E-003   0.0000000000000000     
   1.5427700843426526E-002   1.2372108006522956E-002   0.0000000000000000     
   1.8577149750262371E-002   1.5685584631212009E-002   0.0000000000000000     
   2.1643667777442692E-002   1.9169881469347588E-002   0.0000000000000000     
   2.4627254924967486E-002   2.2824998520929680E-002   0.0000000000000000     
   3.7446791921249917E-002   2.6817787982692045E-002   0.0000000000000000     
   4.1255099219750270E-002   3.0623131149967668E-002   0.0000000000000000     
   4.4971252262825084E-002   3.4622913906655242E-002   0.0000000000000000     
   4.8595251050474339E-002   3.8817136252754764E-002   0.0000000000000000     
   5.2127095582698055E-002   4.3205798188266240E-002   0.0000000000000000     
   3.3896750679193156E-002   2.5726885725450947E-002   0.0000000000000000     
   3.7485155649460124E-002   2.9523286533856104E-002   0.0000000000000000     
   4.0987257993904243E-002   3.3530016125231342E-002   0.0000000000000000     
   4.4403057712525493E-002   3.7747074499576642E-002   0.0000000000000000     
   4.7732554805323880E-002   4.2174461656892009E-002   0.0000000000000000     
   3.0576814099127166E-002   2.4697786729410188E-002   0.0000000000000000     
   3.3941353467638977E-002   2.8498417974990829E-002   0.0000000000000000     
   3.7224498675012825E-002   3.2518295586413629E-002   0.0000000000000000     
   4.0426249721248697E-002   3.6757419563678576E-002   0.0000000000000000     
   4.3546606606346613E-002   4.1215789906785670E-002   0.0000000000000000     
   2.7486982181051944E-002   2.3730490994569767E-002   0.0000000000000000     
   3.0623692674286843E-002   2.7548525473371839E-002   0.0000000000000000     
   3.3682974306150859E-002   3.1587752290202109E-002   0.0000000000000000     
   3.6664827076643980E-002   3.5848171445060577E-002   0.0000000000000000     
   3.9569250985766226E-002   4.0329782937947221E-002   0.0000000000000000     
   2.4627254924967486E-002   2.2824998520929680E-002   0.0000000000000000     
   2.7532173269403708E-002   2.6673609028999141E-002   0.0000000000000000     
   3.0362684887318324E-002   3.0738386236596787E-002   0.0000000000000000     
   3.3118789778711327E-002   3.5019330143722618E-002   0.0000000000000000     
   3.5800487943582732E-002   3.9516440750376650E-002   0.0000000000000000     
   5.2127095582698055E-002   4.3205798188266240E-002   0.0000000000000000     
   5.5565722018992660E-002   4.7793830737896018E-002   0.0000000000000000     
   5.8910066518854637E-002   5.2586164926350452E-002   0.0000000000000000     
   6.2160129082283980E-002   5.7582800753629523E-002   0.0000000000000000     
   6.5315909709280681E-002   6.2783738219733265E-002   0.0000000000000000     
   4.7732554805323880E-002   4.2174461656892009E-002   0.0000000000000000     
   5.0971916232013553E-002   4.6805823547084117E-002   0.0000000000000000     
   5.4117308952308596E-002   5.1634806120059620E-002   0.0000000000000000     
   5.7168732966209029E-002   5.6661409375818518E-002   0.0000000000000000     
   6.0126188273714853E-002   6.1885633314360811E-002   0.0000000000000000     
   4.3546606606346613E-002   4.1215789906785670E-002   0.0000000000000000     
   4.6580934304865193E-002   4.5880900467378666E-002   0.0000000000000000     
   4.9524597791363104E-002   5.0740245097101275E-002   0.0000000000000000     
   5.2377597065840331E-002   5.5793823795953518E-002   0.0000000000000000     
   5.5139932128296903E-002   6.1041636563935381E-002   0.0000000000000000     
   3.9569250985766226E-002   4.0329782937947221E-002   0.0000000000000000     
   4.2392776237547614E-002   4.5019061498779635E-002   0.0000000000000000     
   4.5131933036018174E-002   4.9902481857475402E-002   0.0000000000000000     
   4.7786721381177899E-002   5.4980044014034522E-002   0.0000000000000000     
   5.0357141273026797E-002   6.0251747968456996E-002   0.0000000000000000     
   3.5800487943582732E-002   3.9516440750376650E-002   0.0000000000000000     
   3.8407442030060801E-002   4.4220306641287052E-002   0.0000000000000000     
   4.0939314686273792E-002   4.9121516401182008E-002   0.0000000000000000     
   4.3396105912221719E-002   5.4220070030061539E-002   0.0000000000000000     
   4.5777815707904575E-002   5.9515967527925637E-002   0.0000000000000000     
   6.5315909709280681E-002   6.2783738219733265E-002   0.0000000000000000     
   6.8378673297527004E-002   6.8175369677376627E-002   0.0000000000000000     
   7.1349684744705211E-002   7.3744087479274620E-002   0.0000000000000000     
   7.4228944050815288E-002   7.9489891625427231E-002   0.0000000000000000     
   7.7016451215857262E-002   8.5412782115834460E-002   0.0000000000000000     
   6.0126188273714853E-002   6.1885633314360811E-002   0.0000000000000000     
   6.2993820811565099E-002   6.7298743196214705E-002   0.0000000000000000     
   6.5775776516498782E-002   7.2892004281908424E-002   0.0000000000000000     
   6.8472055388515932E-002   7.8665416571441979E-002   0.0000000000000000     
   7.1082657427616505E-002   8.4618980064815344E-002   0.0000000000000000     
   5.5139932128296903E-002   6.1041636563935381E-002   0.0000000000000000     
   5.7816762945077878E-002   6.6477499574162047E-002   0.0000000000000000     
   6.0413249482528394E-002   7.2095228999748656E-002   0.0000000000000000     
   6.2929391740648460E-002   7.7894824840695237E-002   0.0000000000000000     
   6.5365189719438041E-002   8.3876287097001789E-002   0.0000000000000000     
   5.0357141273026797E-002   6.0251747968456996E-002   0.0000000000000000     
   5.2847499698065348E-002   6.5711638811218651E-002   0.0000000000000000     
   5.5262103642794061E-002   7.1353761632795346E-002   0.0000000000000000     
   5.7600953107212895E-002   7.7178116433187047E-002   0.0000000000000000     
   5.9864048091321877E-002   8.3184703212393768E-002   0.0000000000000000     
   4.5777815707904575E-002   5.9515967527925637E-002   0.0000000000000000     
   4.8086031070527530E-002   6.5001160907384517E-002   0.0000000000000000     
   5.0322338997295754E-002   7.0667602181048408E-002   0.0000000000000000     
   5.2486739488209241E-002   7.6515291348917353E-002   0.0000000000000000     
   5.4579232543268005E-002   8.2544228410991308E-002   0.0000000000000000     
   7.7016451215857262E-002   8.5412782115834460E-002   0.0000000000000000     
   7.9706473157247271E-002   9.1504208176442045E-002   0.0000000000000000     
   8.2293276792401421E-002   9.7755619033195740E-002   0.0000000000000000     
   8.4776862121319740E-002  0.10416701468609552        0.0000000000000000     
   8.7157229144002230E-002  0.11073839513514139        0.0000000000000000     
   7.1082657427616505E-002   8.4618980064815344E-002   0.0000000000000000     
   7.3602040814984920E-002   9.0741714425049233E-002   0.0000000000000000     
   7.6024663731805539E-002   9.7022639315164319E-002   0.0000000000000000     
   7.8350526178078347E-002  0.10346175473516062        0.0000000000000000     
   8.0579628153803387E-002  0.11005906068503812        0.0000000000000000     
   6.5365189719438041E-002   8.3876287097001789E-002   0.0000000000000000     
   6.7715685070799572E-002   9.0027253593477061E-002   0.0000000000000000     
   6.9975919446635462E-002   9.6335362154929938E-002   0.0000000000000000     
   7.2145892846945670E-002  0.10280061278136031        0.0000000000000000     
   7.4225605271730263E-002  0.10942300547276826        0.0000000000000000     
   5.9864048091321877E-002   8.3184703212393768E-002   0.0000000000000000     
   6.2047405924691226E-002   8.9360825681725584E-002   0.0000000000000000     
   6.4147043936891163E-002   9.5693787552492512E-002   0.0000000000000000     
   6.6162962127921721E-002  0.10218358882469464        0.0000000000000000     
   6.8095160497782872E-002  0.10883022949833188        0.0000000000000000     
   5.4579232543268005E-002   8.2544228410991308E-002   0.0000000000000000     
   5.6597203376659876E-002   8.8742430689794746E-002   0.0000000000000000     
   5.8538037202572696E-002   9.5097915507852154E-002   0.0000000000000000     
   6.0401734021006466E-002  0.10161068286516352        0.0000000000000000     
   6.2188293831961172E-002  0.10828073276172887        0.0000000000000000     
   8.7157229144002230E-002  0.11073839513514139        0.0000000000000000     
   8.9444116761377909E-002  0.11745568573888744        0.0000000000000000     
   9.1647263874375787E-002  0.12430481185588771        0.0000000000000000     
   9.3766670482995862E-002  0.13128577348614223        0.0000000000000000     
   9.5802336587238135E-002  0.13839857062965097        0.0000000000000000     
   8.0579628153803387E-002  0.11005906068503812        0.0000000000000000     
   8.2719598872091377E-002  0.11680199753915746        0.0000000000000000     
   8.4778067546053049E-002  0.12367800567187924        0.0000000000000000     
   8.6755034175688431E-002  0.13068708508320351        0.0000000000000000     
   8.8650498760997509E-002  0.13782923577313025        0.0000000000000000     
   7.4225605271730263E-002  0.10942300547276826        0.0000000000000000     
   7.6221273040407267E-002  0.11619088664551583        0.0000000000000000     
   7.8139112472394801E-002  0.12309260271596503        0.0000000000000000     
   7.9979123567692809E-002  0.13012815368411587        0.0000000000000000     
   8.1741306326301319E-002  0.13729753954996837        0.0000000000000000     
   6.8095160497782872E-002  0.10883022949833188        0.0000000000000000     
   6.9949139266325594E-002  0.11562235305796256        0.0000000000000000     
   7.1730398653400987E-002  0.12254860298814503        0.0000000000000000     
   7.3438938659008968E-002  0.12960897928887927        0.0000000000000000     
   7.5074759283149578E-002  0.13680348196016531        0.0000000000000000     
   6.2188293831961172E-002  0.10828073276172887        0.0000000000000000     
   6.3903197549846372E-002  0.11509639677649763        0.0000000000000000     
   6.5551926089071622E-002  0.12204600648841928        0.0000000000000000     
   6.7134479449636908E-002  0.12912956189749375        0.0000000000000000     
   6.8650857631542245E-002  0.13634706300372110        0.0000000000000000     
   9.5802336587238135E-002  0.13839857062965097        0.0000000000000000     
   9.7745683964993252E-002  0.14563308985115844        0.0000000000000000     
   9.9588134394151914E-002  0.15297921771540918        0.0000000000000000     
  0.10132968787471405       0.16043695422240314        0.0000000000000000     
  0.10297034440667971       0.16800629937214034        0.0000000000000000     
   8.8650498760997509E-002  0.13782923577313025        0.0000000000000000     
   9.0452263930427143E-002  0.14509272377905888        0.0000000000000000     
   9.2148132312424191E-002  0.15246581513838880        0.0000000000000000     
   9.3738103906988668E-002  0.15994850985112014        0.0000000000000000     
   9.5222178714120559E-002  0.16754080791725270        0.0000000000000000     
   8.1741306326301319E-002  0.13729753954996837        0.0000000000000000     
   8.3412103236715801E-002  0.14458807612633273        0.0000000000000000     
   8.4977956787431641E-002  0.15198707922601912        0.0000000000000000     
   8.6438866978448908E-002  0.15949454884902753        0.0000000000000000     
   8.7794833809767561E-002  0.16711048499535797        0.0000000000000000     
   7.5074759283149578E-002  0.13680348196016531        0.0000000000000000     
   7.6625201883859184E-002  0.14411914689297997        0.0000000000000000     
   7.8077607819174263E-002  0.15154300997829995        0.0000000000000000     
   7.9431977089094788E-002  0.15907507121612538        0.0000000000000000     
   8.0688309693620730E-002  0.16671533060645619        0.0000000000000000     
   6.8650857631542245E-002  0.13634706300372110        0.0000000000000000     
   7.0091559871857362E-002  0.14368593607900057        0.0000000000000000     
   7.1447085407652058E-002  0.15113360739523143        0.0000000000000000     
   7.2717434238926293E-002  0.15869007695241366        0.0000000000000000     
   7.3902606365680079E-002  0.16635534475054728        0.0000000000000000     
   0.0000000000000000        0.0000000000000000        0.0000000000000000     
   2.8800690426697695E-003   1.7449503445457356E-003   0.0000000000000000     
   5.8726455663822164E-003   3.8648423919410515E-003   0.0000000000000000     
   8.9777295711373425E-003   6.3596761421859486E-003   0.0000000000000000     
   1.2195321056935146E-002   9.2294515952804253E-003   0.0000000000000000     
   0.0000000000000000        0.0000000000000000        0.0000000000000000     
   2.6103528575223819E-003   1.5890154538817517E-003   0.0000000000000000     
   5.2897811255276208E-003   3.5568620735903370E-003   0.0000000000000000     
   8.0382848040157166E-003   5.9035398591257560E-003   0.0000000000000000     
   1.0855863892986671E-002   8.6290488104880086E-003   0.0000000000000000     
   0.0000000000000000        0.0000000000000000        0.0000000000000000     
   2.3401654231947240E-003   1.4590208825165942E-003   0.0000000000000000     
   4.7202936510753165E-003   3.2999254489584360E-003   0.0000000000000000     
   7.1403846836417765E-003   5.5227136993255248E-003   0.0000000000000000     
   9.6004385208941067E-003   8.1273856336178622E-003   0.0000000000000000     
   0.0000000000000000        0.0000000000000000        0.0000000000000000     
   2.0695067396867967E-003   1.3549666304502625E-003   0.0000000000000000     
   4.1641831430253035E-003   3.0940325180453471E-003   0.0000000000000000     
   6.2840292100155206E-003   5.2171976627852536E-003   0.0000000000000000     
   8.4290449406574462E-003   7.7244620646699843E-003   0.0000000000000000     
   0.0000000000000000        0.0000000000000000        0.0000000000000000     
   1.7983768069986003E-003   1.2768526976827568E-003   0.0000000000000000     
   3.6214496013775828E-003   2.9391832808510717E-003   0.0000000000000000     
   5.4692183831369472E-003   4.9869917495049456E-003   0.0000000000000000     
   7.3416831522766955E-003   7.4202781036443784E-003   0.0000000000000000     
   1.2195321056935146E-002   9.2294515952804253E-003   0.0000000000000000     
   1.5427700843426526E-002   1.2372108006522956E-002   0.0000000000000000     
   1.8577149750262371E-002   1.5685584631212009E-002   0.0000000000000000     
   2.1643667777442692E-002   1.9169881469347588E-002   0.0000000000000000     
   2.4627254924967486E-002   2.2824998520929680E-002   0.0000000000000000     
   1.0855863892986671E-002   8.6290488104880086E-003   0.0000000000000000     
   1.3689229005120953E-002   1.1651118776007587E-002   0.0000000000000000     
   1.6485090753099032E-002   1.4887479604014986E-002   0.0000000000000000     
   1.9243449136920904E-002   1.8338131294510205E-002   0.0000000000000000     
   2.1964304156586574E-002   2.2003073847493240E-002   0.0000000000000000     
   9.6004385208941067E-003   8.1273856336178622E-003   0.0000000000000000     
   1.2076987649386048E-002   1.1046539458286948E-002   0.0000000000000000     
   1.4546564555671342E-002   1.4212773379784287E-002   0.0000000000000000     
   1.7009169239749999E-002   1.7626087398109880E-002   0.0000000000000000     
   1.9464801701622004E-002   2.1286481513263723E-002   0.0000000000000000     
   8.4290449406574462E-003   7.7244620646699843E-003   0.0000000000000000     
   1.0590976776221802E-002   1.0558370053361039E-002   0.0000000000000000     
   1.2761571157979310E-002   1.3661465958519916E-002   0.0000000000000000     
   1.4940828085929966E-002   1.7033749780146615E-002   0.0000000000000000     
   1.7128747560073772E-002   2.0675221518241138E-002   0.0000000000000000     
   7.3416831522766955E-003   7.4202781036443784E-003   0.0000000000000000     
   9.2311963856282226E-003   1.0186610561229856E-002   0.0000000000000000     
   1.1130110560022928E-002   1.3233557340221868E-002   0.0000000000000000     
   1.3038425675460813E-002   1.6561118440620408E-002   0.0000000000000000     
   1.4956141731941876E-002   2.0169293862425483E-002   0.0000000000000000     
   2.4627254924967486E-002   2.2824998520929680E-002   0.0000000000000000     
   2.7532173269403708E-002   2.6673609028999141E-002   0.0000000000000000     
   3.0362684887318324E-002   3.0738386236596787E-002   0.0000000000000000     
   3.3118789778711327E-002   3.5019330143722618E-002   0.0000000000000000     
   3.5800487943582732E-002   3.9516440750376650E-002   0.0000000000000000     
   2.1964304156586574E-002   2.2003073847493240E-002   0.0000000000000000     
   2.4631193829309783E-002   2.5880281372246374E-002   0.0000000000000000     
   2.7227656172304274E-002   2.9967727978051896E-002   0.0000000000000000     
   2.9753691185570037E-002   3.4265413664909802E-002   0.0000000000000000     
   3.2209298869107082E-002   3.8773338432820076E-002   0.0000000000000000     
   1.9464801701622004E-002   2.1286481513263723E-002   0.0000000000000000     
   2.1885152930325287E-002   2.5175155233487193E-002   0.0000000000000000     
   2.4241913914897748E-002   2.9273308067021667E-002   0.0000000000000000     
   2.6535084655339405E-002   3.3580940013867140E-002   0.0000000000000000     
   2.8764665151650236E-002   3.8098051074023608E-002   0.0000000000000000     
   1.7128747560073772E-002   2.0675221518241138E-002   0.0000000000000000     
   1.9294050572450209E-002   2.4558230612721599E-002   0.0000000000000000     
   2.1405458115098756E-002   2.8655126503506108E-002   0.0000000000000000     
   2.3462970188019409E-002   3.2965909190594653E-002   0.0000000000000000     
   2.5466586791212172E-002   3.7490578673987252E-002   0.0000000000000000     
   1.4956141731941876E-002   2.0169293862425483E-002   0.0000000000000000     
   1.6857886755684552E-002   2.4029507509949585E-002   0.0000000000000000     
   1.8718288772907286E-002   2.8113183287505207E-002   0.0000000000000000     
   2.0537347783610074E-002   3.2420321195092347E-002   0.0000000000000000     
   2.2315063787792910E-002   3.6950921232711008E-002   0.0000000000000000     
   3.5800487943582732E-002   3.9516440750376650E-002   0.0000000000000000     
   3.8407442030060801E-002   4.4220306641287052E-002   0.0000000000000000     
   4.0939314686273792E-002   4.9121516401182008E-002   0.0000000000000000     
   4.3396105912221719E-002   5.4220070030061539E-002   0.0000000000000000     
   4.5777815707904575E-002   5.9515967527925637E-002   0.0000000000000000     
   3.2209298869107082E-002   3.8773338432820076E-002   0.0000000000000000     
   3.4597076647331200E-002   4.3487150078867297E-002   0.0000000000000000     
   3.6919621944658164E-002   4.8402496400136025E-002   0.0000000000000000     
   3.9176934761087988E-002   5.3519377396626273E-002   0.0000000000000000     
   4.1369015096620665E-002   5.8837793068338008E-002   0.0000000000000000     
   2.8764665151650236E-002   3.8098051074023608E-002   0.0000000000000000     
   3.0933825054285258E-002   4.2822105995486796E-002   0.0000000000000000     
   3.3045734013699479E-002   4.7750569526252409E-002   0.0000000000000000     
   3.5100392029892902E-002   5.2883441666320433E-002   0.0000000000000000     
   3.7097799102865522E-002   5.8220722415690859E-002   0.0000000000000000     
   2.5466586791212172E-002   3.7490578673987252E-002   0.0000000000000000     
   2.7417687250922973E-002   4.2225174391145537E-002   0.0000000000000000     
   2.9317650893397735E-002   4.7165735779531114E-002   0.0000000000000000     
   3.1166477718636461E-002   5.2312262839143996E-002   0.0000000000000000     
   3.2964167726639147E-002   5.7664755569984176E-002   0.0000000000000000     
   2.2315063787792910E-002   3.6950921232711008E-002   0.0000000000000000     
   2.4048663237244347E-002   4.1696355265843511E-002   0.0000000000000000     
   2.5735372583752931E-002   4.6647995159972172E-002   0.0000000000000000     
   2.7375191827318662E-002   5.1805840915096983E-002   0.0000000000000000     
   2.8968120967941539E-002   5.7169892531217958E-002   0.0000000000000000     
   4.5777815707904575E-002   5.9515967527925637E-002   0.0000000000000000     
   4.8086031070527530E-002   6.5001160907384517E-002   0.0000000000000000     
   5.0322338997295754E-002   7.0667602181048408E-002   0.0000000000000000     
   5.2486739488209241E-002   7.6515291348917353E-002   0.0000000000000000     
   5.4579232543268005E-002   8.2544228410991308E-002   0.0000000000000000     
   4.1369015096620665E-002   5.8837793068338008E-002   0.0000000000000000     
   4.3494558686388594E-002   6.4346985866930412E-002   0.0000000000000000     
   4.5552261265524162E-002   7.0036198244062597E-002   0.0000000000000000     
   4.7542122834027360E-002   7.5905430199734586E-002   0.0000000000000000     
   4.9464143391898210E-002   8.1954681733946363E-002   0.0000000000000000     
   3.7097799102865522E-002   5.8220722415690859E-002   0.0000000000000000     
   3.9035284169572741E-002   6.3750033694127115E-002   0.0000000000000000     
   4.0910176166969930E-002   6.9458997421392568E-002   0.0000000000000000     
   4.2722475095057118E-002   7.5347613597487165E-002   0.0000000000000000     
   4.4472180953834269E-002   8.1415882222410987E-002   0.0000000000000000     
   3.2964167726639147E-002   5.7664755569984176E-002   0.0000000000000000     
   3.4708207520079956E-002   6.3210304388974625E-002   0.0000000000000000     
   3.6396083701633074E-002   6.8935999713038251E-002   0.0000000000000000     
   3.8027796271298472E-002   7.4841841542175089E-002   0.0000000000000000     
   3.9603345229076180E-002   8.0927829876385124E-002   0.0000000000000000     
   2.8968120967941539E-002   5.7169892531217958E-002   0.0000000000000000     
   3.0513328737910274E-002   6.2727797951472930E-002   0.0000000000000000     
   3.2009983869513585E-002   6.8467205118999730E-002   0.0000000000000000     
   3.3458086362751466E-002   7.4388114033798358E-002   0.0000000000000000     
   3.4857636217623930E-002   8.0490524695868801E-002   0.0000000000000000     
   5.4579232543268005E-002   8.2544228410991308E-002   0.0000000000000000     
   5.6597203376659876E-002   8.8742430689794746E-002   0.0000000000000000     
   5.8538037202572696E-002   9.5097915507852154E-002   0.0000000000000000     
   6.0401734021006466E-002  0.10161068286516352        0.0000000000000000     
   6.2188293831961172E-002  0.10828073276172887        0.0000000000000000     
   4.9464143391898210E-002   8.1954681733946363E-002   0.0000000000000000     
   5.1316904524116372E-002   8.8172919095802424E-002   0.0000000000000000     
   5.3098987815661497E-002   9.4549108534407178E-002   0.0000000000000000     
   5.4810393266533600E-002  0.10108325004976067        0.0000000000000000     
   5.6451120876732652E-002  0.10777534364186288        0.0000000000000000     
   4.4472180953834269E-002   8.1415882222410987E-002   0.0000000000000000     
   4.6158336464471546E-002   8.7653141377866450E-002   0.0000000000000000     
   4.7779984348139050E-002   9.4048729145555995E-002   0.0000000000000000     
   4.9337124604836795E-002  0.10060264552547966        0.0000000000000000     
   5.0829757234564781E-002  0.10731489051763744        0.0000000000000000     
   3.9603345229076180E-002   8.0927829876385124E-002   0.0000000000000000     
   4.1121499197725390E-002   8.7183097535986825E-002   0.0000000000000000     
   4.2581026800005362E-002   9.3596777341298620E-002   0.0000000000000000     
   4.3981928035916079E-002  0.10016886929232052        0.0000000000000000     
   4.5324202905457536E-002  0.10689937338905253        0.0000000000000000     
   3.4857636217623930E-002   8.0490524695868801E-002   0.0000000000000000     
   3.6206392723877927E-002   8.6762787570163549E-002   0.0000000000000000     
   3.7502115171260425E-002   9.3193253121635011E-002   0.0000000000000000     
   3.8744803559771425E-002   9.9781921350283229E-002   0.0000000000000000     
   3.9934457889410926E-002  0.10652879225610817        0.0000000000000000     
   6.2188293831961172E-002  0.10828073276172887        0.0000000000000000     
   6.3903197549846372E-002  0.11509639677649763        0.0000000000000000     
   6.5551926089071622E-002  0.12204600648841928        0.0000000000000000     
   6.7134479449636908E-002  0.12912956189749375        0.0000000000000000     
   6.8650857631542245E-002  0.13634706300372110        0.0000000000000000     
   5.6451120876732652E-002  0.10777534364186288        0.0000000000000000     
   5.8026782190919453E-002  0.11461324861603903        0.0000000000000000     
   5.9542988753754737E-002  0.12158482427761433        0.0000000000000000     
   6.0999740565238492E-002  0.12869007062658877        0.0000000000000000     
   6.2397037625370730E-002  0.13592898766296238        0.0000000000000000     
   5.0829757234564781E-002  0.10731489051763744        0.0000000000000000     
   5.2263227489494711E-002  0.11417313939150470        0.0000000000000000     
   5.3642880621798290E-002  0.12116506741655685        0.0000000000000000     
   5.4968716631475519E-002  0.12829067459279386        0.0000000000000000     
   5.6240735518526416E-002  0.13554996092021573        0.0000000000000000     
   4.5324202905457536E-002  0.10689937338905253        0.0000000000000000     
   4.6612533445572153E-002  0.11377606910289462        0.0000000000000000     
   4.7851601693202309E-002  0.12078673590524679        0.0000000000000000     
   4.9041407648348037E-002  0.12793137379610903        0.0000000000000000     
   5.0181951311009304E-002  0.13520998277548127        0.0000000000000000     
   3.9934457889410926E-002  0.10652879225610817        0.0000000000000000     
   4.1074700059151766E-002  0.11342203775020883        0.0000000000000000     
   4.2169151967966792E-002  0.12044982974368418        0.0000000000000000     
   4.3217813615855999E-002  0.12761216823653421        0.0000000000000000     
   4.4220685002819379E-002  0.13490905322875890        0.0000000000000000     
   6.8650857631542245E-002  0.13634706300372110        0.0000000000000000     
   7.0091559871857362E-002  0.14368593607900057        0.0000000000000000     
   7.1447085407652058E-002  0.15113360739523143        0.0000000000000000     
   7.2717434238926293E-002  0.15869007695241366        0.0000000000000000     
   7.3902606365680079E-002  0.16635534475054728        0.0000000000000000     
   6.2397037625370730E-002  0.13592898766296238        0.0000000000000000     
   6.3728710634233951E-002  0.14328958585201115        0.0000000000000000     
   6.4988590291910647E-002  0.15075987565901125        0.0000000000000000     
   6.6176676598400805E-002  0.15833985708396259        0.0000000000000000     
   6.7292969553704451E-002  0.16602953012686522        0.0000000000000000     
   5.6240735518526416E-002  0.13554996092021573        0.0000000000000000     
   5.7454187604512597E-002  0.14293123837962829        0.0000000000000000     
   5.8604323210995707E-002  0.15042281895183712        0.0000000000000000     
   5.9691142337975740E-002  0.15802470263684235        0.0000000000000000     
   6.0714644985452697E-002  0.16573688943464390        0.0000000000000000     
   5.0181951311009304E-002  0.13520998277548127        0.0000000000000000     
   5.1267990782693305E-002  0.14261089366185187        0.0000000000000000     
   5.2294284164907230E-002  0.15012243727370914        0.0000000000000000     
   5.3260831457651071E-002  0.15774461361105291        0.0000000000000000     
   5.4167632660924822E-002  0.16547742267388338        0.0000000000000000     
   4.4220685002819379E-002  0.13490905322875890        0.0000000000000000     
   4.5170120168776078E-002  0.14232855169868200        0.0000000000000000     
   4.6058473153645217E-002  0.14985873062462715        0.0000000000000000     
   4.6885743957426798E-002  0.15749959000659433        0.0000000000000000     
   4.7651932580120827E-002  0.16525112984458359        0.0000000000000000     
   0.0000000000000000        0.0000000000000000        0.0000000000000000     
   1.7983768069986003E-003   1.2768526976827568E-003   0.0000000000000000     
   3.6214496013775828E-003   2.9391832808510717E-003   0.0000000000000000     
   5.4692183831369472E-003   4.9869917495049456E-003   0.0000000000000000     
   7.3416831522766955E-003   7.4202781036443784E-003   0.0000000000000000     
   0.0000000000000000        0.0000000000000000        0.0000000000000000     
   1.5350610528712268E-003   1.2175611569609339E-003   0.0000000000000000     
   3.0994638594807984E-003   2.8208625669920448E-003   0.0000000000000000     
   4.6932084198287143E-003   4.8099042300933318E-003   0.0000000000000000     
   6.3162947339149749E-003   7.1846861462647963E-003   0.0000000000000000     
   0.0000000000000000        0.0000000000000000        0.0000000000000000     
   1.2878449050457710E-003   1.1699740810316500E-003   0.0000000000000000     
   2.6055967506835951E-003   2.7245552060846988E-003   0.0000000000000000     
   3.9532555369134730E-003   4.6637433751591465E-003   0.0000000000000000     
   5.3308212637354054E-003   6.9875385882549939E-003   0.0000000000000000     
   0.0000000000000000        0.0000000000000000        0.0000000000000000     
   1.0567283635222323E-003   1.1340914698949049E-003   0.0000000000000000     
   2.1398482749859743E-003   2.6502611981290350E-003   0.0000000000000000     
   3.2493597343912265E-003   4.5485091847023897E-003   0.0000000000000000     
   4.3852627417379879E-003   6.8288354296149704E-003   0.0000000000000000     
   0.0000000000000000        0.0000000000000000        0.0000000000000000     
   8.4171142830061088E-004   1.1099133235506990E-003   0.0000000000000000     
   1.7022184323879351E-003   2.5979805431250533E-003   0.0000000000000000     
   2.5815210122619725E-003   4.4642016587230614E-003   0.0000000000000000     
   3.4796191679227228E-003   6.7085766703447259E-003   0.0000000000000000     
   7.3416831522766955E-003   7.4202781036443784E-003   0.0000000000000000     
   9.2311963856282226E-003   1.0186610561229856E-002   0.0000000000000000     
   1.1130110560022928E-002   1.3233557340221868E-002   0.0000000000000000     
   1.3038425675460813E-002   1.6561118440620408E-002   0.0000000000000000     
   1.4956141731941876E-002   2.0169293862425483E-002   0.0000000000000000     
   6.3162947339149749E-003   7.1846861462647963E-003   0.0000000000000000     
   7.9560138277156717E-003   9.8956418277473639E-003   0.0000000000000000     
   9.5996567272069004E-003   1.2893204786781961E-002   0.0000000000000000     
   1.1247223432388659E-002   1.6177375023368586E-002   0.0000000000000000     
   1.2898713943260948E-002   1.9748152537507245E-002   0.0000000000000000     
   5.3308212637354054E-003   6.9875385882549939E-003   0.0000000000000000     
   6.7237964525945111E-003   9.6498446987675207E-003   0.0000000000000000     
   8.1176836249359161E-003   1.2604565560092018E-002   0.0000000000000000     
   9.5124827807596159E-003   1.5851701172228477E-002   0.0000000000000000     
   1.0908193920065614E-002   1.9391251535176901E-002   0.0000000000000000     
   4.3852627417379879E-003   6.8288354296149704E-003   0.0000000000000000     
   5.5345442602647435E-003   9.4492191742903339E-003   0.0000000000000000     
   6.6841912532099772E-003   1.2367639660152033E-002   0.0000000000000000     
   7.8342037205736889E-003   1.5584096887200078E-002   0.0000000000000000     
   8.9845816623558786E-003   1.9098590855434458E-002   0.0000000000000000     
   3.4796191679227228E-003   6.7085766703447259E-003   0.0000000000000000     
   4.3882572507263672E-003   9.2937652543157931E-003   0.0000000000000000     
   5.2991796120290830E-003   1.2182427086962015E-002   0.0000000000000000     
   6.2123862518308742E-003   1.5374562168283387E-002   0.0000000000000000     
   7.1278771701317380E-003   1.8870170498279909E-002   0.0000000000000000     
   1.4956141731941876E-002   2.0169293862425483E-002   0.0000000000000000     
   1.6857886755684552E-002   2.4029507509949585E-002   0.0000000000000000     
   1.8718288772907286E-002   2.8113183287505207E-002   0.0000000000000000     
   2.0537347783610074E-002   3.2420321195092347E-002   0.0000000000000000     
   2.2315063787792910E-002   3.6950921232711008E-002   0.0000000000000000     
   1.2898713943260948E-002   1.9748152537507245E-002   0.0000000000000000     
   1.4537691131323133E-002   2.3579408689731393E-002   0.0000000000000000     
   1.6147717868074587E-002   2.7645014840574484E-002   0.0000000000000000     
   1.7728794153515307E-002   3.1944970990036542E-002   0.0000000000000000     
   1.9280919987645292E-002   3.6479277138117543E-002   0.0000000000000000     
   1.0908193920065614E-002   1.9391251535176901E-002   0.0000000000000000     
   1.2294493350660759E-002   2.3198356916627246E-002   0.0000000000000000     
   1.3661057380351900E-002   2.7248157584269461E-002   0.0000000000000000     
   1.5007886009139038E-002   3.1540653538103550E-002   0.0000000000000000     
   1.6334979237022172E-002   3.6075844778129508E-002   0.0000000000000000     
   8.9845816623558786E-003   1.9098590855434458E-002   0.0000000000000000     
   1.0128293413697427E-002   2.2886352190637154E-002   0.0000000000000000     
   1.1258307309739223E-002   2.6922611518590121E-002   0.0000000000000000     
   1.2374623350481265E-002   3.1207368839293387E-002   0.0000000000000000     
   1.3477241535923548E-002   3.5740624152746918E-002   0.0000000000000000     
   7.1278771701317380E-003   1.8870170498279909E-002   0.0000000000000000     
   8.0390913204331435E-003   2.2643394511761106E-002   0.0000000000000000     
   8.9394676562365594E-003   2.6668376643536475E-002   0.0000000000000000     
   9.8290061775419841E-003   3.0945116893606035E-002   0.0000000000000000     
   1.0707706884349417E-002   3.5473615261969772E-002   0.0000000000000000     
   2.2315063787792910E-002   3.6950921232711008E-002   0.0000000000000000     
   2.4048663237244347E-002   4.1696355265843511E-002   0.0000000000000000     
   2.5735372583752931E-002   4.6647995159972172E-002   0.0000000000000000     
   2.7375191827318662E-002   5.1805840915096983E-002   0.0000000000000000     
   2.8968120967941539E-002   5.7169892531217958E-002   0.0000000000000000     
   1.9280919987645292E-002   3.6479277138117543E-002   0.0000000000000000     
   2.0797133136393042E-002   4.1233859105005800E-002   0.0000000000000000     
   2.2270471365687061E-002   4.6194642710889605E-002   0.0000000000000000     
   2.3700934675527335E-002   5.1361627955768985E-002   0.0000000000000000     
   2.5088523065913877E-002   5.6734814839643925E-002   0.0000000000000000     
   1.6334979237022172E-002   3.6075844778129508E-002   0.0000000000000000     
   1.7633477071512721E-002   4.0835896394057450E-002   0.0000000000000000     
   1.8894519520122097E-002   4.5802973475597461E-002   0.0000000000000000     
   2.0118106582850306E-002   5.0977076022749576E-002   0.0000000000000000     
   2.1304238259697343E-002   5.6358204035513768E-002   0.0000000000000000     
   1.3477241535923548E-002   3.5740624152746918E-002   0.0000000000000000     
   1.4557695042603373E-002   4.0502467132998460E-002   0.0000000000000000     
   1.5607517047058051E-002   4.5472987454095753E-002   0.0000000000000000     
   1.6626707549287571E-002   5.0652185116038750E-002   0.0000000000000000     
   1.7615266549291939E-002   5.6040060118827492E-002   0.0000000000000000     
   1.0707706884349417E-002   3.5473615261969772E-002   0.0000000000000000     
   1.1569787049665011E-002   4.0233571321828851E-002   0.0000000000000000     
   1.2409463946494918E-002   4.5204684646384434E-002   0.0000000000000000     
   1.3226737574839135E-002   5.0386955235636521E-002   0.0000000000000000     
   1.4021607934697665E-002   5.5780383089585099E-002   0.0000000000000000     
   2.8968120967941539E-002   5.7169892531217958E-002   0.0000000000000000     
   3.0513328737910274E-002   6.2727797951472930E-002   0.0000000000000000     
   3.2009983869513585E-002   6.8467205118999730E-002   0.0000000000000000     
   3.3458086362751466E-002   7.4388114033798358E-002   0.0000000000000000     
   3.4857636217623930E-002   8.0490524695868801E-002   0.0000000000000000     
   2.5088523065913877E-002   5.6734814839643925E-002   0.0000000000000000     
   2.6434247248510328E-002   6.2302638714269262E-002   0.0000000000000000     
   2.7739117934980344E-002   6.8053534931399873E-002   0.0000000000000000     
   2.9003135125323914E-002   7.3987503491035750E-002   0.0000000000000000     
   3.0226298819541052E-002   8.0104544393176894E-002   0.0000000000000000     
   2.1304238259697343E-002   5.6358204035513768E-002   0.0000000000000000     
   2.2454562477326790E-002   6.1934951010010841E-002   0.0000000000000000     
   2.3570727162402230E-002   6.7695910442361604E-002   0.0000000000000000     
   2.4652732314923653E-002   7.3641082332566082E-002   0.0000000000000000     
   2.5700577934891073E-002   7.9770466680624222E-002   0.0000000000000000     
   1.7615266549291939E-002   5.6040060118827492E-002   0.0000000000000000     
   1.8574274424359660E-002   6.1624734838697653E-002   0.0000000000000000     
   1.9504811551779237E-002   6.7394331651884923E-002   0.0000000000000000     
   2.0406877931550681E-002   7.3348850558389328E-002   0.0000000000000000     
   2.1280473563673980E-002   7.9488291558210827E-002   0.0000000000000000     
   1.4021607934697665E-002   5.5780383089585099E-002   0.0000000000000000     
   1.4793383089608933E-002   6.1371990200329712E-002   0.0000000000000000     
   1.5541371103111377E-002   6.7148798559969844E-002   0.0000000000000000     
   1.6265571975204993E-002   7.3110808168505514E-002   0.0000000000000000     
   1.6965985705889784E-002   7.9258019025936710E-002   0.0000000000000000     
   3.4857636217623930E-002   8.0490524695868801E-002   0.0000000000000000     
   3.6206392723877927E-002   8.6762787570163549E-002   0.0000000000000000     
   3.7502115171260425E-002   9.3193253121635011E-002   0.0000000000000000     
   3.8744803559771425E-002   9.9781921350283229E-002   0.0000000000000000     
   3.9934457889410926E-002  0.10652879225610817        0.0000000000000000     
   3.0226298819541052E-002   8.0104544393176894E-002   0.0000000000000000     
   3.1405373906591483E-002   8.6392104979445883E-002   0.0000000000000000     
   3.2537125275434946E-002   9.2837632591465366E-002   0.0000000000000000     
   3.3621552926071434E-002   9.9441127229235302E-002   0.0000000000000000     
   3.4658656858500954E-002  0.10620258889275572        0.0000000000000000     
   2.5700577934891073E-002   7.9770466680624222E-002   0.0000000000000000     
   2.6710799609528414E-002   8.6070943262883115E-002   0.0000000000000000     
   2.7679932926059619E-002   9.2529391855689813E-002   0.0000000000000000     
   2.8607977884484680E-002   9.9145812459044275E-002   0.0000000000000000     
   2.9494934484803614E-002  0.10592020507294658        0.0000000000000000     
   2.1280473563673980E-002   7.9488291558210827E-002   0.0000000000000000     
   2.2122669832688714E-002   8.5799302420475246E-002   0.0000000000000000     
   2.2930538123134440E-002   9.2268530914308367E-002   0.0000000000000000     
   2.3704078435011173E-002   9.8895977039710203E-002   0.0000000000000000     
   2.4443290768318904E-002  0.10568164079668071        0.0000000000000000     
   1.6965985705889784E-002   7.9258019025936710E-002   0.0000000000000000     
   1.7640984576072379E-002   8.5577182452222261E-002   0.0000000000000000     
   1.8288940866659418E-002   9.2055049767321012E-002   0.0000000000000000     
   1.8909854577650907E-002   9.8691620971233004E-002   0.0000000000000000     
   1.9503725709046835E-002  0.10548689606395817        0.0000000000000000     
   3.9934457889410926E-002  0.10652879225610817        0.0000000000000000     
   4.1074700059151766E-002  0.11342203775020883        0.0000000000000000     
   4.2169151967966792E-002  0.12044982974368418        0.0000000000000000     
   4.3217813615855999E-002  0.12761216823653421        0.0000000000000000     
   4.4220685002819379E-002  0.13490905322875890        0.0000000000000000     
   3.4658656858500954E-002  0.10620258889275572        0.0000000000000000     
   3.5650992221484636E-002  0.11311061933637462        0.0000000000000000     
   3.6601114163783630E-002  0.12015382031444002        0.0000000000000000     
   3.7509022685397915E-002  0.12733219182695196        0.0000000000000000     
   3.8374717786327533E-002  0.13464573387391035        0.0000000000000000     
   2.9494934484803614E-002  0.10592020507294658        0.0000000000000000     
   3.0342674823821820E-002  0.11284138786431938        0.0000000000000000     
   3.1153070998344724E-002  0.11989817900008541        0.0000000000000000     
   3.1926123008372317E-002  0.12709057848024471        0.0000000000000000     
   3.2661830853904616E-002  0.13441858630479728        0.0000000000000000     
   2.4443290768318904E-002  0.10568164079668071        0.0000000000000000     
   2.5149747866163315E-002  0.11261434333404306        0.0000000000000000     
   2.5825022471650069E-002  0.11968290580062033        0.0000000000000000     
   2.6469114584779182E-002  0.12688732819641249        0.0000000000000000     
   2.7082024205550646E-002  0.13422761052141963        0.0000000000000000     
   1.9503725709046835E-002  0.10548689606395817        0.0000000000000000     
   2.0072211348509120E-002  0.11242948574554569        0.0000000000000000     
   2.0616968583699682E-002  0.11950800071604475        0.0000000000000000     
   2.1137997414618508E-002  0.12672244097545532        0.0000000000000000     
   2.1635297841265611E-002  0.13407280652377743        0.0000000000000000     
   4.4220685002819379E-002  0.13490905322875890        0.0000000000000000     
   4.5170120168776078E-002  0.14232855169868200        0.0000000000000000     
   4.6058473153645217E-002  0.14985873062462715        0.0000000000000000     
   4.6885743957426798E-002  0.15749959000659433        0.0000000000000000     
   4.7651932580120827E-002  0.16525112984458359        0.0000000000000000     
   3.8374717786327533E-002  0.13464573387391035        0.0000000000000000     
   3.9188250525608898E-002  0.14208219599033373        0.0000000000000000     
   3.9939671962278489E-002  0.14962932771124057        0.0000000000000000     
   4.0628982096336301E-002  0.15728712903663081        0.0000000000000000     
   4.1256180927782340E-002  0.16505559996650451        0.0000000000000000     
   3.2661830853904616E-002  0.13441858630479728        0.0000000000000000     
   3.3350056616039750E-002  0.14186981003702220        0.0000000000000000     
   3.3980662375875853E-002  0.14943185724019861        0.0000000000000000     
   3.4553648133412933E-002  0.15710472791432653        0.0000000000000000     
   3.5069013888650982E-002  0.16488842205940601        0.0000000000000000     
   2.7082024205550646E-002  0.13422761052141963        0.0000000000000000     
   2.7655538440068628E-002  0.14169139383874732        0.0000000000000000     
   2.8181444394437313E-002  0.14926631921150130        0.0000000000000000     
   2.8659742068656686E-002  0.15695238663968158        0.0000000000000000     
   2.9090431462726767E-002  0.16474959612328818        0.0000000000000000     
   2.1635297841265611E-002  0.13407280652377743        0.0000000000000000     
   2.2104695997695545E-002  0.14154694739550916        0.0000000000000000     
   2.2542018017962868E-002  0.14913271362514866        0.0000000000000000     
   2.2947263902067583E-002  0.15683010521269589        0.0000000000000000     
   2.3320433650009686E-002  0.16463912215815096        0.0000000000000000     
   0.0000000000000000        0.0000000000000000        0.0000000000000000     
   8.4171142830061088E-004   1.1099133235506990E-003   0.0000000000000000     
   1.7022184323879351E-003   2.5979805431250533E-003   0.0000000000000000     
   2.5815210122619725E-003   4.4642016587230614E-003   0.0000000000000000     
   3.4796191679227228E-003   6.7085766703447259E-003   0.0000000000000000     
   0.0000000000000000        0.0000000000000000        0.0000000000000000     
   6.3387911498333878E-004   1.0938781488441152E-003   0.0000000000000000     
   1.2781518858371750E-003   2.5618658119089702E-003   0.0000000000000000     
   1.9328183125615090E-003   4.4039629891945656E-003   0.0000000000000000     
   2.5978783951563400E-003   6.6201696807008997E-003   0.0000000000000000     
   0.0000000000000000        0.0000000000000000        0.0000000000000000     
   4.2431643917284836E-004   1.0824244526202362E-003   0.0000000000000000     
   8.5309329828139294E-004   2.5360695753170038E-003   0.0000000000000000     
   1.2863305773256333E-003   4.3609353680903028E-003   0.0000000000000000     
   1.7240282763055703E-003   6.5570218309401332E-003   0.0000000000000000     
   0.0000000000000000        0.0000000000000000        0.0000000000000000     
   2.1302340086913954E-004   1.0755522348790624E-003   0.0000000000000000     
   4.2704266972058821E-004   2.5205918333491544E-003   0.0000000000000000     
   6.4205780655434612E-004   4.3351187954102748E-003   0.0000000000000000     
   8.5806881137041294E-004   6.5191331210624256E-003   0.0000000000000000     
   0.0000000000000000        0.0000000000000000        0.0000000000000000     
   7.2212337021496098E-014   1.0732614956205934E-003   0.0000000000000000     
   1.5476124071503450E-013   2.5154325860054206E-003   0.0000000000000000     
   2.4764662976545226E-013   4.3265132711544814E-003   0.0000000000000000     
   3.5086863969802096E-013   6.5065035510677750E-003   0.0000000000000000     
   3.4796191679227228E-003   6.7085766703447259E-003   0.0000000000000000     
   4.3882572507263672E-003   9.2937652543157931E-003   0.0000000000000000     
   5.2991796120290830E-003   1.2182427086962015E-002   0.0000000000000000     
   6.2123862518308742E-003   1.5374562168283387E-002   0.0000000000000000     
   7.1278771701317380E-003   1.8870170498279909E-002   0.0000000000000000     
   2.5978783951563400E-003   6.6201696807008997E-003   0.0000000000000000     
   3.2703878589781434E-003   9.1775056513002714E-003   0.0000000000000000     
   3.9474024293833935E-003   1.2042990665864979E-002   0.0000000000000000     
   4.6289221063720897E-003   1.5216624724395018E-002   0.0000000000000000     
   5.3149468899442321E-003   1.8698407826890397E-002   0.0000000000000000     
   1.7240282763055703E-003   6.5570218309401332E-003   0.0000000000000000     
   2.1663885200188353E-003   9.0944630777001385E-003   0.0000000000000000     
   2.6136134332630625E-003   1.1943393222203955E-002   0.0000000000000000     
   3.0657030160382509E-003   1.5103812264451589E-002   0.0000000000000000     
   3.5226572683444003E-003   1.8575720204443036E-002   0.0000000000000000     
   8.5806881137041294E-004   6.5191331210624256E-003   0.0000000000000000     
   1.0762592338484434E-003   9.0446375335153859E-003   0.0000000000000000     
   1.2978126236680913E-003   1.1883634755978943E-002   0.0000000000000000     
   1.5227289808293575E-003   1.5036124788453094E-002   0.0000000000000000     
   1.7510083053322407E-003   1.8502107630937834E-002   0.0000000000000000     
   3.5086863969802096E-013   6.5065035510677750E-003   0.0000000000000000     
   4.6696690568157062E-013   9.0280290187460220E-003   0.0000000000000000     
   5.9848054788889937E-013   1.1863715267189941E-002   0.0000000000000000     
   7.4541002032966694E-013   1.5013562296399535E-002   0.0000000000000000     
   9.0775499096695800E-013   1.8477570106374797E-002   0.0000000000000000     
   7.1278771701317380E-003   1.8870170498279909E-002   0.0000000000000000     
   8.0390913204331435E-003   2.2643394511761106E-002   0.0000000000000000     
   8.9394676562365594E-003   2.6668376643536475E-002   0.0000000000000000     
   9.8290061775419841E-003   3.0945116893606035E-002   0.0000000000000000     
   1.0707706884349417E-002   3.5473615261969772E-002   0.0000000000000000     
   5.3149468899442321E-003   1.8698407826890397E-002   0.0000000000000000     
   5.9986207344137933E-003   2.2461014625844294E-002   0.0000000000000000     
   6.6730875940947450E-003   2.6477119773749912E-002   0.0000000000000000     
   7.3383474689870838E-003   3.0746723270607252E-002   0.0000000000000000     
   7.9944003590908148E-003   3.5269825116416312E-002   0.0000000000000000     
   3.5226572683444003E-003   1.8575720204443036E-002   0.0000000000000000     
   3.9786153191852715E-003   2.2330743278731909E-002   0.0000000000000000     
   4.4277162975646239E-003   2.6340507723871823E-002   0.0000000000000000     
   4.8699602034824579E-003   3.0605013539862773E-002   0.0000000000000000     
   5.3053470369387734E-003   3.5124260726704756E-002   0.0000000000000000     
   1.7510083053322407E-003   1.8502107630937834E-002   0.0000000000000000     
   1.9790750747475760E-003   2.2252580470423947E-002   0.0000000000000000     
   2.2033537666461970E-003   2.6258540493902197E-002   0.0000000000000000     
   2.4238443810281024E-003   3.0519987701372594E-002   0.0000000000000000     
   2.6405469178932927E-003   3.5036922092835134E-002   0.0000000000000000     
   9.0775499096695800E-013   1.8477570106374797E-002   0.0000000000000000     
   1.1007081205695324E-012   2.2226526200920409E-002   0.0000000000000000     
   1.3394620156960413E-012   2.6231218083841056E-002   0.0000000000000000     
   1.6240170693697722E-012   3.0491645755136725E-002   0.0000000000000000     
   1.9543726446219489E-012   3.5007809214807423E-002   0.0000000000000000     
   1.0707706884349417E-002   3.5473615261969772E-002   0.0000000000000000     
   1.1569787049665011E-002   4.0233571321828851E-002   0.0000000000000000     
   1.2409463946494918E-002   4.5204684646384434E-002   0.0000000000000000     
   1.3226737574839135E-002   5.0386955235636521E-002   0.0000000000000000     
   1.4021607934697665E-002   5.5780383089585099E-002   0.0000000000000000     
   7.9944003590908148E-003   3.5269825116416312E-002   0.0000000000000000     
   8.6386971279906639E-003   4.0026520871372838E-002   0.0000000000000000     
   9.2686886392713570E-003   4.4996906095672605E-002   0.0000000000000000     
   9.8843748929328974E-003   5.0180980789315606E-002   0.0000000000000000     
   1.0485755888975283E-002   5.5578744952301862E-002   0.0000000000000000     
   5.3053470369387734E-003   3.5124260726704756E-002   0.0000000000000000     
   5.7333693128733664E-003   3.9878627692454656E-002   0.0000000000000000     
   6.1535195462260285E-003   4.4848492845169327E-002   0.0000000000000000     
   6.5657977369967630E-003   5.0033856184848777E-002   0.0000000000000000     
   6.9702038851855684E-003   5.5434717711493012E-002   0.0000000000000000     
   2.6405469178932927E-003   3.5036922092835134E-002   0.0000000000000000     
   2.8538036043131193E-003   3.9789891785074298E-002   0.0000000000000000     
   3.0639566673589325E-003   4.4759444894874600E-002   0.0000000000000000     
   3.2710061070307301E-003   4.9945581422236013E-002   0.0000000000000000     
   3.4749519233285130E-003   5.5348301367158563E-002   0.0000000000000000     
   1.9543726446219489E-012   3.5007809214807423E-002   0.0000000000000000     
   2.3099237366625003E-012   3.9760313149231771E-002   0.0000000000000000     
   2.6700655575417898E-012   4.4729762244788411E-002   0.0000000000000000     
   3.0347978904193829E-012   4.9916156501477321E-002   0.0000000000000000     
   3.4041207352952796E-012   5.5319495919298509E-002   0.0000000000000000     
   1.4021607934697665E-002   5.5780383089585099E-002   0.0000000000000000     
   1.4793383089608933E-002   6.1371990200329712E-002   0.0000000000000000     
   1.5541371103111377E-002   6.7148798559969844E-002   0.0000000000000000     
   1.6265571975204993E-002   7.3110808168505514E-002   0.0000000000000000     
   1.6965985705889784E-002   7.9258019025936710E-002   0.0000000000000000     
   1.0485755888975283E-002   5.5578744952301862E-002   0.0000000000000000     
   1.1070401915007340E-002   6.1175982437494766E-002   0.0000000000000000     
   1.1635883258637885E-002   6.6958477097757763E-002   0.0000000000000000     
   1.2182199919866920E-002   7.2926228933090836E-002   0.0000000000000000     
   1.2709351898694449E-002   7.9079237943494002E-002   0.0000000000000000     
   6.9702038851855684E-003   5.5434717711493012E-002   0.0000000000000000     
   7.3638443424875986E-003   6.1035976892780591E-002   0.0000000000000000     
   7.7438254605980052E-003   6.6822533196390102E-002   0.0000000000000000     
   8.1101472395167899E-003   7.2794386622321544E-002   0.0000000000000000     
   8.4628096792439510E-003   7.8951537170574890E-002   0.0000000000000000     
   3.4749519233285130E-003   5.5348301367158563E-002   0.0000000000000000     
   3.6737103720497068E-003   6.0951973566187201E-002   0.0000000000000000     
   3.8651977089917337E-003   6.6740966855866890E-002   0.0000000000000000     
   4.0494139341545957E-003   7.2715281236197610E-002   0.0000000000000000     
   4.2263590475382917E-003   7.8874916707179402E-002   0.0000000000000000     
   3.4041207352952796E-012   5.5319495919298509E-002   0.0000000000000000     
   3.6936690685218654E-012   6.0923972457714574E-002   0.0000000000000000     
   3.8190755354168548E-012   6.6713778076188099E-002   0.0000000000000000     
   3.7803422095169029E-012   7.2688912774719047E-002   0.0000000000000000     
   3.5774679659622555E-012   7.8849376553307482E-002   0.0000000000000000     
   1.6965985705889784E-002   7.9258019025936710E-002   0.0000000000000000     
   1.7640984576072379E-002   8.5577182452222261E-002   0.0000000000000000     
   1.8288940866659418E-002   9.2055049767321012E-002   0.0000000000000000     
   1.8909854577650907E-002   9.8691620971233004E-002   0.0000000000000000     
   1.9503725709046835E-002  0.10548689606395817        0.0000000000000000     
   1.2709351898694449E-002   7.9079237943494002E-002   0.0000000000000000     
   1.3217075792890668E-002   8.5404492862557801E-002   0.0000000000000000     
   1.3705108200225777E-002   9.1888982423872820E-002   0.0000000000000000     
   1.4173449120699779E-002   9.8532706627439015E-002   0.0000000000000000     
   1.4622098554312672E-002  0.10533566547325644        0.0000000000000000     
   8.4628096792439510E-003   7.8951537170574890E-002   0.0000000000000000     
   8.8022754363548273E-003   8.5281143155915520E-002   0.0000000000000000     
   9.1290071674247405E-003   9.1770362893108776E-002   0.0000000000000000     
   9.4430048724536957E-003   9.8419196382154600E-002   0.0000000000000000     
   9.7442685514416948E-003  0.10522764362305309        0.0000000000000000     
   4.2263590475382917E-003   7.8874916707179402E-002   0.0000000000000000     
   4.3965835064648526E-003   8.5207133332295418E-002   0.0000000000000000     
   4.5606377682563077E-003   9.1699191175028880E-002   0.0000000000000000     
   4.7185218329126579E-003   9.8351090235379759E-002   0.0000000000000000     
   4.8702357004339041E-003  0.10516283051334810        0.0000000000000000     
   3.5774679659622555E-012   7.8849376553307482E-002   0.0000000000000000     
   3.2207498387032407E-012   8.5182463391697480E-002   0.0000000000000000     
   2.7204813380331261E-012   9.1675467269633132E-002   0.0000000000000000     
   2.0766633719712310E-012   9.8328388187114465E-002   0.0000000000000000     
   1.2892972280076354E-012  0.10514122614414148        0.0000000000000000     
   1.9503725709046835E-002  0.10548689606395817        0.0000000000000000     
   2.0072211348509120E-002  0.11242948574554569        0.0000000000000000     
   2.0616968583699682E-002  0.11950800071604475        0.0000000000000000     
   2.1137997414618508E-002  0.12672244097545532        0.0000000000000000     
   2.1635297841265611E-002  0.13407280652377743        0.0000000000000000     
   1.4622098554312672E-002  0.10533566547325644        0.0000000000000000     
   1.5052817166009050E-002  0.11228619214277774        0.0000000000000000     
   1.5467365620733500E-002  0.11937261981745563        0.0000000000000000     
   1.5865743918486025E-002  0.12659494849729008        0.0000000000000000     
   1.6247952059266622E-002  0.13395317818228109        0.0000000000000000     
   9.7442685514416948E-003  0.10522764362305309        0.0000000000000000     
   1.0034317213812904E-002  0.11218383956968968        0.0000000000000000     
   1.0314669868991487E-002  0.11927591917594985        0.0000000000000000     
   1.0585326516977446E-002  0.12650388244183364        0.0000000000000000     
   1.0846287157770779E-002  0.13386772936734101        0.0000000000000000     
   4.8702357004339041E-003  0.10516283051334810        0.0000000000000000     
   5.0167114919206840E-003  0.11212242802628146        0.0000000000000000     
   5.1588813284736421E-003  0.11921789879152743        0.0000000000000000     
   5.2967452100927716E-003  0.12644924280908598        0.0000000000000000     
   5.4303031367780776E-003  0.13381646007895712        0.0000000000000000     
   1.2892972280076354E-012  0.10514122614414148        0.0000000000000000     
   3.3239383467886796E-013  0.11210195751255311        0.0000000000000000     
  -8.2003674684028027E-013  0.11919855866418834        0.0000000000000000     
  -2.1679927818263334E-012  0.12643102959904715        0.0000000000000000     
  -3.7114764386836363E-012  0.13379937031712952        0.0000000000000000     
   2.1635297841265611E-002  0.13407280652377743        0.0000000000000000     
   2.2104695997695545E-002  0.14154694739550916        0.0000000000000000     
   2.2542018017962868E-002  0.14913271362514866        0.0000000000000000     
   2.2947263902067583E-002  0.15683010521269589        0.0000000000000000     
   2.3320433650009686E-002  0.16463912215815096        0.0000000000000000     
   1.6247952059266622E-002  0.13395317818228109        0.0000000000000000     
   1.6613899065820004E-002  0.14143541852569358        0.0000000000000000     
   1.6963493960890870E-002  0.14902977918079241        0.0000000000000000     
   1.7296736744479225E-002  0.15673626014757761        0.0000000000000000     
   1.7613627416585065E-002  0.16455486142604916        0.0000000000000000     
   1.0846287157770779E-002  0.13386772936734101        0.0000000000000000     
   1.1099517421341510E-002  0.14135575504768641        0.0000000000000000     
   1.1346982937659660E-002  0.14895625457808437        0.0000000000000000     
   1.1588683706725229E-002  0.15666922795853475        0.0000000000000000     
   1.1824619728538221E-002  0.16449467518903768        0.0000000000000000     
   5.4303031367780776E-003  0.13381646007895712        0.0000000000000000     
   5.5615510642600657E-003  0.14130795696148768        0.0000000000000000     
   5.6924849482692412E-003  0.14891213981702447        0.0000000000000000     
   5.8231047888056024E-003  0.15662900864556734        0.0000000000000000     
   5.9534105858691528E-003  0.16445856344711648        0.0000000000000000     
  -3.7114764386836363E-012  0.13379937031712952        0.0000000000000000     
  -5.4243259189901138E-012  0.14129202426709742        0.0000000000000000     
  -7.2803879895208534E-012  0.14889743489761273        0.0000000000000000     
  -9.2796580695216763E-012  0.15661560220867543        0.0000000000000000     
  -1.1422137541350352E-011  0.16444652620028555        0.0000000000000000     
   0.0000000000000000        0.0000000000000000        0.0000000000000000     
   7.2212337021496098E-014   1.0732614956205934E-003   0.0000000000000000     
   1.5476124071503450E-013   2.5154325860054206E-003   0.0000000000000000     
   2.4764662976545226E-013   4.3265132711544814E-003   0.0000000000000000     
   3.5086863969802096E-013   6.5065035510677750E-003   0.0000000000000000     
   0.0000000000000000        0.0000000000000000        0.0000000000000000     
  -2.1302340072775936E-004   1.0755522348473144E-003   0.0000000000000000     
  -4.2704266941812172E-004   2.5205918332907055E-003   0.0000000000000000     
  -6.4205780607108729E-004   4.3351187953301730E-003   0.0000000000000000     
  -8.5806881068665607E-004   6.5191331209657182E-003   0.0000000000000000     
   0.0000000000000000        0.0000000000000000        0.0000000000000000     
  -4.2431643904060145E-004   1.0824244525617101E-003   0.0000000000000000     
  -8.5309329800009419E-004   2.5360695752099120E-003   0.0000000000000000     
  -1.2863305768784786E-003   4.3609353679446052E-003   0.0000000000000000     
  -1.7240282756757540E-003   6.5570218307657909E-003   0.0000000000000000     
   0.0000000000000000        0.0000000000000000        0.0000000000000000     
  -6.3387911486631411E-004   1.0938781487637808E-003   0.0000000000000000     
  -1.2781518855911563E-003   2.5618658117630391E-003   0.0000000000000000     
  -1.9328183121745267E-003   4.4039629889977743E-003   0.0000000000000000     
  -2.5978783946164256E-003   6.6201696804679879E-003   0.0000000000000000     
   0.0000000000000000        0.0000000000000000        0.0000000000000000     
  -8.4171142820489730E-004   1.1099133234535267E-003   0.0000000000000000     
  -1.7022184321913083E-003   2.5979805429500874E-003   0.0000000000000000     
  -2.5815210119592325E-003   4.4642016584896830E-003   0.0000000000000000     
  -3.4796191675086712E-003   6.7085766700723144E-003   0.0000000000000000     
   3.5086863969802096E-013   6.5065035510677750E-003   0.0000000000000000     
   4.6696690568157062E-013   9.0280290187460220E-003   0.0000000000000000     
   5.9848054788889937E-013   1.1863715267189941E-002   0.0000000000000000     
   7.4541002032966694E-013   1.5013562296399535E-002   0.0000000000000000     
   9.0775499096695800E-013   1.8477570106374797E-002   0.0000000000000000     
  -8.5806881068665607E-004   6.5191331209657182E-003   0.0000000000000000     
  -1.0762592329396209E-003   9.0446375334038466E-003   0.0000000000000000     
  -1.2978126225047749E-003   1.1883634755851059E-002   0.0000000000000000     
  -1.5227289793821185E-003   1.5036124788307362E-002   0.0000000000000000     
  -1.7510083035716512E-003   1.8502107630772750E-002   0.0000000000000000     
  -1.7240282756757540E-003   6.5570218307657909E-003   0.0000000000000000     
  -2.1663885191853458E-003   9.0944630775006592E-003   0.0000000000000000     
  -2.6136134322006796E-003   1.1943393221976403E-002   0.0000000000000000     
  -3.0657030147217541E-003   1.5103812264193026E-002   0.0000000000000000     
  -3.5226572667485705E-003   1.8575720204150530E-002   0.0000000000000000     
  -2.5978783946164256E-003   6.6201696804679879E-003   0.0000000000000000     
  -3.2703878582702088E-003   9.1775056510364616E-003   0.0000000000000000     
  -3.9474024284892328E-003   1.2042990665565974E-002   0.0000000000000000     
  -4.6289221052734980E-003   1.5216624724056532E-002   0.0000000000000000     
  -5.3149468886230034E-003   1.8698407826508126E-002   0.0000000000000000     
  -3.4796191675086712E-003   6.7085766700723144E-003   0.0000000000000000     
  -4.3882572501942095E-003   9.2937652540112520E-003   0.0000000000000000     
  -5.2991796113704363E-003   1.2182427086619771E-002   0.0000000000000000     
  -6.2123862510373483E-003   1.5374562167897871E-002   0.0000000000000000     
  -7.1278771691949501E-003   1.8870170497845552E-002   0.0000000000000000     
   9.0775499096695800E-013   1.8477570106374797E-002   0.0000000000000000     
   1.1007081205695324E-012   2.2226526200920409E-002   0.0000000000000000     
   1.3394620156960413E-012   2.6231218083841056E-002   0.0000000000000000     
   1.6240170693697722E-012   3.0491645755136725E-002   0.0000000000000000     
   1.9543726446219489E-012   3.5007809214807423E-002   0.0000000000000000     
  -1.7510083035716512E-003   1.8502107630772750E-002   0.0000000000000000     
  -1.9790750726156317E-003   2.2252580470243095E-002   0.0000000000000000     
  -2.2033537640563190E-003   2.6258540493714268E-002   0.0000000000000000     
  -2.4238443778937121E-003   3.0519987701186281E-002   0.0000000000000000     
  -2.6405469141278122E-003   3.5036922092659115E-002   0.0000000000000000     
  -3.5226572667485705E-003   1.8575720204150530E-002   0.0000000000000000     
  -3.9786153172617425E-003   2.2330743278413799E-002   0.0000000000000000     
  -4.4277162952418856E-003   2.6340507723547756E-002   0.0000000000000000     
  -4.8699602006889997E-003   3.0605013539552386E-002   0.0000000000000000     
  -5.3053470336030858E-003   3.5124260726427679E-002   0.0000000000000000     
  -5.3149468886230034E-003   1.8698407826508126E-002   0.0000000000000000     
  -5.9986207328376270E-003   2.2461014625432527E-002   0.0000000000000000     
  -6.6730875922172399E-003   2.6477119773341495E-002   0.0000000000000000     
  -7.3383474667618482E-003   3.0746723270235032E-002   0.0000000000000000     
  -7.9944003564714466E-003   3.5269825116113138E-002   0.0000000000000000     
  -7.1278771691949501E-003   1.8870170497845552E-002   0.0000000000000000     
  -8.0390913193432809E-003   2.2643394511299274E-002   0.0000000000000000     
  -8.9394676549823804E-003   2.6668376643095501E-002   0.0000000000000000     
  -9.8290061761122528E-003   3.0945116893234228E-002   0.0000000000000000     
  -1.0707706882732900E-002   3.5473615261715462E-002   0.0000000000000000     
   1.9543726446219489E-012   3.5007809214807423E-002   0.0000000000000000     
   2.3099237366625003E-012   3.9760313149231771E-002   0.0000000000000000     
   2.6700655575417898E-012   4.4729762244788411E-002   0.0000000000000000     
   3.0347978904193829E-012   4.9916156501477321E-002   0.0000000000000000     
   3.4041207352952796E-012   5.5319495919298509E-002   0.0000000000000000     
  -2.6405469141278122E-003   3.5036922092659115E-002   0.0000000000000000     
  -2.8538035998701273E-003   3.9789891784965670E-002   0.0000000000000000     
  -3.0639566622321654E-003   4.4759444894938834E-002   0.0000000000000000     
  -3.2710061012139265E-003   4.9945581422578621E-002   0.0000000000000000     
  -3.4749519168154122E-003   5.5348301367885010E-002   0.0000000000000000     
  -5.3053470336030858E-003   3.5124260726427679E-002   0.0000000000000000     
  -5.7333693089609387E-003   3.9878627692314567E-002   0.0000000000000000     
  -6.1535195417393562E-003   4.4848492845353971E-002   0.0000000000000000     
  -6.5657977319383398E-003   5.0033856185545837E-002   0.0000000000000000     
  -6.9702038795578878E-003   5.5434717712890207E-002   0.0000000000000000     
  -7.9944003564714466E-003   3.5269825116113138E-002   0.0000000000000000     
  -8.6386971249625133E-003   4.0026520871278476E-002   0.0000000000000000     
  -9.2686886358515075E-003   4.4996906096033767E-002   0.0000000000000000     
  -9.8843748891384395E-003   5.0180980790378978E-002   0.0000000000000000     
  -1.0485755884823304E-002   5.5578744954314113E-002   0.0000000000000000     
  -1.0707706882732900E-002   3.5473615261715462E-002   0.0000000000000000     
  -1.1569787047874843E-002   4.0233571321857398E-002   0.0000000000000000     
  -1.2409463944568619E-002   4.5204684646978251E-002   0.0000000000000000     
  -1.3226737572814227E-002   5.0386955237078021E-002   0.0000000000000000     
  -1.4021607932611665E-002   5.5780383092156702E-002   0.0000000000000000     
   3.4041207352952796E-012   5.5319495919298509E-002   0.0000000000000000     
   3.6936690685218654E-012   6.0923972457714574E-002   0.0000000000000000     
   3.8190755354168548E-012   6.6713778076188099E-002   0.0000000000000000     
   3.7803422095169029E-012   7.2688912774719047E-002   0.0000000000000000     
   3.5774679659622555E-012   7.8849376553307482E-002   0.0000000000000000     
  -3.4749519168154122E-003   5.5348301367885010E-002   0.0000000000000000     
  -3.6737103649928703E-003   6.0951973567295939E-002   0.0000000000000000     
  -3.8651977017025497E-003   6.6740966857249326E-002   0.0000000000000000     
  -4.0494139269444526E-003   7.2715281237745150E-002   0.0000000000000000     
  -4.2263590407185768E-003   7.8874916708783466E-002   0.0000000000000000     
  -6.9702038795578878E-003   5.5434717712890207E-002   0.0000000000000000     
  -7.3638443364222612E-003   6.1035976894864508E-002   0.0000000000000000     
  -7.7438254543557234E-003   6.6822533198946168E-002   0.0000000000000000     
  -8.1101472333582700E-003   7.2794386625135224E-002   0.0000000000000000     
  -8.4628096734299055E-003   7.8951537173431605E-002   0.0000000000000000     
  -1.0485755884823304E-002   5.5578744954314113E-002   0.0000000000000000     
  -1.1070401910594507E-002   6.1175982440420301E-002   0.0000000000000000     
  -1.1635883254140441E-002   6.6958477101278654E-002   0.0000000000000000     
  -1.2182199915461107E-002   7.2926228936889215E-002   0.0000000000000000     
  -1.2709351894556513E-002   7.9079237947251940E-002   0.0000000000000000     
  -1.4021607932611665E-002   5.5780383092156702E-002   0.0000000000000000     
  -1.4793383087509599E-002   6.1371990203963292E-002   0.0000000000000000     
  -1.5541371101056705E-002   6.7148798564246770E-002   0.0000000000000000     
  -1.6265571973252971E-002   7.3110808173007150E-002   0.0000000000000000     
  -1.6965985704098401E-002   7.9258019030244431E-002   0.0000000000000000     
   3.5774679659622555E-012   7.8849376553307482E-002   0.0000000000000000     
   3.2207498387032407E-012   8.5182463391697480E-002   0.0000000000000000     
   2.7204813380331261E-012   9.1675467269633132E-002   0.0000000000000000     
   2.0766633719712310E-012   9.8328388187114465E-002   0.0000000000000000     
   1.2892972280076354E-012  0.10514122614414148        0.0000000000000000     
  -4.2263590407185768E-003   7.8874916708783466E-002   0.0000000000000000     
  -4.3965835003320838E-003   8.5207133333917509E-002   0.0000000000000000     
  -4.5606377630921261E-003   9.1699191176700542E-002   0.0000000000000000     
  -4.7185218289987072E-003   9.8351090237132635E-002   0.0000000000000000     
  -4.8702356980518269E-003  0.10516283051521375        0.0000000000000000     
  -8.4628096734299055E-003   7.8951537173431605E-002   0.0000000000000000     
  -8.8022754311482439E-003   8.5281143158751280E-002   0.0000000000000000     
  -9.1290071630908999E-003   9.1770362896010121E-002   0.0000000000000000     
  -9.4430048692578736E-003   9.8419196385208171E-002   0.0000000000000000     
  -9.7442685496491738E-003  0.10522764362634539        0.0000000000000000     
  -1.2709351894556513E-002   7.9079237947251940E-002   0.0000000000000000     
  -1.3217075789227732E-002   8.5404492866198820E-002   0.0000000000000000     
  -1.3705108197275842E-002   9.1888982427561883E-002   0.0000000000000000     
  -1.4173449118700845E-002   9.8532706631341088E-002   0.0000000000000000     
  -1.4622098553502738E-002  0.10533566547753645        0.0000000000000000     
  -1.6965985704098401E-002   7.9258019030244431E-002   0.0000000000000000     
  -1.7640984574570546E-002   8.5577182456260115E-002   0.0000000000000000     
  -1.8288940865646950E-002   9.2055049771355757E-002   0.0000000000000000     
  -1.8909854577327610E-002   9.8691620975531344E-002   0.0000000000000000     
  -1.9503725709612528E-002  0.10548689606878689        0.0000000000000000     
   1.2892972280076354E-012  0.10514122614414148        0.0000000000000000     
   3.3239383467886796E-013  0.11210195751255311        0.0000000000000000     
  -8.2003674684028027E-013  0.11919855866418834        0.0000000000000000     
  -2.1679927818263334E-012  0.12643102959904715        0.0000000000000000     
  -3.7114764386836363E-012  0.13379937031712952        0.0000000000000000     
  -4.8702356980518269E-003  0.10516283051521375        0.0000000000000000     
  -5.0167114914091834E-003  0.11212242802829614        0.0000000000000000     
  -5.1588813302284736E-003  0.11921789879373208        0.0000000000000000     
  -5.2967452145097011E-003  0.12644924281152162        0.0000000000000000     
  -5.4303031442528632E-003  0.13381646008166467        0.0000000000000000     
  -9.7442685496491738E-003  0.10522764362634539        0.0000000000000000     
  -1.0034317213761256E-002  0.11218383957330200        0.0000000000000000     
  -1.0314669871090597E-002  0.11927591917995815        0.0000000000000000     
  -1.0585326521637196E-002  0.12650388244631386        0.0000000000000000     
  -1.0846287165401055E-002  0.13386772937236915        0.0000000000000000     
  -1.4622098553502738E-002  0.10533566547753645        0.0000000000000000     
  -1.5052817166723827E-002  0.11228619214757068        0.0000000000000000     
  -1.5467365623406414E-002  0.11937261982286650        0.0000000000000000     
  -1.5865743923550488E-002  0.12659494850342393        0.0000000000000000     
  -1.6247952067156058E-002  0.13395317818924288        0.0000000000000000     
  -1.9503725709612528E-002  0.10548689606878689        0.0000000000000000     
  -2.0072211350296895E-002  0.11242948575110222        0.0000000000000000     
  -2.0616968587175911E-002  0.11950800072245715        0.0000000000000000     
  -2.1137997420249566E-002  0.12672244098285171        0.0000000000000000     
  -2.1635297849517867E-002  0.13407280653228593        0.0000000000000000     
  -3.7114764386836363E-012  0.13379937031712952        0.0000000000000000     
  -5.4243259189901138E-012  0.14129202426709742        0.0000000000000000     
  -7.2803879895208534E-012  0.14889743489761273        0.0000000000000000     
  -9.2796580695216763E-012  0.15661560220867543        0.0000000000000000     
  -1.1422137541350352E-011  0.16444652620028555        0.0000000000000000     
  -5.4303031442528632E-003  0.13381646008166467        0.0000000000000000     
  -5.5615510751338207E-003  0.14130795696431678        0.0000000000000000     
  -5.6924849628284414E-003  0.14891213981963333        0.0000000000000000     
  -5.8231048073367200E-003  0.15662900864761434        0.0000000000000000     
  -5.9534106086586592E-003  0.16445856344825982        0.0000000000000000     
  -1.0846287165401055E-002  0.13386772937236915        0.0000000000000000     
  -1.1099517432290569E-002  0.14135575505294701        0.0000000000000000     
  -1.1346982952214131E-002  0.14895625458287046        0.0000000000000000     
  -1.1588683725171751E-002  0.15666922796213953        0.0000000000000000     
  -1.1824619751163419E-002  0.16449467519075422        0.0000000000000000     
  -1.6247952067156058E-002  0.13395317818924288        0.0000000000000000     
  -1.6613899076894572E-002  0.14143541853298805        0.0000000000000000     
  -1.6963493975437467E-002  0.14902977918732413        0.0000000000000000     
  -1.7296736762784752E-002  0.15673626015225103        0.0000000000000000     
  -1.7613627438936418E-002  0.16455486142776876        0.0000000000000000     
  -2.1635297849517867E-002  0.13407280653228593        0.0000000000000000     
  -2.2104696008945820E-002  0.14154694740444002        0.0000000000000000     
  -2.2542018032498438E-002  0.14913271363299432        0.0000000000000000     
  -2.2947263920175719E-002  0.15683010521794882        0.0000000000000000     
  -2.3320433671977663E-002  0.16463912215930349        0.0000000000000000     
   0.0000000000000000        0.0000000000000000        0.0000000000000000     
  -8.4171142820489730E-004   1.1099133234535267E-003   0.0000000000000000     
  -1.7022184321913083E-003   2.5979805429500874E-003   0.0000000000000000     
  -2.5815210119592325E-003   4.4642016584896830E-003   0.0000000000000000     
  -3.4796191675086712E-003   6.7085766700723144E-003   0.0000000000000000     
   0.0000000000000000        0.0000000000000000        0.0000000000000000     
  -1.0567283634511546E-003   1.1340914697869125E-003   0.0000000000000000     
  -2.1398482748455705E-003   2.6502611979368918E-003   0.0000000000000000     
  -3.2493597341832466E-003   4.5485091844499389E-003   0.0000000000000000     
  -4.3852627414641843E-003   6.8288354293260523E-003   0.0000000000000000     
   0.0000000000000000        0.0000000000000000        0.0000000000000000     
  -1.2878449049998901E-003   1.1699740809199039E-003   0.0000000000000000     
  -2.6055967505989640E-003   2.7245552058892870E-003   0.0000000000000000     
  -3.9532555367972214E-003   4.6637433749081485E-003   0.0000000000000000     
  -5.3308212635946621E-003   6.9875385879764884E-003   0.0000000000000000     
   0.0000000000000000        0.0000000000000000        0.0000000000000000     
  -1.5350610528511036E-003   1.2175611568525013E-003   0.0000000000000000     
  -3.0994638594514881E-003   2.8208625668072729E-003   0.0000000000000000     
  -4.6932084198011547E-003   4.8099042298643127E-003   0.0000000000000000     
  -6.3162947339001022E-003   7.1846861460236220E-003   0.0000000000000000     
   0.0000000000000000        0.0000000000000000        0.0000000000000000     
  -1.7983768070047952E-003   1.2768526975847048E-003   0.0000000000000000     
  -3.6214496014031448E-003   2.9391832806908488E-003   0.0000000000000000     
  -5.4692183831950483E-003   4.9869917493184325E-003   0.0000000000000000     
  -7.3416831523805074E-003   7.4202781034674549E-003   0.0000000000000000     
  -3.4796191675086712E-003   6.7085766700723144E-003   0.0000000000000000     
  -4.3882572501942095E-003   9.2937652540112520E-003   0.0000000000000000     
  -5.2991796113704363E-003   1.2182427086619771E-002   0.0000000000000000     
  -6.2123862510373483E-003   1.5374562167897871E-002   0.0000000000000000     
  -7.1278771691949501E-003   1.8870170497845552E-002   0.0000000000000000     
  -4.3852627414641843E-003   6.8288354293260523E-003   0.0000000000000000     
  -5.5345442599271221E-003   9.4492191739737295E-003   0.0000000000000000     
  -6.6841912528107957E-003   1.2367639659801468E-002   0.0000000000000000     
  -7.8342037201152102E-003   1.5584096886809264E-002   0.0000000000000000     
  -8.9845816618403605E-003   1.9098590854997124E-002   0.0000000000000000     
  -5.3308212635946621E-003   6.9875385879764884E-003   0.0000000000000000     
  -6.7237964524387191E-003   9.6498446984725917E-003   0.0000000000000000     
  -8.1176836247768246E-003   1.2604565559774737E-002   0.0000000000000000     
  -9.5124827806089812E-003   1.5851701171882927E-002   0.0000000000000000     
  -1.0908193919935187E-002   1.9391251534797160E-002   0.0000000000000000     
  -6.3162947339001022E-003   7.1846861460236220E-003   0.0000000000000000     
  -7.9560138277290030E-003   9.8956418275078332E-003   0.0000000000000000     
  -9.5996567272685230E-003   1.2893204786539582E-002   0.0000000000000000     
  -1.1247223432518667E-002   1.6177375023118858E-002   0.0000000000000000     
  -1.2898713943479426E-002   1.9748152537245666E-002   0.0000000000000000     
  -7.3416831523805074E-003   7.4202781034674549E-003   0.0000000000000000     
  -9.2311963857979705E-003   1.0186610561079461E-002   0.0000000000000000     
  -1.1130110560285887E-002   1.3233557340095993E-002   0.0000000000000000     
  -1.3038425675844260E-002   1.6561118440517053E-002   0.0000000000000000     
  -1.4956141732473087E-002   2.0169293862342643E-002   0.0000000000000000     
  -7.1278771691949501E-003   1.8870170497845552E-002   0.0000000000000000     
  -8.0390913193432809E-003   2.2643394511299274E-002   0.0000000000000000     
  -8.9394676549823804E-003   2.6668376643095501E-002   0.0000000000000000     
  -9.8290061761122528E-003   3.0945116893234228E-002   0.0000000000000000     
  -1.0707706882732900E-002   3.5473615261715462E-002   0.0000000000000000     
  -8.9845816618403605E-003   1.9098590854997124E-002   0.0000000000000000     
  -1.0128293413138862E-002   2.2886352190181768E-002   0.0000000000000000     
  -1.1258307309163322E-002   2.6922611518179908E-002   0.0000000000000000     
  -1.2374623349913747E-002   3.1207368838991559E-002   0.0000000000000000     
  -1.3477241535390129E-002   3.5740624152616716E-002   0.0000000000000000     
  -1.0908193919935187E-002   1.9391251534797160E-002   0.0000000000000000     
  -1.2294493350584525E-002   2.3198356916247713E-002   0.0000000000000000     
  -1.3661057380386079E-002   2.7248157583964868E-002   0.0000000000000000     
  -1.5007886009339848E-002   3.1540653537948604E-002   0.0000000000000000     
  -1.6334979237445833E-002   3.6075844778198939E-002   0.0000000000000000     
  -1.2898713943479426E-002   1.9748152537245666E-002   0.0000000000000000     
  -1.4537691131680271E-002   2.3579408689497133E-002   0.0000000000000000     
  -1.6147717868650650E-002   2.7645014840450365E-002   0.0000000000000000     
  -1.7728794154390558E-002   3.1944970990105369E-002   0.0000000000000000     
  -1.9280919988900014E-002   3.6479277138462142E-002   0.0000000000000000     
  -1.4956141732473087E-002   2.0169293862342643E-002   0.0000000000000000     
  -1.6857886756426098E-002   2.4029507509930010E-002   0.0000000000000000     
  -1.8718288773957033E-002   2.8113183287636411E-002   0.0000000000000000     
  -2.0537347785065888E-002   3.2420321195461850E-002   0.0000000000000000     
  -2.2315063789752659E-002   3.6950921233406313E-002   0.0000000000000000     
  -1.0707706882732900E-002   3.5473615261715462E-002   0.0000000000000000     
  -1.1569787047874843E-002   4.0233571321857398E-002   0.0000000000000000     
  -1.2409463944568619E-002   4.5204684646978251E-002   0.0000000000000000     
  -1.3226737572814227E-002   5.0386955237078021E-002   0.0000000000000000     
  -1.4021607932611665E-002   5.5780383092156702E-002   0.0000000000000000     
  -1.3477241535390129E-002   3.5740624152616716E-002   0.0000000000000000     
  -1.4557695042143048E-002   4.0502467133214287E-002   0.0000000000000000     
  -1.5607517046723068E-002   4.5472987454943228E-002   0.0000000000000000     
  -1.6626707549130194E-002   5.0652185117803492E-002   0.0000000000000000     
  -1.7615266549364423E-002   5.6040060121795118E-002   0.0000000000000000     
  -1.6334979237445833E-002   3.6075844778198939E-002   0.0000000000000000     
  -1.7633477072212227E-002   4.0835896394512142E-002   0.0000000000000000     
  -1.8894519521147232E-002   4.5802973476684460E-002   0.0000000000000000     
  -2.0118106584250839E-002   5.0977076024715899E-002   0.0000000000000000     
  -2.1304238261523056E-002   5.6358204038606474E-002   0.0000000000000000     
  -1.9280919988900014E-002   3.6479277138462142E-002   0.0000000000000000     
  -2.0797133138082392E-002   4.1233859105750927E-002   0.0000000000000000     
  -2.2270471367841108E-002   4.6194642712201951E-002   0.0000000000000000     
  -2.3700934678176157E-002   5.1361627957815223E-002   0.0000000000000000     
  -2.5088523069087539E-002   5.6734814842590769E-002   0.0000000000000000     
  -2.2315063789752659E-002   3.6950921233406313E-002   0.0000000000000000     
  -2.4048663239753538E-002   4.1696355266930663E-002   0.0000000000000000     
  -2.5735372586804701E-002   4.6647995161495717E-002   0.0000000000000000     
  -2.7375191830906150E-002   5.1805840917101505E-002   0.0000000000000000     
  -2.8968120972057889E-002   5.7169892533747997E-002   0.0000000000000000     
  -1.4021607932611665E-002   5.5780383092156702E-002   0.0000000000000000     
  -1.4793383087509599E-002   6.1371990203963292E-002   0.0000000000000000     
  -1.5541371101056705E-002   6.7148798564246770E-002   0.0000000000000000     
  -1.6265571973252971E-002   7.3110808173007150E-002   0.0000000000000000     
  -1.6965985704098401E-002   7.9258019030244431E-002   0.0000000000000000     
  -1.7615266549364423E-002   5.6040060121795118E-002   0.0000000000000000     
  -1.8574274424655451E-002   6.1624734842760563E-002   0.0000000000000000     
  -1.9504811552232947E-002   6.7394331656542308E-002   0.0000000000000000     
  -2.0406877932096928E-002   7.3348850563140333E-002   0.0000000000000000     
  -2.1280473564247379E-002   7.9488291562554686E-002   0.0000000000000000     
  -2.1304238261523056E-002   5.6358204038606474E-002   0.0000000000000000     
  -2.2454562479519949E-002   6.1934951014079184E-002   0.0000000000000000     
  -2.3570727164797616E-002   6.7695910446857063E-002   0.0000000000000000     
  -2.4652732317356048E-002   7.3641082336940097E-002   0.0000000000000000     
  -2.5700577937195261E-002   7.9770466684328314E-002   0.0000000000000000     
  -2.5088523069087539E-002   5.6734814842590769E-002   0.0000000000000000     
  -2.6434247252103107E-002   6.2302638717919169E-002   0.0000000000000000     
  -2.7739117938750706E-002   6.8053534935191048E-002   0.0000000000000000     
  -2.9003135129030348E-002   7.3987503494406442E-002   0.0000000000000000     
  -3.0226298822942029E-002   8.0104544395565316E-002   0.0000000000000000     
  -2.8968120972057889E-002   5.7169892533747997E-002   0.0000000000000000     
  -3.0513328742404908E-002   6.2727797954280490E-002   0.0000000000000000     
  -3.2009983874092221E-002   6.8467205121544278E-002   0.0000000000000000     
  -3.3458086367119819E-002   7.4388114035539341E-002   0.0000000000000000     
  -3.4857636221487701E-002   8.0490524696265692E-002   0.0000000000000000     
  -1.6965985704098401E-002   7.9258019030244431E-002   0.0000000000000000     
  -1.7640984574570546E-002   8.5577182456260115E-002   0.0000000000000000     
  -1.8288940865646950E-002   9.2055049771355757E-002   0.0000000000000000     
  -1.8909854577327610E-002   9.8691620975531344E-002   0.0000000000000000     
  -1.9503725709612528E-002  0.10548689606878689        0.0000000000000000     
  -2.1280473564247379E-002   7.9488291562554686E-002   0.0000000000000000     
  -2.2122669833339229E-002   8.5799302424357501E-002   0.0000000000000000     
  -2.2930538124027375E-002   9.2268530918120997E-002   0.0000000000000000     
  -2.3704078436311823E-002   9.8895977043845132E-002   0.0000000000000000     
  -2.4443290770192572E-002  0.10568164080152992        0.0000000000000000     
  -2.5700577937195261E-002   7.9770466684328314E-002   0.0000000000000000     
  -2.6710799611696305E-002   8.6070943265913316E-002   0.0000000000000000     
  -2.7679932928240260E-002   9.2529391858586718E-002   0.0000000000000000     
  -2.8607977886827129E-002   9.9145812462348548E-002   0.0000000000000000     
  -2.9494934487456912E-002  0.10592020507719879        0.0000000000000000     
  -3.0226298822942029E-002   8.0104544395565316E-002   0.0000000000000000     
  -3.1405373909641772E-002   8.6392104980927545E-002   0.0000000000000000     
  -3.2537125278285617E-002   9.2837632592752975E-002   0.0000000000000000     
  -3.3621552928873533E-002   9.9441127231041593E-002   0.0000000000000000     
  -3.4658656861405547E-002  0.10620258889579344        0.0000000000000000     
  -3.4857636221487701E-002   8.0490524696265692E-002   0.0000000000000000     
  -3.6206392727175650E-002   8.6762787569400202E-002   0.0000000000000000     
  -3.7502115174163422E-002   9.3193253120619754E-002   0.0000000000000000     
  -3.8744803562451038E-002   9.9781921349924335E-002   0.0000000000000000     
  -3.9934457892038477E-002  0.10652879225731392        0.0000000000000000     
  -1.9503725709612528E-002  0.10548689606878689        0.0000000000000000     
  -2.0072211350296895E-002  0.11242948575110222        0.0000000000000000     
  -2.0616968587175911E-002  0.11950800072245715        0.0000000000000000     
  -2.1137997420249566E-002  0.12672244098285171        0.0000000000000000     
  -2.1635297849517867E-002  0.13407280653228593        0.0000000000000000     
  -2.4443290770192572E-002  0.10568164080152992        0.0000000000000000     
  -2.5149747868941547E-002  0.11261434333987012        0.0000000000000000     
  -2.5825022475830666E-002  0.11968290580756034        0.0000000000000000     
  -2.6469114590859929E-002  0.12688732820460066        0.0000000000000000     
  -2.7082024214029339E-002  0.13422761053099105        0.0000000000000000     
  -2.9494934487456912E-002  0.10592020507719879        0.0000000000000000     
  -3.0342674827118870E-002  0.11284138786984789        0.0000000000000000     
  -3.1153071002802259E-002  0.11989817900700631        0.0000000000000000     
  -3.1926123014507077E-002  0.12709057848867406        0.0000000000000000     
  -3.2661830862233322E-002  0.13441858631485112        0.0000000000000000     
  -3.4658656861405547E-002  0.10620258889579344        0.0000000000000000     
  -3.5650992224828856E-002  0.11311061934103557        0.0000000000000000     
  -3.6601114168090677E-002  0.12015382032079505        0.0000000000000000     
  -3.7509022691191003E-002  0.12733219183507188        0.0000000000000000     
  -3.8374717794129820E-002  0.13464573388386608        0.0000000000000000     
  -3.9934457892038477E-002  0.10652879225731392        0.0000000000000000     
  -4.1074700062071527E-002  0.11342203775343314        0.0000000000000000     
  -4.2169151971695934E-002  0.12044982974892654        0.0000000000000000     
  -4.3217813620911705E-002  0.12761216824379418        0.0000000000000000     
  -4.4220685009718839E-002  0.13490905323803598        0.0000000000000000     
  -2.1635297849517867E-002  0.13407280653228593        0.0000000000000000     
  -2.2104696008945820E-002  0.14154694740444002        0.0000000000000000     
  -2.2542018032498438E-002  0.14913271363299432        0.0000000000000000     
  -2.2947263920175719E-002  0.15683010521794882        0.0000000000000000     
  -2.3320433671977663E-002  0.16463912215930349        0.0000000000000000     
  -2.7082024214029339E-002  0.13422761053099105        0.0000000000000000     
  -2.7655538451330383E-002  0.14169139384880683        0.0000000000000000     
  -2.8181444408754558E-002  0.14926631922012323        0.0000000000000000     
  -2.8659742086301856E-002  0.15695238664494029        0.0000000000000000     
  -2.9090431483972293E-002  0.16474959612325801        0.0000000000000000     
  -3.2661830862233322E-002  0.13441858631485112        0.0000000000000000     
  -3.3350056626934306E-002  0.14186981004759247        0.0000000000000000     
  -3.3980662389563328E-002  0.14943185724895311        0.0000000000000000     
  -3.4553648150120381E-002  0.15710472791893298        0.0000000000000000     
  -3.5069013908605458E-002  0.16488842205753207        0.0000000000000000     
  -3.8374717794129820E-002  0.13464573388386608        0.0000000000000000     
  -3.9188250535757592E-002  0.14208219600079700        0.0000000000000000     
  -3.9939671974924741E-002  0.14962932771948390        0.0000000000000000     
  -4.0628982111631261E-002  0.15728712903992678        0.0000000000000000     
  -4.1256180945877165E-002  0.16505559996212568        0.0000000000000000     
  -4.4220685009718839E-002  0.13490905323803598        0.0000000000000000     
  -4.5170120177800241E-002  0.14232855170842032        0.0000000000000000     
  -4.6058473164838805E-002  0.14985873063171562        0.0000000000000000     
  -4.6885743970834531E-002  0.15749959000792177        0.0000000000000000     
  -4.7651932595787413E-002  0.16525112983703882        0.0000000000000000     
   0.0000000000000000        0.0000000000000000        0.0000000000000000     
  -1.7983768070047952E-003   1.2768526975847048E-003   0.0000000000000000     
  -3.6214496014031448E-003   2.9391832806908488E-003   0.0000000000000000     
  -5.4692183831950483E-003   4.9869917493184325E-003   0.0000000000000000     
  -7.3416831523805074E-003   7.4202781034674549E-003   0.0000000000000000     
   0.0000000000000000        0.0000000000000000        0.0000000000000000     
  -2.0695067397177454E-003   1.3549666303673234E-003   0.0000000000000000     
  -4.1641831431014310E-003   3.0940325179179187E-003   0.0000000000000000     
  -6.2840292101510563E-003   5.2171976626517839E-003   0.0000000000000000     
  -8.4290449408666208E-003   7.7244620645689228E-003   0.0000000000000000     
   0.0000000000000000        0.0000000000000000        0.0000000000000000     
  -2.3401654232467358E-003   1.4590208824511676E-003   0.0000000000000000     
  -4.7202936511938458E-003   3.2999254488663833E-003   0.0000000000000000     
  -7.1403846838413313E-003   5.5227136992456478E-003   0.0000000000000000     
  -9.6004385211891918E-003   8.1273856335889599E-003   0.0000000000000000     
   0.0000000000000000        0.0000000000000000        0.0000000000000000     
  -2.6103528575917652E-003   1.5890154538362369E-003   0.0000000000000000     
  -5.2897811256803901E-003   3.5568620735362448E-003   0.0000000000000000     
  -8.0382848042658741E-003   5.9035398591000248E-003   0.0000000000000000     
  -1.0855863893348219E-002   8.6290488105275742E-003   0.0000000000000000     
   0.0000000000000000        0.0000000000000000        0.0000000000000000     
  -2.8800690427528346E-003   1.7449503445225311E-003   0.0000000000000000     
  -5.8726455665610629E-003   3.8648423919275011E-003   0.0000000000000000     
  -8.9777295714246839E-003   6.3596761422149099E-003   0.0000000000000000     
  -1.2195321057343698E-002   9.2294515953847585E-003   0.0000000000000000     
  -7.3416831523805074E-003   7.4202781034674549E-003   0.0000000000000000     
  -9.2311963857979705E-003   1.0186610561079461E-002   0.0000000000000000     
  -1.1130110560285887E-002   1.3233557340095993E-002   0.0000000000000000     
  -1.3038425675844260E-002   1.6561118440517053E-002   0.0000000000000000     
  -1.4956141732473087E-002   2.0169293862342643E-002   0.0000000000000000     
  -8.4290449408666208E-003   7.7244620645689228E-003   0.0000000000000000     
  -1.0590976776527155E-002   1.0558370053312571E-002   0.0000000000000000     
  -1.2761571158411684E-002   1.3661465958525966E-002   0.0000000000000000     
  -1.4940828086520209E-002   1.7033749780209110E-002   0.0000000000000000     
  -1.7128747560852729E-002   2.0675221518362003E-002   0.0000000000000000     
  -9.6004385211891918E-003   8.1273856335889599E-003   0.0000000000000000     
  -1.2076987649798088E-002   1.1046539458332260E-002   0.0000000000000000     
  -1.4546564556228676E-002   1.4212773379911475E-002   0.0000000000000000     
  -1.7009169240480956E-002   1.7626087398326613E-002   0.0000000000000000     
  -1.9464801702554931E-002   2.1286481513577673E-002   0.0000000000000000     
  -1.0855863893348219E-002   8.6290488105275742E-003   0.0000000000000000     
  -1.3689229005610764E-002   1.1651118776138530E-002   0.0000000000000000     
  -1.6485090753736859E-002   1.4887479604252530E-002   0.0000000000000000     
  -1.9243449137726500E-002   1.8338131294869570E-002   0.0000000000000000     
  -2.1964304157579682E-002   2.2003073847989649E-002   0.0000000000000000     
  -1.2195321057343698E-002   9.2294515953847585E-003   0.0000000000000000     
  -1.5427700843965188E-002   1.2372108006731383E-002   0.0000000000000000     
  -1.8577149750936238E-002   1.5685584631549121E-002   0.0000000000000000     
  -2.1643667778256839E-002   1.9169881469837970E-002   0.0000000000000000     
  -2.4627254925927003E-002   2.2824998521597934E-002   0.0000000000000000     
  -1.4956141732473087E-002   2.0169293862342643E-002   0.0000000000000000     
  -1.6857886756426098E-002   2.4029507509930010E-002   0.0000000000000000     
  -1.8718288773957033E-002   2.8113183287636411E-002   0.0000000000000000     
  -2.0537347785065888E-002   3.2420321195461850E-002   0.0000000000000000     
  -2.2315063789752659E-002   3.6950921233406313E-002   0.0000000000000000     
  -1.7128747560852729E-002   2.0675221518362003E-002   0.0000000000000000     
  -1.9294050573486921E-002   2.4558230612946121E-002   0.0000000000000000     
  -2.1405458116500457E-002   2.8655126503922941E-002   0.0000000000000000     
  -2.3462970189893340E-002   3.2965909191292470E-002   0.0000000000000000     
  -2.5466586793665574E-002   3.7490578675054682E-002   0.0000000000000000     
  -1.9464801702554931E-002   2.1286481513577673E-002   0.0000000000000000     
  -2.1885152931527641E-002   2.5175155233945232E-002   0.0000000000000000     
  -2.4241913916476152E-002   2.9273308067709888E-002   0.0000000000000000     
  -2.6535084657400440E-002   3.3580940014871635E-002   0.0000000000000000     
  -2.8764665154300529E-002   3.8098051075430468E-002   0.0000000000000000     
  -2.1964304157579682E-002   2.2003073847989649E-002   0.0000000000000000     
  -2.4631193830548272E-002   2.5880281372927357E-002   0.0000000000000000     
  -2.7227656173884108E-002   2.9967727978997254E-002   0.0000000000000000     
  -2.9753691187587195E-002   3.4265413666199361E-002   0.0000000000000000     
  -3.2209298871657535E-002   3.8773338434533670E-002   0.0000000000000000     
  -2.4627254925927003E-002   2.2824998521597934E-002   0.0000000000000000     
  -2.7532173270548809E-002   2.6673609029892471E-002   0.0000000000000000     
  -3.0362684888724342E-002   3.0738386237785041E-002   0.0000000000000000     
  -3.3118789780453600E-002   3.5019330145275647E-002   0.0000000000000000     
  -3.5800487945736592E-002   3.9516440752364282E-002   0.0000000000000000     
  -2.2315063789752659E-002   3.6950921233406313E-002   0.0000000000000000     
  -2.4048663239753538E-002   4.1696355266930663E-002   0.0000000000000000     
  -2.5735372586804701E-002   4.6647995161495717E-002   0.0000000000000000     
  -2.7375191830906150E-002   5.1805840917101505E-002   0.0000000000000000     
  -2.8968120972057889E-002   5.7169892533747997E-002   0.0000000000000000     
  -2.5466586793665574E-002   3.7490578675054682E-002   0.0000000000000000     
  -2.7417687253986592E-002   4.2225174392577468E-002   0.0000000000000000     
  -2.9317650897025864E-002   4.7165735781228693E-002   0.0000000000000000     
  -3.1166477722783366E-002   5.2312262841008338E-002   0.0000000000000000     
  -3.2964167731259118E-002   5.7664755571916415E-002   0.0000000000000000     
  -2.8764665154300529E-002   3.8098051075430468E-002   0.0000000000000000     
  -3.0933825057542497E-002   4.2822105997217488E-002   0.0000000000000000     
  -3.3045734017492438E-002   4.7750569528063794E-002   0.0000000000000000     
  -3.5100392034150350E-002   5.2883441667969398E-002   0.0000000000000000     
  -3.7097799107516247E-002   5.8220722416934281E-002   0.0000000000000000     
  -3.2209298871657535E-002   3.8773338434533670E-002   0.0000000000000000     
  -3.4597076650421235E-002   4.3487150080850717E-002   0.0000000000000000     
  -3.6919621948204431E-002   4.8402496402001054E-002   0.0000000000000000     
  -3.9176934765007110E-002   5.3519377397984673E-002   0.0000000000000000     
  -4.1369015100829278E-002   5.8837793068801589E-002   0.0000000000000000     
  -3.5800487945736592E-002   3.9516440752364282E-002   0.0000000000000000     
  -3.8407442032622828E-002   4.4220306643477147E-002   0.0000000000000000     
  -4.0939314689161843E-002   4.9121516403040445E-002   0.0000000000000000     
  -4.3396105915353637E-002   5.4220070031054175E-002   0.0000000000000000     
  -4.5777815711198197E-002   5.9515967527518344E-002   0.0000000000000000     
  -2.8968120972057889E-002   5.7169892533747997E-002   0.0000000000000000     
  -3.0513328742404908E-002   6.2727797954280490E-002   0.0000000000000000     
  -3.2009983874092221E-002   6.8467205121544278E-002   0.0000000000000000     
  -3.3458086367119819E-002   7.4388114035539341E-002   0.0000000000000000     
  -3.4857636221487701E-002   8.0490524696265692E-002   0.0000000000000000     
  -3.2964167731259118E-002   5.7664755571916415E-002   0.0000000000000000     
  -3.4708207524989522E-002   6.3210304390678207E-002   0.0000000000000000     
  -3.6396083706511005E-002   6.8935999714019022E-002   0.0000000000000000     
  -3.8027796275823554E-002   7.4841841541938861E-002   0.0000000000000000     
  -3.9603345232927176E-002   8.0927829874437682E-002   0.0000000000000000     
  -3.7097799107516247E-002   5.8220722416934281E-002   0.0000000000000000     
  -3.9035284174421106E-002   6.3750033694627381E-002   0.0000000000000000     
  -4.0910176171695907E-002   6.9458997420717636E-002   0.0000000000000000     
  -4.2722475099340657E-002   7.5347613595205032E-002   0.0000000000000000     
  -4.4472180957355362E-002   8.1415882218089569E-002   0.0000000000000000     
  -4.1369015100829278E-002   5.8837793068801589E-002   0.0000000000000000     
  -4.3494558690699639E-002   6.4346985866127984E-002   0.0000000000000000     
  -4.5552261269646926E-002   7.0036198241640077E-002   0.0000000000000000     
  -4.7542122837671126E-002   7.5905430195337839E-002   0.0000000000000000     
  -4.9464143394772259E-002   8.1954681727221326E-002   0.0000000000000000     
  -4.5777815711198197E-002   5.9515967527518344E-002   0.0000000000000000     
  -4.8086031073825142E-002   6.5001160905180044E-002   0.0000000000000000     
  -5.0322339000364057E-002   7.0667602176786373E-002   0.0000000000000000     
  -5.2486739490814963E-002   7.6515291342337352E-002   0.0000000000000000     
  -5.4579232545177846E-002   8.2544228401832981E-002   0.0000000000000000     
  -3.4857636221487701E-002   8.0490524696265692E-002   0.0000000000000000     
  -3.6206392727175650E-002   8.6762787569400202E-002   0.0000000000000000     
  -3.7502115174163422E-002   9.3193253120619754E-002   0.0000000000000000     
  -3.8744803562451038E-002   9.9781921349924335E-002   0.0000000000000000     
  -3.9934457892038477E-002  0.10652879225731392        0.0000000000000000     
  -3.9603345232927176E-002   8.0927829874437682E-002   0.0000000000000000     
  -4.1121499200838012E-002   8.7183097532637532E-002   0.0000000000000000     
  -4.2581026802572190E-002   9.3596777337660336E-002   0.0000000000000000     
  -4.3981928038129732E-002  0.10016886928950614        0.0000000000000000     
  -4.5324202907510623E-002  0.10689937338817491        0.0000000000000000     
  -4.4472180957355362E-002   8.1415882218089569E-002   0.0000000000000000     
  -4.6158336467168964E-002   8.7653141371945770E-002   0.0000000000000000     
  -4.7779984350210414E-002   9.4048729139348086E-002   0.0000000000000000     
  -4.9337124606479731E-002  0.10060264552029655        0.0000000000000000     
  -5.0829757235976894E-002  0.10731489051479114        0.0000000000000000     
  -4.9464143394772259E-002   8.1954681727221326E-002   0.0000000000000000     
  -5.1316904526168494E-002   8.8172919087324900E-002   0.0000000000000000     
  -5.3098987817078093E-002   9.4549108525682948E-002   0.0000000000000000     
  -5.4810393267501020E-002  0.10108325004229554        0.0000000000000000     
  -5.6451120877437290E-002  0.10777534363716261        0.0000000000000000     
  -5.4579232545177846E-002   8.2544228401832981E-002   0.0000000000000000     
  -5.6597203377836615E-002   8.8742430678774964E-002   0.0000000000000000     
  -5.8538037203175221E-002   9.5097915496665006E-002   0.0000000000000000     
  -6.0401734021193615E-002  0.10161068285550313        0.0000000000000000     
  -6.2188293831891811E-002  0.10828073275528932        0.0000000000000000     
  -3.9934457892038477E-002  0.10652879225731392        0.0000000000000000     
  -4.1074700062071527E-002  0.11342203775343314        0.0000000000000000     
  -4.2169151971695934E-002  0.12044982974892654        0.0000000000000000     
  -4.3217813620911705E-002  0.12761216824379418        0.0000000000000000     
  -4.4220685009718839E-002  0.13490905323803598        0.0000000000000000     
  -4.5324202907510623E-002  0.10689937338817491        0.0000000000000000     
  -4.6612533447813104E-002  0.11377606910446808        0.0000000000000000     
  -4.7851601696135428E-002  0.12078673590918702        0.0000000000000000     
  -4.9041407652477581E-002  0.12793137380233174        0.0000000000000000     
  -5.0181951316839578E-002  0.13520998278390228        0.0000000000000000     
  -5.0829757235976894E-002  0.10731489051479114        0.0000000000000000     
  -5.2263227491019852E-002  0.11417313939156787        0.0000000000000000     
  -5.3642880623926581E-002  0.12116506741936266        0.0000000000000000     
  -5.4968716634697025E-002  0.12829067459817556        0.0000000000000000     
  -5.6240735523331246E-002  0.13554996092800653        0.0000000000000000     
  -5.6451120877437290E-002  0.10777534363716261        0.0000000000000000     
  -5.8026782191691779E-002  0.11461324861473249        0.0000000000000000     
  -5.9542988755069359E-002  0.12158482427945345        0.0000000000000000     
  -6.0999740567570050E-002  0.12869007063132551        0.0000000000000000     
  -6.2397037629193831E-002  0.13592898767034869        0.0000000000000000     
  -6.2188293831891811E-002  0.10828073275528932        0.0000000000000000     
  -6.3903197549828872E-002  0.11509639677396197        0.0000000000000000     
  -6.5551926089563811E-002  0.12204600648945943        0.0000000000000000     
  -6.7134479451096643E-002  0.12912956190178168        0.0000000000000000     
  -6.8650857634427354E-002  0.13634706301092878        0.0000000000000000     
  -4.4220685009718839E-002  0.13490905323803598        0.0000000000000000     
  -4.5170120177800241E-002  0.14232855170842032        0.0000000000000000     
  -4.6058473164838805E-002  0.14985873063171562        0.0000000000000000     
  -4.6885743970834531E-002  0.15749959000792177        0.0000000000000000     
  -4.7651932595787413E-002  0.16525112983703882        0.0000000000000000     
  -5.0181951316839578E-002  0.13520998278390228        0.0000000000000000     
  -5.1267990790456033E-002  0.14261089367064778        0.0000000000000000     
  -5.2294284174561577E-002  0.15012243727931746        0.0000000000000000     
  -5.3260831469156202E-002  0.15774461360991135        0.0000000000000000     
  -5.4167632674239907E-002  0.16547742266242943        0.0000000000000000     
  -5.6240735523331246E-002  0.13554996092800653        0.0000000000000000     
  -5.7454187611118750E-002  0.14293123838766456        0.0000000000000000     
  -5.8604323219349094E-002  0.15042281895595871        0.0000000000000000     
  -5.9691142348022301E-002  0.15802470263288895        0.0000000000000000     
  -6.0714644997138342E-002  0.16573688941845530        0.0000000000000000     
  -6.2397037629193831E-002  0.13592898767034869        0.0000000000000000     
  -6.3728710639788383E-002  0.14328958585947069        0.0000000000000000     
  -6.4988590299201385E-002  0.15075987566163934        0.0000000000000000     
  -6.6176676607432830E-002  0.15833985707685458        0.0000000000000000     
  -6.7292969564482746E-002  0.16602953010511642        0.0000000000000000     
  -6.8650857634427354E-002  0.13634706301092878        0.0000000000000000     
  -7.0091559876464940E-002  0.14368593608606617        0.0000000000000000     
  -7.1447085414118441E-002  0.15113360739635931        0.0000000000000000     
  -7.2717434247387816E-002  0.15869007694180823        0.0000000000000000     
  -7.3902606376273092E-002  0.16635534472241292        0.0000000000000000     
   0.0000000000000000        0.0000000000000000        0.0000000000000000     
  -2.8800690427528346E-003   1.7449503445225311E-003   0.0000000000000000     
  -5.8726455665610629E-003   3.8648423919275011E-003   0.0000000000000000     
  -8.9777295714246839E-003   6.3596761422149099E-003   0.0000000000000000     
  -1.2195321057343698E-002   9.2294515953847585E-003   0.0000000000000000     
   0.0000000000000000        0.0000000000000000        0.0000000000000000     
  -3.2831743011390415E-003   1.9994819279504877E-003   0.0000000000000000     
  -6.6768937197469354E-003   4.3311733026430649E-003   0.0000000000000000     
  -1.0181158255823683E-002   6.9950741240777329E-003   0.0000000000000000     
  -1.3795967909369282E-002   9.9911843922544895E-003   0.0000000000000000     
   0.0000000000000000        0.0000000000000000        0.0000000000000000     
  -3.9535289551594840E-003   2.4252665775605421E-003   0.0000000000000000     
  -7.9105323311490817E-003   5.0631617042858467E-003   0.0000000000000000     
  -1.1871010127968791E-002   7.9136853801759152E-003   0.0000000000000000     
  -1.5834962345618615E-002   1.0976837605230745E-002   0.0000000000000000     
   0.0000000000000000        0.0000000000000000        0.0000000000000000     
  -4.8911330048141627E-003   3.0223042933526954E-003   0.0000000000000000     
  -9.5735614007674986E-003   6.0608075968558474E-003   0.0000000000000000     
  -1.4047285187860008E-002   9.1155099105094534E-003   0.0000000000000000     
  -1.8312304366091693E-002   1.2186411234313521E-002   0.0000000000000000     
   0.0000000000000000        0.0000000000000000        0.0000000000000000     
  -6.0959864501030766E-003   3.7905950753269460E-003   0.0000000000000000     
  -1.1665980928602188E-002   7.3241109803530643E-003   0.0000000000000000     
  -1.6709983435497337E-002   1.0600547715078356E-002   0.0000000000000000     
  -2.1227993970788520E-002   1.3619905279502820E-002   0.0000000000000000     
  -1.2195321057343698E-002   9.2294515953847585E-003   0.0000000000000000     
  -1.5427700843965188E-002   1.2372108006731383E-002   0.0000000000000000     
  -1.8577149750936238E-002   1.5685584631549121E-002   0.0000000000000000     
  -2.1643667778256839E-002   1.9169881469837970E-002   0.0000000000000000     
  -2.4627254925927003E-002   2.2824998521597934E-002   0.0000000000000000     
  -1.3795967909369282E-002   9.9911843922544895E-003   0.0000000000000000     
  -1.7404217960616929E-002   1.3221552298610823E-002   0.0000000000000000     
  -2.0888803689799829E-002   1.6588226034584215E-002   0.0000000000000000     
  -2.4249725096917970E-002   2.0091205600174671E-002   0.0000000000000000     
  -2.7486982181971362E-002   2.3730490995382183E-002   0.0000000000000000     
  -1.5834962345618615E-002   1.0976837605230745E-002   0.0000000000000000     
  -1.9730595151321563E-002   1.4211496800276859E-002   0.0000000000000000     
  -2.3486114712300651E-002   1.7576541386140784E-002   0.0000000000000000     
  -2.7101521028555887E-002   2.1071971362822517E-002   0.0000000000000000     
  -3.0576814100087255E-002   2.4697786730322056E-002   0.0000000000000000     
  -1.8312304366091693E-002   1.2186411234313521E-002   0.0000000000000000     
  -2.2406832416079079E-002   1.5341941511729495E-002   0.0000000000000000     
  -2.6369082818438708E-002   1.8650530686218820E-002   0.0000000000000000     
  -3.0199055573170572E-002   2.2112178757781511E-002   0.0000000000000000     
  -3.3896750680274680E-002   2.5726885726417549E-002   0.0000000000000000     
  -2.1227993970788520E-002   1.3619905279502820E-002   0.0000000000000000     
  -2.5432929754889491E-002   1.6612886432968724E-002   0.0000000000000000     
  -2.9537708008214002E-002   1.9810193934818331E-002   0.0000000000000000     
  -3.3542328730762051E-002   2.3211827785051650E-002   0.0000000000000000     
  -3.7446791922533640E-002   2.6817787983668670E-002   0.0000000000000000     
  -2.4627254925927003E-002   2.2824998521597934E-002   0.0000000000000000     
  -2.7532173270548809E-002   2.6673609029892471E-002   0.0000000000000000     
  -3.0362684888724342E-002   3.0738386237785041E-002   0.0000000000000000     
  -3.3118789780453600E-002   3.5019330145275647E-002   0.0000000000000000     
  -3.5800487945736592E-002   3.9516440752364282E-002   0.0000000000000000     
  -2.7486982181971362E-002   2.3730490995382183E-002   0.0000000000000000     
  -3.0623692675325456E-002   2.7548525474441476E-002   0.0000000000000000     
  -3.3682974307345709E-002   3.1587752291587258E-002   0.0000000000000000     
  -3.6664827078032106E-002   3.5848171446819538E-002   0.0000000000000000     
  -3.9569250987384688E-002   4.0329782940138316E-002   0.0000000000000000     
  -3.0576814100087255E-002   2.4697786730322056E-002   0.0000000000000000     
  -3.3941353468674433E-002   2.8498417976175250E-002   0.0000000000000000     
  -3.7224498676097076E-002   3.2518295587917932E-002   0.0000000000000000     
  -4.0426249722355215E-002   3.6757419565550106E-002   0.0000000000000000     
  -4.3546606607448801E-002   4.1215789909071779E-002   0.0000000000000000     
  -3.3896750680274680E-002   2.5726885726417549E-002   0.0000000000000000     
  -3.7485155650595729E-002   2.9523286535093791E-002   0.0000000000000000     
  -4.0987257994978474E-002   3.3530016126777057E-002   0.0000000000000000     
  -4.4403057713422872E-002   3.7747074501467352E-002   0.0000000000000000     
  -4.7732554805928952E-002   4.2174461659164678E-002   0.0000000000000000     
  -3.7446791922533640E-002   2.6817787983668670E-002   0.0000000000000000     
  -4.1255099221089379E-002   3.0623131151197098E-002   0.0000000000000000     
  -4.4971252263989861E-002   3.4622913908164632E-002   0.0000000000000000     
  -4.8595251051235119E-002   3.8817136254571262E-002   0.0000000000000000     
  -5.2127095582825120E-002   4.3205798190417005E-002   0.0000000000000000     
  -3.5800487945736592E-002   3.9516440752364282E-002   0.0000000000000000     
  -3.8407442032622828E-002   4.4220306643477147E-002   0.0000000000000000     
  -4.0939314689161843E-002   4.9121516403040445E-002   0.0000000000000000     
  -4.3396105915353637E-002   5.4220070031054175E-002   0.0000000000000000     
  -4.5777815711198197E-002   5.9515967527518344E-002   0.0000000000000000     
  -3.9569250987384688E-002   4.0329782940138316E-002   0.0000000000000000     
  -4.2392776239375242E-002   4.5019061501101840E-002   0.0000000000000000     
  -4.5131933037975622E-002   4.9902481859268349E-002   0.0000000000000000     
  -4.7786721383185828E-002   5.4980044014637873E-002   0.0000000000000000     
  -5.0357141275005846E-002   6.0251747967210396E-002   0.0000000000000000     
  -4.3546606607448801E-002   4.1215789909071779E-002   0.0000000000000000     
  -4.6580934305906443E-002   4.5880900469729834E-002   0.0000000000000000     
  -4.9524597792256687E-002   5.0740245098771154E-002   0.0000000000000000     
  -5.2377597066499547E-002   5.5793823796195754E-002   0.0000000000000000     
  -5.5139932128635001E-002   6.1041636562003621E-002   0.0000000000000000     
  -4.7732554805928952E-002   4.2174461659164678E-002   0.0000000000000000     
  -5.0971916232216433E-002   4.6805823549361150E-002   0.0000000000000000     
  -5.4117308952005047E-002   5.1634806121548860E-002   0.0000000000000000     
  -5.7168732965294802E-002   5.6661409375727806E-002   0.0000000000000000     
  -6.0126188272085698E-002   6.1885633311898003E-002   0.0000000000000000     
  -5.2127095582825120E-002   4.3205798190417005E-002   0.0000000000000000     
  -5.5565722018305196E-002   4.7793830739995768E-002   0.0000000000000000     
  -5.8910066517220694E-002   5.2586164927601445E-002   0.0000000000000000     
  -6.2160129079571594E-002   5.7582800753234041E-002   0.0000000000000000     
  -6.5315909705357916E-002   6.2783738216893564E-002   0.0000000000000000     
  -4.5777815711198197E-002   5.9515967527518344E-002   0.0000000000000000     
  -4.8086031073825142E-002   6.5001160905180044E-002   0.0000000000000000     
  -5.0322339000364057E-002   7.0667602176786373E-002   0.0000000000000000     
  -5.2486739490814963E-002   7.6515291342337352E-002   0.0000000000000000     
  -5.4579232545177846E-002   8.2544228401832981E-002   0.0000000000000000     
  -5.0357141275005846E-002   6.0251747967210396E-002   0.0000000000000000     
  -5.2847499699917894E-002   6.5711638807709860E-002   0.0000000000000000     
  -5.5262103644404169E-002   7.1353761626860232E-002   0.0000000000000000     
  -5.7600953108464678E-002   7.7178116424661519E-002   0.0000000000000000     
  -5.9864048092099421E-002   8.3184703201113722E-002   0.0000000000000000     
  -5.5139932128635001E-002   6.1041636562003621E-002   0.0000000000000000     
  -5.7816762945098167E-002   6.6477499569643800E-002   0.0000000000000000     
  -6.0413249482324086E-002   7.2095228992565416E-002   0.0000000000000000     
  -6.2929391740312784E-002   7.7894824830768372E-002   0.0000000000000000     
  -6.5365189719064229E-002   8.3876287084252751E-002   0.0000000000000000     
  -6.0126188272085698E-002   6.1885633311898003E-002   0.0000000000000000     
  -6.2993820809365955E-002   6.7298743190981877E-002   0.0000000000000000     
  -6.5775776514123807E-002   7.2892004273901842E-002   0.0000000000000000     
  -6.8472055386359254E-002   7.8665416560657925E-002   0.0000000000000000     
  -7.1082657426072282E-002   8.4618980051250098E-002   0.0000000000000000     
  -6.5315909705357916E-002   6.2783738216893564E-002   0.0000000000000000     
  -6.8378673292721279E-002   6.8175369671724051E-002   0.0000000000000000     
  -7.1349684739803354E-002   7.3744087470869593E-002   0.0000000000000000     
  -7.4228944046604114E-002   7.9489891614330135E-002   0.0000000000000000     
  -7.7016451213123588E-002   8.5412782102105733E-002   0.0000000000000000     
  -5.4579232545177846E-002   8.2544228401832981E-002   0.0000000000000000     
  -5.6597203377836615E-002   8.8742430678774964E-002   0.0000000000000000     
  -5.8538037203175221E-002   9.5097915496665006E-002   0.0000000000000000     
  -6.0401734021193615E-002  0.10161068285550313        0.0000000000000000     
  -6.2188293831891811E-002  0.10828073275528932        0.0000000000000000     
  -5.9864048092099421E-002   8.3184703201113722E-002   0.0000000000000000     
  -6.2047405925000430E-002   8.9360825668530458E-002   0.0000000000000000     
  -6.4147043936859716E-002   9.5693787539225333E-002   0.0000000000000000     
  -6.6162962127677291E-002  0.10218358881319838        0.0000000000000000     
  -6.8095160497453150E-002  0.10883022949044960        0.0000000000000000     
  -6.5365189719064229E-002   8.3876287084252751E-002   0.0000000000000000     
  -6.7715685070486975E-002   9.0027253578825878E-002   0.0000000000000000     
  -6.9975919446489510E-002   9.6335362140295075E-002   0.0000000000000000     
  -7.2145892847071860E-002  0.10280061276866036        0.0000000000000000     
  -7.4225605272233985E-002  0.10942300546392170        0.0000000000000000     
  -7.1082657426072282E-002   8.4618980051250098E-002   0.0000000000000000     
  -7.3602040814296291E-002   9.0741714409661237E-002   0.0000000000000000     
  -7.6024663732064637E-002   9.7022639299874217E-002   0.0000000000000000     
  -7.8350526179377308E-002  0.10346175472188902        0.0000000000000000     
  -8.0579628156234318E-002  0.11005906067570570        0.0000000000000000     
  -7.7016451213123588E-002   8.5412782102105733E-002   0.0000000000000000     
  -7.9706473156428356E-002   9.1504208161036563E-002   0.0000000000000000     
  -8.2293276793585043E-002   9.7755619017962800E-002   0.0000000000000000     
  -8.4776862124593635E-002  0.10416701467288446        0.0000000000000000     
  -8.7157229149454132E-002  0.11073839512580154        0.0000000000000000     
  -6.2188293831891811E-002  0.10828073275528932        0.0000000000000000     
  -6.3903197549828872E-002  0.11509639677396197        0.0000000000000000     
  -6.5551926089563811E-002  0.12204600648945943        0.0000000000000000     
  -6.7134479451096643E-002  0.12912956190178168        0.0000000000000000     
  -6.8650857634427354E-002  0.13634706301092878        0.0000000000000000     
  -6.8095160497453150E-002  0.10883022949044960        0.0000000000000000     
  -6.9949139266119273E-002  0.11562235305441684        0.0000000000000000     
  -7.1730398653607544E-002  0.12254860298853805        0.0000000000000000     
  -7.3438938659918032E-002  0.12960897929281323        0.0000000000000000     
  -7.5074759285050696E-002  0.13680348196724237        0.0000000000000000     
  -7.4225605272233985E-002  0.10942300546392170        0.0000000000000000     
  -7.6221273041251064E-002  0.11619088664125769        0.0000000000000000     
  -7.8139112473398206E-002  0.12309260271584690        0.0000000000000000     
  -7.9979123568675453E-002  0.13012815368768932        0.0000000000000000     
  -8.1741306327082777E-002  0.13729753955678492        0.0000000000000000     
  -8.0579628156234318E-002  0.11005906067570570        0.0000000000000000     
  -8.2719598875224273E-002  0.11680199753448457        0.0000000000000000     
  -8.4778067548935826E-002  0.12367800567138595        0.0000000000000000     
  -8.6755034177368920E-002  0.13068708508640992        0.0000000000000000     
  -8.8650498760523611E-002  0.13782923577955650        0.0000000000000000     
  -8.7157229149454132E-002  0.11073839512580154        0.0000000000000000     
  -8.9444116768038914E-002  0.11745568573409734        0.0000000000000000     
  -9.1647263880220348E-002  0.12430481185515521        0.0000000000000000     
  -9.3766670485998432E-002  0.13128577348897513        0.0000000000000000     
  -9.5802336585373155E-002  0.13839857063555708        0.0000000000000000     
  -6.8650857634427354E-002  0.13634706301092878        0.0000000000000000     
  -7.0091559876464940E-002  0.14368593608606617        0.0000000000000000     
  -7.1447085414118441E-002  0.15113360739635931        0.0000000000000000     
  -7.2717434247387816E-002  0.15869007694180823        0.0000000000000000     
  -7.3902606376273092E-002  0.16635534472241292        0.0000000000000000     
  -7.5074759285050696E-002  0.13680348196724237        0.0000000000000000     
  -7.6625201886939345E-002  0.14411914689960267        0.0000000000000000     
  -7.8077607823517733E-002  0.15154300997767142        0.0000000000000000     
  -7.9431977094785874E-002  0.15907507120144859        0.0000000000000000     
  -8.0688309700743782E-002  0.16671533057093418        0.0000000000000000     
  -8.1741306327082777E-002  0.13729753955678492        0.0000000000000000     
  -8.3412103237002447E-002  0.14458807613223190        0.0000000000000000     
  -8.4977956786816772E-002  0.15198707922312835        0.0000000000000000     
  -8.6438866976525711E-002  0.15949454882947434        0.0000000000000000     
  -8.7794833806129249E-002  0.16711048495126976        0.0000000000000000     
  -8.8650498760523611E-002  0.13782923577955650        0.0000000000000000     
  -9.0452263926654314E-002  0.14509272378395385        0.0000000000000000     
  -9.2148132304015556E-002  0.15246581513273014        0.0000000000000000     
  -9.3738103892607227E-002  0.15994850982588540        0.0000000000000000     
  -9.5222178692429479E-002  0.16754080786341966        0.0000000000000000     
  -9.5802336585373155E-002  0.13839857063555708        0.0000000000000000     
  -9.7745683955894891E-002  0.14563308985476850        0.0000000000000000     
  -9.9588134375114046E-002  0.15297921770647677        0.0000000000000000     
 -0.10132968784303055       0.16043695419068188        0.0000000000000000     
 -0.10297034435964444       0.16800629930738387        0.0000000000000000     
 </DataArray>
 <DataArray  type="Float64" Name="stress" NumberOfComponents="3" format="ascii">
   13416754150.070873        4025026245.0212617        2894130210.7611136     
   11766467382.031242        1890418969.7319922        1715872502.4257727     
   10313478021.319679        413469718.86960554        810728538.77295780     
   9057786067.9361801       -405821507.56589460        178698319.80266935     
   7999391521.8807478       -567454709.57451248       -180218154.48509261     
   10539925047.754908        3161977514.3264718        2225874305.1580839     
   9667477293.5257435        1589527830.2492568        1446775422.2281120     
   8943684290.0673542        512593982.07462502        863171822.65165210     
   8368546037.3797426       -68824030.197422028        475063506.42870528     
   7942062535.4629059       -154726206.56688738        282450473.55927163     
   8337846318.3309917        2501353895.4992976        1712457085.2656200     
   8021470545.5436850        1424531692.9235544        1275767261.7575119     
   7805106866.9698658        681083137.72609425        956954260.27390265     
   7688755282.6095295        271008229.90691805        756018080.81479228     
   7672415792.4626780        194306969.46602345        672958723.38018095     
   6810517961.7991314        2043155388.5397396        1353878551.0837224     
   6828447138.0850725        1395430557.7548852        1202848021.0139725     
   6897745752.0272064        918937185.82401323        1092075851.6397080     
   7018413803.6255388        613675272.74712491        1021562042.9609290     
   7190451292.8800650        479644818.52421951        991306594.97763562     
   5957939978.1593266        1787381993.4477980        1150138702.6123903     
   6088407071.1499023        1502224424.7432489        1228017699.9974937     
   6221600945.2393847        1226156126.3683827        1268536596.7490692     
   6357521600.4277716        959177098.32319891        1271695392.8671167     
   6496169036.7150621        701287340.60769677        1237494088.3516359     
   7999391521.8807478       -567454709.57451248       -180218154.48509261     
   7917359495.1822319       -199886601.54966259       -78190558.674355745     
   7793827349.6565666        29347777.051351070       -8849025.6646952182     
   7628795085.3037548        120248426.22854424        27806444.543885954     
   7422262702.1237946        72815345.981902599        31775851.951389689     
   7942062535.4629059       -154726206.56688738        282450473.55927163     
   7739458351.4411535        16503458.135981083        281274405.50327039     
   7513453073.1566353        109729475.29628801        265345458.45862207     
   7264046700.6093435        124951844.91402769        234663632.42532864     
   6991239233.7992840        62170566.989202499        189228927.40338308     
   7672415792.4626780        194306969.46602345        672958723.38018095     
   7400477119.1532078        184569491.25757170        589694520.11588275     
   7123236376.1453485        157158447.38781691        509610621.67536891     
   6840693563.4390993        112073837.85676408        432707028.05863982     
   6552848681.0344553        49315662.664401770        358983739.26569504     
   7190451292.8800650        479644818.52421951        991306594.97763562     
   6900415798.3183928        304311497.81509972        847069785.16348374     
   6623177258.6227112        171634693.32594037        723946463.98554659     
   6358735673.7930164        81614405.056746244        621936631.44382429     
   6107091043.8293123        34250633.007512331        541040287.53831804     
   6496169036.7150621        701287340.60769677        1237494088.3516359     
   6239274388.9367065        375729477.80856395        1053400200.6460717     
   6013275720.5887203        153158213.11065841        908352985.38915431     
   5818173031.6710997        33573546.513977528        802352442.58088195     
   5653966322.1838474        16975478.018523216        735398572.22125566     
   7422262702.1237946        72815345.981902599        31775851.951389689     
   7217998158.8406334       -18279230.238441467        14435961.198979847     
   7025997351.1256638       -68494687.898138523        1765519.3535867855     
   6846260278.9788895       -77831026.997187614       -6235473.5847744420     
   6678786942.4003086       -46288247.535594463       -9567017.6161176078     
   6991239233.7992840        62170566.989202499        189228927.40338308     
   6807658931.5706692        2573031.4934377670        180695869.90858871     
   6631929565.1792984       -30854717.878163338        176135770.30459523     
   6464051134.6251860       -38112681.125587463        175548628.59140182     
   6304023639.9083138       -19200858.248852253        178934444.76900563     
   6552848681.0344553        49315662.664401770        358983739.26569504     
   6387962645.5283136        20618175.593601465        354109248.67574996     
   6226514746.1284790        3381142.2104852200        352511224.96037745     
   6068504982.8349495       -2395437.4849464893        354189668.11958557     
   5913933355.6477251        3288436.5073127747        359144578.15336496     
   6107091043.8293123        34250633.007512331        541040287.53831804     
   5958909300.7135735        35856202.062050343        534676097.50045699     
   5809752893.9731951        34212892.367793083        530891883.32094228     
   5659621823.6081800        29320703.924741268        529687644.99978119     
   5508516089.6185246        21179636.732890606        531063382.53696489     
   5653966322.1838474        16975478.018523216        735398572.22125566     
   5520498897.1264410        48287110.898778915        722396416.38270807     
   5381644008.7134485        61640532.593760014        711277745.38628411     
   5237401656.9448738        57035743.103462219        702042559.23198414     
   5087771841.8207197        34472742.427892923        694690857.91980910     
   6678786942.4003086       -46288247.535594463       -9567017.6161176078     
   6510320585.4989204       -4438377.3713390827       -3717672.2602304793     
   6336582798.6114206        19840059.505865574        1258514.5997072123     
   6157573581.7378073        26547063.096035242        5361542.9636877803     
   5973292934.8780870        15682633.399176836        8591412.8317278773     
   6304023639.9083138       -19200858.248852253        178934444.76900563     
   6130153915.6003504        2633114.9834370613        175590184.26097703     
   5953097971.4328604        13846355.350657701        173581698.92044362     
   5772855807.4058437        14438862.852785349        172908988.74740002     
   5589427423.5193071        4410637.4898335934        173572053.74185801     
   5913933355.6477251        3288436.5073127747        359144578.15336496     
   5740971502.9715853        6999884.5191738605        349039456.92911220     
   5566908640.5625067        7041300.0878975391        342479044.53578955     
   5391744768.4204903        3412683.2135114670        339463340.97340924     
   5215479886.5455418       -3885966.1039958000        339992346.24196082     
   5508516089.6185246        21179636.732890606        531063382.53696489     
   5342773347.6126184        8661931.2358407974        516630145.74416894     
   5178014806.0003605       -575106.28238344193        507950551.44575423     
   5014240464.7817545       -6531475.8217692375        505024599.64170980     
   4851450323.9567966       -9207177.3823268414        507852290.33205307     
   5087771841.8207197        34472742.427892923        694690857.91980910     
   4935559449.5234509        7619255.1334469318        678362250.70615661     
   4786416467.7464199       -9002863.7602121830        669996219.65032327     
   4640342896.4896297       -15393614.253072262        669592764.75230932     
   4497338735.7530699       -11552996.345147848        677151886.01211834     
   5973292934.8780870        15682633.399176836        8591412.8317278773     
   5792897711.4668322        1578924.8642690182       -6332430.2241771426     
   5614869584.4993277       -4634462.1914517879       -16495644.036291523     
   5439208553.9755764       -2957527.7680041790       -21898228.604606934     
   5265914619.8955879        6609728.1346487999       -22540183.929136831     
   5589427423.5193071        4410637.4898335934        173572053.74185801     
   5422657278.4030428       -3158115.5650904179        164108534.80560213     
   5257399946.9992485       -5684156.2451488972        158857149.43401405     
   5093655429.3079109       -3167484.5503387451        157817897.62710208     
   4931423725.3290348        4391899.5193436146        160990779.38486364     
   5215479886.5455418       -3885966.1039958000        339992346.24196082     
   5060767689.2125072       -5389902.8324604034        334992488.23885000     
   4906714022.8606319       -4698736.2903892994        333656268.12127924     
   4753318887.4899273       -1812466.4777619839        335983685.88926739     
   4600582283.1003771        3268906.6054000854        341974741.54279339     
   4851450323.9567966       -9207177.3823268414        507852290.33205307     
   4707228943.8952026       -5116436.9378745556        506319430.07556200     
   4562811812.0834780       -1678202.3271932602        507901712.02550590     
   4418198928.5216131        1107526.4496991634        512599136.18186945     
   4273390293.2096243        3240749.3928251266        520411702.54465854     
   4497338735.7530699       -11552996.345147848        677151886.01211834     
   4362041042.4511395       -2337717.8813083172        678089360.31575191     
   4225693314.6677771        3377445.6444325447        681593481.14668429     
   4088295552.4029837        5592494.2320749760        687664248.50491965     
   3949847755.6567664        4307427.8816249371        696301662.39045620     
   5265914619.8955879        6609728.1346487999       -22540183.929136831     
   5068926012.9360123        10578198.178747177       -31053919.473386861     
   4870565660.7449970        9974184.1180436611       -34814173.648288585     
   4670833563.3225393        4797685.9525218010       -33820946.453838170     
   4469729720.6686354       -4951296.3177990913       -28074237.890057381     
   4931423725.3290348        4391899.5193436146        160990779.38486364     
   4746113332.0082998        5957599.9561133385        152444737.44047201     
   4559903261.1309338        4524375.2040960789        148682940.68138427     
   4372793512.6969223        92225.263274908066        149705389.10759366     
   4184784086.7062840       -7338849.8663251400        155512082.71910247     
   4600582283.1003771        3268906.6054000854        341974741.54279339     
   4427038000.0354986        2458206.4199445248        333947138.81887323     
   4253066107.0887809        222139.96171498299        330734545.09620029     
   4078666604.2602386       -3439292.7692854404        332336960.37478566     
   3903839491.5498590       -8526091.7730562687        338754384.65461808     
   4273390293.2096243        3240749.3928251266        520411702.54465854     
   4111700017.0175962        80017.570239543915        513453284.66180956     
   3950054198.6185441       -2932521.6090912819        511340639.59616888     
   3788452838.0124674       -5796868.1451718807        514073767.34772915     
   3626895935.1993666       -8513022.0380029678        521652667.91649646     
   3949847755.6567664        4307427.8816249371        696301662.39045620     
   3800099382.9546061       -1176966.5929715633        690963174.96929097     
   3650867535.7202225       -4939609.5083198547        690501224.18128037     
   3502152213.9536257       -6980500.8643786907        694915810.02643013     
   3353953417.6548071       -7299640.6611797810        704206932.50473702     
   4469729720.6686354       -4951296.3177990913       -28074237.890057381     
   4309501839.5172310       -3105005.4712367058       -40176411.850779437     
   4150205583.5969424        1846702.8123722076       -51155506.728057116     
   3991840952.9077568        9903828.5330028534       -61011522.521864153     
   3834407947.4496870        21066371.690666437       -69744459.232228100     
   4184784086.7062840       -7338849.8663251400        155512082.71910247     
   4028834810.6248980       -5556686.4492690563        146252775.09064436     
   3873518306.7642250       -1665282.2965185642        139176421.68556601     
   3718834575.1242776        4335362.5919928551        134283022.50385967     
   3564783615.7050476        12445248.216228485        131572577.54552282     
   3903839491.5498590       -8526091.7730562687        338754384.65461808     
   3755197035.2239676       -5899591.3799157143        331989281.51297688     
   3606888498.1084118       -2160026.9523243904        328467007.73463315     
   3458913880.2031803        2692601.5096910000        328187563.31958467     
   3311273181.5082836        8658294.0061500072        331150948.26783168     
   3626895935.1993666       -8513022.0380029678        521652667.91649646     
   3488588513.3144627       -4133720.2631108761        517033107.41622257     
   3350316157.6294932        362468.84491801262        516716251.41916466     
   3212078868.1444750        4975545.2861099243        520702099.92532057     
   3073876644.8594031        9705509.0604518652        528990652.93468362     
   3353953417.6548071       -7299640.6611797810        704206932.50473702     
   3229009244.8963675       -259073.09889602661        701384252.80037570     
   3103801285.3274884        5902205.0952464342        703924152.73914957     
   2978329538.9481649        11184193.921250343        711826632.32105923     
   2852594005.7584000        15586893.379106402        725091691.54610276     
   3834407947.4496870        21066371.690666437       -69744459.232228100     
   3640470475.0860648        20348601.496166945       -95797781.253704488     
   3444988867.6361184        14483714.347208977       -127741421.14925651     
   3247963125.0997906        3471710.2437036037       -165575378.91884765     
   3049393247.4771290       -12687410.814315557       -209299654.56251314     
   3564783615.7050476        12445248.216228485        131572577.54552282     
   3359081600.6811094        4511304.3716371059        111876419.80840947     
   3152385156.6535468       -6737402.8183851242        90686202.587434515     
   2944694283.6223273       -21300873.353903770        68001925.882610127     
   2736008981.5874910       -39179107.234835386        43823589.693925411     
   3311273181.5082836        8658294.0061500072        331150948.26783168     
   3106367362.0817366       -2723602.0112645626        318453278.57825935     
   2901016819.7342892       -15587907.765024066        308657807.79503971     
   2695221554.4659176       -29934623.255171776        301764535.91815829     
   2488981566.2766476       -45763748.481676936        297773462.94762927     
   3073876644.8594031        9705509.0604518652        528990652.93468362     
   2882327759.2879820       -1356117.6524506807        523932795.05583340     
   2690883856.8783755       -12067800.492640376        526173394.47353345     
   2499544937.6305714       -22429539.460132241        535712451.18779379     
   2308311001.5445924       -32441334.554901719        552549965.19858885     
   2852594005.7584000        15586893.379106402        725091691.54610276     
   2686962792.2998276        8613757.4480333328        728314969.24114633     
   2521986268.0857921        3822918.9987549782        743232962.62294662     
   2357664433.1162796        1214378.0312216282        769845671.69150138     
   2193997287.3913112        788134.54550540447        808153096.44681239     
   5957939978.1593266        1787381993.4477980        1150138702.6123903     
   6088407071.1499023        1502224424.7432489        1228017699.9974937     
   6221600945.2393847        1226156126.3683827        1268536596.7490692     
   6357521600.4277716        959177098.32319891        1271695392.8671167     
   6496169036.7150621        701287340.60769677        1237494088.3516359     
   5434686914.7026701        1630406074.4108009        1033550673.9458473     
   5489936478.5078278        1372488660.0043724        1113953890.7502615     
   5547383064.8951750        1121894654.2052407        1167571380.8998539     
   5607026673.8647099        878624057.01340604        1194403144.3946240     
   5668867305.4164352        642676868.42886853        1194449181.2345717     
   4895333318.7202606        1468599995.6160781        936427599.17831647     
   4905577850.4220161        1246986484.6323750        1018736983.7992064     
   4917489646.1892462        1030930520.5335836        1084835015.7439802     
   4931068706.0219479        820432103.31970298        1134721695.0126386     
   4946315029.9201241        615491232.99073398        1168397021.6051803     
   4339879190.2120981        1301963757.0636294        858769478.30979764     
   4335331186.8924685        1125717898.6272569        942366979.14432847     
   4331920689.1215973        953263725.35341012        1020327501.2814493     
   4329647696.8994837        784601237.24208951        1092651044.7211604     
   4328512210.2261276        619730434.29329395        1159337609.4634604     
   3768324529.1781812        1130497358.7534542        800576311.34029114     
   3779196487.9191847        1008682901.9890178        884843876.78562784     
   3790676193.6922302        888894268.66472125        974048837.51226032     
   3802763646.4973168        771131458.78056502        1068191193.5201889     
   3815458846.3344479        655394472.33654928        1167270944.8094141     
   6496169036.7150621        701287340.60769677        1237494088.3516359     
   6239274388.9367065        375729477.80856395        1053400200.6460717     
   6013275720.5887203        153158213.11065841        908352985.38915431     
   5818173031.6710997        33573546.513977528        802352442.58088195     
   5653966322.1838474        16975478.018523216        735398572.22125566     
   5668867305.4164352        642676868.42886853        1194449181.2345717     
   5519004443.7537298        383155526.81955171        1073618805.9642465     
   5393276578.1502962        204084172.07447648        980834704.21350873     
   5291683708.6061354        105462804.19364166        916096875.98236036     
   5214225835.1212473        87291423.177051067        879405321.27079928     
   4946315029.9201241        615491232.99073398        1168397021.6051803     
   4872054243.1471901        412577499.20346808        1102942344.8371480     
   4815167469.0624294        267577141.04346013        1054533542.6596467     
   4775654707.6658487        180490158.51070952        1023170615.0726757     
   4753515958.9574442        151316551.60521698        1008853562.0762348     
   4328512210.2261276        619730434.29329395        1159337609.4634604     
   4298423787.1170816        463995394.96031630        1141370817.2647786     
   4278948393.3251190        343637120.01761115        1129449500.7275686     
   4270086028.8502388        258655609.46517992        1123573659.8518319     
   4271836693.6924396        209050863.30302334        1123743294.6375668     
   3815458846.3344479        655394472.33654928        1167270944.8094141     
   3798113075.6634130        537409214.09009480        1188904223.2471361     
   3784619350.9383650        432264108.99692881        1205582578.4172738     
   3774977672.1593051        339959157.05705357        1217306010.3198259     
   3769188039.3262305        260494358.27046657        1224074518.9547923     
   5653966322.1838474        16975478.018523216        735398572.22125566     
   5520498897.1264410        48287110.898778915        722396416.38270807     
   5381644008.7134485        61640532.593760014        711277745.38628411     
   5237401656.9448738        57035743.103462219        702042559.23198414     
   5087771841.8207197        34472742.427892923        694690857.91980910     
   5214225835.1212473        87291423.177051067        879405321.27079928     
   5078311254.9247789        84977732.785964966        855741707.62347007     
   4940280163.9255047        75609006.385533571        836071872.08966577     
   4800132562.1234322        59185243.975765228        820395814.66938353     
   4657868449.5185509        35706445.556651592        808713535.36262500     
   4753515958.9574442        151316551.60521698        1008853562.0762348     
   4621183632.9687681        117186360.74684381        978344601.93170404     
   4490005748.7300673        86904309.055062532        953939713.17209613     
   4359982306.2413464        60470396.529872417        935638895.79740977     
   4231113305.5025997        37884623.171273708        923442149.80764318     
   4271836693.6924396        209050863.30302334        1123743294.6375668     
   4149116031.2584071        144912994.78141975        1090205099.3074102     
   4030820763.1271353        95526440.602341652        1064881268.6335732     
   3916950889.2986193        60891200.765786409        1047771802.6160597     
   3807506409.7728601        41007275.271761417        1038876701.2548652     
   3769188039.3262305        260494358.27046657        1224074518.9547923     
   3662108449.7937002        168157634.88968909        1191323199.7505867     
   3562725207.1167078        101475401.02737069        1168896538.4741004     
   3471038311.2952528        60447656.683511734        1156794535.1253333     
   3387047762.3293362        45074401.858111620        1155017189.7042875     
   5087771841.8207197        34472742.427892923        694690857.91980910     
   4935559449.5234509        7619255.1334469318        678362250.70615661     
   4786416467.7464199       -9002863.7602121830        669996219.65032327     
   4640342896.4896297       -15393614.253072262        669592764.75230932     
   4497338735.7530699       -11552996.345147848        677151886.01211834     
   4657868449.5185509        35706445.556651592        808713535.36262500     
   4526624578.6138067        15714753.615894794        795892058.41492307     
   4397616581.5679026        3175974.5379419327        789654145.91433609     
   4270844458.3808322       -1909891.6772274971        789999797.86086011     
   4146308209.0526052        457154.97040677071        796929014.25450051     
   4231113305.5025997        37884623.171273708        923442149.80764318     
   4116897922.5312185        23572716.546465874        913155343.68759251     
   4004084876.7572784        13935267.246459007        908073090.30394924     
   3892674168.1807761        8972275.2712454796        908195389.65671587     
   3782665796.8017135        8683740.6208326817        913522241.74589097     
   3807506409.7728601        41007275.271761417        1038876701.2548652     
   3706379481.2756853        31193143.925151110        1030152106.5241644     
   3605821353.3145514        23275014.365344286        1025253052.8191684     
   3505832025.8894591        17252886.592340231        1024179540.1398758     
   3406411499.0004048        13126760.606135368        1026931568.4862858     
   3387047762.3293362        45074401.858111620        1155017189.7042875     
   3295069254.8472066        38576035.751951814        1146882346.9246416     
   3202826011.2397223        31195215.894604325        1141194033.4599919     
   3110318031.5068750        22931942.286049962        1137952249.3103406     
   3017545315.6486721        13786214.926307678        1137156994.4756885     
   4497338735.7530699       -11552996.345147848        677151886.01211834     
   4362041042.4511395       -2337717.8813083172        678089360.31575191     
   4225693314.6677771        3377445.6444325447        681593481.14668429     
   4088295552.4029837        5592494.2320749760        687664248.50491965     
   3949847755.6567664        4307427.8816249371        696301662.39045620     
   4146308209.0526052        457154.97040677071        796929014.25450051     
   4017133719.4826584        4057991.1176910400        792981516.83807611     
   3887454297.7498164        5975720.0553088188        792473170.14585483     
   3757269943.8540702        6210341.7832531929        795403974.17783272     
   3626580657.7954211        4761856.3015222549        801773928.93401587     
   3782665796.8017135        8683740.6208326817        913522241.74589097     
   3662107380.0977612        7417995.1917703152        905325725.31435895     
   3541589133.5494375        6286150.2814624310        901440863.80392826     
   3421111057.1567359        5288205.8899052143        901867657.21460307     
   3300673150.9196615        4424162.0171020031        906606105.54637647     
   3406411499.0004048        13126760.606135368        1026931568.4862858     
   3296962024.2964449        7742294.3409233093        1015121985.7445959     
   3188097822.0666385        4308736.3228834867        1008496562.1209071     
   3079818892.3109894        2826086.5520317554        1007055297.6152241     
   2972125235.0294924        3294345.0283569098        1010798192.2275423     
   3017545315.6486721        13786214.926307678        1137156994.4756885     
   2921697652.0787077        5030888.5651473999        1122370298.1287882     
   2826980363.3014240        43478.179587602615        1113640265.0967906     
   2733393449.3168230       -1176016.2303650379        1110966895.3796978     
   2640936910.1249027        1372405.3352860212        1114350188.9775069     
   3949847755.6567664        4307427.8816249371        696301662.39045620     
   3800099382.9546061       -1176966.5929715633        690963174.96929097     
   3650867535.7202225       -4939609.5083198547        690501224.18128037     
   3502152213.9536257       -6980500.8643786907        694915810.02643013     
   3353953417.6548071       -7299640.6611797810        704206932.50473702     
   3626580657.7954211        4761856.3015222549        801773928.93401587     
   3489819038.4367003        1227972.0798437595        795899035.66983819     
   3353388483.9332337       -1202362.6243333817        794687298.28601289     
   3217288994.2850161       -2529147.8110024929        798138716.78254008     
   3081520569.4920530       -2752383.4801660776        806253291.15942085     
   3300673150.9196615        4424162.0171020031        906606105.54637647     
   3176288625.6106544        2657890.2602183819        899978435.72457206     
   3052049704.5443692        1376965.9790804386        897800541.03031266     
   2927956387.7208109        581389.17369484901        900072421.46360087     
   2804008675.1399755        271159.84405565262        906794077.02444005     
   2972125235.0294924        3294345.0283569098        1010798192.2275423     
   2859508144.4764667        3112787.9481600523        1003201375.1334897     
   2746851197.5536356        2798376.3019367456        999840952.41418242     
   2634154394.2610006        2351110.0897080898        1000716924.0696187     
   2521417734.5985670        1770989.3114773035        1005829290.0997992     
   2640936910.1249027        1372405.3352860212        1114350188.9775069     
   2539477595.0341306        2592665.1436403990        1105567853.8965971     
   2437792962.9610305        3061868.3442384005        1100808532.4376247     
   2335883013.9055967        2780014.9370524883        1100072224.6005902     
   2233747747.8678322        1747104.9220975637        1103358930.3854952     
   3353953417.6548071       -7299640.6611797810        704206932.50473702     
   3229009244.8963675       -259073.09889602661        701384252.80037570     
   3103801285.3274884        5902205.0952464342        703924152.73914957     
   2978329538.9481649        11184193.921250343        711826632.32105923     
   2852594005.7584000        15586893.379106402        725091691.54610276     
   3081520569.4920530       -2752383.4801660776        806253291.15942085     
   2969554983.5859599        4539405.4825682640        801050058.60914671     
   2857505040.2746134        11550003.094459653        800409800.59436727     
   2745370739.5580130        18279409.355507970        804332517.11507225     
   2633152081.4361577        24727624.265708566        812818208.17126667     
   2804008675.1399755        271159.84405565262        906794077.02444005     
   2702737090.0643806        7128794.4006879330        899419625.93431377     
   2601560576.9887185        14303335.623774409        895808544.27202821     
   2500479135.9129992        21794783.513320684        895960832.03758430     
   2399492766.8372087        29603138.069310427        899876489.23097920     
   2521417734.5985670        1770989.3114773035        1005829290.0997992     
   2428555564.3316207        7509093.6554532051        996492954.77586734     
   2335967895.4697990        14162202.683176517        990120383.77213633     
   2243654728.0131102        21730316.394670606        986711577.08859646     
   2151616061.9615364        30213434.789892673        986266534.72525394     
   2233747747.8678322        1747104.9220975637        1103358930.3854952     
   2147010406.3876870        5680303.2468597889        1092270045.1338179     
   2060726995.7178607        11126604.272677064        1083345319.0946901     
   1974897515.8583500        18086007.999551177        1076584752.2681119     
   1889521966.8091490        26558514.427457213        1071988344.6540773     
   2852594005.7584000        15586893.379106402        725091691.54610276     
   2686962792.2998276        8613757.4480333328        728314969.24114633     
   2521986268.0857921        3822918.9987549782        743232962.62294662     
   2357664433.1162796        1214378.0312216282        769845671.69150138     
   2193997287.3913112        788134.54550540447        808153096.44681239     
   2633152081.4361577        24727624.265708566        812818208.17126667     
   2495096288.4165812        24019095.127544522        809913499.82920766     
   2357516762.5303597        24898123.100583315        815080259.18587160     
   2220413503.7774863        27364708.184778333        828318486.24126554     
   2083786512.1579695        31418850.380162477        849628180.99537218     
   2399492766.8372087        29603138.069310427        899876489.23097920     
   2278660257.1479554        32053574.591473937        890635635.72211635     
   2158125592.4808769        35496827.854206800        885843001.92393589     
   2037888772.8359759        39932897.857513428        885498587.83644724     
   1917949798.2132330        45361784.601401091        889602393.45964313     
   2151616061.9615364        30213434.789892673        986266534.72525394     
   2037654698.4939370        32717195.839763045        970481376.91986609     
   1923812757.9373305        35619033.259612799        955521190.83713400     
   1810090240.2917109        38918947.049415350        941385976.47704971     
   1696487145.5570941        42616937.209218740        928075733.83962142     
   1889521966.8091490        26558514.427457213        1071988344.6540773     
   1772079612.4545357        26009958.872443914        1049450723.4224613     
   1654578258.8997369        25264739.316803813        1024114825.9254555     
   1537017906.1447389        24322855.760520041        995980652.16306651     
   1419398554.1895623        23184308.203618705        965048202.13530242     
   3768324529.1781812        1130497358.7534542        800576311.34029114     
   3779196487.9191847        1008682901.9890178        884843876.78562784     
   3790676193.6922302        888894268.66472125        974048837.51226032     
   3802763646.4973168        771131458.78056502        1068191193.5201889     
   3815458846.3344479        655394472.33654928        1167270944.8094141     
   3207856195.5208192        962356858.65624571        756694914.77600884     
   3235938751.1055470        868178153.34660137        853045168.62986410     
   3263745699.7213979        773080758.14070117        951319466.74649012     
   3291277041.3683729        677064673.03854465        1051517809.1258873     
   3318532776.0464702        580129898.04013205        1153640195.7680547     
   2685661049.1423173        805698314.74269521        721972105.12316334     
   2722344627.2321262        736572488.58625019        829374467.71779859     
   2757869244.3521404        663583459.19715297        935687523.55667925     
   2792234900.5023580        586731226.57540321        1040911272.6398057     
   2825441595.6827803        506015790.72100109        1145045714.9671781     
   2201739090.0426779        660521727.01280332        696407882.38175440     
   2238414116.2989244        613865907.70796466        813831774.04943061     
   2273046827.5844574        560402371.83407736        927153007.94282758     
   2305637223.8992753        500131119.39114106        1036371584.0619451     
   2336185305.2433786        433052150.37915617        1141487502.4067826     
   1756090318.2218990        526827095.46656972        680002246.55178201     
   1784147218.3059411        500058410.71174443        806417087.62476087     
   1809278449.4183493        463537496.05147433        925715919.90493488     
   1831484011.5591240        417264351.48575866        1037898743.3923048     
   1850763904.7282653        361238977.01459861        1142965558.0868692     
   3815458846.3344479        655394472.33654928        1167270944.8094141     
   3798113075.6634130        537409214.09009480        1188904223.2471361     
   3784619350.9383650        432264108.99692881        1205582578.4172738     
   3774977672.1593051        339959157.05705357        1217306010.3198259     
   3769188039.3262305        260494358.27046657        1224074518.9547923     
   3318532776.0464702        580129898.04013205        1153640195.7680547     
   3293888950.7374687        472871457.25740111        1181951522.7631209     
   3272979766.8227148        378061821.12215948        1207128465.4280159     
   3255805224.3022075        295700989.63440835        1229171023.7627397     
   3242365323.1759467        225788962.79414582        1248079197.7672915     
   2825441595.6827803        506015790.72100109        1145045714.9671781     
   2798701255.5569944        411044629.34834880        1179898118.5425582     
   2775578152.2737160        328130924.11738563        1213436676.7251809     
   2756072285.8329449        257274675.02811253        1245661389.5150456     
   2740183656.2346797        198475882.08052874        1276572256.9121528     
   2336185305.2433786        433052150.37915617        1141487502.4067826     
   2312549990.1219912        351928730.36293739        1182744010.5854478     
   2292414507.2913694        282471417.98260677        1224507212.3087676     
   2275778856.7515144        224680213.23816699        1266777107.5767436     
   2262643038.5024271        178555116.12961590        1309553696.3893752     
   1850763904.7282653        361238977.01459861        1142965558.0868692     
   1835435154.4324565        295523760.30116677        1190489198.8917878     
   1823488831.8756742        241083302.71782434        1240340072.1787760     
   1814924937.0579200        197917604.26457214        1292518177.9478338     
   1809743469.9791915        166026664.94140911        1347023516.1989608     
   3769188039.3262305        260494358.27046657        1224074518.9547923     
   3662108449.7937002        168157634.88968909        1191323199.7505867     
   3562725207.1167078        101475401.02737069        1168896538.4741004     
   3471038311.2952528        60447656.683511734        1156794535.1253333     
   3387047762.3293362        45074401.858111620        1155017189.7042875     
   3242365323.1759467        225788962.79414582        1248079197.7672915     
   3164475161.4772091        151437978.85371792        1230819285.4314272     
   3092671976.6731777        97376917.895637631        1221537565.9383750     
   3026955768.7638497        63605779.919908285        1220234039.2881293     
   2967326537.7492275        50124564.926527619        1226908705.4806950     
   2740183656.2346797        198475882.08052874        1276572256.9121528     
   2684778736.4128499        140099381.79338419        1272926153.1569924     
   2633851423.5248909        96648237.952476740        1274911777.1597314     
   2587401717.5708046        68122450.557810545        1282529128.9203699     
   2545429618.5505886        54522019.609382391        1295778208.4389088     
   2262643038.5024271        178555116.12961590        1309553696.3893752     
   2223019174.6006184        134141843.70868814        1317643802.9272804     
   2186263547.6718483        99289361.197890520        1329019172.1381738     
   2152376157.7161169        73997668.597220421        1343679804.0220585     
   2121357004.7334230        58266765.906679869        1361625698.5789299     
   1809743469.9791915        166026664.94140911        1347023516.1989608     
   1779196476.0405176        133565364.59963399        1364972234.7422917     
   1749908349.1140480        105300287.63187391        1383859750.8737023     
   1721879089.1997857        81231434.038136899        1403686064.5931919     
   1695108696.2977283        61358803.818418145        1424451175.9007611     
   3387047762.3293362        45074401.858111620        1155017189.7042875     
   3295069254.8472066        38576035.751951814        1146882346.9246416     
   3202826011.2397223        31195215.894604325        1141194033.4599919     
   3110318031.5068750        22931942.286049962        1137952249.3103406     
   3017545315.6486721        13786214.926307678        1137156994.4756885     
   2967326537.7492275        50124564.926527619        1226908705.4806950     
   2881491393.2370405        38406901.056490779        1218527781.0610857     
   2795915640.0758305        27553875.023036361        1213630444.4796383     
   2710599278.2655940        17565486.826162100        1212216695.7363505     
   2625542307.8063302        8441736.4658658504        1214286534.8312249     
   2545429618.5505886        54522019.609382391        1295778208.4389088     
   2468700861.3602381        38473965.281034946        1287762684.4350605     
   2392755622.9971952        25037640.377046943        1284267806.7925365     
   2317593903.4614587        14213044.897412896        1285293575.5113342     
   2243215702.7530284        6000178.8421361446        1290839990.5914557     
   2121357004.7334230        58266765.906679869        1361625698.5789299     
   2056697659.2168000        38777228.425588608        1354587057.0465655     
   1993345960.0038180        23646511.956632376        1353106120.3986857     
   1931301907.0944748        12874616.499807477        1357182888.6352897     
   1870565500.4887736        6461542.0551203489        1366817361.7563820     
   1695108696.2977283        61358803.818418145        1424451175.9007611     
   1645481786.8067267        39316690.490153790        1419000898.8955991     
   1597686651.0956984        23380489.761798859        1420145385.2980855     
   1551723289.1646428        13550201.633354247        1427884635.1082199     
   1507591701.0135591        9825826.1048151255        1442218648.3260009     
   3017545315.6486721        13786214.926307678        1137156994.4756885     
   2921697652.0787077        5030888.5651473999        1122370298.1287882     
   2826980363.3014240        43478.179587602615        1113640265.0967906     
   2733393449.3168230       -1176016.2303650379        1110966895.3796978     
   2640936910.1249027        1372405.3352860212        1114350188.9775069     
   2625542307.8063302        8441736.4658658504        1214286534.8312249     
   2545308961.7172823        2459624.7115819454        1203675260.7406061     
   2465933510.8453493       -662836.31898808479        1198378364.1803524     
   2387415955.1905346       -925646.62582814693        1198395845.1504695     
   2309756294.7528367        1671193.7910552025        1203727703.6509547     
   2243215702.7530284        6000178.8421361446        1290839990.5914557     
   2176475857.6176548        2155036.7365506887        1284086245.9189565     
   2110321428.1238303        261280.10280251503        1281904592.9922931     
   2044752414.2715607        318908.94090270996        1284295031.8114607     
   1979768816.0608442        2327923.2508447170        1291257562.3764639     
   1870565500.4887736        6461542.0551203489        1366817361.7563820     
   1815198339.7798278        4117124.6400630474        1363603253.6638463     
   1760144115.1368687        2815827.4449607134        1364218951.5326095     
   1705402826.5598989        2557650.4698259830        1368664455.3626719     
   1650974474.0489192        3342593.7146519423        1376939765.1540334     
   1507591701.0135591        9825826.1048151255        1442218648.3260009     
   1461476408.2037990        8345888.4221124053        1442226283.9752710     
   1415401571.8844628        7000805.7074866891        1445321439.8013065     
   1369367192.0555520        5790577.9609437585        1451504115.8041019     
   1323373268.7170656        4715205.1824873686        1460774311.9836612     
   2640936910.1249027        1372405.3352860212        1114350188.9775069     
   2539477595.0341306        2592665.1436403990        1105567853.8965971     
   2437792962.9610305        3061868.3442384005        1100808532.4376247     
   2335883013.9055967        2780014.9370524883        1100072224.6005902     
   2233747747.8678322        1747104.9220975637        1103358930.3854952     
   2309756294.7528367        1671193.7910552025        1203727703.6509547     
   2218837623.2542582        1480751.9870772362        1195382800.2236173     
   2127845949.5698133        1046969.5635430813        1191448617.0788729     
   2036781273.6995142        369846.52048969269        1191925154.2167227     
   1945643595.6433437       -550617.14212405682        1196812411.6371689     
   1979768816.0608442        2327923.2508447170        1291257562.3764639     
   1900498521.4706151        1059099.8293679953        1283527791.1985784     
   1821307539.4909968        54651.776587724686        1280596446.9639413     
   1742195870.1219802       -685420.90751481056        1282463529.6725571     
   1663163513.3635688       -1161118.2229316235        1289129039.3244255     
   1650974474.0489192        3342593.7146519423        1376939765.1540334     
   1584460289.6832039        1327708.6705357432        1370002826.8214774     
   1518177732.7245660        84914.983339965343        1368252022.0928295     
   1452126803.1729965       -385787.34695768356        1371687350.9680922     
   1386307501.0285077       -84398.320321738720        1380308813.4472587     
   1323373268.7170656        4715205.1824873686        1460774311.9836612     
   1270722927.8920243        2286578.5105729699        1454807907.0923207     
   1218456529.2705269        1137759.1838097572        1454415342.4655421     
   1166574072.8525717        1268747.2021795511        1459596618.1033294     
   1115075558.6381586        2679542.5656983256        1470351734.0056772     
   2233747747.8678322        1747104.9220975637        1103358930.3854952     
   2147010406.3876870        5680303.2468597889        1092270045.1338179     
   2060726995.7178607        11126604.272677064        1083345319.0946901     
   1974897515.8583500        18086007.999551177        1076584752.2681119     
   1889521966.8091490        26558514.427457213        1071988344.6540773     
   1945643595.6433437       -550617.14212405682        1196812411.6371689     
   1865419610.9178085        2201992.8214662075        1188629976.5000718     
   1785531682.6377127        6074790.9365203381        1183566100.0450110     
   1705979810.8030450        11067777.203003287        1181620782.2719872     
   1626763995.4138169        17180951.620949030        1182794023.1810014     
   1663163513.3635688       -1161118.2229316235        1289129039.3244255     
   1592179741.0197537        1228960.0676229000        1283715534.2095461     
   1521414150.7564900        4346311.9600273967        1282374987.2461975     
   1450866742.5737810        8190937.4542775750        1285107398.4343672     
   1380537516.4716265        12762836.550375044        1291912767.7740664     
   1386307501.0285077       -84398.320321738720        1380308813.4472587     
   1327290796.6935165        2761204.9853249192        1377526718.2622447     
   1268374400.0741978        5941167.3432105184        1379771980.6982381     
   1209558311.1705601        9455488.7533698082        1387044600.7552512     
   1150842529.9825916        13304169.215755224        1399344578.4332707     
   1115075558.6381586        2679542.5656983256        1470351734.0056772     
   1070752777.9391032        6798727.5745724440        1470063528.6581616     
   1026412430.5908399        10859357.086088896        1475757080.4011455     
   982054516.59337258        14861431.100257516        1487432389.2346337     
   937679035.94669783        18804949.617067754        1505089455.1586185     
   1889521966.8091490        26558514.427457213        1071988344.6540773     
   1772079612.4545357        26009958.872443914        1049450723.4224613     
   1654578258.8997369        25264739.316803813        1024114825.9254555     
   1537017906.1447389        24322855.760520041        995980652.16306651     
   1419398554.1895623        23184308.203618705        965048202.13530242     
   1626763995.4138169        17180951.620949030        1182794023.1810014     
   1505756494.8954806        11334953.275202632        1168072720.4654284     
   1384794256.2449353        5639827.8220874667        1154629760.6871576     
   1263877279.4621751        95575.261586904526        1142465143.8461828     
   1143005564.5471983       -5297804.4062968493        1131578869.9425237     
   1380537516.4716265        12762836.550375044        1291912767.7740664     
   1267612353.2258208        5113640.4447800517        1285129421.4871705     
   1154836712.9157758       -2037145.8749390841        1283701037.3402662     
   1042210595.5414838       -8689522.4087976813        1287627615.3333466     
   929734001.10296428       -14843489.156780124        1296909155.4664221     
   1150842529.9825916        13304169.215755224        1399344578.4332707     
   1057647187.4455563        7346020.3811827898        1400620826.4876881     
   964705628.91226196        2233818.2257395387        1411328655.8847883     
   872017854.38270271       -2032437.2505893111        1431468066.6245694     
   779583863.85687017       -5452746.0478214025        1461039058.7070141     
   937679035.94669783        18804949.617067754        1505089455.1586185     
   875860997.55468273        18032093.084386051        1514546935.4669914     
   814401004.23438585        18452720.124095321        1537512616.3207283     
   753299055.98579276        20066830.736151844        1573986497.7198217     
   692555152.80891073        22874424.920584381        1623968579.6642940     
   1756090318.2218990        526827095.46656972        680002246.55178201     
   1784147218.3059411        500058410.71174443        806417087.62476087     
   1809278449.4183493        463537496.05147433        925715919.90493488     
   1831484011.5591240        417264351.48575866        1037898743.3923048     
   1850763904.7282653        361238977.01459861        1142965558.0868692     
   1326450539.7058606        397935161.91175812        669654196.97261190     
   1339680236.8963897        375514754.97567272        791804611.48844588     
   1350715682.3585989        345780175.61185253        908662045.38236594     
   1359556876.0924876        308731423.82029760        1020226498.6543722     
   1366203818.0980561        264368499.60100809        1126497971.3044643     
   890555560.52044034        267166668.15613210        662262732.98360896     
   894166706.73428798        250657134.61383563        781002041.05949712     
   896315018.46312809        229271486.12151486        896271396.68436205     
   897000495.70696092        203009722.67916942        1008070799.8582032     
   896223138.46578681        171871844.28680009        1116400250.5810208     
   448405380.66563863        134521614.19969159        657827854.58477354     
   447606627.81963462        125485549.62623319        774009376.33791447     
   446076457.73193645        114011427.58046085        888543973.81092215     
   443814870.40254402        100099248.06237420        1001431647.0037972     
   440821865.83145750        83749011.071974009        1112672395.9165399     
  0.14145558579792517        4.2436675739377545E-002   656349561.77610576     
  0.15243043205864354        1.2865469907368081E-002   770826617.32369745     
  0.16502411845456441       -1.1309428668285493E-002   885479776.76204705     
  0.17923664498568775       -3.0088280196104565E-002   1000309040.0911549     
  0.19506826328223209       -4.3470332644867965E-002   1115314407.3110201     
   1850763904.7282653        361238977.01459861        1142965558.0868692     
   1835435154.4324565        295523760.30116677        1190489198.8917878     
   1823488831.8756742        241083302.71782434        1240340072.1787760     
   1814924937.0579200        197917604.26457214        1292518177.9478338     
   1809743469.9791915        166026664.94140911        1347023516.1989608     
   1366203818.0980561        264368499.60100809        1126497971.3044643     
   1360597852.7391887        216849266.27072594        1181890063.1839561     
   1357528708.1844695        177786102.28760383        1238234914.8290679     
   1356996384.4338989        147179007.65164381        1295532526.2398000     
   1359000881.4874756        125027982.36284155        1353782897.4161530     
   896223138.46578681        171871844.28680009        1116400250.5810208     
   896412893.13972044        141370474.86842632        1178674252.1110597     
   898293861.68292320        116506485.01428246        1240526540.6902704     
   901866044.09539497        97279874.724369228        1301957116.3186517     
   907129440.37713587        83690643.998685509        1362965978.9962034     
   440821865.83145750        83749011.071974009        1112672395.9165399     
   442880275.63405102        69087386.094265446        1180841765.6731012     
   445784292.37103456        57244450.897857234        1247214949.7623842     
   449533916.04240865        48220205.482750252        1311791948.1843884     
   454129146.64817262        42014649.848943546        1374572760.9391155     
  0.19506826328223209       -4.3470332644867965E-002   1115314407.3110201     
  0.22218067587197110       -5.1755506359545345E-002   1188392603.8700786     
  0.24880468278591744       -6.1669219410574419E-002   1258300142.0454090     
  0.27493954843459717       -7.3212882928782738E-002   1325037021.8370113     
  0.30058547226355281       -8.6386872929780922E-002   1388603243.2448862     
   1809743469.9791915        166026664.94140911        1347023516.1989608     
   1779196476.0405176        133565364.59963399        1364972234.7422917     
   1749908349.1140480        105300287.63187391        1383859750.8737023     
   1721879089.1997857        81231434.038136899        1403686064.5931919     
   1695108696.2977283        61358803.818418145        1424451175.9007611     
   1359000881.4874756        125027982.36284155        1353782897.4161530     
   1333814858.1011899        99999273.722328186        1372887118.3796854     
   1309572984.9746578        78117732.614326715        1393461151.7874548     
   1286275262.1078770        59383359.038829505        1415504997.6394582     
   1263921689.5008483        43796152.995839953        1439018655.9356985     
   907129440.37713587        83690643.998685509        1362965978.9962034     
   888821572.84654379        66549682.650429428        1382858532.8354104     
   871143138.82325113        51506832.993172199        1404751913.9750085     
   854094138.30725646        38562095.026907712        1428646122.4149983     
   837674571.29856086        27715468.751640052        1454541158.1553817     
   454129146.64817262        42014649.848943546        1374572760.9391155     
   444216620.27657700        33216591.383932412        1394886478.1094654     
   434618810.65982854        25467588.768412411        1417732037.4363637     
   425335717.79792488        18767642.002372980        1443109438.9198117     
   416367341.69086552        13116751.085817516        1471018682.5598075     
  0.30058547226355281       -8.6386872929780922E-002   1388603243.2448862     
  0.39129161220698350       -7.7158145943873852E-002   1408970954.2018514     
  0.48439122447551120       -5.9950830929614812E-002   1432401522.1715214     
  0.57988149252634946       -3.4775010252349331E-002   1458894947.1538968     
  0.67776356871152144       -1.6261488492760046E-003   1488451229.1489768     
   1695108696.2977283        61358803.818418145        1424451175.9007611     
   1645481786.8067267        39316690.490153790        1419000898.8955991     
   1597686651.0956984        23380489.761798859        1420145385.2980855     
   1551723289.1646428        13550201.633354247        1427884635.1082199     
   1507591701.0135591        9825826.1048151255        1442218648.3260009     
   1263921689.5008483        43796152.995839953        1439018655.9356985     
   1231970311.7731328        28845209.332707644        1436552581.8331037     
   1201392764.3896632        18473700.150393188        1439451883.4488201     
   1172189047.3504415        12681625.448905647        1447716560.7828488     
   1144359160.6554637        11468985.228228569        1461346613.8351879     
   837674571.29856086        27715468.751640052        1454541158.1553817     
   819886189.07888544        18801933.877068400        1454525019.6136713     
   803013693.76772892        12941355.364226103        1458644869.1009362     
   787057085.36509240        10133733.213115841        1466900706.6171741     
   772016363.87097192        10379067.423728973        1479292532.1623893     
   416367341.69086552        13116751.085817516        1471018682.5598075     
   409229418.72398287        9186864.1232336164        1472918212.2373013     
   402549439.22989118        6783455.4032846540        1477724342.2544324     
   396327403.20859230        5906524.9259791374        1485437072.6112030     
   390563310.66008276        6556072.6913047433        1496056403.3076105     
  0.67776356871152144       -1.6261488492760046E-003   1488451229.1489768     
  0.70842484808778128        7.1198838949113524E-002   1491732159.7039919     
  0.77615061813482644       0.26757178203875914        1496690302.9093091     
  0.88094300055290853       0.58750044664322265        1503325658.7649260     
   1.0227966825130959        1.0309664294433423        1511638227.2708466     
   1507591701.0135591        9825826.1048151255        1442218648.3260009     
   1461476408.2037990        8345888.4221124053        1442226283.9752710     
   1415401571.8844628        7000805.7074866891        1445321439.8013065     
   1369367192.0555520        5790577.9609437585        1451504115.8041019     
   1323373268.7170656        4715205.1824873686        1460774311.9836612     
   1144359160.6554637        11468985.228228569        1461346613.8351879     
   1106978508.0241246        9520777.1600927114        1458532947.0773771     
   1069628197.7519078        7673710.2890310287        1459458776.5228431     
   1032308229.8388124        5927784.6150382757        1464124102.1715810     
   995018604.28483999        4283000.1381243467        1472528924.0236003     
   772016363.87097192        10379067.423728973        1479292532.1623893     
   745233140.06522989        8521425.5643039942        1473645763.1776469     
   718470144.48731017        6731211.1309527159        1472390466.4226913     
   691727377.13721013        5008424.1236672699        1475526641.8975255     
   665004838.01493192        3353064.5424567163        1483054289.6021478     
   390563310.66008276        6556072.6913047433        1496056403.3076105     
   376240304.32711959        5347833.6347578466        1487564732.2760816     
   361927412.09067357        4173308.2332660258        1484116509.5008557     
   347624633.95074785        3032496.4868415594        1485711734.9819298     
   333331969.90734106        1925398.3954825401        1492350408.7193055     
   1.0227966825130959        1.0309664294433423        1511638227.2708466     
  0.80978676145601214        1.3714333240472902        1500289854.3726838     
  0.56199779262534599        1.5959700594059634        1494636905.7573333     
  0.27942432022045088        1.7045589699342496        1494679381.4247973     
  -3.7929915618607257E-002   1.6972109615145734        1500417281.3750753     
   1323373268.7170656        4715205.1824873686        1460774311.9836612     
   1270722927.8920243        2286578.5105729699        1454807907.0923207     
   1218456529.2705269        1137759.1838097572        1454415342.4655421     
   1166574072.8525717        1268747.2021795511        1459596618.1033294     
   1115075558.6381586        2679542.5656983256        1470351734.0056772     
   995018604.28483999        4283000.1381243467        1472528924.0236003     
   956776628.71838987        2835264.1610481143        1466228433.4749260     
   918822609.80617023        2347383.6980780959        1465211101.1617980     
   881156547.54818118        2819358.7492071390        1469476927.0842180     
   843778441.94442630        4251189.3144498467        1479025911.2421777     
   665004838.01493192        3353064.5424567163        1483054289.6021478     
   640340707.62416196        2637063.2353535295        1476307730.2552824     
   615868548.33830953        2560965.6113086045        1474553647.1149390     
   591588360.15737522        3124771.6703234017        1477792040.1811218     
   567500143.08135760        4328481.4123954177        1486022909.4538274     
   333331969.90734106        1925398.3954825401        1492350408.7193055     
   321415164.60933566        1691975.7334686220        1485045797.4333789     
   309594344.86693645        1778504.9234754592        1482442980.3249569     
   297869510.68014306        2184985.9655018449        1484541957.3940408     
   286240662.04895341        2911418.8595394790        1491342728.6406260     
  -3.7929915618607257E-002   1.6972109615145734        1500417281.3750753     
 -0.32608270479399470        1.6554160743663315        1492442635.0092227     
 -0.60794162744252911        1.6346007423076001        1488879100.7918575     
 -0.88350909692676038        1.6347567473241975        1489726678.7229779     
  -1.1527844612956684        1.6558867830032351        1494985368.8025815     
   1115075558.6381586        2679542.5656983256        1470351734.0056772     
   1070752777.9391032        6798727.5745724440        1470063528.6581616     
   1026412430.5908399        10859357.086088896        1475757080.4011455     
   982054516.59337258        14861431.100257516        1487432389.2346337     
   937679035.94669783        18804949.617067754        1505089455.1586185     
   843778441.94442630        4251189.3144498467        1479025911.2421777     
   813967346.28291690        8369875.0630764365        1476576077.3549366     
   784143075.63797760        12444644.200271338        1479307436.2353730     
   754305630.00961161        16475496.726042747        1487219987.8834739     
   724455009.39781225        20462432.640369713        1500313732.2992475     
   567500143.08135760        4328481.4123954177        1486022909.4538274     
   549913405.82073331        7760469.9097804427        1481416570.6369448     
   532317885.24245507        11163180.681651503        1481190860.2649007     
   514713581.34652942        14536613.728031456        1485345778.3376937     
   497100494.13294876        17880769.048893303        1493881324.8553209     
   286240662.04895341        2911418.8595394790        1491342728.6406260     
   278590956.55255377        4970512.1146877259        1484585008.5041735     
   270936859.40427566        7014966.5302399993        1481407352.4897232     
   263278370.60412595        9044782.1062204987        1481809760.5972829     
   255615490.15210095        11059958.842617422        1485792232.8268416     
  -1.1527844612956684        1.6558867830032351        1494985368.8025815     
  -1.5216233950499212        1.6777907360135917        1486081390.9566288     
  -1.8765661643652518        1.7460173188218620        1479956912.9098475     
  -2.2175944917376071        1.8606246808839919        1476611934.6622431     
  -2.5447302689959965        2.0215398494366181        1476046456.2138095     
   937679035.94669783        18804949.617067754        1505089455.1586185     
   875860997.55468273        18032093.084386051        1514546935.4669914     
   814401004.23438585        18452720.124095321        1537512616.3207283     
   753299055.98579276        20066830.736151844        1573986497.7198217     
   692555152.80891073        22874424.920584381        1623968579.6642940     
   724455009.39781225        20462432.640369713        1500313732.2992475     
   694348164.16080379        24759795.338423252        1503294432.7965384     
   664509852.70146418        29952270.628704727        1515990107.6606119     
   634940075.01979482        36039858.511220694        1538400756.8914671     
   605638831.11580420        43022558.985997051        1570526380.4890978     
   497100494.13294876        17880769.048893303        1493881324.8553209     
   487867052.96926892        23997014.253142029        1490280815.6984916     
   478812634.28922415        30710001.069505781        1492602054.7298594     
   469937238.09281826        38019729.497999296        1500845041.9494219     
   461240864.38004863        45926199.538615018        1515009777.3571813     
   255615490.15210095        11059958.842617422        1485792232.8268416     
   256417663.98008704        15743749.828570887        1475506084.1728520     
   257309348.99767300        20725911.446523272        1467348457.5284700     
   258290545.20485878        26006443.696478017        1461319352.8936999     
   259361252.60164815        31585346.578439564        1457418770.2685585     
  -2.5447302689959965        2.0215398494366181        1476046456.2138095     
  -2.8067475999049449        2.0646905888285252        1458970238.2196128     
  -3.1731984256328500        1.7597296788239127        1440229316.0564439     
  -3.6440819912890552        1.1066585948908798        1419823689.7243066     
  -4.2194021170777871       0.10546911329637676        1397753359.2231998     
  0.14145558579792517        4.2436675739377545E-002   656349561.77610576     
  0.15243043205864354        1.2865469907368081E-002   770826617.32369745     
  0.16502411845456441       -1.1309428668285493E-002   885479776.76204705     
  0.17923664498568775       -3.0088280196104565E-002   1000309040.0911549     
  0.19506826328223209       -4.3470332644867965E-002   1115314407.3110201     
  -448405380.38813078       -134521614.11643922        657827854.55946517     
  -447606627.51907164       -125485549.59224932        774009376.31183708     
  -446076457.40516633       -114011427.58523801        888543973.78264761     
  -443814870.04641438       -100099248.09540516        1001431646.9718972     
  -440821865.44281590       -83749011.122750580        1112672395.8795855     
  -890555560.25914180       -267166668.07774255        662262732.93671215     
  -894166706.45290995       -250657134.57606506        781002041.01096249     
  -896315018.15860415       -229271486.11414093        896271396.63133311     
  -897000495.37622452       -203009722.69197017        1008070799.7978234     
  -896223138.10577071       -171871844.30955270        1116400250.5104339     
  -1326450539.4715781       -397935161.84147346        669654196.90784657     
  -1339680236.6490846       -375514754.93858171        791804611.42107463     
  -1350715682.0952897       -345780175.59801829        908662045.30810344     
  -1359556875.8101935       -308731423.81978279        1020226498.5689335     
  -1366203817.7937951       -264368499.60387546        1126497971.2035642     
  -1756090318.0254393       -526827095.40763175        680002246.47286832     
  -1784147218.1075957       -500058410.67979914        806417087.54217267     
  -1809278449.2152231       -463537496.03686959        925715919.81295907     
  -1831484011.3483210       -417264351.47884274        1037898743.2852274     
  -1850763904.5068903       -361238977.00571907        1142965557.9589779     
  0.19506826328223209       -4.3470332644867965E-002   1115314407.3110201     
  0.22218067587197110       -5.1755506359545345E-002   1188392603.8700786     
  0.24880468278591744       -6.1669219410574419E-002   1258300142.0454090     
  0.27493954843459717       -7.3212882928782738E-002   1325037021.8370113     
  0.30058547226355281       -8.6386872929780922E-002   1388603243.2448862     
  -440821865.44281590       -83749011.122750580        1112672395.8795855     
  -442880275.19127375       -69087386.152931452        1180841765.6245027     
  -445784291.87505144       -57244450.967512369        1247214949.7000697     
  -449533915.49414849       -48220205.566490680        1311791948.1062860     
  -454129146.04856521       -42014649.949868992        1374572760.8431520     
  -896223138.10577071       -171871844.30955270        1116400250.5104339     
  -896412892.73157752       -141370474.89216343        1178674252.0172405     
  -898293861.22753489       -116506485.04194289        1240526540.5690744     
  -901866043.59364283       -97279874.758890361        1301957116.1659358     
  -907129439.82990134       -83690644.043007374        1362965978.8078237     
  -1366203817.7937951       -264368499.60387546        1126497971.2035642     
  -1360597852.3987298       -216849266.26944932        1181890063.0482914     
  -1357528707.8086455       -177786102.28496134        1238234914.6524236     
  -1356996384.0235434       -147179007.65041155        1295532526.0159600     
  -1359000881.0434227       -125027982.36580145        1353782897.1389005     
  -1850763904.5068903       -361238977.00571907        1142965557.9589779     
  -1835435154.1927311       -295523760.28478992        1190489198.7176561     
  -1823488831.6183848       -241083302.69656998        1240340071.9501164     
  -1814924936.7838507       -197917604.24105555        1292518177.6563592     
  -1809743469.6891284       -166026664.91825002        1347023515.8363831     
  0.30058547226355281       -8.6386872929780922E-002   1388603243.2448862     
  0.39129161220698350       -7.7158145943873852E-002   1408970954.2018514     
  0.48439122447551120       -5.9950830929614812E-002   1432401522.1715214     
  0.57988149252634946       -3.4775010252349331E-002   1458894947.1538968     
  0.67776356871152144       -1.6261488492760046E-003   1488451229.1489768     
  -454129146.04856521       -42014649.949868992        1374572760.8431520     
  -444216619.50239998       -33216591.457063138        1394886477.9984264     
  -434618809.70486498       -25467588.793025747        1417732037.3028305     
  -425335716.65596014       -18767641.957754984        1443109438.7563663     
  -416367340.35568607       -13116750.951254472        1471018682.3590322     
  -907129439.82990134       -83690644.043007374        1362965978.8078237     
  -888821572.15277648       -66549682.663977981        1382858532.6185477     
  -871143137.97530377       -51506832.950455487        1404751913.7148271     
  -854094137.29748309       -38562094.902441055        1428646122.0966640     
  -837674570.11931539       -27715468.519935429        1454541157.7640533     
  -1359000881.0434227       -125027982.36580145        1353782897.1389005     
  -1333814857.5598361       -99999273.697895646        1372887118.0622153     
  -1309572984.3269248       -78117732.532239079        1393461151.4075108     
  -1286275261.3446884       -59383358.868830919        1415504997.1747885     
  -1263921688.6131265       -43796152.707673252        1439018655.3640459     
  -1809743469.6891284       -166026664.91825002        1347023515.8363831     
  -1779196475.7235801       -133565364.55881834        1364972234.3294289     
  -1749908348.7597280       -105300287.53837657        1383859750.3808811     
  -1721879088.7975724       -81231433.856922269        1403686063.9907391     
  -1695108695.8371150       -61358803.514461815        1424451175.1590064     
  0.67776356871152144       -1.6261488492760046E-003   1488451229.1489768     
  0.70842484808778128        7.1198838949113524E-002   1491732159.7039919     
  0.77615061813482644       0.26757178203875914        1496690302.9093091     
  0.88094300055290853       0.58750044664322265        1503325658.7649260     
   1.0227966825130959        1.0309664294433423        1511638227.2708466     
  -416367340.35568607       -13116750.951254472        1471018682.3590322     
  -409229417.33223403       -9186863.8401842117        1472918212.0648117     
  -402549437.72216552       -6783454.7737253606        1477724342.1059175     
  -396327401.52547824       -5906523.7518706173        1485437072.4823527     
  -390563308.74217254       -6556070.7746216804        1496056403.1941128     
  -837674570.11931539       -27715468.519935429        1454541157.7640533     
  -819886187.86014318       -18801933.497743160        1454525019.2617428     
  -803013692.46479917       -12941354.688314527        1458644868.7797859     
  -787057083.93328500       -10133732.091649860        1466900706.3181820     
  -772016362.26559949       -10379065.707748801        1479292531.8769295     
  -1263921688.6131265       -43796152.707673252        1439018655.3640459     
  -1231970310.8752999       -28845208.901474297        1436552581.2947900     
  -1201392763.4517519       -18473699.476202786        1439451882.9309134     
  -1172189046.3424792       -12681624.431847394        1447716560.2724164     
  -1144359159.5474827       -11468983.768415332        1461346613.3192968     
  -1695108695.8371150       -61358803.514461815        1424451175.1590064     
  -1645481786.3777075       -39316690.051384866        1419000898.1639507     
  -1597686650.6830218       -23380489.137380481        1420145384.5592997     
  -1551723288.7530622       -13550200.772463560        1427884634.3450539     
  -1507591700.5878217       -9825824.9566118717        1442218647.5212114     
   1.0227966825130959        1.0309664294433423        1511638227.2708466     
  0.80978676145601214        1.3714333240472902        1500289854.3726838     
  0.56199779262534599        1.5959700594059634        1494636905.7573333     
  0.27942432022045088        1.7045589699342496        1494679381.4247973     
  -3.7929915618607257E-002   1.6972109615145734        1500417281.3750753     
  -390563308.74217254       -6556070.7746216804        1496056403.1941128     
  -376240302.84886765       -5347831.1907161176        1487564732.0301721     
  -361927411.11998802       -4173305.4882287383        1484116509.1474800     
  -347624633.55553246       -3032493.6671539992        1485711734.5460396     
  -333331970.15549988       -1925395.7274889052        1492350408.2258530     
  -772016362.26559949       -10379065.707748801        1479292531.8769295     
  -745233138.84187603       -8521423.4531817138        1473645762.6292937     
  -718470143.71221900       -6731208.8455006778        1472390465.6613455     
  -691727376.87662673       -5008421.8847047985        1475526640.9730849     
  -665004838.33510256       -3353062.5708002448        1483054288.5645125     
  -1144359159.5474827       -11468983.768415332        1461346613.3192968     
  -1106978507.1692333       -9520775.4159461856        1458532946.1700492     
  -1069628197.2146924       -7673708.4758404493        1459458775.2989287     
  -1032308229.6838610       -5927782.9480993748        1464124100.7059324     
  -995018604.57673812       -4282998.8327206373        1472528922.3910615     
  -1507591700.5878217       -9825824.9566118717        1442218647.5212114     
  -1461476407.8309431       -8345887.0790222287        1442226282.6524405     
  -1415401571.6274137       -7000804.3792639375        1445321438.0602295     
  -1369367191.9772329       -5790576.8573340178        1451504113.7445815     
  -1323373268.8804059       -4715204.5132507086        1460774309.7054951     
  -3.7929915618607257E-002   1.6972109615145734        1500417281.3750753     
 -0.32608270479399470        1.6554160743663315        1492442635.0092227     
 -0.60794162744252911        1.6346007423076001        1488879100.7918575     
 -0.88350909692676038        1.6347567473241975        1489726678.7229779     
  -1.1527844612956684        1.6558867830032351        1494985368.8025815     
  -333331970.15549988       -1925395.7274889052        1492350408.2258530     
  -321415165.45836103       -1691973.2658488601        1485045797.0023780     
  -309594346.28943437       -1778502.5649161786        1482442979.9644639     
  -297869512.64871037       -2184983.6246585995        1484541957.1121132     
  -286240664.53619522       -2911416.4450977445        1491342728.4453247     
  -665004838.33510256       -3353062.5708002448        1483054288.5645125     
  -640340708.54674125       -2637061.5739527047        1476307729.3598306     
  -615868549.82108760       -2560964.1194645762        1474553646.3777876     
  -591588362.15814316       -3124770.2073400617        1477792039.6183846     
  -567500145.55790734       -4328479.8375777006        1486022909.0816159     
  -995018604.57673812       -4282998.8327206373        1472528922.3910615     
  -956776629.59121859       -2835263.2688781619        1466228432.0815876     
  -918822611.20291007       -2347383.0290721059        1465211100.0318294     
  -881156549.41180921       -2819358.1132914424        1469476926.2417867     
  -843778444.21791911       -4251188.5215450525        1479025910.7114592     
  -1323373268.8804059       -4715204.5132507086        1460774309.7054951     
  -1270722928.5917978       -2286578.3506425619        1454807905.1676469     
  -1218456530.4348981       -1137759.2937276363        1454415340.9265904     
  -1166574074.4097087       -1268747.3425142169        1459596616.9823241     
  -1115075560.5162294       -2679542.4970020056        1470351733.3348510     
  -1.1527844612956684        1.6558867830032351        1494985368.8025815     
  -1.5216233950499212        1.6777907360135917        1486081390.9566288     
  -1.8765661643652518        1.7460173188218620        1479956912.9098475     
  -2.2175944917376071        1.8606246808839919        1476611934.6622431     
  -2.5447302689959965        2.0215398494366181        1476046456.2138095     
  -286240664.53619522       -2911416.4450977445        1491342728.4453247     
  -278590959.77352393       -4970509.6131423563        1484585008.4029653     
  -270936863.33494002       -7014963.8614761084        1481407352.4756582     
  -263278375.22044116       -9044779.1900947988        1481809760.6634047     
  -255615495.43002769       -11059955.598997474        1485792232.9662025     
  -567500145.55790734       -4328479.8375777006        1486022909.0816159     
  -549913409.04692292       -7760468.2105108202        1481416570.4485309     
  -532317889.19801611       -11163178.790373981        1481190860.2463746     
  -514713586.01118582       -14536611.577157110        1485345778.4751513     
  -497100499.48643446       -17880766.570867568        1493881325.1348603     
  -843778444.21791911       -4251188.5215450525        1479025910.7114592     
  -813967349.34182572       -8369874.1143375039        1476576077.0933232     
  -784143079.46579778       -12444643.040683299        1479307436.2219932     
  -754305634.58984149       -16475495.300599396        1487219988.0974813     
  -724455014.71395183       -20462430.894070894        1500313732.7197752     
  -1115075560.5162294       -2679542.4970020056        1470351733.3348510     
  -1070752780.6582315       -6798727.3246167302        1470063528.3373401     
  -1026412434.1382868       -10859356.612411439        1475757080.4025214     
  -982054520.95640719       -14861430.360422909        1487432389.5303926     
  -937679041.11257958       -18804948.568607330        1505089455.7209547     
  -2.5447302689959965        2.0215398494366181        1476046456.2138095     
  -2.8067475999049449        2.0646905888285252        1458970238.2196128     
  -3.1731984256328500        1.7597296788239127        1440229316.0564439     
  -3.6440819912890552        1.1066585948908798        1419823689.7243066     
  -4.2194021170777871       0.10546911329637676        1397753359.2231998     
  -255615495.43002769       -11059955.598997474        1485792232.9662025     
  -256417669.78887865       -15743746.521077231        1475506084.0993476     
  -257309355.56104654       -20725908.820880882        1467348457.2420242     
  -258290552.74653223       -26006442.498408273        1461319352.3942471     
  -259361261.34532869       -31585347.553641893        1457418769.5559874     
  -497100499.48643446       -17880766.570867568        1493881325.1348603     
  -487867058.86068326       -23997011.733763784        1490280815.5349848     
  -478812640.95712471       -30709999.303969637        1492602054.1231492     
  -469937245.77576703       -38019729.281506971        1500845040.8993554     
  -461240873.31660569       -45926201.666371375        1515009775.8635938     
  -724455014.71395183       -20462430.894070894        1500313732.7197752     
  -694348170.02215505       -24759793.573342115        1503294432.5265186     
  -664509859.36142981       -29952269.689521849        1515990106.6998076     
  -634940082.73179102       -36039859.242650867        1538400755.2396429     
  -605638840.13322699       -43022562.232700765        1570526378.1460192     
  -937679041.11257958       -18804948.568607330        1505089455.7209547     
  -875861003.27329838       -18032092.039831936        1514546935.0739558     
  -814401010.77396500       -18452719.977548122        1537512614.9720078     
  -753299063.61459947       -20066832.381826311        1573986495.4151065     
  -692555161.79519224       -22874429.252626687        1623968576.4032562     
  -1756090318.0254393       -526827095.40763175        680002246.47286832     
  -1784147218.1075957       -500058410.67979914        806417087.54217267     
  -1809278449.2152231       -463537496.03686959        925715919.81295907     
  -1831484011.3483210       -417264351.47884274        1037898743.2852274     
  -1850763904.5068903       -361238977.00571907        1142965557.9589779     
  -2201739089.8908639       -660521726.96725917        696407882.29320288     
  -2238414116.1554189       -613865907.67890298        813831773.96008575     
  -2273046827.4465046       -560402371.81231999        927153007.84813678     
  -2305637223.7641230       -500131119.36751044        1036371583.9573557     
  -2336185305.1082735       -433052150.34447432        1141487502.2877429     
  -2685661049.0379920       -805698314.71139753        721972105.03027558     
  -2722344627.1429844       -736572488.55992973        829374467.62683237     
  -2757869244.2755694       -663583459.16710567        935687523.46424317     
  -2792234900.4357476       -586731226.53292489        1040911272.5425085     
  -2825441595.6235194       -506015790.65738827        1145045714.8616271     
  -3207856195.4668226       -962356858.64004683        756694914.68408620     
  -3235938751.0702920       -868178153.32287908        853045168.54241240     
  -3263745699.7024164       -773080758.10122561        951319466.66127884     
  -3291277041.3631954       -677064672.97508621        1051517809.0406849     
  -3318532776.0526276       -580129897.94446075        1153640195.6806316     
  -3768324529.1773567       -1130497358.7532070        800576311.25463521     
  -3779196487.9373446       -1008682901.9677517        884843876.70682621     
  -3790676193.7270474       -888894268.61468124        974048837.43924320     
  -3802763646.5464668       -771131458.69399476        1068191193.4518862     
  -3815458846.3955998       -655394472.20569289        1167270944.7447550     
  -1850763904.5068903       -361238977.00571907        1142965557.9589779     
  -1835435154.1927311       -295523760.28478992        1190489198.7176561     
  -1823488831.6183848       -241083302.69656998        1240340071.9501164     
  -1814924936.7838507       -197917604.24105555        1292518177.6563592     
  -1809743469.6891284       -166026664.91825002        1347023515.8363831     
  -2336185305.1082735       -433052150.34447432        1141487502.2877429     
  -2312549989.9866843       -351928730.31312013        1182744010.4237189     
  -2292414507.1559725       -282471417.91802549        1224507212.0969155     
  -2275778856.6161380       -224680213.15918785        1266777107.3073318     
  -2262643038.3671813       -178555116.03660905        1309553696.0549688     
  -2825441595.6235194       -506015790.65738827        1145045714.8616271     
  -2798701255.5132480       -411044629.26123399        1179898118.3986590     
  -2775578152.2449188       -328130924.00488901        1213436676.5363491     
  -2756072285.8185320       -257274674.88835204        1245661389.2746973     
  -2740183656.2340889       -198475881.91162348        1276572256.6137042     
  -3318532776.0526276       -580129897.94446075        1153640195.6806316     
  -3293888950.7724228       -472871457.12913167        1181951522.6424754     
  -3272979766.8852243       -378061820.95716000        1207128465.2684164     
  -3255805224.3910341       -295700989.42854798        1229171023.5584538     
  -3242365323.2898521       -225788962.54329491        1248079197.5125880     
  -3815458846.3955998       -655394472.20569289        1167270944.7447550     
  -3798113075.7642093       -537409213.91681182        1188904223.1551692     
  -3784619351.0768890       -432264108.77483916        1205582578.2931187     
  -3774977672.3336430       -339959156.77977705        1217306010.1586025     
  -3769188039.5344691       -260494357.93162322        1224074518.7516210     
  -1809743469.6891284       -166026664.91825002        1347023515.8363831     
  -1779196475.7235801       -133565364.55881834        1364972234.3294289     
  -1749908348.7597280       -105300287.53837657        1383859750.3808811     
  -1721879088.7975724       -81231433.856922269        1403686063.9907391     
  -1695108695.8371150       -61358803.514461815        1424451175.1590064     
  -2262643038.3671813       -178555116.03660905        1309553696.0549688     
  -2223019174.5108714       -134141843.60275865        1317643802.5630307     
  -2186263547.6192446       -99289361.051184416        1329019171.7191746     
  -2152376157.6923008       -73997668.381888986        1343679803.5234005     
  -2121357004.7300415       -58266765.594871402        1361625697.9757085     
  -2740183656.2340889       -198475881.91162348        1276572256.6137042     
  -2684778736.5165167       -140099381.61220193        1272926152.8466313     
  -2633851423.7266150       -96648237.738348007        1274911776.8173156     
  -2587401717.8643832       -68122450.290059328        1282529128.5257576     
  -2545429618.9298210       -54522019.267336488        1295778207.9719558     
  -3242365323.2898521       -225788962.54329491        1248079197.5125880     
  -3164475161.7405176       -151437978.58715391        1230819285.1802297     
  -3092671977.0818400       -97376917.599868298        1221537565.6753047     
  -3026955769.3138180       -63605779.581435084        1220234038.9978113     
  -2967326538.4364529       -50124564.531856775        1226908705.1477497     
  -3769188039.5344691       -260494357.93162322        1224074518.7516210     
  -3662108450.1828728       -168157634.52761185        1191323199.5638278     
  -3562725207.6849194       -101475400.63574386        1168896538.2931399     
  -3471038312.0406098       -60447656.256020546        1156794534.9395607     
  -3387047763.2499399       -45074401.388434529        1155017189.5030887     
  -1695108695.8371150       -61358803.514461815        1424451175.1590064     
  -1645481786.3777075       -39316690.051384866        1419000898.1639507     
  -1597686650.6830218       -23380489.137380481        1420145384.5592997     
  -1551723288.7530622       -13550200.772463560        1427884634.3450539     
  -1507591700.5878217       -9825824.9566118717        1442218647.5212114     
  -2121357004.7300415       -58266765.594871402        1361625697.9757085     
  -2056697659.2912726       -38777228.038837790        1354587056.4882903     
  -1993345960.1673372       -23646511.532251477        1353106119.8808322     
  -1931301907.3582349       -12874616.075103164        1357182888.1533344     
  -1870565500.8639669       -6461541.6674101353        1366817361.3057971     
  -2545429618.9298210       -54522019.267336488        1295778207.9719558     
  -2468700861.8272448       -38473964.913008332        1287762684.0170457     
  -2392755623.5896144       -25037640.108500838        1284267806.4316514     
  -2317593904.2169285       -14213044.853810787        1285293575.2157738     
  -2243215703.7091904       -6000179.1489369869        1290839990.3694108     
  -2967326538.4364529       -50124564.531856775        1226908705.1477497     
  -2881491393.9856253       -38406900.673904538        1218527780.7502165     
  -2795915640.9498553       -27553874.866144538        1213630444.2117558     
  -2710599279.3291421       -17565487.108568549        1212216695.5323658     
  -2625542309.1234837       -8441737.4011830091        1214286534.7120495     
  -3387047763.2499399       -45074401.388434529        1155017189.5030887     
  -3295069255.7664175       -38576035.321525097        1146882346.6878042     
  -3202826012.2480597       -31195215.805172324        1141194033.2211466     
  -3110318032.6948738       -22931942.839383602        1137952249.1031172     
  -3017545317.1068521       -13786216.424148560        1137156994.3337154     
  -1507591700.5878217       -9825824.9566118717        1442218647.5212114     
  -1461476407.8309431       -8345887.0790222287        1442226282.6524405     
  -1415401571.6274137       -7000804.3792639375        1445321438.0602295     
  -1369367191.9772329       -5790576.8573340178        1451504113.7445815     
  -1323373268.8804059       -4715204.5132507086        1460774309.7054951     
  -1870565500.8639669       -6461541.6674101353        1366817361.3057971     
  -1815198340.0443995       -4117124.3020615578        1363603252.7028320     
  -1760144115.3319273       -2815827.2936966419        1364218950.1435826     
  -1705402826.7265534       -2557650.6423270702        1368664453.6280503     
  -1650974474.2282755       -3342594.3479428291        1376939763.1562326     
  -2243215703.7091904       -6000179.1489369869        1290839990.3694108     
  -2176475858.3493476       -2155037.3525480032        1284086245.2195473     
  -2110321428.6503508       -261281.09230434895        1281904591.8805535     
  -2044752414.6121957       -318910.36820650101        1284295030.3524284     
  -1979768816.2348847       -2327925.1802569628        1291257560.6351759     
  -2625542309.1234837       -8441737.4011830091        1214286534.7120495     
  -2545308962.7457895       -2459626.2304880619        1203675260.2025840     
  -2465933511.5826812        662834.22491669655        1198378363.2711427     
  -2387415955.6341681        925643.96500992775        1198395843.9177248     
  -2309756294.9002433       -1671197.0101957321        1203727702.1423316     
  -3017545317.1068521       -13786216.424148560        1137156994.3337154     
  -2921697653.2337189       -5030890.9358663559        1122370297.6519434     
  -2826980364.1289229       -43481.342038273811        1113640264.3153493     
  -2733393449.7924619        1176012.3573333025        1110966894.3239322     
  -2640936910.2243414       -1372409.8377565145        1114350187.6776929     
  -1323373268.8804059       -4715204.5132507086        1460774309.7054951     
  -1270722928.5917978       -2286578.3506425619        1454807905.1676469     
  -1218456530.4348981       -1137759.2937276363        1454415340.9265904     
  -1166574074.4097087       -1268747.3425142169        1459596616.9823241     
  -1115075560.5162294       -2679542.4970020056        1470351733.3348510     
  -1650974474.2282755       -3342594.3479428291        1376939763.1562326     
  -1584460290.3391979       -1327709.8346868157        1370002825.2703567     
  -1518177733.7705221       -84916.389430999756        1368252021.0071301     
  -1452126804.5222399        385785.98784399033        1371687350.3665550     
  -1386307502.5943565        84397.297119796276        1380308813.3486323     
  -1979768816.2348847       -2327925.1802569628        1291257560.6351759     
  -1900498522.1000340       -1059102.3227726221        1283527790.0144703     
  -1821307540.4742658       -54654.495570302010        1280596446.3422754     
  -1742195871.3575840        685418.30135154724        1282463529.6185882     
  -1663163514.7499876        1161116.0679804087        1289129039.8434112     
  -2309756294.9002433       -1671197.0101957321        1203727702.1423316     
  -2218837623.8743010       -1480755.8148840666        1195382799.3999944     
  -2127845950.5461330       -1046973.6121484041        1191448616.9320247     
  -2036781274.9157405       -369850.40199446678        1191925154.7384238     
  -1945643596.9831176        550613.81559300423        1196812412.8191888     
  -2640936910.2243414       -1372409.8377565145        1114350187.6776929     
  -2539477595.6620002       -2592670.3110251427        1105567853.4269214     
  -2437792963.9861226       -3061873.7391631603        1100808532.7763774     
  -2335883015.1967015       -2780020.1221578121        1100072225.7260611     
  -2233747749.2937455       -1747109.4600405693        1103358932.2759676     
  -1115075560.5162294       -2679542.4970020056        1470351733.3348510     
  -1070752780.6582315       -6798727.3246167302        1470063528.3373401     
  -1026412434.1382868       -10859356.612411439        1475757080.4025214     
  -982054520.95640719       -14861430.360422909        1487432389.5303926     
  -937679041.11257958       -18804948.568607330        1505089455.7209547     
  -1386307502.5943565        84397.297119796276        1380308813.3486323     
  -1327290799.1360571       -2761205.7449606061        1377526718.4769623     
  -1268374403.3972430       -5941167.8519842625        1379771981.2077107     
  -1209558315.3779030       -9455489.0239292383        1387044601.5408764     
  -1150842535.0780478       -13304169.260818005        1399344579.4764593     
  -1663163514.7499876        1161116.0679804087        1289129039.8434112     
  -1592179743.2921720       -1228961.8688103557        1283715534.9859242     
  -1521414153.9352560       -4346313.4752642512        1282374988.2705810     
  -1450866746.6792452       -8190938.7513992786        1285107399.6973820     
  -1380537521.5241387       -12762837.697215497        1291912769.2663281     
  -1945643596.9831176        550613.81559300423        1196812412.8191888     
  -1865419613.1265645       -2201995.6961371899        1188629977.8642259     
  -1785531685.7523315       -6074793.4822645187        1183566101.5911324     
  -1705979814.8604290       -11067779.542826891        1181620783.9999082     
  -1626764000.4508483       -17180953.877798617        1182794025.0905573     
  -2233747749.2937455       -1747109.4600405693        1103358932.2759676     
  -2147010408.6392376       -5680307.2269449234        1092270047.1118665     
  -2060726998.8484716       -11126607.872994184        1083345321.1693633     
  -1974897519.9214511       -18086011.398190379        1076584754.4484572     
  -1889521971.8581858       -26558517.802573442        1071988346.9491491     
  -937679041.11257958       -18804948.568607330        1505089455.7209547     
  -875861003.27329838       -18032092.039831936        1514546935.0739558     
  -814401010.77396500       -18452719.977548122        1537512614.9720078     
  -753299063.61459947       -20066832.381826311        1573986495.4151065     
  -692555161.79519224       -22874429.252626687        1623968576.4032562     
  -1150842535.0780478       -13304169.260818005        1399344579.4764593     
  -1057647193.0860473       -7346020.4994623065        1400620826.2684388     
  -964705635.35877597       -2233819.2871968746        1411328654.4253263     
  -872017861.89625072        2032434.3759121895        1431468063.9471149     
  -779583872.69845510        5452740.4899166822        1461039054.8338253     
  -1380537521.5241387       -12762837.697215497        1291912769.2663281     
  -1267612358.7512462       -5113641.7148261070        1285129421.4183719     
  -1154836719.1678665        2037143.6358597279        1283701035.7551823     
  -1042210602.7740046        8689518.3548212647        1287627612.2767665     
  -929734009.56965160        14843482.442080021        1296909150.9831147     
  -1626764000.4508483       -17180953.877798617        1182794025.0905573     
  -1505756500.2688937       -11334955.685921848        1168072720.5237596     
  -1384794262.2012317       -5639831.2083607912        1154629758.9615943     
  -1263877286.2478554       -95580.445089399815        1142465140.4040480     
  -1143005572.4087772        5297796.6038645506        1131578864.8511505     
  -1889521971.8581858       -26558517.802573442        1071988346.9491491     
  -1772079617.6389918       -26009962.412766099        1049450723.5846034     
  -1654578264.4588718       -25264743.819861233        1024114824.0445498     
  -1537017912.3178189       -24322862.023849905        995980648.32898414     
  -1419398561.2158318       -23184317.024729609        965048196.43791115     
  -3768324529.1773567       -1130497358.7532070        800576311.25463521     
  -3779196487.9373446       -1008682901.9677517        884843876.70682621     
  -3790676193.7270474       -888894268.61468124        974048837.43924320     
  -3802763646.5464668       -771131458.69399476        1068191193.4518862     
  -3815458846.3955998       -655394472.20569289        1167270944.7447550     
  -4339879190.2623844       -1301963757.0787153        858769478.23435414     
  -4335331186.9624538       -1125717898.6169317        942366979.08036125     
  -4331920689.2103558       -953263725.31459355        1020327501.2284651     
  -4329647697.0060930       -784601237.17170048        1092651044.6786661     
  -4328512210.3496637       -619730434.18825185        1159337609.4309645     
  -4895333318.8146954       -1468599995.6444085        936427599.11567509     
  -4905577850.5352144       -1246986484.6304078        1018736983.7510264     
  -4917489646.3216858       -1030930520.5029125        1084835015.7103465     
  -4931068706.1741085       -820432103.26192343        1134721694.9936345     
  -4946315030.0924835       -615491232.90743923        1168397021.6008911     
  -5434686914.8342905       -1630406074.4502873        1033550673.8985977     
  -5489936478.6556282       -1372488660.0081792        1113953890.7188234     
  -5547383065.0610361       -1121894654.1796374        1167571380.8848875     
  -5607026674.0505133       -878624056.96466219        1194403144.3967915     
  -5668867305.6240597       -642676868.36325336        1194449181.2545342     
  -5957939978.3211699       -1787381993.4963508        1150138702.5831227     
  -6088407071.3236942       -1502224424.7502468        1228017699.9837501     
  -6221600945.4284058       -1226156126.3447685        1268536596.7520881     
  -6357521600.6353064       -959177098.27991831        1271695392.8881364     
  -6496169036.9443941       -701287340.55569386        1237494088.3918953     
  -3815458846.3955998       -655394472.20569289        1167270944.7447550     
  -3798113075.7642093       -537409213.91681182        1188904223.1551692     
  -3784619351.0768890       -432264108.77483916        1205582578.2931187     
  -3774977672.3336430       -339959156.77977705        1217306010.1586025     
  -3769188039.5344691       -260494357.93162322        1224074518.7516210     
  -4328512210.3496637       -619730434.18825185        1159337609.4309645     
  -4298423787.2906075       -463995394.82449555        1141370817.2148657     
  -4278948393.5455732       -343637119.84080839        1129449500.6598475     
  -4270086029.1145606       -258655609.23719025        1123573659.7659113     
  -4271836693.9975662       -209050863.01364207        1123743294.5330551     
  -4946315030.0924835       -615491232.90743923        1168397021.6008911     
  -4872054243.3670626       -412577499.09719634        1102942344.8266730     
  -4815167469.3256083       -267577140.90018177        1054533542.6470820     
  -4775654707.9681244       -180490158.31639671        1023170615.0621188     
  -4753515959.2946100       -151316551.34584308        1008853562.0717820     
  -5668867305.6240597       -642676868.36325336        1194449181.2545342     
  -5519004443.9935684       -383155526.73491240        1073618805.9905909     
  -5393276578.4169941       -204084171.95296168        980834704.25482190     
  -5291683708.8943357       -105462804.01739860        916096876.04722512     
  -5214225835.4255943       -87291422.928226709        879405321.36780262     
  -6496169036.9443941       -701287340.55569386        1237494088.3918953     
  -6239274389.1701298       -375729477.73764443        1053400200.7066212     
  -6013275720.8197289       -153158212.99914575        908352985.48306572     
  -5818173031.8931923       -33573546.340192318        802352442.72123170     
  -5653966322.3905230       -16975477.760794401        735398572.42111516     
  -3769188039.5344691       -260494357.93162322        1224074518.7516210     
  -3662108450.1828728       -168157634.52761185        1191323199.5638278     
  -3562725207.6849194       -101475400.63574386        1168896538.2931399     
  -3471038312.0406098       -60447656.256020546        1156794534.9395607     
  -3387047763.2499399       -45074401.388434529        1155017189.5030887     
  -4271836693.9975662       -209050863.01364207        1123743294.5330551     
  -4149116031.7642140       -144912994.47465014        1090205099.2465448     
  -4030820763.8340693       -95526440.279682875        1064881268.6131288     
  -3916950890.2071342       -60891200.428746939        1047771802.6328068     
  -3807506410.8834043       -41007274.921836376        1038876701.3055801     
  -4753515959.2946100       -151316551.34584308        1008853562.0717820     
  -4621183633.5052509       -117186360.46959519        978344601.99539554     
  -4490005749.4686651       -86904308.769258499        953939713.30809057     
  -4359982307.1848536       -60470396.244833231        935638896.00986660     
  -4231113306.6538177       -37884622.896322966        923442150.10072434     
  -5214225835.4255943       -87291422.928226709        879405321.36780262     
  -5078311255.4059792       -84977732.512446404        855741707.81037986     
  -4940280164.5887060       -75609006.104466200        836071872.37802732     
  -4800132562.9737720       -59185243.704281807        820395815.07074010     
  -4657868450.5611782       -35706445.311893940        808713535.88852441     
  -5653966322.3905230       -16975477.760794401        735398572.42111516     
  -5520498897.4664068       -48287110.603211641        722396416.69149733     
  -5381644009.1941948       -61640532.285307884        711277745.82293534     
  -5237401657.5738859       -57035742.807084084        702042559.81542885     
  -5087771842.6054850       -34472742.168549538        694690858.66897810     
  -3387047763.2499399       -45074401.388434529        1155017189.5030887     
  -3295069255.7664175       -38576035.321525097        1146882346.6878042     
  -3202826012.2480597       -31195215.805172324        1141194033.2211466     
  -3110318032.6948738       -22931942.839383602        1137952249.1031172     
  -3017545317.1068521       -13786216.424148560        1137156994.3337154     
  -3807506410.8834043       -41007274.921836376        1038876701.3055801     
  -3706379482.3112864       -31193143.618029118        1030152106.4806333     
  -3605821354.3662586       -23275014.404520750        1025253052.7051563     
  -3505832027.0483208       -17252887.281312704        1024179539.9791456     
  -3406411500.3574719       -13126762.248403788        1026931568.3026072     
  -4231113306.6538177       -37884622.896322966        923442150.10072434     
  -4116897923.5621300       -23572716.326325893        913155343.82720661     
  -4004084877.7594547       -13935267.386367798        908073090.30400085     
  -3892674169.2457924       -8972276.0764534473        908195389.53110266     
  -3782665798.0211430       -8683742.3965771198        913522241.50851572     
  -4657868450.5611782       -35706445.311893940        808713535.88852441     
  -4526624579.5189457       -15714753.446413279        795892058.72752643     
  -4397616582.4276495       -3175974.7507147789        789654146.01767933     
  -4270844459.2872872        1909890.7751989365        789999797.75898445     
  -4146308210.0978594       -457156.86866331100        796929013.95144081     
  -5087771842.6054850       -34472742.168549538        694690858.66897810     
  -4935559450.1817369       -7619254.9782960415        678362251.18159068     
  -4786416468.3708420        9002863.5024392605        669996219.84619653     
  -4640342897.1728067        15393613.273646116        669592764.66279507     
  -4497338736.5876245        11552994.335339069        677151885.63138568     
  -3017545317.1068521       -13786216.424148560        1137156994.3337154     
  -2921697653.2337189       -5030890.9358663559        1122370297.6519434     
  -2826980364.1289229       -43481.342038273811        1113640264.3153493     
  -2733393449.7924619        1176012.3573333025        1110966894.3239322     
  -2640936910.2243414       -1372409.8377565145        1114350187.6776929     
  -3406411500.3574719       -13126762.248403788        1026931568.3026072     
  -3296962025.2987957       -7742296.8566222191        1015121985.2626798     
  -3188097822.6799359       -4308739.5975600481        1008496561.3502589     
  -3079818892.5008869       -2826090.4712023735        1007055296.5653491     
  -2972125234.7616591       -3294349.4775753021        1010798190.9079514     
  -3782665798.0211430       -8683742.3965771198        913522241.50851572     
  -3662107380.9702592       -7417997.8592944145        905325724.82704043     
  -3541589134.0306692       -6286153.6929898262        901440863.05540586     
  -3421111057.2023721       -5288209.8976612091        901867656.19361246     
  -3300673150.4853678       -4424166.4733114243        906606104.24165928     
  -4146308210.0978594       -457156.86866331100        796929013.95144081     
  -4017133720.2481079       -4057993.9438805580        792981516.34502792     
  -3887454298.1811323       -5975723.6283433437        792473169.43078566     
  -3757269943.8969193       -6210345.9220325947        795403973.20871723     
  -3626580657.3954887       -4761860.8249714375        801773927.67882383     
  -4497338736.5876245        11552994.335339069        677151885.63138568     
  -4362041043.1323433        2337714.8896176815        678089359.81664157     
  -4225693315.1313133       -3377449.4036085606        681593480.47640324     
  -4088295552.5845308       -5592498.5443279743        687664247.61066639     
  -3949847755.4920001       -4307432.5325481892        696301661.21943903     
  -2640936910.2243414       -1372409.8377565145        1114350187.6776929     
  -2539477595.6620002       -2592670.3110251427        1105567853.4269214     
  -2437792963.9861226       -3061873.7391631603        1100808532.7763774     
  -2335883015.1967015       -2780020.1221578121        1100072225.7260611     
  -2233747749.2937455       -1747109.4600405693        1103358932.2759676     
  -2972125234.7616591       -3294349.4775753021        1010798190.9079514     
  -2859508144.7539563       -3112792.9824531078        1003201374.7308326     
  -2746851198.2486773       -2798381.4954049587        999840952.91875124     
  -2634154395.2458096       -2351115.0164036751        1000716925.4717096     
  -2521417735.7453651       -1770993.5454692841        1005829292.3897060     
  -3300673150.4853678       -4424166.4733114243        906606104.24165928     
  -3176288625.7042761       -2657895.2114018202        899978435.41957724     
  -3052049705.0415597       -1376971.0107420683        897800541.72734380     
  -2927956388.4972157       -581393.87133228779        900072423.16496420     
  -2804008676.0712504       -271163.79317927361        906794079.73243165     
  -3626580657.3954887       -4761860.8249714375        801773927.67882383     
  -3489819038.5129642       -1227976.9978587627        795899035.49316001     
  -3353388484.3647733        1202357.7148234844        794687299.20215714     
  -3217288994.9509163        2529143.3130506277        798138718.80581975     
  -3081520570.2713971        2752379.7968313694        806253294.30414188     
  -3949847755.4920001       -4307432.5325481892        696301661.21943903     
  -3800099383.1800146        1176961.6581792831        690963174.95157826     
  -3650867536.2183213        4939604.6812818050        690501225.34318805     
  -3502152214.6069202        6980496.5367391109        694915812.39427805     
  -3353953418.3458033        7299637.2245707512        704206936.10483932     
  -2233747749.2937455       -1747109.4600405693        1103358932.2759676     
  -2147010408.6392376       -5680307.2269449234        1092270047.1118665     
  -2060726998.8484716       -11126607.872994184        1083345321.1693633     
  -1974897519.9214511       -18086011.398190379        1076584754.4484572     
  -1889521971.8581858       -26558517.802573442        1071988346.9491491     
  -2521417735.7453651       -1770993.5454692841        1005829292.3897060     
  -2428555566.2604513       -7509097.2687932253        996492957.06970227     
  -2335967898.2332969       -14162205.851329446        990120386.07989383     
  -2243654731.6639004       -21730319.293044209        986711579.42028165     
  -2151616066.5522599       -30213437.593957543        986266537.09086812     
  -2804008676.0712504       -271163.79317927361        906794079.73243165     
  -2702737091.7313619       -7128797.6655690670        899419628.56350875     
  -2601560579.4432454       -14303338.377194881        895808546.83338213     
  -2500479139.2068992       -21794785.928056836        895960834.54205334     
  -2399492771.0223203       -29603140.318142653        899876491.68951702     
  -3081520570.2713971        2752379.7968313694        806253294.30414188     
  -2969554985.0519648       -4539408.4172433615        801050061.59329104     
  -2857505042.4783196       -11550005.450601339        800409803.42983043     
  -2745370742.5504537       -18279411.303232551        804332519.81376898     
  -2633152085.2683711       -24727625.975132465        812818210.74510014     
  -3353953418.3458033        7299637.2245707512        704206936.10483932     
  -3229009246.2222633        259070.47617197037        701384256.15904415     
  -3103801287.3385181       -5902207.0715452433        703924155.86923742     
  -2978329541.6945720       -11184195.418585777        711826635.23543143     
  -2852594009.2904043       -15586894.564900041        725091694.25761843     
  -1889521971.8581858       -26558517.802573442        1071988346.9491491     
  -1772079617.6389918       -26009962.412766099        1049450723.5846034     
  -1654578264.4588718       -25264743.819861233        1024114824.0445498     
  -1537017912.3178189       -24322862.023849905        995980648.32898414     
  -1419398561.2158318       -23184317.024729609        965048196.43791115     
  -2151616066.5522599       -30213437.593957543        986266537.09086812     
  -2037654703.0667861       -32717198.845568299        970481376.77416372     
  -1923812762.8243299       -35619037.573912859        955521188.21659207     
  -1810090245.8248873       -38918953.778966427        941385971.41815186     
  -1696487152.0684614       -42616947.460751176        928075726.37884676     
  -2399492771.0223203       -29603140.318142653        899876491.68951702     
  -2278660261.3144426       -32053577.124328971        890635635.18271482     
  -2158125597.0535321       -35496832.087080717        885842998.36968994     
  -2037888778.2395859       -39932905.206373692        885498581.25043082     
  -1917949804.8726103       -45361796.482228637        889602383.82495129     
  -2633152085.2683711       -24727625.975132465        812818210.74510014     
  -2495096292.3819761       -24019097.249059439        809913498.81026137     
  -2357516767.1464891       -24898127.359375119        815080254.50383317     
  -2220413509.5619230       -27364716.306071520        828318477.82581949     
  -2083786519.6282723       -31418864.089156628        849628168.77622056     
  -2852594009.2904043       -15586894.564900041        725091694.25761843     
  -2686962796.2693667       -8613759.2197469473        728314967.65679443     
  -2521986273.1031971       -3822923.3908039331        743232956.61902869     
  -2357664439.7918878       -1214387.0780583620        769845661.14431977     
  -2193997296.3354445       -788150.28154420853        808153081.23266447     
  -5957939978.3211699       -1787381993.4963508        1150138702.5831227     
  -6088407071.3236942       -1502224424.7502468        1228017699.9837501     
  -6221600945.4284058       -1226156126.3447685        1268536596.7520881     
  -6357521600.6353064       -959177098.27991831        1271695392.8881364     
  -6496169036.9443941       -701287340.55569386        1237494088.3918953     
  -6810517961.9965506       -2043155388.5989652        1353878551.0740499     
  -6828447138.2880335       -1395430557.7699199        1202848021.0103688     
  -6897745752.2396173       -918937185.80787373        1092075851.6452529     
  -7018413803.8513012       -613675272.71282625        1021562042.9787019     
  -7190451293.1230831       -479644818.48477793        991306595.01071680     
  -8337846318.5816507       -2501353895.5744953        1712457085.2761805     
  -8021470545.7882223       -1424531692.9503477        1275767261.7639604     
  -7805106867.2128067       -681083137.71957159        956954260.28116047     
  -7688755282.8554001       -271008229.88216591        756018080.82778001     
  -7672415792.7160063       -194306969.43813229        672958723.40382004     
  -10539925048.076466       -3161977514.4229398        2225874305.1895137     
  -9667477293.8242569       -1589527830.2915301        1446775422.2445247     
  -8943684290.3479710       -512593982.07986259        863171822.65981090     
  -8368546037.6476068        68824030.212062359        475063506.43537074     
  -7942062535.7231655        154726206.58424282        282450473.57120544     
  -13416754150.481003       -4025026245.1443009        2894130210.8140502     
  -11766467382.396141       -1890418969.7934656        1715872502.4520617     
  -10313478021.645115       -413469718.88874674        810728538.78120339     
  -9057786068.2279186        405821507.56985855        178698319.80147311     
  -7999391522.1445599        567454709.58234692       -180218154.48712671     
  -6496169036.9443941       -701287340.55569386        1237494088.3918953     
  -6239274389.1701298       -375729477.73764443        1053400200.7066212     
  -6013275720.8197289       -153158212.99914575        908352985.48306572     
  -5818173031.8931923       -33573546.340192318        802352442.72123170     
  -5653966322.3905230       -16975477.760794401        735398572.42111516     
  -7190451293.1230831       -479644818.48477793        991306595.01071680     
  -6900415798.5409069       -304311497.75861239        847069785.22092986     
  -6623177258.8204384       -171634693.23813486        723946464.07363558     
  -6358735673.9616728       -81614404.923338413        621936631.56883383     
  -6107091043.9646139       -34250632.814227104        541040287.70652294     
  -7672415792.7160063       -194306969.43813229        672958723.40382004     
  -7400477119.3808594       -184569491.22033358        589694520.16537476     
  -7123236376.3452530       -157158447.33435440        509610621.75019342     
  -6840693563.6091948       -112073837.78019309        432707028.15827698     
  -6552848681.1726828       -49315662.557851791        358983739.38962609     
  -7942062535.7231655        154726206.58424282        282450473.57120544     
  -7739458351.6899786       -16503458.122805119        281274405.53995395     
  -7513453073.3941746       -109729475.28780556        265345458.51273859     
  -7264046700.8357582       -124951844.91076040        234663632.48955977     
  -6991239234.0147295       -62170566.991669655        189228927.47042233     
  -7999391522.1445599        567454709.58234692       -180218154.48712671     
  -7917359495.4682703        199886601.53397179       -78190558.655332103     
  -7793827349.9672050       -29347777.098492622       -8849025.6387277283     
  -7628795085.6413651       -120248426.31504059        27806444.562685110     
  -7422262702.4907532       -72815346.115681648        31775851.948909622     
  -5653966322.3905230       -16975477.760794401        735398572.42111516     
  -5520498897.4664068       -48287110.603211641        722396416.69149733     
  -5381644009.1941948       -61640532.285307884        711277745.82293534     
  -5237401657.5738859       -57035742.807084084        702042559.81542885     
  -5087771842.6054850       -34472742.168549538        694690858.66897810     
  -6107091043.9646139       -34250632.814227104        541040287.70652294     
  -5958909300.9120111       -35856201.842136145        534676097.75241327     
  -5809752894.2418900       -34212892.144989967        530891883.69427329     
  -5659621823.9542542       -29320703.722788572        529687645.53210431     
  -5508516090.0490999       -21179636.575525284        531063383.26590830     
  -6552848681.1726828       -49315662.557851791        358983739.38962609     
  -6387962645.6061192       -20618175.455614328        354109248.85867810     
  -6226514746.1526146       -3381142.0635790825        352511225.25861996     
  -6068504982.8121777        2395437.6182427406        354189668.58944803     
  -5913933355.5847969       -3288436.4101305008        359144578.85116583     
  -6991239234.0147295       -62170566.991669655        189228927.47042233     
  -6807658931.5487328       -2573031.4436421394        180695870.01029909     
  -6631929564.9263706        30854717.958919048        176135770.51597959     
  -6464051134.1476498        38112681.216018200        175548628.98746482     
  -6304023639.2125740        19200858.327644110        178934445.42475119     
  -7422262702.4907532       -72815346.115681648        31775851.948909622     
  -7217998158.7398434        18279230.193779469        14435961.207270009     
  -7025997350.5631561        68494687.922511578        1765519.4663480280     
  -6846260277.9606867        77831027.070510864       -6235473.2738564443     
  -6678786940.9324322        46288247.637791157       -9567017.0133343991     
  -5087771842.6054850       -34472742.168549538        694690858.66897810     
  -4935559450.1817369       -7619254.9782960415        678362251.18159068     
  -4786416468.3708420        9002863.5024392605        669996219.84619653     
  -4640342897.1728067        15393613.273646116        669592764.66279507     
  -4497338736.5876245        11552994.335339069        677151885.63138568     
  -5508516090.0490999       -21179636.575525284        531063383.26590830     
  -5342773347.9192543       -8661931.1731934547        516630146.15868479     
  -5178014806.2502308        575106.02641677856        507950551.54752219     
  -5014240465.0420227        6531475.0233030319        505024599.43241960     
  -4851450324.2946262        9207175.8174772263        507852289.81337619     
  -5913933355.5847969       -3288436.4101305008        359144578.85116583     
  -5740971502.7658081       -6999884.5008063316        349039457.30148572     
  -5566908640.2555981       -7041300.2873992920        342479044.59193492     
  -5391744768.0541658       -3412683.7699165344        339463340.72251523     
  -5215479886.1614981        3885965.0516600609        339992345.69322169     
  -6304023639.2125740        19200858.327644110        178934445.42475119     
  -6130153914.7213888       -2633114.9611203671        175590184.60999659     
  -5953097970.3869448       -13846355.439016581        173581698.97944292     
  -5772855806.2092314       -14438863.106017113        172908988.53308067     
  -5589427422.1882515       -4410637.9621305466        173572053.27091858     
  -6678786940.9324322        46288247.637791157       -9567017.0133343991     
  -6510320583.7860003        4438377.4458484650       -3717671.9157810099     
  -6336582796.6442642       -19840059.428411007        1258514.7100359458     
  -6157573579.5072231       -26547062.984987497        5361542.8641170282     
  -5973292932.3748732       -15682633.223872185        8591412.5464650393     
  -4497338736.5876245        11552994.335339069        677151885.63138568     
  -4362041043.1323433        2337714.8896176815        678089359.81664157     
  -4225693315.1313133       -3377449.4036085606        681593480.47640324     
  -4088295552.5845308       -5592498.5443279743        687664247.61066639     
  -3949847755.4920001       -4307432.5325481892        696301661.21943903     
  -4851450324.2946262        9207175.8174772263        507852289.81337619     
  -4707228944.2382727        5116434.6137418747        506319429.55452287     
  -4562811812.3742418        1678199.4355952740        507901711.38152879     
  -4418198928.7025385       -1107529.7169804573        512599135.29440260     
  -4273390293.2231584       -3240752.8439610004        520411701.29313242     
  -5215479886.1614981        3885965.0516600609        339992345.69322169     
  -5060767689.1859064        5389901.1853578091        334992487.79583126     
  -4906714023.1407127        4698734.2177295685        333656267.59566802     
  -4753318888.0259180        1812464.1487584114        335983685.09272009     
  -4600582283.8415260       -3268909.0215370655        341974740.28699666     
  -5589427422.1882515       -4410637.9621305466        173572053.27091858     
  -5422657277.9752531        3158114.6044552326        164108534.54057857     
  -5257399947.4307270        5684154.9427940845        158857149.11881170     
  -5093655430.5546741        3167483.0528895855        157817897.00563052     
  -4931423727.3471012       -4391901.0652780533        160990778.20102152     
  -5973292932.3748732       -15682633.223872185        8591412.5464650393     
  -5792897710.6063023       -1578925.1289517879       -6332430.2112528654     
  -5614869585.2442780        4634461.6108143330       -16495644.049034214     
  -5439208556.2888107        2957526.9953923225       -21898228.966874924     
  -5265914623.7398853       -6609728.9751751423       -22540184.964778915     
  -3949847755.4920001       -4307432.5325481892        696301661.21943903     
  -3800099383.1800146        1176961.6581792831        690963174.95157826     
  -3650867536.2183213        4939604.6812818050        690501225.34318805     
  -3502152214.6069202        6980496.5367391109        694915812.39427805     
  -3353953418.3458033        7299637.2245707512        704206936.10483932     
  -4273390293.2231584       -3240752.8439610004        520411701.29313242     
  -4111700017.3134274       -80021.145150184631        513453284.47800219     
  -3950054199.1256418        2932518.1471669674        511340640.49980068     
  -3788452838.6598115        5796865.0329844952        514073769.35852736     
  -3626895935.9159212        8513019.5123100281        521652671.05418336     
  -4600582283.8415260       -3268909.0215370655        341974740.28699666     
  -4427038000.9698925       -2458208.8053984642        333947138.49099314     
  -4253066108.1918659       -222142.23461532593        330734545.70937514     
  -4078666605.5074492        3439290.6907994747        332336961.94214058     
  -3903839492.9166384        8526089.9708678722        338754387.18928158     
  -4931423727.3471012       -4391901.0652780533        160990778.20102152     
  -4746113334.1494160       -5957601.3225731850        152444736.99055323     
  -4559903263.4169941       -4524376.4640724659        148682940.97191343     
  -4372793515.1498442       -92226.489814996719        149705390.14511877     
  -4184784089.3479538        7338848.6002435684        155512084.51015031     
  -5265914623.7398853       -6609728.9751751423       -22540184.964778915     
  -5068926016.8519888       -10578198.696639061       -31053920.023320038     
  -4870565664.8010263       -9974184.5412054062       -34814173.712575309     
  -4670833567.5869808       -4797686.5088353157       -33820946.032546565     
  -4469729725.2098589        4951295.4004559517       -28074236.983218674     
  -3353953418.3458033        7299637.2245707512        704206936.10483932     
  -3229009246.2222633        259070.47617197037        701384256.15904415     
  -3103801287.3385181       -5902207.0715452433        703924155.86923742     
  -2978329541.6945720       -11184195.418585777        711826635.23543143     
  -2852594009.2904043       -15586894.564900041        725091694.25761843     
  -3626895935.9159212        8513019.5123100281        521652671.05418336     
  -3488588514.4253240        4133718.2763190269        517033110.15370846     
  -3350316159.1727710       -362470.41984009743        516716253.99211568     
  -3212078870.1582646       -4975546.5761501789        520702102.56940424     
  -3073876647.3818145       -9705510.1926398277        528990655.88557589     
  -3903839492.9166384        8526089.9708678722        338754387.18928158     
  -3755197036.1078734        5899590.0326170921        331989283.50283897     
  -3606888498.5354128        2160025.9733548164        328467009.63815922     
  -3458913880.1992579       -2692602.2069249153        328187565.59524733     
  -3311273181.0994148       -8658294.5082480907        331150951.37409920     
  -4184784089.3479538        7338848.6002435684        155512084.51015031     
  -4028834811.2699161        5556685.7450768948        146252776.20642778     
  -3873518305.4264531        1665282.1080133915        139176422.80736607     
  -3718834571.8175383       -4335362.3108885288        134283024.31294936     
  -3564783610.4431925       -12445247.511687279        131572580.72319049     
  -4469729725.2098589        4951295.4004559517       -28074236.983218674     
  -4309501839.9114618        3105005.4136722088       -40176411.735510103     
  -4150205579.8458700       -1846702.0157990456       -51155506.500264972     
  -3991840945.0131097       -9903826.8880395889       -61011521.277478792     
  -3834407935.4131689       -21066369.203012466       -69744456.067154765     
  -2852594009.2904043       -15586894.564900041        725091694.25761843     
  -2686962796.2693667       -8613759.2197469473        728314967.65679443     
  -2521986273.1031971       -3822923.3908039331        743232956.61902869     
  -2357664439.7918878       -1214387.0780583620        769845661.14431977     
  -2193997296.3354445       -788150.28154420853        808153081.23266447     
  -3073876647.3818145       -9705510.1926398277        528990655.88557589     
  -2882327762.2336535        1356115.6489965916        523932793.80610698     
  -2690883860.9046235        12067795.426879764        526173389.22372109     
  -2499544943.3947153        22429529.141019106        535712442.13840914     
  -2308311009.7039351        32441316.791390181        552549952.55019557     
  -3311273181.0994148       -8658294.5082480907        331150951.37409920     
  -3106367361.1554866        2723600.6304663420        318453277.52434790     
  -2901016818.9949398        15587903.157896161        308657803.10570282     
  -2695221554.6177788        29934613.074018955        301764528.11816341     
  -2488981568.0240211        45763730.378852844        297773452.56174093     
  -3564783610.4431925       -12445247.511687279        131572580.72319049     
  -3359081593.0348511       -4511304.2753250599        111876418.81150995     
  -3152385147.3741512        6737399.8022242785        90686198.264973253     
  -2944694273.4611011        21300864.720934391        68001919.083562598     
  -2736008971.2956982        39179090.480838060        43823581.267303832     
  -3834407935.4131689       -21066369.203012466       -69744456.067154765     
  -3640470457.8717556       -20348599.068378687       -95797782.332391635     
  -3444988846.0422440       -14483714.640083790       -127741425.29846762     
  -3247963099.9246497       -3471715.9182007313       -165575384.96538126     
  -3049393219.5189719        12687397.097337961       -209299661.33312798     
 </DataArray>
 <DataArray  type="Float64" Name="VM" NumberOfComponents="1" format="ascii">
   12935814997.519146     
   11340746920.796080     
   10210108595.767534     
   9272530572.3034382     
   8303553318.3207521     
   10130383264.062572     
   9321988473.7485485     
   8826265309.4302654     
   8443359082.5857306     
   8035451296.2666130     
   7982360301.1160021     
   7734932938.2810783     
   7669088937.9926205     
   7669509587.5005207     
   7666259567.7303762     
   6491660324.6445875     
   6586867468.3503542     
   6757413405.9124937     
   6961211796.5887375     
   7171600416.7462854     
   5657837541.3744936     
   5890951323.0703096     
   6116426926.3259306     
   6331803850.5110369     
   6536857795.2936907     
   8303553318.3207521     
   8020314919.1641893     
   7779210079.2177963     
   7569540483.3854914     
   7386329276.5504618     
   8035451296.2666130     
   7746554458.8867464     
   7473338946.8074293     
   7213843112.8315554     
   6968074673.6376476     
   7666259567.7303762     
   7380951434.0924873     
   7101044108.8580294     
   6826616461.2600298     
   6557873723.3379087     
   7171600416.7462854     
   6910936946.1066589     
   6658187735.2335615     
   6409495406.9681683     
   6161715359.1848593     
   6536857795.2936907     
   6328854096.9941645     
   6143067247.2270832     
   5965587668.6988468     
   5787406823.2930183     
   7386329276.5504618     
   7227198363.9871264     
   7060494539.8470049     
   6885514184.7419786     
   6702071437.2902880     
   6968074673.6376476     
   6813564663.2628002     
   6654407525.5110769     
   6490317706.4136209     
   6321248135.9587545     
   6557873723.3379087     
   6407102606.8194151     
   6254697200.9214716     
   6100626701.5885181     
   5944924342.5429535     
   6161715359.1848593     
   6012807784.4810724     
   5865251003.6585197     
   5719085748.4322481     
   5574371235.0091734     
   5787406823.2930183     
   5637130522.0829163     
   5491075712.6539488     
   5349158939.6506157     
   5211430456.2558842     
   6702071437.2902880     
   6512544091.8271437     
   6326686475.8266659     
   6144350079.9604816     
   5965485638.6294785     
   6321248135.9587545     
   6136379087.0956860     
   5953782855.2681627     
   5773422878.6532488     
   5595305819.3357372     
   5944924342.5429535     
   5769237582.7527285     
   5594926166.2523088     
   5422013376.6828909     
   5250552076.9018364     
   5574371235.0091734     
   5412923744.1646729     
   5252509577.2300625     
   5093186628.0278034     
   4935085108.4876556     
   5211430456.2558842     
   5069785584.7862215     
   4929466493.7157173     
   4790565125.4041014     
   4653359103.2710905     
   5965485638.6294785     
   5792118795.1652212     
   5617260911.5823765     
   5440820126.4325943     
   5262757679.0303583     
   5595305819.3357372     
   5431679495.7595406     
   5267435540.8358631     
   5102566923.3031845     
   4937109986.9429045     
   5250552076.9018364     
   5096600396.6233921     
   4942964641.9204264     
   4789709184.6892033     
   4636935337.8145504     
   4935085108.4876556     
   4790740323.1683712     
   4647666534.6696796     
   4505980842.1335068     
   4365834528.9295073     
   4653359103.2710905     
   4518519700.5233173     
   4385878745.2358580     
   4255581556.7921419     
   4127809367.8843746     
   5262757679.0303583     
   5063930860.1837988     
   4865959874.6165504     
   4668804083.5672903     
   4472471770.2821302     
   4937109986.9429045     
   4750481028.5491686     
   4564912634.2291336     
   4380428625.3448296     
   4197110343.6552310     
   4636935337.8145504     
   4463446089.9488888     
   4291361392.6854553     
   4120789292.3196540     
   3951908850.5639405     
   4365834528.9295073     
   4206738743.3367429     
   4049559005.6337447     
   3894507053.0076632     
   3741882809.3847351     
   4127809367.8843746     
   3984660540.5099411     
   3844121205.8022504     
   3706519874.8588085     
   3572290816.6411300     
   4472471770.2821302     
   4311616773.8864489     
   4150228458.4963727     
   3988298507.9409251     
   3825825911.5160608     
   4197110343.6552310     
   4039566486.9551215     
   3881843321.9958539     
   3723939135.7276616     
   3565866868.4562020     
   3951908850.5639405     
   3801886946.7293115     
   3652548699.9331799     
   3503983480.8660736     
   3356325062.2529044     
   3741882809.3847351     
   3603700522.2955747     
   3467620388.0573735     
   3333899458.2860613     
   3202884890.1837888     
   3572290816.6411300     
   3450095205.9915018     
   3331940218.7754288     
   3218284197.6874094     
   3109718044.7365155     
   3825825911.5160608     
   3634128851.2213655     
   3444882502.1271214     
   3258871913.1380100     
   3077185091.8034468     
   3565866868.4562020     
   3362416498.9363084     
   3159665871.4403019     
   2957748382.9724741     
   2756852564.0841246     
   3356325062.2529044     
   3156299033.1274672     
   2957561712.0863361     
   2760250216.2961545     
   2564573217.9101715     
   3202884890.1837888     
   3022456062.1747241     
   2846761306.4158454     
   2676799415.7872329     
   2513995067.9387293     
   3109718044.7365155     
   2964460571.7598090     
   2829836340.1603203     
   2708081799.4789891     
   2602158687.5268130     
   5657837541.3744936     
   5890951323.0703096     
   6116426926.3259306     
   6331803850.5110369     
   6536857795.2936907     
   5151502718.3245945     
   5311396418.1887350     
   5467924274.0709820     
   5618189783.6437454     
   5760726233.3758678     
   4643541504.4546595     
   4755623532.9449301     
   4868832820.3004074     
   4980534140.5283098     
   5088801734.8746853     
   4134217053.4796429     
   4224469664.2200246     
   4320646984.2467537     
   4421092654.2575254     
   4524352339.4545784     
   3625049020.2244697     
   3719758388.5650048     
   3825723735.0506816     
   3942882407.2578797     
   4071142574.3781934     
   6536857795.2936907     
   6328854096.9941645     
   6143067247.2270832     
   5965587668.6988468     
   5787406823.2930183     
   5760726233.3758678     
   5652393579.2105064     
   5560081866.6152954     
   5474729539.5055342     
   5390795378.7479315     
   5088801734.8746853     
   5054352404.9576139     
   5030420411.2868929     
   5011799101.2844648     
   4995285933.4661436     
   4524352339.4545784     
   4539325056.0957994     
   4558952603.8870649     
   4580754197.8551216     
   4603005195.4182758     
   4071142574.3781934     
   4112640318.8294215     
   4151449004.8593712     
   4186668388.4341822     
   4217565512.3363371     
   5787406823.2930183     
   5637130522.0829163     
   5491075712.6539488     
   5349158939.6506157     
   5211430456.2558842     
   5390795378.7479315     
   5249933775.8336697     
   5112299254.8715696     
   4977933945.7688646     
   4846932046.5535727     
   4995285933.4661436     
   4868162446.0220852     
   4744207632.9367504     
   4623387605.4965839     
   4505740463.8554277     
   4603005195.4182758     
   4494501558.8810759     
   4390160328.9587688     
   4289659825.1597824     
   4192904195.7660623     
   4217565512.3363371     
   4132947700.0546703     
   4054717812.9021711     
   3982017771.8072715     
   3914543296.4253120     
   5211430456.2558842     
   5069785584.7862215     
   4929466493.7157173     
   4790565125.4041014     
   4653359103.2710905     
   4846932046.5535727     
   4724380884.8537064     
   4603882706.7469521     
   4485596050.4168091     
   4369812813.9913530     
   4505740463.8554277     
   4399308554.1757917     
   4295448999.9436560     
   4194344184.0827031     
   4096261332.9111829     
   4192904195.7660623     
   4099542453.8083777     
   4008989309.2225504     
   3921415729.6589808     
   3837038155.0297284     
   3914543296.4253120     
   3831171641.7377648     
   3750483464.4201593     
   3672612756.9668202     
   3597714184.5481243     
   4653359103.2710905     
   4518519700.5233173     
   4385878745.2358580     
   4255581556.7921419     
   4127809367.8843746     
   4369812813.9913530     
   4243528879.6807661     
   4119847990.3894029     
   3998972932.5446334     
   3881155109.7795444     
   4096261332.9111829     
   3980296974.0748930     
   3867611283.1874466     
   3758461534.2275896     
   3653171772.7843313     
   3837038155.0297284     
   3733083232.4203243     
   3633379358.5059304     
   3538229737.9920511     
   3448026539.2899761     
   3597714184.5481243     
   3507248066.9405808     
   3422320701.5937047     
   3343261577.3719349     
   3270512840.8054724     
   4127809367.8843746     
   3984660540.5099411     
   3844121205.8022504     
   3706519874.8588085     
   3572290816.6411300     
   3881155109.7795444     
   3751655481.7238097     
   3625442244.0581279     
   3502879972.5990095     
   3384433664.6834879     
   3653171772.7843313     
   3536984284.0010395     
   3424754613.2326074     
   3316868667.2676158     
   3213803180.5965714     
   3448026539.2899761     
   3344717398.0017262     
   3246006531.0299497     
   3152282474.6375561     
   3064010901.9651947     
   3270512840.8054724     
   3179498388.3087215     
   3093657702.3742318     
   3013360265.7961349     
   2939035938.8036528     
   3572290816.6411300     
   3450095205.9915018     
   3331940218.7754288     
   3218284197.6874094     
   3109718044.7365155     
   3384433664.6834879     
   3275643598.0982761     
   3170872405.5646324     
   3070515147.8396401     
   2975064715.7118144     
   3213803180.5965714     
   3116478514.4827428     
   3023000144.0697784     
   2933702602.1589599     
   2848989725.4687772     
   3064010901.9651947     
   2976356311.1810689     
   2892210097.6479306     
   2811850392.0280089     
   2735602648.5417418     
   2939035938.8036528     
   2859484540.1382132     
   2782930451.8116784     
   2709600242.8416095     
   2639752404.0237141     
   3109718044.7365155     
   2964460571.7598090     
   2829836340.1603203     
   2708081799.4789891     
   2602158687.5268130     
   2975064715.7118144     
   2852022454.6650877     
   2737311627.5506363     
   2632215517.6539221     
   2538363120.9079423     
   2848989725.4687772     
   2738608460.4198122     
   2633688090.3473415     
   2534862862.1194901     
   2442900888.2254992     
   2735602648.5417418     
   2629057444.4500890     
   2524452837.9312210     
   2422006859.2687979     
   2321973181.4654865     
   2639752404.0237141     
   2529603015.4304266     
   2417208837.3839474     
   2302512401.4299927     
   2185469306.9388866     
   3625049020.2244697     
   3719758388.5650048     
   3825723735.0506816     
   3942882407.2578797     
   4071142574.3781934     
   3138013904.5812473     
   3255567501.4881167     
   3382540027.0463505     
   3518463134.5729222     
   3662879674.1306338     
   2694777101.3060217     
   2830561987.7682486     
   2973658149.1996970     
   3122983620.8807678     
   3277627678.0610871     
   2298825631.1042094     
   2449532499.2172666     
   2604958726.2935796     
   2763181391.0541525     
   2922770437.3959823     
   1955365234.0396762     
   2119430925.0103290     
   2284849449.9131408     
   2448659151.4303813     
   2608900797.4314532     
   4071142574.3781934     
   4112640318.8294215     
   4151449004.8593712     
   4186668388.4341822     
   4217565512.3363371     
   3662879674.1306338     
   3702263358.1616020     
   3740242772.8183484     
   3775916593.8822193     
   3808533614.5335851     
   3277627678.0610871     
   3320809238.0240760     
   3364228985.0634809     
   3407062370.0544815     
   3448630011.8717918     
   2922770437.3959823     
   2975657690.3049326     
   3030786455.3160310     
   3087474833.1090312     
   3145190234.2880812     
   2608900797.4314532     
   2676851769.9783521     
   2749354552.0220461     
   2825903046.9474277     
   2906146532.3453307     
   4217565512.3363371     
   4132947700.0546703     
   4054717812.9021711     
   3982017771.8072715     
   3914543296.4253120     
   3808533614.5335851     
   3755311322.1979871     
   3708019610.1536112     
   3666181715.4566889     
   3629699466.4425340     
   3448630011.8717918     
   3422360564.4676280     
   3401199380.0147715     
   3384918177.7950950     
   3373503538.8206434     
   3145190234.2880812     
   3141681710.2266874     
   3141879985.9001174     
   3145688193.2031431     
   3153096822.9081016     
   2906146532.3453307     
   2921504473.0088968     
   2938401769.4399719     
   2956788653.2254486     
   2976630983.2927504     
   3914543296.4253120     
   3831171641.7377648     
   3750483464.4201593     
   3672612756.9668202     
   3597714184.5481243     
   3629699466.4425340     
   3556434794.0269732     
   3487056314.3762617     
   3421761527.3443422     
   3360781888.6042485     
   3373503538.8206434     
   3313001912.4543490     
   3257917862.4871316     
   3208495312.6902394     
   3165027115.1692114     
   3153096822.9081016     
   3107486795.6747036     
   3069126930.2352858     
   3038266647.3354297     
   3015217970.0134964     
   2976630983.2927504     
   2947058171.7950945     
   2926812828.3429275     
   2916087482.2589412     
   2915150054.2288055     
   3597714184.5481243     
   3507248066.9405808     
   3422320701.5937047     
   3343261577.3719349     
   3270512840.8054724     
   3360781888.6042485     
   3289201370.4679251     
   3223475630.5515924     
   3163925332.3150821     
   3110948092.9888239     
   3165027115.1692114     
   3111108143.1575432     
   3063126404.4878097     
   3021357581.2459288     
   2986121148.1784582     
   3015217970.0134964     
   2977537584.2886214     
   2945579572.1709604     
   2919549741.3459873     
   2899672171.2257705     
   2915150054.2288055     
   2892029666.0170636     
   2874084873.9413896     
   2861444251.5235581     
   2854239624.9568467     
   3270512840.8054724     
   3179498388.3087215     
   3093657702.3742318     
   3013360265.7961349     
   2939035938.8036528     
   3110948092.9888239     
   3034267153.6940823     
   2963806861.5748725     
   2899962330.2684574     
   2843181396.8000269     
   2986121148.1784582     
   2924416814.7652864     
   2869990139.1173511     
   2823221417.4532704     
   2784529832.8319287     
   2899672171.2257705     
   2852917052.2861476     
   2814440531.8282580     
   2784566605.3965616     
   2763643022.8949718     
   2854239624.9568467     
   2821565969.4196358     
   2798074920.9606895     
   2784004930.3685260     
   2779607068.2882009     
   2939035938.8036528     
   2859484540.1382132     
   2782930451.8116784     
   2709600242.8416095     
   2639752404.0237141     
   2843181396.8000269     
   2777446884.4751205     
   2716578675.5830755     
   2660881663.1695986     
   2610691868.4876461     
   2784529832.8319287     
   2734384360.5183029     
   2691015457.3644152     
   2654750555.8813548     
   2625936584.9770660     
   2763643022.8949718     
   2729612269.1427298     
   2704179255.8608451     
   2687631284.7625523     
   2680261232.3330431     
   2779607068.2882009     
   2760894476.9035764     
   2752466367.6907430     
   2754527643.3162718     
   2767281228.5066133     
   2639752404.0237141     
   2529603015.4304266     
   2417208837.3839474     
   2302512401.4299927     
   2185469306.9388866     
   2610691868.4876461     
   2518639526.5021000     
   2430922991.6651077     
   2347966099.8370867     
   2270232900.8132324     
   2625936584.9770660     
   2560284750.4696407     
   2505926897.2004752     
   2463592777.4066868     
   2433997989.1403403     
   2680261232.3330431     
   2645017606.3884759     
   2627556410.0789957     
   2628591651.0617361     
   2648761408.5191765     
   2767281228.5066133     
   2762828495.5058222     
   2782156846.9110918     
   2825782423.6497121     
   2894155476.3629961     
   1955365234.0396762     
   2119430925.0103290     
   2284849449.9131408     
   2448659151.4303813     
   2608900797.4314532     
   1653871926.0133224     
   1820315467.3721843     
   1988453222.1612291     
   2155587712.6513414     
   2319960206.7032237     
   1393670066.9570680     
   1571027179.3973062     
   1749386692.5006783     
   1926744203.9628747     
   2101848919.3021200     
   1207085619.6959004     
   1399000248.9999039     
   1590489288.9273627     
   1780775672.2027338     
   1969400670.4661026     
   1136830788.5217826     
   1335110865.0310960     
   1533695962.4266129     
   1732586080.7083335     
   1931781219.8762562     
   2608900797.4314532     
   2676851769.9783521     
   2749354552.0220461     
   2825903046.9474277     
   2906146532.3453307     
   2319960206.7032237     
   2407030917.8453755     
   2496561528.7521391     
   2588164029.9733672     
   2681564217.7701392     
   2101848919.3021200     
   2205591609.4188886     
   2309235123.8286514     
   2412544158.7521753     
   2515352555.4362669     
   1969400670.4661026     
   2086499554.6466498     
   2200708358.2746787     
   2311952347.7032070     
   2420179592.6959743     
   1931781219.8762562     
   2058356369.2420504     
   2179439777.1937838     
   2295031443.7314558     
   2405131368.8550673     
   2906146532.3453307     
   2921504473.0088968     
   2938401769.4399719     
   2956788653.2254486     
   2976630983.2927504     
   2681564217.7701392     
   2703726785.8984847     
   2728366701.0626531     
   2755469158.3386946     
   2785028780.6255660     
   2515352555.4362669     
   2544046976.8696480     
   2576171057.4899025     
   2611726900.3888173     
   2650720700.7731838     
   2420179592.6959743     
   2453732105.6197877     
   2491659247.4567080     
   2533964227.6158738     
   2580651142.4298553     
   2405131368.8550673     
   2440409279.0664082     
   2480992213.2400727     
   2526880171.3760614     
   2578073153.4743733     
   2976630983.2927504     
   2947058171.7950945     
   2926812828.3429275     
   2916087482.2589412     
   2915150054.2288055     
   2785028780.6255660     
   2770215950.9271345     
   2763613007.7357001     
   2765315975.6153212     
   2775457901.8950381     
   2650720700.7731838     
   2646522346.0028605     
   2649064164.5583501     
   2658378974.2750263     
   2674513669.5045223     
   2580651142.4298553     
   2583071381.2005901     
   2590438010.2980189     
   2602756091.1364875     
   2620033665.0319524     
   2578073153.4743733     
   2583755891.8917646     
   2592343647.8345766     
   2603836421.3028045     
   2618234212.2964559     
   2915150054.2288055     
   2892029666.0170636     
   2874084873.9413896     
   2861444251.5235581     
   2854239624.9568467     
   2775457901.8950381     
   2756248871.1761489     
   2743358363.6589899     
   2736887699.3511782     
   2736940444.8036227     
   2674513669.5045223     
   2657816792.9728150     
   2648624084.3740673     
   2646995277.1697264     
   2652991321.3586235     
   2620033665.0319524     
   2603482243.7468910     
   2595631690.8981037     
   2596500720.2140703     
   2606108466.6021295     
   2618234212.2964559     
   2598578253.8536000     
   2588787059.6392369     
   2588860629.6533699     
   2598798963.8959985     
   2854239624.9568467     
   2821565969.4196358     
   2798074920.9606895     
   2784004930.3685260     
   2779607068.2882009     
   2736940444.8036227     
   2713336377.7626362     
   2698631946.4107862     
   2692962649.4527669     
   2696469174.3429694     
   2652991321.3586235     
   2635679817.4739385     
   2626908598.3078518     
   2626736742.7268796     
   2635225037.1823454     
   2606108466.6021295     
   2592074421.3057351     
   2586157917.8640552     
   2588372973.2490449     
   2598733966.6298943     
   2598798963.8959985     
   2584986471.2179475     
   2578814248.8989606     
   2580282296.9390354     
   2589390615.3381672     
   2779607068.2882009     
   2760894476.9035764     
   2752466367.6907430     
   2754527643.3162718     
   2767281228.5066133     
   2696469174.3429694     
   2682653691.2692046     
   2677746874.4012485     
   2681844652.9579725     
   2695042401.5101247     
   2635225037.1823454     
   2623353304.3852291     
   2619031057.5508118     
   2622292019.4222207     
   2633170013.9363933     
   2598733966.6298943     
   2586161408.2970486     
   2579778791.0149536     
   2579592315.2351127     
   2585608280.8655286     
   2589390615.3381672     
   2573968473.3195095     
   2563360566.1726437     
   2557566893.8975806     
   2556587456.4943085     
   2767281228.5066133     
   2762828495.5058222     
   2782156846.9110918     
   2825782423.6497121     
   2894155476.3629961     
   2695042401.5101247     
   2691695182.8042574     
   2705040650.9855046     
   2735250497.8911071     
   2782490348.1301947     
   2633170013.9363933     
   2624822564.3572798     
   2626610551.2163301     
   2638565356.5406651     
   2660720426.3636575     
   2585608280.8655286     
   2567745221.3565993     
   2553554225.2199674     
   2543036742.9039922     
   2536194451.1828122     
   2556587456.4943085     
   2527010579.3272376     
   2494550349.9599357     
   2459206768.3924084     
   2420979834.6246543     
   1136830788.5217826     
   1335110865.0310960     
   1533695962.4266129     
   1732586080.7083335     
   1931781219.8762562     
   1207085619.5730839     
   1399000248.8763249     
   1590489288.7997119     
   1780775672.0679095     
   1969400670.3212152     
   1393670066.7583067     
   1571027179.1919422     
   1749386692.2840245     
   1926744203.7299206     
   2101848919.0478625     
   1653871925.7862101     
   1820315467.1337671     
   1988453221.9057484     
   2155587712.3722863     
   2319960206.3938837     
   1955365233.8179603     
   2119430924.7783968     
   2284849449.6639242     
   2448659151.1559205     
   2608900797.1235666     
   1931781219.8762562     
   2058356369.2420504     
   2179439777.1937838     
   2295031443.7314558     
   2405131368.8550673     
   1969400670.3212152     
   2086499554.4732008     
   2200708358.0694709     
   2311952347.4629822     
   2420179592.4174390     
   2101848919.0478625     
   2205591609.1123748     
   2309235123.4636879     
   2412544158.3224192     
   2515352554.9352746     
   2319960206.3938837     
   2407030917.4686694     
   2496561528.2988591     
   2588164029.4339986     
   2681564217.1349249     
   2608900797.1235666     
   2676851769.5986919     
   2749354551.5583940     
   2825903046.3869638     
   2906146531.6746998     
   2405131368.8550673     
   2440409279.0664082     
   2480992213.2400727     
   2526880171.3760614     
   2578073153.4743733     
   2420179592.4174390     
   2453732105.2898746     
   2491659247.0651822     
   2533964227.1525841     
   2580651141.8846626     
   2515352554.9352746     
   2544046976.2806883     
   2576171056.7923903     
   2611726899.5621691     
   2650720699.7966695     
   2681564217.1349249     
   2703726785.1629448     
   2728366700.1962266     
   2755469157.3105574     
   2785028779.4044156     
   2906146531.6746998     
   2921504472.2550011     
   2938401768.5635095     
   2956788652.1865191     
   2976630982.0505848     
   2578073153.4743733     
   2583755891.8917646     
   2592343647.8345766     
   2603836421.3028045     
   2618234212.2964559     
   2580651141.8846626     
   2583071380.7089176     
   2590438009.8588004     
   2602756090.7482224     
   2620033664.6920910     
   2650720699.7966695     
   2646522345.1054306     
   2649064163.7352157     
   2658378973.5206304     
   2674513668.8115716     
   2785028779.4044156     
   2770215949.7864628     
   2763613006.6638741     
   2765315974.5995884     
   2775457900.9205217     
   2976630982.0505848     
   2947058170.6181931     
   2926812827.2093258     
   2916087481.1448655     
   2915150053.1079149     
   2618234212.2964559     
   2598578253.8536000     
   2588787059.6392369     
   2588860629.6533699     
   2598798963.8959985     
   2620033664.6920910     
   2603482243.2848406     
   2595631690.3443475     
   2596500719.5986023     
   2606108465.9547253     
   2674513668.8115716     
   2657816792.0088444     
   2648624083.1992555     
   2646995275.8442430     
   2652991319.9431419     
   2775457900.9205217     
   2756248869.7381010     
   2743358361.8453331     
   2736887697.2514729     
   2736940442.5097461     
   2915150053.1079149     
   2892029664.1856208     
   2874084871.5122719     
   2861444248.6138406     
   2854239621.6886501     
   2598798963.8959985     
   2584986471.2179475     
   2578814248.8989606     
   2580282296.9390354     
   2589390615.3381672     
   2606108465.9547253     
   2592074420.8213329     
   2586157917.5534806     
   2588372973.1223798     
   2598733966.6964931     
   2652991319.9431419     
   2635679816.3930836     
   2626908597.5868368     
   2626736742.3895221     
   2635225037.2509451     
   2736940442.5097461     
   2713336375.9675331     
   2698631945.1585102     
   2692962648.7858796     
   2696469174.3021011     
   2854239621.6886501     
   2821565966.7932835     
   2798074919.0438032     
   2784004929.2281561     
   2779607067.9898639     
   2589390615.3381672     
   2573968473.3195095     
   2563360566.1726437     
   2557566893.8975806     
   2556587456.4943085     
   2598733966.6964931     
   2586161408.5965629     
   2579778791.5310755     
   2579592315.9507065     
   2585608281.7627268     
   2635225037.2509451     
   2623353304.9106202     
   2619031058.4990568     
   2622292020.7576365     
   2633170015.6217227     
   2696469174.3021011     
   2682653691.9015465     
   2677746875.6555014     
   2681844654.7798958     
   2695042403.8427439     
   2779607067.9898639     
   2760894477.4901643     
   2752466369.0952740     
   2754527645.4670453     
   2767281231.3275442     
   2556587456.4943085     
   2527010579.3272376     
   2494550349.9599357     
   2459206768.3924084     
   2420979834.6246543     
   2585608281.7627268     
   2567745221.9370151     
   2553554225.4718657     
   2543036742.8190007     
   2536194450.7563782     
   2633170015.6217227     
   2624822565.3579683     
   2626610551.4988313     
   2638565356.0779624     
   2660720425.1366630     
   2695042403.8427439     
   2691695184.0483007     
   2705040651.0742579     
   2735250496.7681155     
   2782490345.7525554     
   2767281231.3275442     
   2762828496.8124347     
   2782156846.5881224     
   2825782421.5974092     
   2894155472.5042725     
   1955365233.8179603     
   2119430924.7783968     
   2284849449.6639242     
   2448659151.1559205     
   2608900797.1235666     
   2298825630.9088640     
   2449532499.0210547     
   2604958726.0917482     
   2763181390.8415093     
   2922770437.1672506     
   2694777101.1492252     
   2830561987.6199594     
   2973658149.0571971     
   3122983620.7411890     
   3277627677.9215508     
   3138013904.4711418     
   3255567501.3944945     
   3382540026.9683313     
   3518463134.5096564     
   3662879674.0813079     
   3625049020.1670427     
   3719758388.5297933     
   3825723735.0385275     
   3942882407.2697797     
   4071142574.4152188     
   2608900797.1235666     
   2676851769.5986919     
   2749354551.5583940     
   2825903046.3869638     
   2906146531.6746998     
   2922770437.1672506     
   2975657690.0283966     
   3030786454.9815550     
   3087474832.7059155     
   3145190233.8050919     
   3277627677.9215508     
   3320809237.8624568     
   3364228984.8722324     
   3407062369.8257189     
   3448630011.5972943     
   3662879674.0813079     
   3702263358.1155968     
   3740242772.7708769     
   3775916593.8284602     
   3808533614.4686856     
   4071142574.4152188     
   4112640318.8935361     
   4151449004.9483867     
   4186668388.5461578     
   4217565512.4695878     
   2906146531.6746998     
   2921504472.2550011     
   2938401768.5635095     
   2956788652.1865191     
   2976630982.0505848     
   3145190233.8050919     
   3141681709.7397470     
   3141879985.3790388     
   3145688192.6167254     
   3153096822.2235045     
   3448630011.5972943     
   3422360564.2641702     
   3401199379.8598871     
   3384918177.6649442     
   3373503538.6891623     
   3808533614.4686856     
   3755311322.2691288     
   3708019610.3446751     
   3666181715.7499676     
   3629699466.8178530     
   4217565512.4695878     
   4132947700.3757720     
   4054717813.4000769     
   3982017772.4692497     
   3914543297.2362509     
   2976630982.0505848     
   2947058170.6181931     
   2926812827.2093258     
   2916087481.1448655     
   2915150053.1079149     
   3153096822.2235045     
   3107486795.1166139     
   3069126929.7904754     
   3038266646.9898529     
   3015217969.7525277     
   3373503538.6891623     
   3313001912.4450274     
   3257917862.5897241     
   3208495312.8946233     
   3165027115.4661651     
   3629699466.8178530     
   3556434794.4607706     
   3487056314.8555574     
   3421761527.8569169     
   3360781889.1394157     
   3914543297.2362509     
   3831171642.4917893     
   3750483465.0964780     
   3672612757.5457454     
   3597714185.0113306     
   2915150053.1079149     
   2892029664.1856208     
   2874084871.5122719     
   2861444248.6138406     
   2854239621.6886501     
   3015217969.7525277     
   2977537583.2319622     
   2945579570.4025288     
   2919549738.9534969     
   2899672168.3021994     
   3165027115.4661651     
   3111108142.5880980     
   3063126403.1139851     
   3021357579.1330338     
   2986121145.3967900     
   3360781889.1394157     
   3289201370.0862174     
   3223475629.3002772     
   3163925330.2444558     
   3110948090.1537075     
   3597714185.0113306     
   3507248066.4600801     
   3422320700.2082753     
   3343261575.1237741     
   3270512837.7411237     
   2854239621.6886501     
   2821565966.7932835     
   2798074919.0438032     
   2784004929.2281561     
   2779607067.9898639     
   2899672168.3021994     
   2852917050.0929928     
   2814440530.4298072     
   2784566604.8567448     
   2763643023.2760220     
   2986121145.3967900     
   2924416812.8058033     
   2869990138.0464745     
   2823221417.3376002     
   2784529833.7366571     
   3110948090.1537075     
   3034267151.7762246     
   2963806860.6466393     
   2899962330.4032855     
   2843181398.0708232     
   3270512837.7411237     
   3179498386.2606130     
   3093657701.4228539     
   3013360266.0240827     
   2939035940.2943158     
   2779607067.9898639     
   2760894477.4901643     
   2752466369.0952740     
   2754527645.4670453     
   2767281231.3275442     
   2763643023.2760220     
   2729612270.4703531     
   2704179258.0774980     
   2687631287.8050666     
   2680261236.1327405     
   2784529833.7366571     
   2734384362.4108510     
   2691015460.1976123     
   2654750559.6024752     
   2625936589.5276575     
   2843181398.0708232     
   2777446886.7460351     
   2716578678.8166695     
   2660881667.3241067     
   2610691873.5168567     
   2939035940.2943158     
   2859484542.6069670     
   2782930455.2278991     
   2709600247.1724811     
   2639752409.2344484     
   2767281231.3275442     
   2762828496.8124347     
   2782156846.5881224     
   2825782421.5974092     
   2894155472.5042725     
   2680261236.1327405     
   2645017608.2644548     
   2627556409.8973904     
   2628591648.7039275     
   2648761403.8919158     
   2625936589.5276575     
   2560284752.7843275     
   2505926897.1305385     
   2463592774.8146381     
   2433997983.9103303     
   2610691873.5168567     
   2518639529.0738654     
   2430922991.6357942     
   2347966097.0701065     
   2270232895.1848826     
   2639752409.2344484     
   2529603018.0338163     
   2417208837.2753296     
   2302512398.5183740     
   2185469301.1465521     
   3625049020.1670427     
   3719758388.5297933     
   3825723735.0385275     
   3942882407.2697797     
   4071142574.4152188     
   4134217053.4743314     
   4224469664.2422600     
   4320646984.2993107     
   4421092654.3429384     
   4524352339.5751848     
   4643541504.4954119     
   4755623533.0163927     
   4868832820.4066620     
   4980534140.6725225     
   5088801735.0592470     
   5151502718.4058504     
   5311396418.3016443     
   5467924274.2203856     
   5618189783.8327332     
   5760726233.6059818     
   5657837541.4912825     
   5890951323.2173414     
   6116426926.5084085     
   6331803850.7315321     
   6536857795.5524187     
   4071142574.4152188     
   4112640318.8935361     
   4151449004.9483867     
   4186668388.5461578     
   4217565512.4695878     
   4524352339.5751848     
   4539325056.2640200     
   4558952604.1049833     
   4580754198.1242208     
   4603005195.7391148     
   5088801735.0592470     
   5054352405.1962690     
   5030420411.5848608     
   5011799101.6461706     
   4995285933.8947392     
   5760726233.6059818     
   5652393579.4871521     
   5560081866.9454355     
   5474729539.8956642     
   5390795379.2036266     
   6536857795.5524187     
   6328854097.2783365     
   6143067247.5437880     
   5965587669.0552235     
   5787406823.6959496     
   4217565512.4695878     
   4132947700.3757720     
   4054717813.4000769     
   3982017772.4692497     
   3914543297.2362509     
   4603005195.7391148     
   4494501559.4272747     
   4390160329.7263756     
   4289659826.1442780     
   4192904196.9622531     
   4995285933.8947392     
   4868162446.6882114     
   4744207633.8410540     
   4623387606.6398239     
   4505740465.2386217     
   5390795379.2036266     
   5249933776.5145044     
   5112299255.7806768     
   4977933946.9098797     
   4846932047.9307327     
   5787406823.6959496     
   5637130522.6752996     
   5491075713.4397888     
   5349158940.6347857     
   5211430457.4439068     
   3914543297.2362509     
   3831171642.4917893     
   3750483465.0964780     
   3672612757.5457454     
   3597714185.0113306     
   4192904196.9622531     
   4099542454.8444014     
   4008989310.0605760     
   3921415730.2615952     
   3837038155.3613334     
   4505740465.2386217     
   4399308555.3265257     
   4295449000.8115053     
   4194344184.6164598     
   4096261333.0610161     
   4846932047.9307327     
   4724380885.9580708     
   4603882707.5195866     
   4485596050.7964277     
   4369812813.9168987     
   5211430457.4439068     
   5069785585.6927185     
   4929466494.2768402     
   4790565125.5519142     
   4653359102.9362869     
   3597714185.0113306     
   3507248066.4600801     
   3422320700.2082753     
   3343261575.1237741     
   3270512837.7411237     
   3837038155.3613334     
   3733083231.8057165     
   3633379356.9691954     
   3538229735.5582476     
   3448026535.9853983     
   4096261333.0610161     
   3980296973.3221374     
   3867611281.5479074     
   3758461531.7157416     
   3653171769.4131169     
   4369812813.9168987     
   4243528878.7936044     
   4119847988.7028747     
   3998972930.0686970     
   3881155106.5203700     
   4653359102.9362869     
   4518519699.5108137     
   4385878743.5617428     
   4255581554.4672203     
   4127809364.9138455     
   3270512837.7411237     
   3179498386.2606130     
   3093657701.4228539     
   3013360266.0240827     
   2939035940.2943158     
   3448026535.9853983     
   3344717395.7292123     
   3246006529.8911228     
   3152282474.7406607     
   3064010903.4240584     
   3653171769.4131169     
   3536984281.6328478     
   3424754611.9837527     
   3316868667.2653837     
   3213803181.9788375     
   3881155106.5203700     
   3751655479.3965158     
   3625442242.7876272     
   3502879972.5250211     
   3384433665.9610100     
   4127809364.9138455     
   3984660538.3611588     
   3844121204.6033640     
   3706519874.7558408     
   3572290817.7993622     
   2939035940.2943158     
   2859484542.6069670     
   2782930455.2278991     
   2709600247.1724811     
   2639752409.2344484     
   3064010903.4240584     
   2976356313.5913773     
   2892210100.9793844     
   2811850396.2476707     
   2735602653.6139650     
   3213803181.9788375     
   3116478516.7946267     
   3023000147.2815819     
   2933702606.2376904     
   2848989730.3778453     
   3384433665.9610100     
   3275643600.2894130     
   3170872408.6407080     
   3070515151.7679543     
   2975064720.4549985     
   3572290817.7993622     
   3450095208.0533504     
   3331940221.7138309     
   3218284201.4704494     
   3109718049.3264265     
   2639752409.2344484     
   2529603018.0338163     
   2417208837.2753296     
   2302512398.5183740     
   2185469301.1465521     
   2735602653.6139650     
   2629057446.6770554     
   2524452837.0622821     
   2422006855.0541568     
   2321973173.6601872     
   2848989730.3778453     
   2738608462.3118062     
   2633688088.7998581     
   2534862856.6808219     
   2442900878.4230943     
   2975064720.4549985     
   2852022456.3393064     
   2737311625.5276203     
   2632215511.2177510     
   2538363109.2671208     
   3109718049.3264265     
   2964460573.3864737     
   2829836337.9466772     
   2708081792.3602853     
   2602158674.2623596     
   5657837541.4912825     
   5890951323.2173414     
   6116426926.5084085     
   6331803850.7315321     
   6536857795.5524187     
   6491660324.8021564     
   6586867468.5326786     
   6757413406.1236038     
   6961211796.8284950     
   7171600417.0126686     
   7982360301.3296385     
   7734932938.5063887     
   7669088938.2345381     
   7669509587.7580366     
   7666259568.0001726     
   10130383264.347591     
   9321988474.0256062     
   8826265309.7065105     
   8443359082.8608131     
   8035451296.5365238     
   12935814997.890724     
   11340746921.134554     
   10210108596.082748     
   9272530572.5968437     
   8303553318.5883570     
   6536857795.5524187     
   6328854097.2783365     
   6143067247.5437880     
   5965587669.0552235     
   5787406823.6959496     
   7171600417.0126686     
   6910936946.3707705     
   6658187735.4978428     
   6409495407.2352810     
   6161715359.4576044     
   7666259568.0001726     
   7380951434.3474941     
   7101044109.0980864     
   6826616461.4851332     
   6557873723.5482960     
   8035451296.5365238     
   7746554459.1456289     
   7473338947.0544033     
   7213843113.0654411     
   6968074673.8570938     
   8303553318.5883570     
   8020314919.4414282     
   7779210079.5049067     
   7569540483.6810579     
   7386329276.8514681     
   5787406823.6959496     
   5637130522.6752996     
   5491075713.4397888     
   5349158940.6347857     
   5211430457.4439068     
   6161715359.4576044     
   6012807784.8520136     
   5865251004.1343126     
   5719085749.0206356     
   5574371235.7193365     
   6557873723.5482960     
   6407102606.9955368     
   6254697201.0689621     
   6100626701.7140493     
   5944924342.6551218     
   6968074673.8570938     
   6813564663.2738371     
   6654407525.3158197     
   6490317706.0143166     
   6321248135.3590679     
   7386329276.8514681     
   7227198363.8639708     
   7060494539.2969666     
   6885514183.7602634     
   6702071435.8714876     
   5211430457.4439068     
   5069785585.6927185     
   4929466494.2768402     
   4790565125.5519142     
   4653359102.9362869     
   5574371235.7193365     
   5412923744.6165962     
   5252509577.3797321     
   5093186627.8278770     
   4935085107.8878641     
   5944924342.6551218     
   5769237582.6247864     
   5594926165.8584394     
   5422013375.9953032     
   5250552075.8901844     
   6321248135.3590679     
   6136379086.2589035     
   5953782854.1847754     
   5773422877.3130245     
   5595305817.7272501     
   6702071435.8714876     
   6512544090.1509275     
   6326686473.8981276     
   6144350077.7848186     
   5965485636.2123518     
   4653359102.9362869     
   4518519699.5108137     
   4385878743.5617428     
   4255581554.4672203     
   4127809364.9138455     
   4935085107.8878641     
   4790740322.1961508     
   4647666533.3236179     
   4505980840.4069996     
   4365834526.8087320     
   5250552075.8901844     
   5096600395.6901045     
   4942964641.0614481     
   4789709183.8970623     
   4636935337.0748882     
   5595305817.7272501     
   5431679494.8282366     
   5267435540.5868921     
   5102566923.7421465     
   4937109988.0712376     
   5965485636.2123518     
   5792118794.1723633     
   5617260912.0367546     
   5440820128.3635340     
   5262757682.4683952     
   4127809364.9138455     
   3984660538.3611588     
   3844121204.6033640     
   3706519874.7558408     
   3572290817.7993622     
   4365834526.8087320     
   4206738741.8115792     
   4049559004.7799363     
   3894507052.9157839     
   3741882810.1625667     
   4636935337.0748882     
   4463446089.6201248     
   4291361392.7942491     
   4120789292.9034972     
   3951908851.6733556     
   4937109988.0712376     
   4750481029.9627714     
   4564912635.9118929     
   4380428627.2876511     
   4197110345.8571434     
   5262757682.4683952     
   5063930863.8515453     
   4865959878.4627285     
   4668804087.5445337     
   4472471774.3466005     
   3572290817.7993622     
   3450095208.0533504     
   3331940221.7138309     
   3218284201.4704494     
   3109718049.3264265     
   3741882810.1625667     
   3603700523.5859103     
   3467620389.9379058     
   3333899460.8441300     
   3202884893.5230308     
   3951908851.6733556     
   3801886947.4568586     
   3652548700.3845663     
   3503983481.1580300     
   3356325062.5231042     
   4197110345.8571434     
   4039566487.3679309     
   3881843320.6871929     
   3723939132.7631164     
   3565866863.9065790     
   4472471774.3466005     
   4311616774.2485962     
   4150228455.1356621     
   3988298500.8110871     
   3825825900.5455036     
   3109718049.3264265     
   2964460573.3864737     
   2829836337.9466772     
   2708081792.3602853     
   2602158674.2623596     
   3202884893.5230308     
   3022456063.3783970     
   2846761304.9034967     
   2676799410.8562617     
   2513995058.7588849     
   3356325062.5231042     
   3156299031.2158003     
   2957561707.6072001     
   2760250208.8059955     
   2564573206.8962483     
   3565866863.9065790     
   3362416491.2512341     
   3159665860.2891793     
   2957748367.9909468     
   2756852544.8433952     
   3825825900.5455036     
   3634128835.3129339     
   3444882480.8943415     
   3258871886.1604733     
   3077185058.5686007     
 </DataArray>
 <DataArray  type="Float64" Name="strain" NumberOfComponents="3" format="ascii">
  0.20348743794274157        0.0000000000000000       0.12541230913298160     
  0.18665569485186076       -2.7325354081289679E-002   7.4354475105116821E-002
  0.16982395176097995       -4.4676228125438297E-002   3.5131570013494838E-002
  0.15299220867009913       -5.2052622132445811E-002   7.7435938581156723E-003
  0.13616046557921835       -4.9454536102312277E-002  -7.8094533610206796E-003
  0.15985552989094942        0.0000000000000000        9.6454553223516967E-002
  0.15317698240751609       -2.1845255963474437E-002   6.2693601629884854E-002
  0.14649843492408279       -3.6175188415759695E-002   3.7404112314904925E-002
  0.13981988744064949       -4.2989797356855750E-002   2.0586085278577228E-002
  0.13314133995721619       -4.2289082786762647E-002   1.2239520520901770E-002
  0.12645733582802005        0.0000000000000000        7.4206473694843539E-002
  0.12656851729444366       -1.6365157845659190E-002   5.5283248009492178E-002
  0.12667969876086729       -2.7674148706081089E-002   4.1468017945202447E-002
  0.12679088022729090       -3.3926972581265681E-002   3.2760783501974332E-002
  0.12690206169371451       -3.5123629471212996E-002   2.9161544679807843E-002
  0.10329285575395350        0.0000000000000000        5.8668070546961298E-002
  0.10683029951264346       -1.0885059727843944E-002   5.2123414243938807E-002
  0.11036774327133339       -1.9173108996402483E-002   4.7323286904387349E-002
  0.11390518703002336       -2.4864147805675613E-002   4.4267688528306925E-002
  0.11744263078871332       -2.7958176155663338E-002   4.2956619115697543E-002
   9.0362089668749784E-002   0.0000000000000000        4.9839343779870246E-002
   9.3962329062115463E-002  -5.4049616100286992E-003   5.3214100333224726E-002
   9.7562568455481169E-002  -1.0672069286723880E-002   5.4969919192459665E-002
  0.10116280784884686       -1.5801323030085541E-002   5.5106800357575057E-002
  0.10476304724221255       -2.0792722840113700E-002   5.3624743828570895E-002
  0.13616046557921835       -4.9454536102312277E-002  -7.8094533610206796E-003
  0.13295542459411885       -4.2918240835072202E-002  -3.3882575425554159E-003
  0.12975038360901936       -3.8480007130760316E-002  -3.8345777880345946E-004
  0.12654534262391987       -3.6139834989376375E-002   1.2049459302350581E-003
  0.12334030163882040       -3.5897724410920595E-002   1.3769535845602199E-003
  0.13314133995721619       -4.2289082786762647E-002   1.2239520520901770E-002
  0.12890845523333933       -3.8422234121606086E-002   1.2188557571808385E-002
  0.12467557050946247       -3.5738440777511704E-002   1.1498303199873623E-002
  0.12044268578558559       -3.4237702754479592E-002   1.0168757405097574E-002
  0.11620980106170872       -3.3920020052509714E-002   8.1999201874799338E-003
  0.12690206169371451       -3.5123629471212996E-002   2.9161544679807843E-002
  0.12241843786293227       -3.3926227408139845E-002   2.5553429205021586E-002
  0.11793481403215006       -3.2996874424263127E-002   2.2083126939265986E-002
  0.11345119020136785       -3.2335570519582767E-002   1.8750637882541058E-002
  0.10896756637058558       -3.1942315694098916E-002   1.5555962034846785E-002
  0.11744263078871332       -2.7958176155663338E-002   4.2956619115697543E-002
  0.11348537248289772       -2.9430220694673638E-002   3.6706357357084295E-002
  0.10952811417708215       -3.0255308071014547E-002   3.1371013439373686E-002
  0.10557085587126655       -3.0433438284685980E-002   2.6950587362565722E-002
  0.10161359756545098       -2.9964611335688021E-002   2.3445079126660447E-002
  0.10476304724221255       -2.0792722840113700E-002   5.3624743828570895E-002
  0.10210925909323562       -2.4934213981207466E-002   4.5647342027996439E-002
   9.9455470944258703E-002  -2.7513741717765956E-002   3.9361962700196686E-002
   9.6801682795281771E-002  -2.8531306049789207E-002   3.4768605845171552E-002
   9.4147894646304839E-002  -2.7986906977277182E-002   3.1867271462921079E-002
  0.12334030163882040       -3.5897724410920595E-002   1.3769535845602199E-003
  0.12039136546520277       -3.6394644631510528E-002   6.2555831862246003E-004
  0.11744242929158509       -3.6271564887263963E-002   7.6505838655427372E-005
  0.11449349311796742       -3.5528485178180899E-002  -2.7020385534022584E-004
  0.11154455694434978       -3.4165405504261448E-002  -4.1457076336509635E-004
  0.11620980106170872       -3.3920020052509714E-002   8.1999201874799338E-003
  0.11344811703537729       -3.3995410799629380E-002   7.8301543627055104E-003
  0.11068643300904581       -3.3673893123865886E-002   7.6325500465324603E-003
  0.10792474898271437       -3.2955467025219051E-002   7.6071072389607454E-003
  0.10516306495638283       -3.1840132503689111E-002   7.7538259399902443E-003
  0.10896756637058558       -3.1942315694098916E-002   1.5555962034846785E-002
  0.10636295321417055       -3.1596176967748212E-002   1.5344734109282498E-002
  0.10375834005775555       -3.1076221360467643E-002   1.5275486414949691E-002
  0.10115372690134054       -3.0382448872257183E-002   1.5348218951848708E-002
   9.8549113744925532E-002  -2.9514859503116747E-002   1.5562931719979148E-002
  0.10161359756545098       -2.9964611335688021E-002   2.3445079126660447E-002
   9.9135874001582636E-002  -2.9196943135867025E-002   2.3169297558353136E-002
   9.6658150437714294E-002  -2.8478549597069427E-002   2.3005314943907500E-002
   9.4180426873845965E-002  -2.7809430719295213E-002   2.2953131283323852E-002
   9.1702703309977637E-002  -2.7189586502544452E-002   2.3012746576601812E-002
   9.4147894646304839E-002  -2.7986906977277182E-002   3.1867271462921079E-002
   9.1766879397613452E-002  -2.6797709303985888E-002   3.1303844709917351E-002
   8.9385864148922023E-002  -2.5880877833671247E-002   3.0822035633405645E-002
   8.7004848900230594E-002  -2.5236412566333334E-002   3.0421844233385981E-002
   8.4623833651539193E-002  -2.4864313501972046E-002   3.0103270509858393E-002
  0.11154455694434978       -3.4165405504261448E-002  -4.1457076336509635E-004
  0.10852753497850537       -3.2625575883683589E-002  -1.6109913127665410E-004
  0.10551051301266101       -3.1352246334626008E-002   5.4535632653979205E-005
  0.10249349104681663       -3.0345416857088452E-002   2.3233352842647048E-004
   9.9476469080972241E-002  -2.9605087451070822E-002   3.7229455604154138E-004
  0.10516306495638283       -3.1840132503689111E-002   7.7538259399902443E-003
  0.10215606635175531       -3.0606884328277795E-002   7.6089079846423380E-003
   9.9149067747127728E-002  -2.9534717267986677E-002   7.5218736198858910E-003
   9.6142069142500147E-002  -2.8623631322816132E-002   7.4927228457206674E-003
   9.3135070537872622E-002  -2.7873626492765979E-002   7.5214556621471806E-003
   9.8549113744925532E-002  -2.9514859503116747E-002   1.5562931719979148E-002
   9.5647858960263885E-002  -2.8588192772871696E-002   1.5125043133594862E-002
   9.2746604175602293E-002  -2.7717188201347574E-002   1.4840758596550881E-002
   8.9845349390940618E-002  -2.6901845788543925E-002   1.4710078108847734E-002
   8.6944094606279013E-002  -2.6142165534460970E-002   1.4733001670484969E-002
   9.1702703309977637E-002  -2.7189586502544452E-002   2.3012746576601812E-002
   8.9002912804031109E-002  -2.6569501217465749E-002   2.2387306315580655E-002
   8.6303122298084595E-002  -2.5899659134708191E-002   2.2011190562649351E-002
   8.3603331792138080E-002  -2.5180060254271591E-002   2.1884399317807425E-002
   8.0903541286191580E-002  -2.4410704576156100E-002   2.2006932581055634E-002
   8.4623833651539193E-002  -2.4864313501972046E-002   3.0103270509858393E-002
   8.2221227883056941E-002  -2.4550809662059803E-002   2.9395697530600118E-002
   7.9818622114574730E-002  -2.4082130068068967E-002   2.9033169518180676E-002
   7.7416016346092520E-002  -2.3458274719999353E-002   2.9015686472600069E-002
   7.5013410577610240E-002  -2.2679243617851147E-002   2.9343248393858462E-002
   9.9476469080972241E-002  -2.9605087451070822E-002   3.7229455604154138E-004
   9.6540400566792528E-002  -2.8938173142929680E-002  -2.7440530971434285E-004
   9.3604332052612732E-002  -2.8151588959020840E-002  -7.1481124157263265E-004
   9.0668263538432950E-002  -2.7245334899344616E-002  -9.4892323953296720E-004
   8.7732195024253223E-002  -2.6219410963900458E-002  -9.7674130359592937E-004
   9.3135070537872622E-002  -2.7873626492765979E-002   7.5214556621471806E-003
   9.0393411884542835E-002  -2.7165921651433389E-002   7.1113698415760929E-003
   8.7651753231213214E-002  -2.6381735672415391E-002   6.8838098088072758E-003
   8.4910094577883538E-002  -2.5521068555711866E-002   6.8387755638410902E-003
   8.2168435924553862E-002  -2.4583920301322781E-002   6.9762671066774251E-003
   8.6944094606279013E-002  -2.6142165534460970E-002   1.4733001670484969E-002
   8.4373077667704091E-002  -2.5393670159936876E-002   1.4516341157016832E-002
   8.1802060729129156E-002  -2.4611882385809650E-002   1.4458438285255434E-002
   7.9231043790554262E-002  -2.3796802212079003E-002   1.4559293055201587E-002
   7.6660026851979285E-002  -2.2948429638745216E-002   1.4818905466854382E-002
   8.0903541286191580E-002  -2.4410704576156100E-002   2.2006932581055634E-002
   7.8479397916276075E-002  -2.3621418668440586E-002   2.1940508636607688E-002
   7.6055254546360598E-002  -2.2842029099203943E-002   2.2009074187771923E-002
   7.3631111176445066E-002  -2.2072535868446416E-002   2.2212629234547678E-002
   7.1206967806529617E-002  -2.1312938976167706E-002   2.2551173776935204E-002
   7.5013410577610240E-002  -2.2679243617851147E-002   2.9343248393858462E-002
   7.2712372630258870E-002  -2.1849167176944170E-002   2.9383872280349249E-002
   7.0411334682907445E-002  -2.1072175812598341E-002   2.9535717516356322E-002
   6.8110296735556020E-002  -2.0348269524813667E-002   2.9798784101879854E-002
   6.5809258788204650E-002  -1.9677448313590085E-002   3.0173072036919768E-002
   8.7732195024253223E-002  -2.6219410963900458E-002  -9.7674130359592937E-004
   8.4429209224706481E-002  -2.5168326761700943E-002  -1.3456698438467640E-003
   8.1126223425159738E-002  -2.4186591901757593E-002  -1.5086141914258389E-003
   7.7823237625613051E-002  -2.3274206384070670E-002  -1.4655743463329873E-003
   7.4520251826066253E-002  -2.2431170208639828E-002  -1.2165503085691531E-003
   8.2168435924553862E-002  -2.4583920301322781E-002   6.9762671066774251E-003
   7.9072100867024431E-002  -2.3631273327439611E-002   6.6059386224204542E-003
   7.5975765809495083E-002  -2.2724110052253069E-002   6.4429274295266514E-003
   7.2879430751965665E-002  -2.1862430475763365E-002   6.4872335279957255E-003
   6.9783095694436359E-002  -2.1046234597970170E-002   6.7388569178277735E-003
   7.6660026851979285E-002  -2.2948429638745216E-002   1.4818905466854382E-002
   7.3771675635158587E-002  -2.2094219893178418E-002   1.4471042682151172E-002
   7.0883324418337779E-002  -2.1261628202748656E-002   1.4331830287502012E-002
   6.7994973201517067E-002  -2.0450654567455949E-002   1.4401268282907380E-002
   6.5106621984696272E-002  -1.9661298987300235E-002   1.4679356668366783E-002
   7.1206967806529617E-002  -2.1312938976167706E-002   2.2551173776935204E-002
   6.8527933529108742E-002  -2.0557166458917323E-002   2.2249642335345082E-002
   6.5848899251687854E-002  -1.9799146353244243E-002   2.2158094382500652E-002
   6.3169864974266979E-002  -1.9038878659148533E-002   2.2276529918401598E-002
   6.0490830696846125E-002  -1.8276363376630217E-002   2.2604948943048181E-002
   6.5809258788204650E-002  -1.9677448313590085E-002   3.0173072036919768E-002
   6.3340874548874965E-002  -1.9020113024655894E-002   2.9941737582002609E-002
   6.0872490309545307E-002  -1.8336664503739775E-002   2.9921719714522149E-002
   5.8404106070215650E-002  -1.7627102750841103E-002   3.0113018434478639E-002
   5.5935721830886020E-002  -1.6891427765960365E-002   3.0515633741871939E-002
   7.4520251826066253E-002  -2.2431170208639828E-002  -1.2165503085691531E-003
   7.1840555685976693E-002  -2.1599259288773431E-002  -1.7409778468671089E-003
   6.9160859545887188E-002  -2.0720249537778512E-002  -2.2167386248824750E-003
   6.6481163405797600E-002  -1.9794140955655404E-002  -2.6438326426141134E-003
   6.3801467265708123E-002  -1.8820933542403995E-002  -3.0222599000632178E-003
   6.9783095694436359E-002  -2.1046234597970170E-002   6.7388569178277735E-003
   6.7175030275994640E-002  -2.0236785493945642E-002   6.3376202539279225E-003
   6.4566964857553005E-002  -1.9395346238763100E-002   6.0309782730411932E-003
   6.1958899439111328E-002  -1.8521916832421506E-002   5.8189309751672524E-003
   5.9350834020669652E-002  -1.7616497274921428E-002   5.7014783603059893E-003
   6.5106621984696272E-002  -1.9661298987300235E-002   1.4679356668366783E-002
   6.2616115210632373E-002  -1.8874311699118435E-002   1.4386202198895665E-002
   6.0125608436568487E-002  -1.8070442939747466E-002   1.4233570335167436E-002
   5.7635101662504552E-002  -1.7249692709187719E-002   1.4221461077182002E-002
   5.5144594888440646E-002  -1.6412061007438916E-002   1.4349874424939374E-002
   6.0490830696846125E-002  -1.8276363376630217E-002   2.2604948943048181E-002
   5.8163810489889931E-002  -1.7511837904290825E-002   2.2404767988036312E-002
   5.5836790282933632E-002  -1.6745539640732165E-002   2.2391037561497136E-002
   5.3509770075977368E-002  -1.5977468585953877E-002   2.2563757663430557E-002
   5.1182749869021132E-002  -1.5207624739956155E-002   2.2922928293836291E-002
   5.5935721830886020E-002  -1.6891427765960365E-002   3.0515633741871939E-002
   5.3818116113767273E-002  -1.6149364109463438E-002   3.0393317621349614E-002
   5.1700510396648580E-002  -1.5420636341716670E-002   3.0503379952029813E-002
   4.9582904679529832E-002  -1.4705244462719987E-002   3.0845820733912566E-002
   4.7465298962411140E-002  -1.4003188472473560E-002   3.1420639966997788E-002
   6.3801467265708123E-002  -1.8820933542403995E-002  -3.0222599000632178E-003
   6.0572764910620247E-002  -1.7863209017160875E-002  -4.1512371876605281E-003
   5.7344062555532593E-002  -1.6983549099060441E-002  -5.5354615831344489E-003
   5.4115360200444662E-002  -1.6181953788103894E-002  -7.1749330864833982E-003
   5.0886657845357064E-002  -1.5458423084290907E-002  -9.0696516977089026E-003
   5.9350834020669652E-002  -1.7616497274921428E-002   5.7014783603059893E-003
   5.5962136822826969E-002  -1.6720219597211594E-002   4.8479781916977438E-003
   5.2573439624984369E-002  -1.5874215830240818E-002   3.9297354454554956E-003
   4.9184742427141645E-002  -1.5078485974010035E-002   2.9467501215797720E-003
   4.5796045229299032E-002  -1.4333030028518046E-002   1.8990222200701012E-003
   5.5144594888440646E-002  -1.6412061007438916E-002   1.4349874424939374E-002
   5.1786407378085264E-002  -1.5577230177263091E-002   1.3799642071724572E-002
   4.8428219867729938E-002  -1.4764882561421847E-002   1.3375171671118388E-002
   4.5070032357374487E-002  -1.3975018159915784E-002   1.3076463223120192E-002
   4.1711844847019175E-002  -1.3207636972744519E-002   1.2903516727730602E-002
   5.1182749869021132E-002  -1.5207624739956155E-002   2.2922928293836291E-002
   4.8045576576395285E-002  -1.4434240757314087E-002   2.2703754452419449E-002
   4.4908403283769459E-002  -1.3655549292602549E-002   2.2800847093853115E-002
   4.1771229991143521E-002  -1.2871550345821730E-002   2.3214206218137731E-002
   3.8634056698517716E-002  -1.2082243916971325E-002   2.3943831825272183E-002
   4.7465298962411140E-002  -1.4003188472473560E-002   3.1420639966997788E-002
   4.4739644417756963E-002  -1.3291251337365251E-002   3.1560315333783007E-002
   4.2013989873102758E-002  -1.2546216023783044E-002   3.2206761713661020E-002
   3.9288335328448554E-002  -1.1768082531727706E-002   3.3359979106631729E-002
   3.6562680783794321E-002  -1.0956850861198131E-002   3.5019967512695205E-002
   9.0362089668749784E-002   0.0000000000000000        4.9839343779870246E-002
   9.3962329062115463E-002  -5.4049616100286992E-003   5.3214100333224726E-002
   9.7562568455481169E-002  -1.0672069286723880E-002   5.4969919192459665E-002
  0.10116280784884686       -1.5801323030085541E-002   5.5106800357575057E-002
  0.10476304724221255       -2.0792722840113700E-002   5.3624743828570895E-002
   8.2426084872990496E-002   0.0000000000000000        4.4787195870986715E-002
   8.4636498008441932E-002  -4.5748713924662638E-003   4.8271335265844664E-002
   8.6846911143893368E-002  -9.0386710877218591E-003   5.0594759838993669E-002
   8.9057324279344804E-002  -1.3391399085766783E-002   5.1757469590433709E-002
   9.1267737414796254E-002  -1.7633055386601038E-002   5.1759464520164777E-002
   7.4245888667257287E-002   0.0000000000000000        4.0578529297727046E-002
   7.5524698417205063E-002  -3.7447811749038292E-003   4.4145269297965611E-002
   7.6803508167152854E-002  -7.4052728887198365E-003   4.7009517348905808E-002
   7.8082317917100616E-002  -1.0981475141448023E-002   4.9171273450547670E-002
   7.9361127667048406E-002  -1.4473387933088389E-002   5.0630537602891143E-002
   6.5821501051550158E-002   0.0000000000000000        3.7213344060091233E-002
   6.6626930288404856E-002  -2.9146909573413943E-003   4.0835902429587567E-002
   6.7432359525259569E-002  -5.7718746897178165E-003   4.4214191722196136E-002
   6.8237788762114282E-002  -8.5715511971292627E-003   4.7348211937916954E-002
   6.9043217998968995E-002  -1.1313720479575740E-002   5.0237963076749957E-002
   5.7152922025869080E-002   0.0000000000000000        3.4691640158079282E-002
   5.7943193622041325E-002  -2.0846007397789593E-003   3.8343234660710539E-002
   5.8733465218213564E-002  -4.1384764907157947E-003   4.2208782958864613E-002
   5.9523736814385796E-002  -6.1616272528105028E-003   4.6288285052541518E-002
   6.0314008410558048E-002  -8.1540530260630836E-003   5.0581740941741275E-002
  0.10476304724221255       -2.0792722840113700E-002   5.3624743828570895E-002
  0.10210925909323562       -2.4934213981207466E-002   4.5647342027996439E-002
   9.9455470944258703E-002  -2.7513741717765956E-002   3.9361962700196686E-002
   9.6801682795281771E-002  -2.8531306049789207E-002   3.4768605845171552E-002
   9.4147894646304839E-002  -2.7986906977277182E-002   3.1867271462921079E-002
   9.1267737414796254E-002  -1.7633055386601038E-002   5.1759464520164777E-002
   9.0067629761797746E-002  -2.1209096771776126E-002   4.6523481591784016E-002
   8.8867522108799224E-002  -2.3564980022843542E-002   4.2502837182585379E-002
   8.7667414455800716E-002  -2.4700705139803318E-002   3.9697531292568949E-002
   8.6467306802802207E-002  -2.4616272122655387E-002   3.8107563921734637E-002
   7.9361127667048406E-002  -1.4473387933088389E-002   5.0630537602891143E-002
   7.9138016556435820E-002  -1.7483979562344810E-002   4.7794168276276409E-002
   7.8914905445823191E-002  -1.9616218327921146E-002   4.5696453515251360E-002
   7.8691794335210591E-002  -2.0870104229817416E-002   4.4337393319815947E-002
   7.8468683224597990E-002  -2.1245637268033607E-002   4.3716987689970177E-002
   6.9043217998968995E-002  -1.1313720479575740E-002   5.0237963076749957E-002
   6.9320419477149786E-002  -1.3758862352913471E-002   4.9459402081473737E-002
   6.9597620955330591E-002  -1.5667456632998743E-002   4.8942811698194637E-002
   6.9874822433511410E-002  -1.7039503319831527E-002   4.8688191926912712E-002
   7.0152023911692216E-002  -1.7875002413411813E-002   4.8695542767627893E-002
   6.0314008410558048E-002  -8.1540530260630836E-003   5.0581740941741275E-002
   6.0614838523939743E-002  -1.0033745143482153E-002   5.1519183007375895E-002
   6.0915668637321438E-002  -1.1718694938076342E-002   5.2241911731415194E-002
   6.1216498750703154E-002  -1.3208902409845635E-002   5.2749927113859126E-002
   6.1517328864084848E-002  -1.4504367558790046E-002   5.3043229154707661E-002
   9.4147894646304839E-002  -2.7986906977277182E-002   3.1867271462921079E-002
   9.1766879397613452E-002  -2.6797709303985888E-002   3.1303844709917351E-002
   8.9385864148922023E-002  -2.5880877833671247E-002   3.0822035633405645E-002
   8.7004848900230594E-002  -2.5236412566333334E-002   3.0421844233385981E-002
   8.4623833651539193E-002  -2.4864313501972046E-002   3.0103270509858393E-002
   8.6467306802802207E-002  -2.4616272122655387E-002   3.8107563921734637E-002
   8.4213632251483150E-002  -2.3975260728191141E-002   3.7082140663683705E-002
   8.1959957700164079E-002  -2.3441250713201967E-002   3.6229781123885516E-002
   7.9706283148845036E-002  -2.3014242077687735E-002   3.5550485302339951E-002
   7.7452608597525924E-002  -2.2694234821648562E-002   3.5044253199047082E-002
   7.8468683224597990E-002  -2.1245637268033607E-002   4.3716987689970177E-002
   7.6433795412411923E-002  -2.1152812152396446E-002   4.2394932750373843E-002
   7.4398907600225814E-002  -2.1001623592732627E-002   4.1337387570790834E-002
   7.2364019788039732E-002  -2.0792071589042189E-002   4.0544352151221090E-002
   7.0329131975853637E-002  -2.0524156141325106E-002   4.0015826491664540E-002
   7.0152023911692216E-002  -1.7875002413411813E-002   4.8695542767627893E-002
   6.8427368880399686E-002  -1.8330363576601706E-002   4.7242220969987779E-002
   6.6702713849107212E-002  -1.8561996472263316E-002   4.6144854974121505E-002
   6.4978058817814724E-002  -1.8569901100396656E-002   4.5403444780029251E-002
   6.3253403786522194E-002  -1.8354077461001608E-002   4.5017990387710823E-002
   6.1517328864084848E-002  -1.4504367558790046E-002   5.3043229154707661E-002
   6.0194352655446565E-002  -1.5507915000807018E-002   5.1624005322525431E-002
   5.8871376446808274E-002  -1.6122369351794029E-002   5.0652183333877679E-002
   5.7548400238169990E-002  -1.6347730611751071E-002   5.0127763188764447E-002
   5.6225424029531706E-002  -1.6183998780678152E-002   5.0050744887185791E-002
   8.4623833651539193E-002  -2.4864313501972046E-002   3.0103270509858393E-002
   8.2221227883056941E-002  -2.4550809662059803E-002   2.9395697530600118E-002
   7.9818622114574730E-002  -2.4082130068068967E-002   2.9033169518180676E-002
   7.7416016346092520E-002  -2.3458274719999353E-002   2.9015686472600069E-002
   7.5013410577610240E-002  -2.2679243617851147E-002   2.9343248393858462E-002
   7.7452608597525924E-002  -2.2694234821648562E-002   3.5044253199047082E-002
   7.5365169208817306E-002  -2.2371210332804120E-002   3.4488655864646667E-002
   7.3277729820108661E-002  -2.1935149998873811E-002   3.4218346322954563E-002
   7.1190290431400016E-002  -2.1386053819857954E-002   3.4233324573970603E-002
   6.9102851042691385E-002  -2.0723921795756245E-002   3.4533590617695023E-002
   7.0329131975853637E-002  -2.0524156141325106E-002   4.0015826491664540E-002
   6.8497101792787979E-002  -2.0191611003548326E-002   3.9570064893129010E-002
   6.6665071609722348E-002  -1.9788169929678742E-002   3.9349833913171137E-002
   6.4833041426656704E-002  -1.9313832919716452E-002   3.9355133551791023E-002
   6.3001011243591060E-002  -1.8768599973661357E-002   3.9585963808988607E-002
   6.3253403786522194E-002  -1.8354077461001608E-002   4.5017990387710823E-002
   6.1617025634968993E-002  -1.8012011674292575E-002   4.4639924616047127E-002
   5.9980647483415798E-002  -1.7641189860483686E-002   4.4427632288830635E-002
   5.8344269331862618E-002  -1.7241612019574960E-002   4.4381113406061282E-002
   5.6707891180309403E-002  -1.6813278151566434E-002   4.4500367967739055E-002
   5.6225424029531706E-002  -1.6183998780678152E-002   5.0050744887185791E-002
   5.4724940735360356E-002  -1.5832412345036836E-002   4.9698235033401136E-002
   5.3224457441189019E-002  -1.5494209791288540E-002   4.9451741449932980E-002
   5.1723974147017675E-002  -1.5169391119433544E-002   4.9311264136781427E-002
   5.0223490852846331E-002  -1.4857956329471567E-002   4.9276803093946497E-002
   7.5013410577610240E-002  -2.2679243617851147E-002   2.9343248393858462E-002
   7.2712372630258870E-002  -2.1849167176944170E-002   2.9383872280349249E-002
   7.0411334682907445E-002  -2.1072175812598341E-002   2.9535717516356322E-002
   6.8110296735556020E-002  -2.0348269524813667E-002   2.9798784101879854E-002
   6.5809258788204650E-002  -1.9677448313590085E-002   3.0173072036919768E-002
   6.9102851042691385E-002  -2.0723921795756245E-002   3.4533590617695023E-002
   6.6931938702455854E-002  -2.0018035412118440E-002   3.4362532396316633E-002
   6.4761026362220392E-002  -1.9337676154493937E-002   3.4340504039653712E-002
   6.2590114021984902E-002  -1.8682844022882797E-002   3.4467505547706084E-002
   6.0419201681749413E-002  -1.8053539017285070E-002   3.4743536920474022E-002
   6.3001011243591060E-002  -1.8768599973661357E-002   3.9585963808988607E-002
   6.0998033025670501E-002  -1.8186903647292633E-002   3.9230781430288887E-002
   5.8995054807749983E-002  -1.7603176496389480E-002   3.9062437431503561E-002
   5.6992076589829410E-002  -1.7017418520951927E-002   3.9080931812632801E-002
   5.4989098371908851E-002  -1.6429629720979944E-002   3.9286264573676316E-002
   5.6707891180309403E-002  -1.6813278151566434E-002   4.4500367967739055E-002
   5.4910655599902797E-002  -1.6355771882466837E-002   4.3988619382265823E-002
   5.3113420019496226E-002  -1.5868676838285134E-002   4.3701517691905972E-002
   5.1316184439089668E-002  -1.5351993019021085E-002   4.3639062896659711E-002
   4.9518948858683083E-002  -1.4805720424674845E-002   4.3801254996526831E-002
   5.0223490852846331E-002  -1.4857956329471567E-002   4.9276803093946497E-002
   4.8669806425152728E-002  -1.4524640117641083E-002   4.8636046252247489E-002
   4.7116121997459126E-002  -1.4134177180180660E-002   4.8257744820860926E-002
   4.5562437569765538E-002  -1.3686567517090197E-002   4.8141898799786906E-002
   4.4008753142071949E-002  -1.3181811128369747E-002   4.8288508189025303E-002
   6.5809258788204650E-002  -1.9677448313590085E-002   3.0173072036919768E-002
   6.3340874548874965E-002  -1.9020113024655894E-002   2.9941737582002609E-002
   6.0872490309545307E-002  -1.8336664503739775E-002   2.9921719714522149E-002
   5.8404106070215650E-002  -1.7627102750841103E-002   3.0113018434478639E-002
   5.5935721830886020E-002  -1.6891427765960365E-002   3.0515633741871939E-002
   6.0419201681749413E-002  -1.8053539017285070E-002   3.4743536920474022E-002
   5.8157510780212460E-002  -1.7428628990852776E-002   3.4488958212359658E-002
   5.5895819878675562E-002  -1.6786981796738390E-002   3.4436449592393892E-002
   5.3634128977138616E-002  -1.6128597434941789E-002   3.4586011060576738E-002
   5.1372438075601712E-002  -1.5453475905463032E-002   3.4937642616908238E-002
   5.4989098371908851E-002  -1.6429629720979944E-002   3.9286264573676316E-002
   5.2924854308876480E-002  -1.5837144957049631E-002   3.8999065548064787E-002
   5.0860610245844082E-002  -1.5237299089737172E-002   3.8904690111313547E-002
   4.8796366182811711E-002  -1.4630092119042475E-002   3.9003138263422707E-002
   4.6732122119779312E-002  -1.4015524044965616E-002   3.9294410004392405E-002
   4.9518948858683083E-002  -1.4805720424674845E-002   4.3801254996526831E-002
   4.7642905134866978E-002  -1.4245660923246334E-002   4.3472059589117887E-002
   4.5766861411050908E-002  -1.3687616382735898E-002   4.3326441271281241E-002
   4.3890817687234802E-002  -1.3131586803143202E-002   4.3364400043016810E-002
   4.2014773963418732E-002  -1.2577572184468214E-002   4.3585935904324628E-002
   4.4008753142071949E-002  -1.3181811128369747E-002   4.8288508189025303E-002
   4.2311663258183974E-002  -1.2654176889443314E-002   4.7907940335519206E-002
   4.0614573374295984E-002  -1.2137933675734514E-002   4.7701703072297069E-002
   3.8917483490408016E-002  -1.1633081487243777E-002   4.7669796399358907E-002
   3.7220393606520047E-002  -1.1139620323970867E-002   4.7812220316704790E-002
   5.5935721830886020E-002  -1.6891427765960365E-002   3.0515633741871939E-002
   5.3818116113767273E-002  -1.6149364109463438E-002   3.0393317621349614E-002
   5.1700510396648580E-002  -1.5420636341716670E-002   3.0503379952029813E-002
   4.9582904679529832E-002  -1.4705244462719987E-002   3.0845820733912566E-002
   4.7465298962411140E-002  -1.4003188472473560E-002   3.1420639966997788E-002
   5.1372438075601712E-002  -1.5453475905463032E-002   3.4937642616908238E-002
   4.9469886032353153E-002  -1.4772118159886993E-002   3.4712169206396359E-002
   4.7567333989104593E-002  -1.4095025149798740E-002   3.4684424692422583E-002
   4.5664781945856006E-002  -1.3422196875198265E-002   3.4854409074986464E-002
   4.3762229902607419E-002  -1.2753633336085646E-002   3.5222122354088226E-002
   4.6732122119779312E-002  -1.4015524044965616E-002   3.9294410004392405E-002
   4.5009974195736234E-002  -1.3394872210310438E-002   3.8974850457153598E-002
   4.3287826271693100E-002  -1.2769413957880685E-002   3.8818370251787887E-002
   4.1565678347650049E-002  -1.2139149287676319E-002   3.8824969388295320E-002
   3.9843530423606929E-002  -1.1504078199697537E-002   3.8994647866675766E-002
   4.2014773963418732E-002  -1.2577572184468214E-002   4.3585935904324628E-002
   4.0438380603916413E-002  -1.2017626260733882E-002   4.3181361373620920E-002
   3.8861987244414101E-002  -1.1443802765962720E-002   4.2905216630125906E-002
   3.7285593884911816E-002  -1.0856101700154374E-002   4.2757501673839182E-002
   3.5709200525409476E-002  -1.0254523063309470E-002   4.2738216504761006E-002
   3.7220393606520047E-002  -1.1139620323970867E-002   4.7812220316704790E-002
   3.5755105256893821E-002  -1.0640380311157438E-002   4.7331701955798777E-002
   3.4289816907267623E-002  -1.0118191574044685E-002   4.6944963827436570E-002
   3.2824528557641411E-002  -9.5730541126325640E-003   4.6652005931618182E-002
   3.1359240208015199E-002  -9.0049679269214589E-003   4.6452828268343349E-002
   4.7465298962411140E-002  -1.4003188472473560E-002   3.1420639966997788E-002
   4.4739644417756963E-002  -1.3291251337365251E-002   3.1560315333783007E-002
   4.2013989873102758E-002  -1.2546216023783044E-002   3.2206761713661020E-002
   3.9288335328448554E-002  -1.1768082531727706E-002   3.3359979106631729E-002
   3.6562680783794321E-002  -1.0956850861198131E-002   3.5019967512695205E-002
   4.3762229902607419E-002  -1.2753633336085646E-002   3.5222122354088226E-002
   4.1464842664638624E-002  -1.2075163189957161E-002   3.5096251659265665E-002
   3.9167455426669745E-002  -1.1372615094308744E-002   3.5320144564721101E-002
   3.6870068188700880E-002  -1.0645989049141127E-002   3.5893801070454839E-002
   3.4572680950732015E-002  -9.8952850544538062E-003   3.6817221176466131E-002
   3.9843530423606929E-002  -1.1504078199697537E-002   3.8994647866675766E-002
   3.7817403079508552E-002  -1.0859075042548544E-002   3.8594210881291710E-002
   3.5791275735410244E-002  -1.0199014164834271E-002   3.8386530083370556E-002
   3.3765148391312033E-002  -9.5238955665546566E-003   3.8371605472912712E-002
   3.1739021047213545E-002  -8.8337192477094817E-003   3.8549437049917867E-002
   3.5709200525409476E-002  -1.0254523063309470E-002   4.2738216504761006E-002
   3.3797325662366803E-002  -9.6429868951403014E-003   4.2054192999860865E-002
   3.1885450799324110E-002  -9.0254132353597728E-003   4.1405918269609140E-002
   2.9973575936281437E-002  -8.4018020839682975E-003   4.0793392314005486E-002
   2.8061701073238805E-002  -7.7721534409651571E-003   4.0216615133050262E-002
   3.1359240208015199E-002  -9.0049679269214589E-003   4.6452828268343349E-002
   2.9404610413213378E-002  -8.4268987477319479E-003   4.5476198014973324E-002
   2.7449980618411599E-002  -7.8518123058852890E-003   4.4378309123436405E-002
   2.5495350823609715E-002  -7.2797086013816938E-003   4.3159161593732884E-002
   2.3540721028807943E-002  -6.7105876342208326E-003   4.1818755425863108E-002
   5.7152922025869080E-002   0.0000000000000000        3.4691640158079282E-002
   5.7943193622041325E-002  -2.0846007397789593E-003   3.8343234660710539E-002
   5.8733465218213564E-002  -4.1384764907157947E-003   4.2208782958864613E-002
   5.9523736814385796E-002  -6.1616272528105028E-003   4.6288285052541518E-002
   6.0314008410558048E-002  -8.1540530260630836E-003   5.0581740941741275E-002
   4.8652485632065756E-002   0.0000000000000000        3.2790112973627050E-002
   4.9591421751692774E-002  -1.7100578664177111E-003   3.6965290640627445E-002
   5.0530357871319799E-002  -3.4340491962619717E-003   4.1223843559014574E-002
   5.1469293990946824E-002  -5.1719739895327854E-003   4.5565771728788451E-002
   5.2408230110573842E-002  -6.9238322462301504E-003   4.9991075149949035E-002
   4.0732525911991814E-002   0.0000000000000000        3.1285457888670411E-002
   4.1689548010937522E-002  -1.3355149930564620E-003   3.5939560267771273E-002
   4.2646570109883243E-002  -2.7296219018081514E-003   4.0546459354122766E-002
   4.3603592208828958E-002  -4.1823207262550724E-003   4.5106155147724911E-002
   4.4560614307774665E-002  -5.6936114663972172E-003   4.9618647648577714E-002
   3.3393042865647281E-002   0.0000000000000000        3.0177674903209356E-002
   3.4237572399775588E-002  -9.6097211969521255E-004   3.5266043542141995E-002
   3.5082101933903903E-002  -2.0251946073543315E-003   4.0176630344189196E-002
   3.5926631468032218E-002  -3.1926674629773589E-003   4.4909435309350952E-002
   3.6771161002160532E-002  -4.4633906865642909E-003   4.9464458437627243E-002
   2.6634036493032136E-002   0.0000000000000000        2.9466764017243890E-002
   2.7235494918206961E-002  -5.8642924633396393E-004   3.4944740463739639E-002
   2.7836953343381782E-002  -1.3207673129005081E-003   4.0114356529213843E-002
   2.8438411768556604E-002  -2.2030141996996419E-003   4.4975612213666541E-002
   2.9039870193731429E-002  -3.2331699067313507E-003   4.9528507517097670E-002
   6.0314008410558048E-002  -8.1540530260630836E-003   5.0581740941741275E-002
   6.0614838523939743E-002  -1.0033745143482153E-002   5.1519183007375895E-002
   6.0915668637321438E-002  -1.1718694938076342E-002   5.2241911731415194E-002
   6.1216498750703154E-002  -1.3208902409845635E-002   5.2749927113859126E-002
   6.1517328864084848E-002  -1.4504367558790046E-002   5.3043229154707661E-002
   5.2408230110573842E-002  -6.9238322462301504E-003   4.9991075149949035E-002
   5.2533791892670809E-002  -8.5882537993973267E-003   5.1217899319735236E-002
   5.2659353674767782E-002  -1.0063868482077581E-002   5.2308900168547355E-002
   5.2784915456864749E-002  -1.1350676294270898E-002   5.3264077696385387E-002
   5.2910477238961723E-002  -1.2448677235977305E-002   5.4083431903249296E-002
   4.4560614307774665E-002  -5.6936114663972172E-003   4.9618647648577714E-002
   4.4589797779208164E-002  -7.1427624553124930E-003   5.1128918470177517E-002
   4.4618981250641669E-002  -8.4090420260788182E-003   5.2582255991424506E-002
   4.4648164722075181E-002  -9.4924501786961806E-003   5.3978660212318647E-002
   4.4677348193508687E-002  -1.0392986913164586E-002   5.5318131132859959E-002
   3.6771161002160532E-002  -4.4633906865642909E-003   4.9464458437627243E-002
   3.6782856183551829E-002  -5.6972711112276645E-003   5.1252240458702733E-002
   3.6794551364943119E-002  -6.7542155700800674E-003   5.3061979200046593E-002
   3.6806246546334409E-002  -7.6342240631214571E-003   5.4893674661658891E-002
   3.6817941727725706E-002  -8.3372965903518691E-003   5.6747326843539593E-002
   2.9039870193731429E-002  -3.2331699067313507E-003   4.9528507517097670E-002
   2.9112967105701777E-002  -4.2517797671428369E-003   5.1587865285310799E-002
   2.9186064017672118E-002  -5.0993891140812993E-003   5.3748069794413628E-002
   2.9259160929642473E-002  -5.7759979475467309E-003   5.6009121044406127E-002
   2.9332257841612815E-002  -6.2816062675391388E-003   5.8371019035288296E-002
   6.1517328864084848E-002  -1.4504367558790046E-002   5.3043229154707661E-002
   6.0194352655446565E-002  -1.5507915000807018E-002   5.1624005322525431E-002
   5.8871376446808274E-002  -1.6122369351794029E-002   5.0652183333877679E-002
   5.7548400238169990E-002  -1.6347730611751071E-002   5.0127763188764447E-002
   5.6225424029531706E-002  -1.6183998780678152E-002   5.0050744887185791E-002
   5.2910477238961723E-002  -1.2448677235977305E-002   5.4083431903249296E-002
   5.1984062797018227E-002  -1.3298409493157411E-002   5.3335502368695178E-002
   5.1057648355074779E-002  -1.3840411251771928E-002   5.2933294523996248E-002
   5.0131233913131290E-002  -1.4074682511820777E-002   5.2876808369152276E-002
   4.9204819471187822E-002  -1.4001223273304012E-002   5.3166043904163449E-002
   4.4677348193508687E-002  -1.0392986913164586E-002   5.5318131132859959E-002
   4.4045815364580576E-002  -1.1088903985507846E-002   5.5160133303469673E-002
   4.3414282535652465E-002  -1.1558453151749842E-002   5.5246177010255026E-002
   4.2782749706724355E-002  -1.1801634411890513E-002   5.5576262253216033E-002
   4.2151216877796237E-002  -1.1818447765929906E-002   5.6150389032352713E-002
   3.6817941727725706E-002  -8.3372965903518691E-003   5.6747326843539593E-002
   3.6379610358133530E-002  -8.8793984778582878E-003   5.7097898126848824E-002
   3.5941278988541353E-002  -9.2764950517277341E-003   5.7590830792654202E-002
   3.5502947618949177E-002  -9.5285863119602444E-003   5.8226124840955865E-002
   3.5064616249356979E-002  -9.6356722585557823E-003   5.9003780271753632E-002
   2.9332257841612815E-002  -6.2816062675391388E-003   5.8371019035288296E-002
   2.8985447777677122E-002  -6.6698929702086879E-003   5.9148796838832639E-002
   2.8638637713741432E-002  -6.9945369517056752E-003   5.9967255871193767E-002
   2.8291827649805742E-002  -7.2555382120299810E-003   6.0826396132371653E-002
   2.7945017585870049E-002  -7.4528967511816729E-003   6.1726217622366311E-002
   5.6225424029531706E-002  -1.6183998780678152E-002   5.0050744887185791E-002
   5.4724940735360356E-002  -1.5832412345036836E-002   4.9698235033401136E-002
   5.3224457441189019E-002  -1.5494209791288540E-002   4.9451741449932980E-002
   5.1723974147017675E-002  -1.5169391119433544E-002   4.9311264136781427E-002
   5.0223490852846331E-002  -1.4857956329471567E-002   4.9276803093946497E-002
   4.9204819471187822E-002  -1.4001223273304012E-002   5.3166043904163449E-002
   4.7832822048668226E-002  -1.3767341948577025E-002   5.2802870512647052E-002
   4.6460824626148658E-002  -1.3520346949995213E-002   5.2590652594117666E-002
   4.5088827203629091E-002  -1.3260238277558602E-002   5.2529390148575189E-002
   4.3716829781109509E-002  -1.2987015931267221E-002   5.2619083176019751E-002
   4.2151216877796237E-002  -1.1818447765929906E-002   5.6150389032352713E-002
   4.0952644529598799E-002  -1.1702271552117276E-002   5.5803049658852619E-002
   3.9754072181401354E-002  -1.1546484108701861E-002   5.5651604961009918E-002
   3.8555499833203916E-002  -1.1351085435683746E-002   5.5696054938824478E-002
   3.7356927485006464E-002  -1.1116075533062875E-002   5.5936399592296418E-002
   3.5064616249356979E-002  -9.6356722585557823E-003   5.9003780271753632E-002
   3.4084408178152059E-002  -9.6372011556575231E-003   5.8698772472017845E-002
   3.3104200106947139E-002  -9.5726212674085501E-003   5.8634598550609714E-002
   3.2123992035742212E-002  -9.4419325938089171E-003   5.8811258507529218E-002
   3.1143783964537292E-002  -9.2451351348585287E-003   5.9228752342776553E-002
   2.7945017585870049E-002  -7.4528967511816729E-003   6.1726217622366311E-002
   2.7228112994328008E-002  -7.5721307591977358E-003   6.1490038952142625E-002
   2.6511208402785980E-002  -7.5987584261151785E-003   6.1539633362917033E-002
   2.5794303811243941E-002  -7.5327797519339759E-003   6.1875000854689527E-002
   2.5077399219701910E-002  -7.3741947366542104E-003   6.2496141427460045E-002
   5.0223490852846331E-002  -1.4857956329471567E-002   4.9276803093946497E-002
   4.8669806425152728E-002  -1.4524640117641083E-002   4.8636046252247489E-002
   4.7116121997459126E-002  -1.4134177180180660E-002   4.8257744820860926E-002
   4.5562437569765538E-002  -1.3686567517090197E-002   4.8141898799786906E-002
   4.4008753142071949E-002  -1.3181811128369747E-002   4.8288508189025303E-002
   4.3716829781109509E-002  -1.2987015931267221E-002   5.2619083176019751E-002
   4.2409517905063455E-002  -1.2685551063393377E-002   5.2159261298759599E-002
   4.1102206029017430E-002  -1.2340714826209881E-002   5.1929729114481939E-002
   3.9794894152971383E-002  -1.1952507219716475E-002   5.1930486623187014E-002
   3.8487582276925336E-002  -1.1520928243913264E-002   5.2161533824874706E-002
   3.7356927485006464E-002  -1.1116075533062875E-002   5.5936399592296418E-002
   3.6263822443278158E-002  -1.0846462009145762E-002   5.5643737323154779E-002
   3.5170717401549825E-002  -1.0547252472239109E-002   5.5549199029666034E-002
   3.4077612359821492E-002  -1.0218446922342755E-002   5.5652784711829967E-002
   3.2984507318093180E-002  -9.8600453594568094E-003   5.5954494369646765E-002
   3.1143783964537292E-002  -9.2451351348585287E-003   5.9228752342776553E-002
   3.0232720039796816E-002  -9.0073729548980873E-003   5.9089474325433343E-002
   2.9321656115056344E-002  -8.7537901182683335E-003   5.9116154566413080E-002
   2.8410592190315852E-002  -8.4843866249690626E-003   5.9308793065715779E-002
   2.7499528265575390E-002  -8.1991624750003961E-003   5.9667389823341452E-002
   2.5077399219701910E-002  -7.3741947366542104E-003   6.2496141427460045E-002
   2.4316210694619422E-002  -7.1682839006504545E-003   6.2496472305595074E-002
   2.3555022169536949E-002  -6.9603277642975372E-003   6.2630595724723279E-002
   2.2793833644454479E-002  -6.7503263275953632E-003   6.2898511684844421E-002
   2.2032645119371988E-002  -6.5382795905438718E-003   6.3300220185958656E-002
   4.4008753142071949E-002  -1.3181811128369747E-002   4.8288508189025303E-002
   4.2311663258183974E-002  -1.2654176889443314E-002   4.7907940335519206E-002
   4.0614573374295984E-002  -1.2137933675734514E-002   4.7701703072297069E-002
   3.8917483490408016E-002  -1.1633081487243777E-002   4.7669796399358907E-002
   3.7220393606520047E-002  -1.1139620323970867E-002   4.7812220316704790E-002
   3.8487582276925336E-002  -1.1520928243913264E-002   5.2161533824874706E-002
   3.6973223294302249E-002  -1.1069508916486670E-002   5.1799921343023414E-002
   3.5458864311679175E-002  -1.0621780255123350E-002   5.1629440073417826E-002
   3.3944505329056116E-002  -1.0177742259822740E-002   5.1650090016057984E-002
   3.2430146346433014E-002  -9.7373949305854524E-003   5.1861871170943985E-002
   3.2984507318093180E-002  -9.8600453594568094E-003   5.5954494369646765E-002
   3.1669679858696745E-002  -9.4848409435302761E-003   5.5619537618605067E-002
   3.0354852399300341E-002  -9.1056268345118541E-003   5.5492512701770788E-002
   2.9040024939903909E-002  -8.7224030324018140E-003   5.5573419619144138E-002
   2.7725197480507474E-002  -8.3351695372000378E-003   5.5862258370725101E-002
   2.7499528265575390E-002  -8.1991624750003961E-003   5.9667389823341452E-002
   2.6401032951367386E-002  -7.9001729705737572E-003   5.9366789162264025E-002
   2.5302537637159398E-002  -7.5894734139004966E-003   5.9290920957355948E-002
   2.4204042322951397E-002  -7.2670638049809437E-003   5.9439785208617327E-002
   2.3105547008743406E-002  -6.9329441438145678E-003   5.9813381916047875E-002
   2.2032645119371988E-002  -6.5382795905438718E-003   6.3300220185958656E-002
   2.1167282572314206E-002  -6.3155049976172384E-003   6.3041675974000566E-002
   2.0301920025256402E-002  -6.0733199932891391E-003   6.3024664840173494E-002
   1.9436557478198630E-002  -5.8117245775598653E-003   6.3249186784477607E-002
   1.8571194931140816E-002  -5.5307187504291533E-003   6.3715241806912681E-002
   3.7220393606520047E-002  -1.1139620323970867E-002   4.7812220316704790E-002
   3.5755105256893821E-002  -1.0640380311157438E-002   4.7331701955798777E-002
   3.4289816907267623E-002  -1.0118191574044685E-002   4.6944963827436570E-002
   3.2824528557641411E-002  -9.5730541126325640E-003   4.6652005931618182E-002
   3.1359240208015199E-002  -9.0049679269214589E-003   4.6452828268343349E-002
   3.2430146346433014E-002  -9.7373949305854524E-003   5.1861871170943985E-002
   3.1079316884522812E-002  -9.2903981742312736E-003   5.1507298981669780E-002
   2.9728487422612609E-002  -8.8264118975798916E-003   5.1287864335283817E-002
   2.8377657960702400E-002  -8.3454361006318374E-003   5.1203567231786110E-002
   2.7026828498792205E-002  -7.8474707833866009E-003   5.1254407671176727E-002
   2.7725197480507474E-002  -8.3351695372000378E-003   5.5862258370725101E-002
   2.6530184216657780E-002  -7.9404160373050536E-003   5.5627673149080334E-002
   2.5335170952808031E-002  -7.5346322211153269E-003   5.5569582780668557E-002
   2.4140157688958296E-002  -7.1178180886309460E-003   5.5687987265489250E-002
   2.2945144425108567E-002  -6.6899736398518816E-003   5.5982886603542878E-002
   2.3105547008743406E-002  -6.9329441438145678E-003   5.9813381916047875E-002
   2.2107707253298650E-002  -6.5904339003788337E-003   5.9692824458030605E-002
   2.1109867497853912E-002  -6.2428525446508142E-003   5.9790119163590325E-002
   2.0112027742409153E-002  -5.8902000766299705E-003   6.0105266032727554E-002
   1.9114187986964418E-002  -5.5324764963170375E-003   6.0638265065441732E-002
   1.8571194931140816E-002  -5.5307187504291533E-003   6.3715241806912681E-002
   1.7811885994445525E-002  -5.2404517634526415E-003   6.3702752908520344E-002
   1.7052577057750221E-002  -4.9510728681860516E-003   6.3949473484049640E-002
   1.6293268121054923E-002  -4.6625820646292379E-003   6.4455403533500794E-002
   1.5533959184359625E-002  -4.3749793527823599E-003   6.5220543056873470E-002
   3.1359240208015199E-002  -9.0049679269214589E-003   4.6452828268343349E-002
   2.9404610413213378E-002  -8.4268987477319479E-003   4.5476198014973324E-002
   2.7449980618411599E-002  -7.8518123058852890E-003   4.4378309123436405E-002
   2.5495350823609715E-002  -7.2797086013816938E-003   4.3159161593732884E-002
   2.3540721028807943E-002  -6.7105876342208326E-003   4.1818755425863108E-002
   2.7026828498792205E-002  -7.8474707833866009E-003   5.1254407671176727E-002
   2.5039266815215330E-002  -7.3398665865573587E-003   5.0616484553501900E-002
   2.3051705131638484E-002  -6.8299741508565520E-003   5.0033956296443499E-002
   2.1064143448061651E-002  -6.3177934762844272E-003   4.9506822900001260E-002
   1.9076581764484790E-002  -5.8033245628409391E-003   4.9035084364176029E-002
   2.2945144425108567E-002  -6.6899736398518816E-003   5.5982886603542878E-002
   2.1101304351539778E-002  -6.2528344253827695E-003   5.5688941597777389E-002
   1.9257464277970957E-002  -5.8081359958278636E-003   5.5627044951411540E-002
   1.7413624204402053E-002  -5.3558783511873809E-003   5.5797196664445020E-002
   1.5569784130833306E-002  -4.8960614914611567E-003   5.6199396736878293E-002
   1.9114187986964418E-002  -5.5324764963170375E-003   6.0638265065441732E-002
   1.7590723022186693E-002  -5.1658022642080692E-003   6.0693569147799817E-002
   1.6067258057409002E-002  -4.7862978407989844E-003   6.1157575088340826E-002
   1.4543793092631326E-002  -4.3939632260900025E-003   6.2030282887064671E-002
   1.3020328127853611E-002  -3.9887984200813742E-003   6.3311692543970607E-002
   1.5533959184359625E-002  -4.3749793527823599E-003   6.5220543056873470E-002
   1.4507522827156116E-002  -4.0787701030336465E-003   6.5630367203569628E-002
   1.3481086469952622E-002  -3.7644596857703411E-003   6.6625546707231559E-002
   1.2454650112749120E-002  -3.4320481009930993E-003   6.8206081567858942E-002
   1.1428213755545591E-002  -3.0815353487014807E-003   7.0371971785452736E-002
   2.6634036493032136E-002   0.0000000000000000        2.9466764017243890E-002
   2.7235494918206961E-002  -5.8642924633396393E-004   3.4944740463739639E-002
   2.7836953343381782E-002  -1.3207673129005081E-003   4.0114356529213843E-002
   2.8438411768556604E-002  -2.2030141996996419E-003   4.4975612213666541E-002
   2.9039870193731429E-002  -3.2331699067313507E-003   4.9528507517097670E-002
   2.0117833185538884E-002   0.0000000000000000        2.9018348535479847E-002
   2.0450430173394801E-002  -4.3982193488740443E-004   3.4311533164499322E-002
   2.0783027161250720E-002  -9.9057548492878598E-004   3.9375355299902527E-002
   2.1115624149106640E-002  -1.6522606501241455E-003   4.4209814941689463E-002
   2.1448221136962559E-002  -2.4248774304734787E-003   4.8814912089860121E-002
   1.3506759334560012E-002   0.0000000000000000        2.8698051762623057E-002
   1.3649492772502287E-002  -2.9321462344084536E-004   3.3843421779244875E-002
   1.3792226210444562E-002  -6.6038365695706043E-004   3.8838427189655689E-002
   1.3934959648386834E-002  -1.1015071005486474E-003   4.3683067993855469E-002
   1.4077693086329113E-002  -1.6165849542155997E-003   4.8377344191844238E-002
   6.8008149400955193E-003   0.0000000000000000        2.8505873698673523E-002
   6.8326827155294114E-003  -1.4660731199428651E-004   3.3540406307976292E-002
   6.8645504909633035E-003  -3.3019182898533488E-004   3.8503572198473293E-002
   6.8964182663971965E-003  -5.5075355097315010E-004   4.3395371370164547E-002
   6.9282860418310877E-003  -8.0829247795772066E-004   4.8215803823050060E-002
   2.1454097179351983E-012   0.0000000000000000        2.8441814343631248E-002
   2.4761798514405520E-012  -5.4772766183708299E-013   3.3402486750693558E-002
   2.8069491175841677E-012  -1.0136110700775802E-012   3.8370790326355375E-002
   3.1377188174086523E-012  -1.3976545615301816E-012   4.3346725070616716E-002
   3.4684893845948750E-012  -1.6998468604922934E-012   4.8330290983477540E-002
   2.9039870193731429E-002  -3.2331699067313507E-003   4.9528507517097670E-002
   2.9112967105701777E-002  -4.2517797671428369E-003   5.1587865285310799E-002
   2.9186064017672118E-002  -5.0993891140812993E-003   5.3748069794413628E-002
   2.9259160929642473E-002  -5.7759979475467309E-003   5.6009121044406127E-002
   2.9332257841612815E-002  -6.2816062675391388E-003   5.8371019035288296E-002
   2.1448221136962559E-002  -2.4248774304734787E-003   4.8814912089860121E-002
   2.1592384547632848E-002  -3.1888348258505110E-003   5.1215236071304765E-002
   2.1736547958303140E-002  -3.8245418361289507E-003   5.3656846309259612E-002
   2.1880711368973429E-002  -4.3319984613087639E-003   5.6139742803724670E-002
   2.2024874779643721E-002  -4.7112047013900191E-003   5.8663925554699958E-002
   1.4077693086329113E-002  -1.6165849542155997E-003   4.8377344191844238E-002
   1.4233362511319876E-002  -2.1258898845581639E-003   5.1075884258145923E-002
   1.4389031936310640E-002  -2.5496945581765743E-003   5.3756150096578387E-002
   1.4544701361301404E-002  -2.8879989750708207E-003   5.6418141707141573E-002
   1.4700370786292169E-002  -3.1408031352409202E-003   5.9061859089835488E-002
   6.9282860418310877E-003  -8.0829247795772066E-004   4.8215803823050060E-002
   7.0359009967628557E-003  -1.0629449432658308E-003   5.1169809845834385E-002
   7.1435159516946229E-003  -1.2748472802242188E-003   5.4045981156369986E-002
   7.2511309066263935E-003  -1.4439994888328725E-003   5.6844317754656835E-002
   7.3587458615581598E-003  -1.5704015690918040E-003   5.9564819640695002E-002
   3.4684893845948750E-012  -1.6998468604922934E-012   4.8330290983477540E-002
   3.9617887963305787E-012  -1.9734951520189448E-012   5.1497012834370068E-002
   4.4550908101514963E-012  -2.2718437374391609E-012   5.4526339488634390E-002
   4.9483902218872000E-012  -2.5949124576526983E-012   5.7418270946270493E-002
   5.4416922357081177E-012  -2.9427085768141126E-012   6.0172807207278405E-002
   2.9332257841612815E-002  -6.2816062675391388E-003   5.8371019035288296E-002
   2.8985447777677122E-002  -6.6698929702086879E-003   5.9148796838832639E-002
   2.8638637713741432E-002  -6.9945369517056752E-003   5.9967255871193767E-002
   2.8291827649805742E-002  -7.2555382120299810E-003   6.0826396132371653E-002
   2.7945017585870049E-002  -7.4528967511816729E-003   6.1726217622366311E-002
   2.2024874779643721E-002  -4.7112047013900191E-003   5.8663925554699958E-002
   2.1730251266408190E-002  -5.0024197284671452E-003   5.9491775129786373E-002
   2.1435627753172662E-002  -5.2459027146345098E-003   6.0383316577456374E-002
   2.1141004239937138E-002  -5.4416536598922271E-003   6.1338549897709857E-002
   2.0846380726701603E-002  -5.5896725642402417E-003   6.2357475090546934E-002
   1.4700370786292169E-002  -3.1408031352409202E-003   5.9061859089835488E-002
   1.4480944467523581E-002  -3.3349464867255610E-003   5.9923869756201113E-002
   1.4261518148754992E-002  -3.4972684775633860E-003   6.0872582938917036E-002
   1.4042091829986404E-002  -3.6277691077544879E-003   6.1907998637983255E-002
   1.3822665511217816E-002  -3.7264483772988036E-003   6.3030116853399876E-002
   7.3587458615581598E-003  -1.5704015690918040E-003   5.9564819640695002E-002
   7.2375273810232872E-003  -1.6674732449840114E-003   6.0445080718076832E-002
   7.1163089004884139E-003  -1.7486342404922691E-003   6.1435054955575760E-002
   6.9950904199535500E-003  -1.8138845556167414E-003   6.2534742353191841E-002
   6.8738719394186706E-003  -1.8632241903573689E-003   6.3744142910924992E-002
   5.4416922357081177E-012  -2.9427085768141126E-012   6.0172807207278405E-002
   6.9073175998357605E-012  -3.2424271600994814E-012   6.1055408015413558E-002
   8.3729412292399275E-012  -3.4211366378711361E-012   6.2070732627432595E-002
   9.8385665933675703E-012  -3.4789909668375696E-012   6.3218781043335531E-002
   1.1304190222771737E-011  -3.4159203243788738E-012   6.4499553263122331E-002
   2.7945017585870049E-002  -7.4528967511816729E-003   6.1726217622366311E-002
   2.7228112994328008E-002  -7.5721307591977358E-003   6.1490038952142625E-002
   2.6511208402785980E-002  -7.5987584261151785E-003   6.1539633362917033E-002
   2.5794303811243941E-002  -7.5327797519339759E-003   6.1875000854689527E-002
   2.5077399219701910E-002  -7.3741947366542104E-003   6.2496141427460045E-002
   2.0846380726701603E-002  -5.5896725642402417E-003   6.2357475090546934E-002
   2.0388612482888677E-002  -5.6790980699872040E-003   6.2250611879434495E-002
   1.9930844239075755E-002  -5.6990688194417626E-003   6.2376248282782210E-002
   1.9473075995262833E-002  -5.6495848126037812E-003   6.2734384300590113E-002
   1.9015307751449918E-002  -5.5306460494735088E-003   6.3325019932858148E-002
   1.3822665511217816E-002  -3.7264483772988036E-003   6.3030116853399876E-002
   1.3570760148596081E-002  -3.7860653807766202E-003   6.3029417516592426E-002
   1.3318854785974351E-002  -3.7993792127682096E-003   6.3207944327707238E-002
   1.3066949423352629E-002  -3.7663898732735314E-003   6.3565697286744216E-002
   1.2815044060730887E-002  -3.6870973622927100E-003   6.4102676393703539E-002
   6.8738719394186706E-003  -1.8632241903573689E-003   6.3744142910924992E-002
   6.7745559914502134E-003  -1.8930326915660208E-003   6.3826455863616391E-002
   6.6752400434817623E-003  -1.8996896060947113E-003   6.4034721497692071E-002
   6.5759240955133086E-003  -1.8831949339433091E-003   6.4368939813152129E-002
   6.4766081475448557E-003  -1.8435486751120014E-003   6.4829110809996454E-002
   1.1304190222771737E-011  -3.4159203243788738E-012   6.4499553263122331E-002
   1.1451086606717453E-011  -2.3554769246203477E-012   6.4641726920506321E-002
   1.1597984725386645E-011   5.7877660997185387E-013   6.4856579792736735E-002
   1.1744881109332361E-011   5.3869591079558354E-012   6.5144111879813463E-002
   1.1891779228001553E-011   1.2068790411490227E-011   6.5504323181736684E-002
   2.5077399219701910E-002  -7.3741947366542104E-003   6.2496141427460045E-002
   2.4316210694619422E-002  -7.1682839006504545E-003   6.2496472305595074E-002
   2.3555022169536949E-002  -6.9603277642975372E-003   6.2630595724723279E-002
   2.2793833644454479E-002  -6.7503263275953632E-003   6.2898511684844421E-002
   2.2032645119371988E-002  -6.5382795905438718E-003   6.3300220185958656E-002
   1.9015307751449918E-002  -5.5306460494735088E-003   6.3325019932858148E-002
   1.8402037914601613E-002  -5.3762129207857445E-003   6.3203094373353003E-002
   1.7788768077753311E-002  -5.2202458172756899E-003   6.3243213649323199E-002
   1.7175498240905016E-002  -5.0627447389434248E-003   6.3445377760768515E-002
   1.6562228404056710E-002  -4.9037096857887930E-003   6.3809586707689353E-002
   1.2815044060730887E-002  -3.6870973622927100E-003   6.4102676393703539E-002
   1.2377945206598979E-002  -3.5841419409210831E-003   6.3857983071031368E-002
   1.1940846352467073E-002  -3.4801638702540057E-003   6.3803586878316623E-002
   1.1503747498335166E-002  -3.3751631502915965E-003   6.3939487815559443E-002
   1.1066648644203248E-002  -3.2691397810337142E-003   6.4265685882759743E-002
   6.4766081475448557E-003  -1.8435486751120014E-003   6.4829110809996454E-002
   6.2439325706115370E-003  -1.7920709610563003E-003   6.4461138398630199E-002
   6.0112569936782295E-003  -1.7400819232322676E-003   6.4311715411703746E-002
   5.7785814167449229E-003  -1.6875815616397131E-003   6.4380841849216955E-002
   5.5459058398116051E-003  -1.6345698762786631E-003   6.4668517711169909E-002
   1.1891779228001553E-011   1.2068790411490227E-011   6.5504323181736684E-002
   6.6392794040304182E-012   1.8808288260174777E-011   6.5012560356149635E-002
   1.3867795800592830E-012   2.3789512026972659E-011   6.4767599249484442E-002
  -3.8657228459970661E-012   2.7012194564468572E-011   6.4769439861741218E-002
  -9.1182200678829872E-012   2.8476498936669259E-011   6.5018082192919935E-002
   2.2032645119371988E-002  -6.5382795905438718E-003   6.3300220185958656E-002
   2.1167282572314206E-002  -6.3155049976172384E-003   6.3041675974000566E-002
   2.0301920025256402E-002  -6.0733199932891391E-003   6.3024664840173494E-002
   1.9436557478198630E-002  -5.8117245775598653E-003   6.3249186784477607E-002
   1.8571194931140816E-002  -5.5307187504291533E-003   6.3715241806912681E-002
   1.6562228404056710E-002  -4.9037096857887930E-003   6.3809586707689353E-002
   1.5932100824501257E-002  -4.7366287409078139E-003   6.3536565450580132E-002
   1.5301973244945779E-002  -4.5549899873962157E-003   6.3492481050344579E-002
   1.4671845665390317E-002  -4.3587934252541198E-003   6.3677333506982778E-002
   1.4041718085834855E-002  -4.1480390544813006E-003   6.4091122820494367E-002
   1.1066648644203248E-002  -3.2691397810337142E-003   6.4265685882759743E-002
   1.0659159810892598E-002  -3.1577524841982507E-003   6.3973334977728905E-002
   1.0251670977581949E-002  -3.0366599815030704E-003   6.3897324708314024E-002
   9.8441821442713032E-003  -2.9058622729481523E-003   6.4037655074515282E-002
   9.4366933109606491E-003  -2.7653593585335312E-003   6.4394326076332525E-002
   5.5459058398116051E-003  -1.6345698762786631E-003   6.4668517711169909E-002
   5.3484595314882508E-003  -1.5788762274888679E-003   6.4351984555446426E-002
   5.1510132231648974E-003  -1.5183299756100915E-003   6.4239195814081468E-002
   4.9535669148415423E-003  -1.4529311206423513E-003   6.4330151487075105E-002
   4.7561206065181924E-003  -1.3826796625857757E-003   6.4624851574427128E-002
  -9.1182200678829872E-012   2.8476498936669259E-011   6.5018082192919935E-002
  -1.3711792118398236E-011   2.9220681430075501E-011   6.4672514183732988E-002
  -1.8305364168913485E-011   3.0283053842339314E-011   6.4518094367647161E-002
  -2.2898935352066996E-011   3.1663491273370425E-011   6.4554822744662371E-002
  -2.7492508269943983E-011   3.3362035356532260E-011   6.4782699314778536E-002
   1.8571194931140816E-002  -5.5307187504291533E-003   6.3715241806912681E-002
   1.7811885994445525E-002  -5.2404517634526415E-003   6.3702752908520344E-002
   1.7052577057750221E-002  -4.9510728681860516E-003   6.3949473484049640E-002
   1.6293268121054923E-002  -4.6625820646292379E-003   6.4455403533500794E-002
   1.5533959184359625E-002  -4.3749793527823599E-003   6.5220543056873470E-002
   1.4041718085834855E-002  -4.1480390544813006E-003   6.4091122820494367E-002
   1.3524273062733232E-002  -3.9303388136966433E-003   6.3984963352047258E-002
   1.3006828039631605E-002  -3.7133046415186999E-003   6.4103322236866170E-002
   1.2489383016529980E-002  -3.4969365379473455E-003   6.4446199474950533E-002
   1.1971937993428355E-002  -3.2812345029828993E-003   6.5013595066300722E-002
   9.4366933109606491E-003  -2.7653593585335312E-003   6.4394326076332525E-002
   9.1264210807966532E-003  -2.6202258639406589E-003   6.4194718060934269E-002
   8.8161488506326609E-003  -2.4755364148514175E-003   6.4184937278145698E-002
   8.5058766204686668E-003  -2.3312910112654565E-003   6.4364983727966729E-002
   8.1956043903046796E-003  -2.1874896531831889E-003   6.4734857410397237E-002
   4.7561206065181924E-003  -1.3826796625857757E-003   6.4624851574427128E-002
   4.6183300486357902E-003  -1.3101129141846399E-003   6.4332017035180850E-002
   4.4805394907533940E-003  -1.2377681881840449E-003   6.4194318607888004E-002
   4.3427489328709962E-003  -1.1656454845836214E-003   6.4211756292548924E-002
   4.2049583749885957E-003  -1.0937448033835478E-003   6.4384330089163139E-002
  -2.7492508269943983E-011   3.3362035356532260E-011   6.4782699314778536E-002
  -3.3749343597566650E-011   3.5571295908809475E-011   6.4396860274787249E-002
  -4.0006189333530173E-011   3.8483119468857296E-011   6.4131466226093392E-002
  -4.6263031600046745E-011   4.2098383806754569E-011   6.3986517168697202E-002
  -5.2519870397116364E-011   4.6415982168923620E-011   6.3962013102598414E-002
   1.5533959184359625E-002  -4.3749793527823599E-003   6.5220543056873470E-002
   1.4507522827156116E-002  -4.0787701030336465E-003   6.5630367203569628E-002
   1.3481086469952622E-002  -3.7644596857703411E-003   6.6625546707231559E-002
   1.2454650112749120E-002  -3.4320481009930993E-003   6.8206081567858942E-002
   1.1428213755545591E-002  -3.0815353487014807E-003   7.0371971785452736E-002
   1.1971937993428355E-002  -3.2812345029828993E-003   6.5013595066300722E-002
   1.1448670425987947E-002  -3.0590775651636315E-003   6.5142758754516666E-002
   1.0925402858547546E-002  -2.8233447530289085E-003   6.5692904665293178E-002
   1.0402135291107145E-002  -2.5740360665786298E-003   6.6664032798630243E-002
   9.8788677236667510E-003  -2.3111515058124033E-003   6.8056143154527571E-002
   8.1956043903046796E-003  -2.1874896531831889E-003   6.4734857410397237E-002
   8.0111324782221049E-003  -2.0393850272939773E-003   6.4578835346934635E-002
   7.8266605661395407E-003  -1.8822298202876911E-003   6.4679422371627243E-002
   7.6421886540569747E-003  -1.7160240321641030E-003   6.5036618484474951E-002
   7.4577167419744017E-003  -1.5407676629233258E-003   6.5650423685477854E-002
   4.2049583749885957E-003  -1.0937448033835478E-003   6.4384330089163139E-002
   4.1949089838585960E-003  -1.0196924894242537E-003   6.3938596980823589E-002
   4.1848595927286006E-003  -9.4111488754631059E-004   6.3585099826233699E-002
   4.1748102015985895E-003  -8.5801199774966034E-004   6.3323838625393661E-002
   4.1647608104686054E-003  -7.7038382003424832E-004   6.3154813378304198E-002
  -5.2519870397116364E-011   4.6415982168923620E-011   6.3962013102598414E-002
  -5.7102579609225046E-011   4.8445247813333481E-011   6.3222043656183224E-002
  -6.1685288821333728E-011   4.5194820108562794E-011   6.2409937029112572E-002
  -6.6267992829271982E-011   3.6664719871293272E-011   6.1525693221386624E-002
  -7.0850714184444996E-011   2.2854829140328548E-011   6.0569312233005324E-002
   2.1454097179351983E-012   0.0000000000000000        2.8441814343631248E-002
   2.4761798514405520E-012  -5.4772766183708299E-013   3.3402486750693558E-002
   2.8069491175841677E-012  -1.0136110700775802E-012   3.8370790326355375E-002
   3.1377188174086523E-012  -1.3976545615301816E-012   4.3346725070616716E-002
   3.4684893845948750E-012  -1.6998468604922934E-012   4.8330290983477540E-002
  -6.8008149358866499E-003   0.0000000000000000        2.8505873697576824E-002
  -6.8326827106899475E-003   1.4660731105786955E-004   3.3540406306846272E-002
  -6.8645504854932485E-003   3.3019182727186437E-004   3.8503572197248065E-002
  -6.8964182602965479E-003   5.5075354864198619E-004   4.3395371368782215E-002
  -6.9282860350998454E-003   8.0829247516823674E-004   4.8215803821448709E-002
  -1.3506759330596984E-002   0.0000000000000000        2.8698051760590860E-002
  -1.3649492768001507E-002   2.9321462266346547E-004   3.3843421777141711E-002
  -1.3792226205406032E-002   6.6038365555733895E-004   3.8838427187357770E-002
  -1.3934959642810557E-002   1.1015070986816191E-003   4.3683067991239014E-002
  -1.4077693080215083E-002   1.6165849520363091E-003   4.8377344188785469E-002
  -2.0117833181985602E-002   0.0000000000000000        2.9018348532673349E-002
  -2.0450430169458501E-002   4.3982193426906117E-004   3.4311533161579900E-002
  -2.0783027156931404E-002   9.9057548384281048E-004   3.9375355296684483E-002
  -2.1115624144404311E-002   1.6522606487212542E-003   4.4209814937987119E-002
  -2.1448221131877210E-002   2.4248774289043853E-003   4.8814912085487785E-002
  -2.6634036490052495E-002   0.0000000000000000        2.9466764013824295E-002
  -2.7235494915060932E-002   5.8642924587465860E-004   3.4944740460160814E-002
  -2.7836953340069370E-002   1.3207673121282890E-003   4.0114356525228226E-002
  -2.8438411765077803E-002   2.2030141987608928E-003   4.4975612209026523E-002
  -2.9039870190086244E-002   3.2331699057724685E-003   4.9528507511555714E-002
   3.4684893845948750E-012  -1.6998468604922934E-012   4.8330290983477540E-002
   3.9617887963305787E-012  -1.9734951520189448E-012   5.1497012834370068E-002
   4.4550908101514963E-012  -2.2718437374391609E-012   5.4526339488634390E-002
   4.9483902218872000E-012  -2.5949124576526983E-012   5.7418270946270493E-002
   5.4416922357081177E-012  -2.9427085768141126E-012   6.0172807207278405E-002
  -6.9282860350998454E-003   8.0829247516823674E-004   4.8215803821448709E-002
  -7.0359009890899058E-003   1.0629449400741779E-003   5.1169809843728445E-002
  -7.1435159430799627E-003   1.2748472765833846E-003   5.4045981153669688E-002
  -7.2511308970700222E-003   1.4439994846958978E-003   5.6844317751272397E-002
  -7.3587458510600756E-003   1.5704015644116762E-003   5.9564819636536585E-002
  -1.4077693080215083E-002   1.6165849520363091E-003   4.8377344188785469E-002
  -1.4233362504398809E-002   2.1258898821218306E-003   5.1075884254080425E-002
  -1.4389031928582534E-002   2.5496945554386264E-003   5.3756150091326560E-002
  -1.4544701352766263E-002   2.8879989719867083E-003   5.6418141700523887E-002
  -1.4700370776949984E-002   3.1408031317660505E-003   5.9061859081672358E-002
  -2.1448221131877210E-002   2.4248774289043853E-003   4.8814912085487785E-002
  -2.1592384541964917E-002   3.1888348241694937E-003   5.1215236065425968E-002
  -2.1736547952052619E-002   3.8245418342938721E-003   5.3656846301605027E-002
  -2.1880711362140332E-002   4.3319984592775250E-003   5.6139742794024929E-002
  -2.2024874772228038E-002   4.7112046991204231E-003   5.8663925542685687E-002
  -2.9039870190086244E-002   3.2331699057724685E-003   4.9528507511555714E-002
  -2.9112967101788234E-002   4.2517797662171564E-003   5.1587865277765099E-002
  -2.9186064013490231E-002   5.0993891131490910E-003   5.3748069784505040E-002
  -2.9259160925192231E-002   5.7759979465683269E-003   5.6009121031775563E-002
  -2.9332257836894225E-002   6.2816062664748096E-003   5.8371019019576600E-002
   5.4416922357081177E-012  -2.9427085768141126E-012   6.0172807207278405E-002
   6.9073175998357605E-012  -3.2424271600994814E-012   6.1055408015413558E-002
   8.3729412292399275E-012  -3.4211366378711361E-012   6.2070732627432595E-002
   9.8385665933675703E-012  -3.4789909668375696E-012   6.3218781043335531E-002
   1.1304190222771737E-011  -3.4159203243788738E-012   6.4499553263122331E-002
  -7.3587458510600756E-003   1.5704015644116762E-003   5.9564819636536585E-002
  -7.2375273677546832E-003   1.6674732398942807E-003   6.0445080713265147E-002
  -7.1163088844492881E-003   1.7486342353072292E-003   6.1435054949789319E-002
  -6.9950904011438940E-003   1.8138845506505507E-003   6.2534742346109201E-002
  -6.8738719178384963E-003   1.8632241859241894E-003   6.3744142902224729E-002
  -1.4700370776949984E-002   3.1408031317660505E-003   5.9061859081672358E-002
  -1.4480944455893052E-002   3.3349464830309157E-003   5.9923869746803735E-002
  -1.4261518134836119E-002   3.4972684740355942E-003   6.0872582927642506E-002
  -1.4042091813779179E-002   3.6277691047800643E-003   6.1907998624188769E-002
  -1.3822665492722246E-002   3.7264483752643199E-003   6.3030116836442315E-002
  -2.2024874772228038E-002   4.7112046991204231E-003   5.8663925542685687E-002
  -2.1730251257507792E-002   5.0024197261675871E-003   5.9491775116029329E-002
  -2.1435627742787552E-002   5.2459027127639730E-003   6.0383316560992134E-002
  -2.1141004228067316E-002   5.4416536589095921E-003   6.1338549877574165E-002
  -2.0846380713347077E-002   5.5896725646044122E-003   6.2357475065775318E-002
  -2.9332257836894225E-002   6.2816062664748096E-003   5.8371019019576600E-002
  -2.8985447772598909E-002   6.6698929693042620E-003   5.9148796820941915E-002
  -2.8638637708303584E-002   6.9945369514923632E-003   5.9967255849838176E-002
  -2.8291827644008262E-002   7.2555382130391572E-003   6.0826396106265362E-002
  -2.7945017579712943E-002   7.4528967539445462E-003   6.1726217590223606E-002
   1.1304190222771737E-011  -3.4159203243788738E-012   6.4499553263122331E-002
   1.1451086606717453E-011  -2.3554769246203477E-012   6.4641726920506321E-002
   1.1597984725386645E-011   5.7877660997185387E-013   6.4856579792736735E-002
   1.1744881109332361E-011   5.3869591079558354E-012   6.5144111879813463E-002
   1.1891779228001553E-011   1.2068790411490227E-011   6.5504323181736684E-002
  -6.8738719178384963E-003   1.8632241859241894E-003   6.3744142902224729E-002
  -6.7745559696696465E-003   1.8930326893247668E-003   6.3826455856141842E-002
  -6.6752400215007984E-003   1.8996896090487381E-003   6.4034721491256427E-002
  -6.5759240733319511E-003   1.8831949450962143E-003   6.4368939807568623E-002
  -6.4766081251631004E-003   1.8435486974671678E-003   6.4829110805078222E-002
  -1.3822665492722246E-002   3.7264483752643199E-003   6.3030116836442315E-002
  -1.3570760130180336E-002   3.7860653810049966E-003   6.3029417501342194E-002
  -1.3318854767638413E-002   3.7993792175187533E-003   6.3207944313790718E-002
  -1.3066949405096501E-002   3.7663898848055940E-003   6.3565697273787886E-002
  -1.2815044042554581E-002   3.6870973828655174E-003   6.4102676381333615E-002
  -2.0846380713347077E-002   5.5896725646044122E-003   6.2357475065775318E-002
  -2.0388612470080961E-002   5.6790980726852611E-003   6.2250611856107571E-002
  -1.9930844226814855E-002   5.6990688259887139E-003   6.2376248260339585E-002
  -1.9473075983548749E-002   5.6495848245149390E-003   6.2734384278471375E-002
  -1.9015307740282636E-002   5.5306460682638253E-003   6.3325019910502864E-002
  -2.7945017579712943E-002   7.4528967539445462E-003   6.1726217590223606E-002
  -2.7228112989371535E-002   7.5721307643654562E-003   6.1490038920437862E-002
  -2.6511208399030130E-002   7.5987584344587682E-003   6.1539633330902989E-002
  -2.5794303808688721E-002   7.5327797642242523E-003   6.1875000821619008E-002
  -2.5077399218347302E-002   7.3741947536622443E-003   6.2496141392585830E-002
   1.1891779228001553E-011   1.2068790411490227E-011   6.5504323181736684E-002
   6.6392794040304182E-012   1.8808288260174777E-011   6.5012560356149635E-002
   1.3867795800592830E-012   2.3789512026972659E-011   6.4767599249484442E-002
  -3.8657228459970661E-012   2.7012194564468572E-011   6.4769439861741218E-002
  -9.1182200678829872E-012   2.8476498936669259E-011   6.5018082192919935E-002
  -6.4766081251631004E-003   1.8435486974671678E-003   6.4829110805078222E-002
  -6.2439325581942137E-003   1.7920709943990698E-003   6.4461138387974126E-002
  -6.0112569912253236E-003   1.7400819641294613E-003   6.4311715396390801E-002
  -5.7785814242564369E-003   1.6875816066584289E-003   6.4380841830328384E-002
  -5.5459058572875537E-003   1.6345699219860177E-003   6.4668517689786958E-002
  -1.2815044042554581E-002   3.6870973828655174E-003   6.4102676381333615E-002
  -1.2377945196765359E-002   3.5841419699896848E-003   6.3857983047269390E-002
  -1.1940846350976147E-002   3.4801639044694174E-003   6.3803586845324972E-002
  -1.1503747505186922E-002   3.3751631863047204E-003   6.3939487775500348E-002
  -1.1066648659397708E-002   3.2691398154955087E-003   6.4265685837795544E-002
  -1.9015307740282636E-002   5.5306460682638253E-003   6.3325019910502864E-002
  -1.8402037909074159E-002   5.3762129455803970E-003   6.3203094334035467E-002
  -1.7788768077865669E-002   5.2202458448094534E-003   6.3243213596286915E-002
  -1.7175498246657189E-002   5.0627447659509833E-003   6.3445377697257069E-002
  -1.6562228415448698E-002   4.9037097090050136E-003   6.3809586636945997E-002
  -2.5077399218347302E-002   7.3741947536622443E-003   6.2496141392585830E-002
  -2.4316210695120608E-002   7.1682839211710120E-003   6.2496472248272428E-002
  -2.3555022171893911E-002   6.9603277851493367E-003   6.2630595649276616E-002
  -2.2793833648667210E-002   6.7503263455972635E-003   6.2898511595598533E-002
  -2.2032645125440512E-002   6.5382796025145185E-003   6.3300220087238124E-002
  -9.1182200678829872E-012   2.8476498936669259E-011   6.5018082192919935E-002
  -1.3711792118398236E-011   2.9220681430075501E-011   6.4672514183732988E-002
  -1.8305364168913485E-011   3.0283053842339314E-011   6.4518094367647161E-002
  -2.2898935352066996E-011   3.1663491273370425E-011   6.4554822744662371E-002
  -2.7492508269943983E-011   3.3362035356532260E-011   6.4782699314778536E-002
  -5.5459058572875537E-003   1.6345699219860177E-003   6.4668517689786958E-002
  -5.3484595579767723E-003   1.5788762728609906E-003   6.4351984536769713E-002
  -5.1510132586659926E-003   1.5183300220319024E-003   6.4239195798460103E-002
  -4.9535669593552137E-003   1.4529311694992421E-003   6.4330151474858238E-002
  -4.7561206600444314E-003   1.3826797152626802E-003   6.4624851565964064E-002
  -1.1066648659397708E-002   3.2691398154955087E-003   6.4265685837795544E-002
  -1.0659159834575924E-002   3.1577525165011611E-003   6.3973334938925999E-002
  -1.0251671009754137E-002   3.0366600137810285E-003   6.3897324676370798E-002
  -9.8441821849323524E-003   2.9058623073350484E-003   6.4037655050129996E-002
  -9.4366933601105676E-003   2.7653593971632418E-003   6.4394326060203358E-002
  -1.6562228415448698E-002   4.9037097090050136E-003   6.3809586636945997E-002
  -1.5932100843509253E-002   4.7366287601414564E-003   6.3536565390202124E-002
  -1.5301973271569808E-002   4.5549900055300158E-003   6.3492481001379275E-002
  -1.4671845699630362E-002   4.3587934451708547E-003   6.3677333470477424E-002
  -1.4041718127690927E-002   4.1480390790638449E-003   6.4091122797496569E-002
  -2.2032645125440512E-002   6.5382796025145185E-003   6.3300220087238124E-002
  -2.1167282584776750E-002   6.3155050037816129E-003   6.3041675890598031E-002
  -2.0301920044112999E-002   6.0733199972790308E-003   6.3024664773485589E-002
  -1.9436557503449241E-002   5.8117245830066402E-003   6.3249186735900714E-002
  -1.8571194962785482E-002   5.5307187609644481E-003   6.3715241777843545E-002
  -2.7492508269943983E-011   3.3362035356532260E-011   6.4782699314778536E-002
  -3.3749343597566650E-011   3.5571295908809475E-011   6.4396860274787249E-002
  -4.0006189333530173E-011   3.8483119468857296E-011   6.4131466226093392E-002
  -4.6263031600046745E-011   4.2098383806754569E-011   6.3986517168697202E-002
  -5.2519870397116364E-011   4.6415982168923620E-011   6.3962013102598414E-002
  -4.7561206600444314E-003   1.3826797152626802E-003   6.4624851565964064E-002
  -4.6183301148263536E-003   1.3101129719819138E-003   6.4332017030795163E-002
  -4.4805395696082863E-003   1.2377682523167649E-003   6.4194318607278519E-002
  -4.3427490243902120E-003   1.1656455562672925E-003   6.4211756295414202E-002
  -4.2049584791721412E-003   1.0937448838335140E-003   6.4384330095202114E-002
  -9.4366933601105676E-003   2.7653593971632418E-003   6.4394326060203358E-002
  -9.1264211430628281E-003   2.6202259083927676E-003   6.4194718052769675E-002
  -8.8161489260150661E-003   2.4755364661505144E-003   6.4184937277342896E-002
  -8.5058767089673110E-003   2.3312910704366436E-003   6.4364983733923228E-002
  -8.1956044919195697E-003   2.1874897212510458E-003   6.4734857422510617E-002
  -1.4041718127690927E-002   4.1480390790638449E-003   6.4091122797496569E-002
  -1.3524273118458741E-002   3.9303388448035034E-003   6.3984963340710674E-002
  -1.3006828109226548E-002   3.7133046799842674E-003   6.4103322236286370E-002
  -1.2489383099994361E-002   3.4969365846058845E-003   6.4446199484224184E-002
  -1.1971938090762175E-002   3.2812345586685776E-003   6.5013595084523590E-002
  -1.8571194962785482E-002   5.5307187609644481E-003   6.3715241777843545E-002
  -1.7811886041014108E-002   5.2404517812142115E-003   6.3702752894618075E-002
  -1.7052577119242723E-002   4.9510728938179094E-003   6.3949473484109259E-002
  -1.6293268197471338E-002   4.6625820987749866E-003   6.4455403546317014E-002
  -1.5533959275699956E-002   4.3749793960861094E-003   6.5220543081241367E-002
  -5.2519870397116364E-011   4.6415982168923620E-011   6.3962013102598414E-002
  -5.7102579609225046E-011   4.8445247813333481E-011   6.3222043656183224E-002
  -6.1685288821333728E-011   4.5194820108562794E-011   6.2409937029112572E-002
  -6.6267992829271982E-011   3.6664719871293272E-011   6.1525693221386624E-002
  -7.0850714184444996E-011   2.2854829140328548E-011   6.0569312233005324E-002
  -4.2049584791721412E-003   1.0937448838335140E-003   6.4384330095202114E-002
  -4.1949090972092581E-003   1.0196925735931062E-003   6.3938596977638401E-002
  -4.1848597152463717E-003   9.4111496412388473E-004   6.3585099813821044E-002
  -4.1748103332834956E-003   8.5801205542585662E-004   6.3323838603750709E-002
  -4.1647609513206021E-003   7.7038384749927857E-004   6.3154813347426120E-002
  -8.1956044919195697E-003   2.1874897212510458E-003   6.4734857422510617E-002
  -8.0111325890092362E-003   2.0393850987406870E-003   6.4578835339849344E-002
  -7.8266606860988974E-003   1.8822298830527967E-003   6.4679422345336468E-002
  -7.6421887831885828E-003   1.7160240741870524E-003   6.5036618438972071E-002
  -7.4577168802782388E-003   1.5407676721435060E-003   6.5650423620755738E-002
  -1.1971938090762175E-002   3.2812345586685776E-003   6.5013595084523590E-002
  -1.1448670532502540E-002   3.0590776238884065E-003   6.5142758742815804E-002
  -1.0925402974242888E-002   2.8233448019817850E-003   6.5692904623658330E-002
  -1.0402135415983263E-002   2.5740360929481076E-003   6.6664032727051195E-002
  -9.8788678577236139E-003   2.3111514967877889E-003   6.8056143052994164E-002
  -1.5533959275699956E-002   4.3749793960861094E-003   6.5220543081241367E-002
  -1.4507522927689146E-002   4.0787701490359596E-003   6.5630367186538086E-002
  -1.3481086579678343E-002   3.7644597209106900E-003   6.6625546648787004E-002
  -1.2454650231667527E-002   3.4320481117092252E-003   6.8206081467987956E-002
  -1.1428213883656738E-002   3.0815353214321828E-003   7.0371971644141107E-002
  -2.6634036490052495E-002   0.0000000000000000        2.9466764013824295E-002
  -2.7235494915060932E-002   5.8642924587465860E-004   3.4944740460160814E-002
  -2.7836953340069370E-002   1.3207673121282890E-003   4.0114356525228226E-002
  -2.8438411765077803E-002   2.2030141987608928E-003   4.4975612209026523E-002
  -2.9039870190086244E-002   3.2331699057724685E-003   4.9528507511555714E-002
  -3.3393042863344768E-002   0.0000000000000000        3.0177674899372127E-002
  -3.4237572397529129E-002   9.6097211946204273E-004   3.5266043538270384E-002
  -3.5082101931713475E-002   2.0251946070271882E-003   4.0176630340085930E-002
  -3.5926631465897828E-002   3.1926674626954407E-003   4.4909435304818751E-002
  -3.6771161000082181E-002   4.4633906864667934E-003   4.9464458432468855E-002
  -4.0732525910409545E-002   0.0000000000000000        3.1285457884645276E-002
  -4.1689548009583424E-002   1.3355149930494256E-003   3.5939560263829405E-002
  -4.2646570108757297E-002   2.7296219019260874E-003   4.0546459350117206E-002
  -4.3603592207931169E-002   4.1823207266299886E-003   4.5106155143508700E-002
  -4.4560614307105048E-002   5.6936114671611252E-003   4.9618647644003838E-002
  -4.8652485631246814E-002   0.0000000000000000        3.2790112969643737E-002
  -4.9591421751223809E-002   1.7100578666368095E-003   3.6965290636837872E-002
  -5.0530357871200818E-002   3.4340491968249901E-003   4.1223843555322083E-002
  -5.1469293991177827E-002   5.1719739905645382E-003   4.5565771725096349E-002
  -5.2408230111154828E-002   6.9238322478554605E-003   4.9991075146160704E-002
  -5.7152922025856576E-002   0.0000000000000000        3.4691640154367528E-002
  -5.7943193622450317E-002   2.0846007402241943E-003   3.8343234657295805E-002
  -5.8733465219044059E-002   4.1384764917238859E-003   4.2208782955700540E-002
  -5.9523736815637801E-002   6.1616272544990844E-003   4.6288285049581733E-002
  -6.0314008412231536E-002   8.1540530285497854E-003   5.0581740938939385E-002
  -2.9039870190086244E-002   3.2331699057724685E-003   4.9528507511555714E-002
  -2.9112967101788234E-002   4.2517797662171564E-003   5.1587865277765099E-002
  -2.9186064013490231E-002   5.0993891131490910E-003   5.3748069784505040E-002
  -2.9259160925192231E-002   5.7759979465683269E-003   5.6009121031775563E-002
  -2.9332257836894225E-002   6.2816062664748096E-003   5.8371019019576600E-002
  -3.6771161000082181E-002   4.4633906864667934E-003   4.9464458432468855E-002
  -3.6782856181545802E-002   5.6972711113814183E-003   5.1252240451694492E-002
  -3.6794551363009416E-002   6.7542155704794380E-003   5.3061979190866339E-002
  -3.6806246544473030E-002   7.6342240637608935E-003   5.4893674649984375E-002
  -3.6817941725936644E-002   8.3372965912257568E-003   5.6747326829048650E-002
  -4.4560614307105048E-002   5.6936114671611252E-003   4.9618647644003838E-002
  -4.4589797778914628E-002   7.1427624565456732E-003   5.1128918463941887E-002
  -4.4618981250724200E-002   8.4090420278097773E-003   5.2582255983241795E-002
  -4.4648164722533773E-002   9.4924501809534600E-003   5.3978660201903547E-002
  -4.4677348194343360E-002   1.0392986915976718E-002   5.5318131119927186E-002
  -5.2408230111154828E-002   6.9238322478554605E-003   4.9991075146160704E-002
  -5.2533791893894725E-002   8.5882538017099212E-003   5.1217899314507272E-002
  -5.2659353676634602E-002   1.0063868485140121E-002   5.2308900161631380E-002
  -5.2784915459374498E-002   1.1350676298146040E-002   5.3264077687532996E-002
  -5.2910477242114395E-002   1.2448677240727679E-002   5.4083431892212146E-002
  -6.0314008412231536E-002   8.1540530285497854E-003   5.0581740938939385E-002
  -6.0614838526486095E-002   1.0033745146874183E-002   5.1519183003390666E-002
  -6.0915668640740619E-002   1.1718694942470458E-002   5.2241911726035144E-002
  -6.1216498754995165E-002   1.3208902415338597E-002   5.2749927106872770E-002
  -6.1517328869249703E-002   1.4504367565478626E-002   5.3043229145903578E-002
  -2.9332257836894225E-002   6.2816062664748096E-003   5.8371019019576600E-002
  -2.8985447772598909E-002   6.6698929693042620E-003   5.9148796820941915E-002
  -2.8638637708303584E-002   6.9945369514923632E-003   5.9967255849838176E-002
  -2.8291827644008262E-002   7.2555382130391572E-003   6.0826396106265362E-002
  -2.7945017579712943E-002   7.4528967539445462E-003   6.1726217590223606E-002
  -3.6817941725936644E-002   8.3372965912257568E-003   5.6747326829048650E-002
  -3.6379610357167400E-002   8.8793984791750470E-003   5.7097898111064666E-002
  -3.5941278988398155E-002   9.2764950539098168E-003   5.7590830774497573E-002
  -3.5502947619628904E-002   9.5285863154300210E-003   5.8226124819347358E-002
  -3.5064616250859666E-002   9.6356722637356840E-003   5.9003780245614035E-002
  -4.4677348194343360E-002   1.0392986915976718E-002   5.5318131119927186E-002
  -4.4045815367214268E-002   1.1088903989045886E-002   5.5160133290020688E-002
  -4.3414282540085170E-002   1.1558453156327272E-002   5.5246176995417014E-002
  -4.2782749712956092E-002   1.1801634417820927E-002   5.5576262236116163E-002
  -4.2151216885827000E-002   1.1818447773526829E-002   5.6150389012118079E-002
  -5.2910477242114395E-002   1.2448677240727679E-002   5.4083431892212146E-002
  -5.1984062802739525E-002   1.3298409498916690E-002   5.3335502357809948E-002
  -5.1057648363364655E-002   1.3840411258744727E-002   5.2933294512596540E-002
  -5.0131233923989792E-002   1.4074682520211839E-002   5.2876808356571825E-002
  -4.9204819484614928E-002   1.4001223283317984E-002   5.3166043889735823E-002
  -6.1517328869249703E-002   1.4504367565478626E-002   5.3043229145903578E-002
  -6.0194352663743157E-002   1.5507915008787499E-002   5.1624005314432536E-002
  -5.8871376458236604E-002   1.6122369361162198E-002   5.0652183326036070E-002
  -5.7548400252730059E-002   1.6347730622602707E-002   5.0127763180714296E-002
  -5.6225424047223492E-002   1.6183998793109125E-002   5.0050744878467182E-002
  -2.7945017579712943E-002   7.4528967539445462E-003   6.1726217590223606E-002
  -2.7228112989371535E-002   7.5721307643654562E-003   6.1490038920437862E-002
  -2.6511208399030130E-002   7.5987584344587682E-003   6.1539633330902989E-002
  -2.5794303808688721E-002   7.5327797642242523E-003   6.1875000821619008E-002
  -2.5077399218347302E-002   7.3741947536622443E-003   6.2496141392585830E-002
  -3.5064616250859666E-002   9.6356722637356840E-003   5.9003780245614035E-002
  -3.4084408181327019E-002   9.6372011624757323E-003   5.8698772447825918E-002
  -3.3104200111794366E-002   9.5726212752991618E-003   5.8634598528169400E-002
  -3.2123992042261733E-002   9.4419326022061219E-003   5.8811258486644494E-002
  -3.1143783972729062E-002   9.2451351431963313E-003   5.9228752323251213E-002
  -4.2151216885827000E-002   1.1818447773526829E-002   5.6150389012118079E-002
  -4.0952644539222371E-002   1.1702271560586085E-002   5.5803049640738650E-002
  -3.9754072192617736E-002   1.1546484116139724E-002   5.5651604945371559E-002
  -3.8555499846013093E-002   1.1351085440187798E-002   5.5696054926016862E-002
  -3.7356927499408485E-002   1.1116075532730335E-002   5.5936399582674462E-002
  -4.9204819484614928E-002   1.4001223283317984E-002   5.3166043889735823E-002
  -4.7832822063057570E-002   1.3767341958696385E-002   5.2802870499176049E-002
  -4.6460824641500205E-002   1.3520346956980202E-002   5.2590652582509417E-002
  -4.5088827219942861E-002   1.3260238278169570E-002   5.2529390139735850E-002
  -4.3716829798385475E-002   1.2987015922264367E-002   5.2619083170855480E-002
  -5.6225424047223492E-002   1.6183998793109125E-002   5.0050744878467182E-002
  -5.4724940752832671E-002   1.5832412356806672E-002   4.9698235023138179E-002
  -5.3224457458441801E-002   1.5494209797820759E-002   4.9451741439583023E-002
  -5.1723974164050980E-002   1.5169391116151308E-002   4.9311264127801749E-002
  -5.0223490869660131E-002   1.4857956311798454E-002   4.9276803087794335E-002
  -2.5077399218347302E-002   7.3741947536622443E-003   6.2496141392585830E-002
  -2.4316210695120608E-002   7.1682839211710120E-003   6.2496472248272428E-002
  -2.3555022171893911E-002   6.9603277851493367E-003   6.2630595649276616E-002
  -2.2793833648667210E-002   6.7503263455972635E-003   6.2898511595598533E-002
  -2.2032645125440512E-002   6.5382796025145185E-003   6.3300220087238124E-002
  -3.1143783972729062E-002   9.2451351431963313E-003   5.9228752323251213E-002
  -3.0232720045896350E-002   9.0073729618543041E-003   5.9089474283789384E-002
  -2.9321656119063635E-002   8.7537901217646930E-003   5.9116154506221909E-002
  -2.8410592192230924E-002   8.4843866229273174E-003   5.9308792990548850E-002
  -2.7499528265398209E-002   8.1991624653423301E-003   5.9667389736770077E-002
  -3.7356927499408485E-002   1.1116075532730335E-002   5.5936399582674462E-002
  -3.6263822452393048E-002   1.0846462002537603E-002   5.5643737292847051E-002
  -3.5170717405377659E-002   1.0547252458380015E-002   5.5549198981490654E-002
  -3.4077612358362229E-002   1.0218446900257536E-002   5.5652784648605236E-002
  -3.2984507311346799E-002   9.8600453281701417E-003   5.5954494294190957E-002
  -4.3716829798385475E-002   1.2987015922264367E-002   5.2619083170855480E-002
  -4.2409517914610721E-002   1.2685551043220816E-002   5.2159261275445311E-002
  -4.1102206030835940E-002   1.2340714794995353E-002   5.1929729075082851E-002
  -3.9794894147061180E-002   1.1952507177587671E-002   5.1930486569768078E-002
  -3.8487582263286406E-002   1.1520928190997953E-002   5.2161533759501034E-002
  -5.0223490869660131E-002   1.4857956311798454E-002   4.9276803087794335E-002
  -4.8669806432549312E-002   1.4524640083904153E-002   4.8636046231584212E-002
  -4.7116121995438520E-002   1.4134177131610644E-002   4.8257744786998472E-002
  -4.5562437558327701E-002   1.3686567454917866E-002   4.8141898754037064E-002
  -4.4008753121216909E-002   1.3181811053825765E-002   4.8288508132700025E-002
  -2.2032645125440512E-002   6.5382796025145185E-003   6.3300220087238124E-002
  -2.1167282584776750E-002   6.3155050037816129E-003   6.3041675890598031E-002
  -2.0301920044112999E-002   6.0733199972790308E-003   6.3024664773485589E-002
  -1.9436557503449241E-002   5.8117245830066402E-003   6.3249186735900714E-002
  -1.8571194962785482E-002   5.5307187609644481E-003   6.3715241777843545E-002
  -2.7499528265398209E-002   8.1991624653423301E-003   5.9667389736770077E-002
  -2.6401032956479865E-002   7.9001729544512095E-003   5.9366789095048791E-002
  -2.5302537647561546E-002   7.5894733956954272E-003   5.9290920910308978E-002
  -2.4204042338643216E-002   7.2670637890752659E-003   5.9439785182550713E-002
  -2.3105547029724876E-002   6.9329441345904463E-003   5.9813381911774072E-002
  -3.2984507311346799E-002   9.8600453281701417E-003   5.5954494294190957E-002
  -3.1669679856720034E-002   9.4848409051206256E-003   5.5619537567293716E-002
  -3.0354852402093246E-002   9.1056267941118235E-003   5.5492512674831934E-002
  -2.9040024947466492E-002   8.7224029951437805E-003   5.5573419616805488E-002
  -2.7725197492839693E-002   8.3351695082162780E-003   5.5862258393214487E-002
  -3.8487582263286406E-002   1.1520928190997953E-002   5.2161533759501034E-002
  -3.6973223285497264E-002   1.1069508855790104E-002   5.1799921307333088E-002
  -3.5458864307708143E-002   1.0621780192528192E-002   5.1629440067054402E-002
  -3.3944505329919036E-002   1.0177742201212129E-002   5.1650090038665032E-002
  -3.2430146352129922E-002   9.7373948818421374E-003   5.1861871222164846E-002
  -4.4008753121216909E-002   1.3181811053825765E-002   4.8288508132700025E-002
  -4.2311663242811548E-002   1.2654176806459583E-002   4.7907940315166597E-002
  -4.0614573364406228E-002   1.2137933590944561E-002   4.7701703086976355E-002
  -3.8917483486000909E-002   1.1633081407280879E-002   4.7669796448129312E-002
  -3.7220393607595562E-002   1.1139620255468052E-002   4.7812220398625260E-002
  -1.8571194962785482E-002   5.5307187609644481E-003   6.3715241777843545E-002
  -1.7811886041014108E-002   5.2404517812142115E-003   6.3702752894618075E-002
  -1.7052577119242723E-002   4.9510728938179094E-003   6.3949473484109259E-002
  -1.6293268197471338E-002   4.6625820987749866E-003   6.4455403546317014E-002
  -1.5533959275699956E-002   4.3749793960861094E-003   6.5220543081241367E-002
  -2.3105547029724876E-002   6.9329441345904463E-003   5.9813381911774072E-002
  -2.2107707290209482E-002   6.5904338999309420E-003   5.9692824467335037E-002
  -2.1109867550694127E-002   6.2428525527864764E-003   5.9790119185667470E-002
  -2.0112027811178740E-002   5.8902000931573620E-003   6.0105266066771308E-002
  -1.9114188071663374E-002   5.5324765210432725E-003   6.0638265110646572E-002
  -2.7725197492839693E-002   8.3351695082162780E-003   5.5862258393214487E-002
  -2.6530184245525480E-002   7.9404160186473532E-003   5.5627673182723381E-002
  -2.5335170998211282E-002   7.5346322117552100E-003   5.5569582825058514E-002
  -2.4140157750897090E-002   7.1178180875395708E-003   5.5687987320219887E-002
  -2.2945144503582902E-002   6.6899736460004355E-003   5.5982886668207554E-002
  -3.2430146352129922E-002   9.7373948818421374E-003   5.1861871222164846E-002
  -3.1079316906962057E-002   9.2903981373638686E-003   5.1507299040783126E-002
  -2.9728487461794201E-002   8.8264118707239159E-003   5.1287864402282404E-002
  -2.8377658016626350E-002   8.3454360819216963E-003   5.1203567306662694E-002
  -2.7026828571458480E-002   7.8474707709575986E-003   5.1254407753924154E-002
  -3.7220393607595562E-002   1.1139620255468052E-002   4.7812220398625260E-002
  -3.5755105274519236E-002   1.0640380256080439E-002   4.7331702041514212E-002
  -3.4289816941442890E-002   1.0118191529692455E-002   4.6944963917339072E-002
  -3.2824528608366571E-002   9.5730540763040856E-003   4.6652006026099813E-002
  -3.1359240275290232E-002   9.0049678959147061E-003   4.6452828367796462E-002
  -1.5533959275699956E-002   4.3749793960861094E-003   6.5220543081241367E-002
  -1.4507522927689146E-002   4.0787701490359596E-003   6.5630367186538086E-002
  -1.3481086579678343E-002   3.7644597209106900E-003   6.6625546648787004E-002
  -1.2454650231667527E-002   3.4320481117092252E-003   6.8206081467987956E-002
  -1.1428213883656738E-002   3.0815353214321828E-003   7.0371971644141107E-002
  -1.9114188071663374E-002   5.5324765210432725E-003   6.0638265110646572E-002
  -1.7590723115603477E-002   5.1658022904391976E-003   6.0693569138299014E-002
  -1.6067258159543615E-002   4.7862978553405988E-003   6.1157575025097471E-002
  -1.4543793203483740E-002   4.3939632157464562E-003   6.2030282771041653E-002
  -1.3020328247423836E-002   3.9887983716575537E-003   6.3311692376132434E-002
  -2.2945144503582902E-002   6.6899736460004355E-003   5.5982886668207554E-002
  -2.1101304437279974E-002   6.2528344318424633E-003   5.5688941594796121E-002
  -1.9257464370977070E-002   5.8081359897703272E-003   5.5627044882724561E-002
  -1.7413624304674184E-002   5.3558783197837113E-003   5.5797196531993214E-002
  -1.5569784238371260E-002   4.8960614218829246E-003   5.6199396542601643E-002
  -2.7026828571458480E-002   7.8474707709575986E-003   5.1254407753924154E-002
  -2.5039266892718619E-002   7.3398665732457707E-003   5.0616484556029580E-002
  -2.3051705213978726E-002   6.8299741242001458E-003   5.0033956221669090E-002
  -2.1064143535238812E-002   6.3177934238211209E-003   4.9506822750842075E-002
  -1.9076581856498943E-002   5.8033244721082955E-003   4.9035084143549859E-002
  -3.1359240275290232E-002   9.0049678959147061E-003   4.6452828367796462E-002
  -2.9404610481919363E-002   8.4268987146488561E-003   4.5476198021999481E-002
  -2.7449980688548557E-002   7.8518122586300060E-003   4.4378309041930492E-002
  -2.5495350895177734E-002   7.2797085278582634E-003   4.3159161427589313E-002
  -2.3540721101806883E-002   6.7105875223336664E-003   4.1818755178976152E-002
  -5.7152922025856576E-002   0.0000000000000000        3.4691640154367528E-002
  -5.7943193622450317E-002   2.0846007402241943E-003   3.8343234657295805E-002
  -5.8733465219044059E-002   4.1384764917238859E-003   4.2208782955700540E-002
  -5.9523736815637801E-002   6.1616272544990844E-003   4.6288285049581733E-002
  -6.0314008412231536E-002   8.1540530285497854E-003   5.0581740938939385E-002
  -6.5821501052312825E-002   0.0000000000000000        3.7213344056822015E-002
  -6.6626930289622896E-002   2.9146909578634033E-003   4.0835902426815653E-002
  -6.7432359526932967E-002   5.7718746908085542E-003   4.4214191719900153E-002
  -6.8237788764243051E-002   8.5715511988354570E-003   4.7348211936075531E-002
  -6.9043218001553136E-002   1.1313720481944119E-002   5.0237963075341799E-002
  -7.4245888668689544E-002   0.0000000000000000        4.0578529295012586E-002
  -7.5524698419101532E-002   3.7447811755026103E-003   4.4145269295877809E-002
  -7.6803508169513535E-002   7.4052728898932191E-003   4.7009517347448349E-002
  -7.8082317919925537E-002   1.0981475143171821E-002   4.9171273449724162E-002
  -7.9361127670337525E-002   1.4473387935338431E-002   5.0630537602705285E-002
  -8.2426084874986746E-002   0.0000000000000000        4.4787195868939235E-002
  -8.4636498010886241E-002   4.5748713931418206E-003   4.8271335264482344E-002
  -8.6846911146785749E-002   9.0386710889778892E-003   5.0594759838345126E-002
  -8.9057324282685230E-002   1.3391399087508193E-002   5.1757469590527634E-002
  -9.1267737418584738E-002   1.7633055388732746E-002   5.1759464521029822E-002
  -9.0362089671204404E-002   0.0000000000000000        4.9839343778601983E-002
  -9.3962329064977007E-002   5.4049616107810280E-003   5.3214100332629174E-002
  -9.7562568458749582E-002   1.0672069288062552E-002   5.4969919192590484E-002
 -0.10116280785252219        1.5801323031844561E-002   5.5106800358485912E-002
 -0.10476304724629477        2.0792722842127076E-002   5.3624743830315465E-002
  -6.0314008412231536E-002   8.1540530285497854E-003   5.0581740938939385E-002
  -6.0614838526486095E-002   1.0033745146874183E-002   5.1519183003390666E-002
  -6.0915668640740619E-002   1.1718694942470458E-002   5.2241911726035144E-002
  -6.1216498754995165E-002   1.3208902415338597E-002   5.2749927106872770E-002
  -6.1517328869249703E-002   1.4504367565478626E-002   5.3043229145903578E-002
  -6.9043218001553136E-002   1.1313720481944119E-002   5.0237963075341799E-002
  -6.9320419480720985E-002   1.3758862356044779E-002   4.9459402079310842E-002
  -6.9597620959888848E-002   1.5667456637047727E-002   4.8942811695260061E-002
  -6.9874822439056725E-002   1.7039503324952965E-002   4.8688191923189489E-002
  -7.0152023918224560E-002   1.7875002419760463E-002   4.8695542763099051E-002
  -7.9361127670337525E-002   1.4473387935338431E-002   5.0630537602705285E-002
  -7.9138016560631727E-002   1.7483979565215375E-002   4.7794168275822495E-002
  -7.8914905450925887E-002   1.9616218331625006E-002   4.5696453514706886E-002
  -7.8691794341220089E-002   2.0870104234567342E-002   4.4337393319358480E-002
  -7.8468683231514277E-002   2.1245637274042328E-002   4.3716987689777220E-002
  -9.1267737418584738E-002   1.7633055388732746E-002   5.1759464521029822E-002
  -9.0067629766218252E-002   2.1209096774385969E-002   4.6523481592925610E-002
  -8.8867522113851752E-002   2.3564980026202276E-002   4.2502837184375614E-002
  -8.7667414461485266E-002   2.4700705144181701E-002   3.9697531295379757E-002
  -8.6467306809118780E-002   2.4616272128324197E-002   3.8107563925938115E-002
 -0.10476304724629477        2.0792722842127076E-002   5.3624743830315465E-002
 -0.10210925909748060        2.4934213983556570E-002   4.5647342030620250E-002
  -9.9455470948666413E-002   2.7513741720779548E-002   3.9361962704266180E-002
  -9.6801682799852240E-002   2.8531306053796088E-002   3.4768605851253374E-002
  -9.4147894651038067E-002   2.7986906982606037E-002   3.1867271471581658E-002
  -6.1517328869249703E-002   1.4504367565478626E-002   5.3043229145903578E-002
  -6.0194352663743157E-002   1.5507915008787499E-002   5.1624005314432536E-002
  -5.8871376458236604E-002   1.6122369361162198E-002   5.0652183326036070E-002
  -5.7548400252730059E-002   1.6347730622602707E-002   5.0127763180714296E-002
  -5.6225424047223492E-002   1.6183998793109125E-002   5.0050744878467182E-002
  -7.0152023918224560E-002   1.7875002419760463E-002   4.8695542763099051E-002
  -6.8427368890363646E-002   1.8330363584243566E-002   4.7242220967350278E-002
  -6.6702713862502747E-002   1.8561996481175631E-002   4.6144854973235581E-002
  -6.4978058834641833E-002   1.8569901110556557E-002   4.5403444780754962E-002
  -6.3253403806780892E-002   1.8354077472386418E-002   4.5017990389908474E-002
  -7.8468683231514277E-002   2.1245637274042328E-002   4.3716987689777220E-002
  -7.6433795422739537E-002   2.1152812159699670E-002   4.2394932753133809E-002
  -7.4398907613964796E-002   2.1001623601189019E-002   4.1337387576683926E-002
  -7.2364019805190069E-002   2.0792071598510382E-002   4.0544352160427552E-002
  -7.0329131996415342E-002   2.0524156151663704E-002   4.0015826504364721E-002
  -8.6467306809118780E-002   2.4616272128324197E-002   3.8107563925938115E-002
  -8.4213632260870766E-002   2.3975260735155792E-002   3.7082140671783129E-002
  -8.1959957712622780E-002   2.3441250721202431E-002   3.6229781136381187E-002
  -7.9706283164374794E-002   2.3014242086464163E-002   3.5550485319732074E-002
  -7.7452608616126836E-002   2.2694234830940994E-002   3.5044253221836061E-002
  -9.4147894651038067E-002   2.7986906982606037E-002   3.1867271471581658E-002
  -9.1766879404757390E-002   2.6797709310611841E-002   3.1303844723298217E-002
  -8.9385864158476713E-002   2.5880877841215844E-002   3.0822035652327200E-002
  -8.7004848912196009E-002   2.5236412574418027E-002   3.0421844258668583E-002
  -8.4623833665915346E-002   2.4864313510218269E-002   3.0103270542322383E-002
  -5.6225424047223492E-002   1.6183998793109125E-002   5.0050744878467182E-002
  -5.4724940752832671E-002   1.5832412356806672E-002   4.9698235023138179E-002
  -5.3224457458441801E-002   1.5494209797820759E-002   4.9451741439583023E-002
  -5.1723974164050980E-002   1.5169391116151308E-002   4.9311264127801749E-002
  -5.0223490869660131E-002   1.4857956311798454E-002   4.9276803087794335E-002
  -6.3253403806780892E-002   1.8354077472386418E-002   4.5017990389908474E-002
  -6.1617025653764632E-002   1.8012011684589282E-002   4.4639924614160775E-002
  -5.9980647500748371E-002   1.7641189865089283E-002   4.4427632283890107E-002
  -5.8344269347732111E-002   1.7241612013886388E-002   4.4381113399096311E-002
  -5.6707891194715851E-002   1.6813278130980630E-002   4.4500367959779644E-002
  -7.0329131996415342E-002   2.0524156151663704E-002   4.0015826504364721E-002
  -6.8497101811070535E-002   2.0191611012371886E-002   3.9570064899178956E-002
  -6.6665071625725741E-002   1.9788169932357810E-002   3.9349833913173371E-002
  -6.4833041440380934E-002   1.9313832911621403E-002   3.9355133546347780E-002
  -6.3001011255036168E-002   1.8768599950162765E-002   3.9585963798702349E-002
  -7.7452608616126836E-002   2.2694234830940994E-002   3.5044253221836061E-002
  -7.5365169224750367E-002   2.2371210340154508E-002   3.4488655878192810E-002
  -7.3277729833373911E-002   2.1935149999626334E-002   3.4218346327432772E-002
  -7.1190290441997456E-002   2.1386053809356421E-002   3.4233324569555995E-002
  -6.9102851050621000E-002   2.0723921769344907E-002   3.4533590604562438E-002
  -8.4623833665915346E-002   2.4864313510218269E-002   3.0103270542322383E-002
  -8.2221227894804141E-002   2.4550809667937087E-002   2.9395697551202263E-002
  -7.9818622123692895E-002   2.4082130066894861E-002   2.9033169526668519E-002
  -7.7416016352581676E-002   2.3458274707091470E-002   2.9015686468721120E-002
  -7.5013410581470430E-002   2.2679243588527104E-002   2.9343248377360048E-002
  -5.0223490869660131E-002   1.4857956311798454E-002   4.9276803087794335E-002
  -4.8669806432549312E-002   1.4524640083904153E-002   4.8636046231584212E-002
  -4.7116121995438520E-002   1.4134177131610644E-002   4.8257744786998472E-002
  -4.5562437558327701E-002   1.3686567454917866E-002   4.8141898754037064E-002
  -4.4008753121216909E-002   1.3181811053825765E-002   4.8288508132700025E-002
  -5.6707891194715851E-002   1.6813278130980630E-002   4.4500367959779644E-002
  -5.4910655604030148E-002   1.6355771845550274E-002   4.3988619361382791E-002
  -5.3113420013344466E-002   1.5868676786773679E-002   4.3701517658511220E-002
  -5.1316184422658770E-002   1.5351992954651063E-002   4.3639062851165131E-002
  -4.9518948831973109E-002   1.4805720349182039E-002   4.3801254939344558E-002
  -6.3001011255036168E-002   1.8768599950162765E-002   3.9585963798702349E-002
  -6.0998033026874510E-002   1.8186903607196388E-002   3.9230781409171751E-002
  -5.8995054798712872E-002   1.7603176441936850E-002   3.9062437399067590E-002
  -5.6992076570551234E-002   1.7017418454384176E-002   3.9080931768389872E-002
  -5.4989098342389568E-002   1.6429629644538313E-002   3.9286264517138569E-002
  -6.9102851050621000E-002   2.0723921769344907E-002   3.4533590604562438E-002
  -6.6931938701082397E-002   2.0018035368842533E-002   3.4362532374951210E-002
  -6.4761026351543821E-002   1.9337676097099937E-002   3.4340504008667380E-002
  -6.2590114002005162E-002   1.8682843954117387E-002   3.4467505505711080E-002
  -6.0419201652466628E-002   1.8053538939894587E-002   3.4743536866082364E-002
  -7.5013410581470430E-002   2.2679243588527104E-002   2.9343248377360048E-002
  -7.2712372626653810E-002   2.1849167130488678E-002   2.9383872258721133E-002
  -7.0411334671837175E-002   2.1072175752263091E-002   2.9535717487310806E-002
  -6.8110296717020541E-002   2.0348269453850522E-002   2.9798784063128879E-002
  -6.5809258762203920E-002   1.9677448235250861E-002   3.0173071986175692E-002
  -4.4008753121216909E-002   1.3181811053825765E-002   4.8288508132700025E-002
  -4.2311663242811548E-002   1.2654176806459583E-002   4.7907940315166597E-002
  -4.0614573364406228E-002   1.2137933590944561E-002   4.7701703086976355E-002
  -3.8917483486000909E-002   1.1633081407280879E-002   4.7669796448129312E-002
  -3.7220393607595562E-002   1.1139620255468052E-002   4.7812220398625260E-002
  -4.9518948831973109E-002   1.4805720349182039E-002   4.3801254939344558E-002
  -4.7642905114320337E-002   1.4245660840728896E-002   4.3472059571669414E-002
  -4.5766861396667594E-002   1.3687616299653302E-002   4.3326441293145890E-002
  -4.3890817679014808E-002   1.3131586725955654E-002   4.3364400103774084E-002
  -4.2014773961362072E-002   1.2577572119635672E-002   4.3585936003553927E-002
  -5.4989098342389568E-002   1.6429629644538313E-002   3.9286264517138569E-002
  -5.2924854285680924E-002   1.5837144874998016E-002   3.8999065534848346E-002
  -5.0860610228972286E-002   1.5237299008362098E-002   3.8904690141518233E-002
  -4.8796366172263600E-002   1.4630092044630540E-002   3.9003138337148448E-002
  -4.6732122115554942E-002   1.4015523983803263E-002   3.9294410121738704E-002
  -6.0419201652466628E-002   1.8053538939894587E-002   3.4743536866082364E-002
  -5.8157510756893446E-002   1.7428628909267177E-002   3.4488958204703601E-002
  -5.5895819861320341E-002   1.6786981717070923E-002   3.4436449632093476E-002
  -5.3634128965747194E-002   1.6128597363305425E-002   3.4586011148252188E-002
  -5.1372438070174109E-002   1.5453475847970841E-002   3.4937642753179482E-002
  -6.5809258762203920E-002   1.9677448235250861E-002   3.0173071986175692E-002
  -6.3340874527957808E-002   1.9020112943536394E-002   2.9941737581235056E-002
  -6.0872490293711765E-002   1.8336664425779636E-002   2.9921719764871485E-002
  -5.8404106059465700E-002   1.7627102681980256E-002   3.0113018537085381E-002
  -5.5935721825219581E-002   1.6891427712138529E-002   3.0515633897876371E-002
  -3.7220393607595562E-002   1.1139620255468052E-002   4.7812220398625260E-002
  -3.5755105274519236E-002   1.0640380256080439E-002   4.7331702041514212E-002
  -3.4289816941442890E-002   1.0118191529692455E-002   4.6944963917339072E-002
  -3.2824528608366571E-002   9.5730540763040856E-003   4.6652006026099813E-002
  -3.1359240275290232E-002   9.0049678959147061E-003   4.6452828367796462E-002
  -4.2014773961362072E-002   1.2577572119635672E-002   4.3585936003553927E-002
  -4.0438380617996886E-002   1.2017626210155702E-002   4.3181361473020430E-002
  -3.8861987274631637E-002   1.1443802726977662E-002   4.2905216730128731E-002
  -3.7285593931266445E-002   1.0856101670102095E-002   4.2757501774878873E-002
  -3.5709200587901210E-002   1.0254523039528674E-002   4.2738216607270951E-002
  -4.6732122115554942E-002   1.4015523983803263E-002   3.9294410121738704E-002
  -4.5009974207194853E-002   1.3394872164230659E-002   3.8974850571085379E-002
  -4.3287826298834785E-002   1.2769413924262979E-002   3.8818370362779894E-002
  -4.1565678390474703E-002   1.2139149263900216E-002   3.8824969496822313E-002
  -3.9843530482114628E-002   1.1504078183142558E-002   3.8994647973212407E-002
  -5.1372438070174109E-002   1.5453475847970841E-002   3.4937642753179482E-002
  -4.9469886042113199E-002   1.4772118118305769E-002   3.4712169335709281E-002
  -4.7567334014052318E-002   1.4095025121548241E-002   3.4684424815292651E-002
  -4.5664781985991394E-002   1.3422196857698392E-002   3.4854409191929989E-002
  -4.3762229957930526E-002   1.2753633326756317E-002   3.5222122465621009E-002
  -5.5935721825219581E-002   1.6891427712138529E-002   3.0515633897876371E-002
  -5.3818116122751919E-002   1.6149364072380851E-002   3.0393317766891914E-002
  -5.1700510420284243E-002   1.5420636318833503E-002   3.0503380087666954E-002
  -4.9582904717816602E-002   1.4705244451496430E-002   3.0845820860202031E-002
  -4.7465299015348905E-002   1.4003188470370354E-002   3.1420640084496798E-002
  -3.1359240275290232E-002   9.0049678959147061E-003   4.6452828367796462E-002
  -2.9404610481919363E-002   8.4268987146488561E-003   4.5476198021999481E-002
  -2.7449980688548557E-002   7.8518122586300060E-003   4.4378309041930492E-002
  -2.5495350895177734E-002   7.2797085278582634E-003   4.3159161427589313E-002
  -2.3540721101806883E-002   6.7105875223336664E-003   4.1818755178976152E-002
  -3.5709200587901210E-002   1.0254523039528674E-002   4.2738216607270951E-002
  -3.3797325723551930E-002   9.6429868679077935E-003   4.2054192993547096E-002
  -3.1885450859202601E-002   9.0254131878897692E-003   4.1405918156052324E-002
  -2.9973575994853289E-002   8.4018019994749962E-003   4.0793392094786579E-002
  -2.8061701130503935E-002   7.7721533026631207E-003   4.0216614809750029E-002
  -3.9843530482114628E-002   1.1504078183142558E-002   3.8994647973212407E-002
  -3.7817403136285732E-002   1.0859075021166731E-002   3.8594210857917643E-002
  -3.5791275790456802E-002   1.0199014117149650E-002   3.8386529929353229E-002
  -3.3765148444627899E-002   9.5238954710917031E-003   3.8371605187518670E-002
  -3.1739021098799031E-002   8.8337190829925749E-003   3.8549436632414558E-002
  -4.3762229957930526E-002   1.2753633326756317E-002   3.5222122465621009E-002
  -4.1464842720120972E-002   1.2075163174425557E-002   3.5096251615111325E-002
  -3.9167455482311278E-002   1.1372615046409528E-002   3.5320144361832770E-002
  -3.6870068244501696E-002   1.0645988942708424E-002   3.5893800705785510E-002
  -3.4572681006692092E-002   9.8952848633220847E-003   3.6817220646969559E-002
  -4.7465299015348905E-002   1.4003188470370354E-002   3.1420640084496798E-002
  -4.4739644475057377E-002   1.3291251327684384E-002   3.1560315265127759E-002
  -4.2013989934765933E-002   1.2546215975669253E-002   3.2206761453491245E-002
  -3.9288335394474502E-002   1.1768082414325132E-002   3.3359978649587188E-002
  -3.6562680854183016E-002   1.0956850643651483E-002   3.5019966853415463E-002
  -9.0362089671204404E-002   0.0000000000000000        4.9839343778601983E-002
  -9.3962329064977007E-002   5.4049616107810280E-003   5.3214100332629174E-002
  -9.7562568458749582E-002   1.0672069288062552E-002   5.4969919192590484E-002
 -0.10116280785252219        1.5801323031844561E-002   5.5106800358485912E-002
 -0.10476304724629477        2.0792722842127076E-002   5.3624743830315465E-002
 -0.10329285575694769        0.0000000000000000        5.8668070546542168E-002
 -0.10683029951595097        1.0885059728608173E-002   5.2123414243782647E-002
 -0.11036774327495426        1.9173108997733525E-002   4.7323286904627629E-002
 -0.11390518703395755        2.4864147807376065E-002   4.4267688529077087E-002
 -0.11744263079296083        2.7958176157535781E-002   4.2956619117131063E-002
 -0.12645733583182170        0.0000000000000000        7.4206473695301159E-002
 -0.12656851729838531        1.6365157846435319E-002   5.5283248009771621E-002
 -0.12667969876494892        2.7674148707404506E-002   4.1468017945516952E-002
 -0.12679088023151250        3.3926972582907569E-002   3.2760783502537132E-002
 -0.12690206169807611        3.5123629472944493E-002   2.9161544680832201E-002
 -0.15985552989582641        0.0000000000000000        9.6454553224878933E-002
 -0.15317698241227998        2.1845255964262456E-002   6.2693601630596077E-002
 -0.14649843492873355        3.6175188417075482E-002   3.7404112315258475E-002
 -0.13981988744518709        4.2989797358439073E-002   2.0586085278866066E-002
 -0.13314133996164065        4.2289082788353215E-002   1.2239520521418901E-002
 -0.20348743794896187        0.0000000000000000       0.12541230913527551     
 -0.18665569485763500        2.7325354082089606E-002   7.4354475106256007E-002
 -0.16982395176630816        4.4676228126746452E-002   3.5131570013852149E-002
 -0.15299220867498128        5.2052622133970571E-002   7.7435938580638353E-003
 -0.13616046558365441        4.9454536103761916E-002  -7.8094533611088243E-003
 -0.10476304724629477        2.0792722842127076E-002   5.3624743830315465E-002
 -0.10210925909748060        2.4934213983556570E-002   4.5647342030620250E-002
  -9.9455470948666413E-002   2.7513741720779548E-002   3.9361962704266180E-002
  -9.6801682799852240E-002   2.8531306053796088E-002   3.4768605851253374E-002
  -9.4147894651038067E-002   2.7986906982606037E-002   3.1867271471581658E-002
 -0.11744263079296083        2.7958176157535781E-002   4.2956619117131063E-002
 -0.11348537248688872        2.9430220696727662E-002   3.6706357359573630E-002
 -0.10952811418081664        3.0255308073466616E-002   3.1371013443190876E-002
 -0.10557085587474452        3.0433438287752725E-002   2.6950587367982799E-002
 -0.10161359756867243        2.9964611339585952E-002   2.3445079133949328E-002
 -0.12690206169807611        3.5123629472944493E-002   2.9161544680832201E-002
 -0.12241843786691264        3.3926227409898729E-002   2.5553429207166238E-002
 -0.11793481403574912        3.2996874426153691E-002   2.2083126942508382E-002
 -0.11345119020458562        3.2335570521709427E-002   1.8750637886858670E-002
 -0.10896756637342213        3.1942315696565887E-002   1.5555962040217130E-002
 -0.13314133996164065        4.2289082788353215E-002   1.2239520521418901E-002
 -0.12890845523755229        3.8422234123069811E-002   1.2188557573398005E-002
 -0.12467557051346388        3.5738440778840780E-002   1.1498303202218672E-002
 -0.12044268578937550        3.4237702755666122E-002   1.0168757407880924E-002
 -0.11620980106528715        3.3920020053545816E-002   8.1999201903849676E-003
 -0.13616046558365441        4.9454536103761916E-002  -7.8094533611088243E-003
 -0.13295542459880769        4.2918240836240878E-002  -3.3882575417310580E-003
 -0.12975038361396096        3.8480007131527813E-002  -3.8345777767820159E-004
 -0.12654534262911421        3.6139834989622810E-002   1.2049459310496881E-003
 -0.12334030164426749        3.5897724410525744E-002   1.3769535844527503E-003
  -9.4147894651038067E-002   2.7986906982606037E-002   3.1867271471581658E-002
  -9.1766879404757390E-002   2.6797709310611841E-002   3.1303844723298217E-002
  -8.9385864158476713E-002   2.5880877841215844E-002   3.0822035652327200E-002
  -8.7004848912196009E-002   2.5236412574418027E-002   3.0421844258668583E-002
  -8.4623833665915346E-002   2.4864313510218269E-002   3.0103270542322383E-002
 -0.10161359756867243        2.9964611339585952E-002   2.3445079133949328E-002
  -9.9135874005989513E-002   2.9196943140524453E-002   2.3169297569271243E-002
  -9.6658150443306556E-002   2.8478549602126285E-002   2.3005314960085177E-002
  -9.4180426880623627E-002   2.7809430724391460E-002   2.2953131306391188E-002
  -9.1702703317940698E-002   2.7189586507320077E-002   2.3012746608189361E-002
 -0.10896756637342213        3.1942315696565887E-002   1.5555962040217130E-002
 -0.10636295321615725        3.1596176970437026E-002   1.5344734117209385E-002
 -0.10375834005889235        3.1076221363036755E-002   1.5275486427873533E-002
 -0.10115372690162751        3.0382448874364934E-002   1.5348218972209414E-002
  -9.8549113744362621E-002   2.9514859504421807E-002   1.5562931750217186E-002
 -0.11620980106528715        3.3920020053545816E-002   8.1999201903849676E-003
 -0.11344811703526067        3.3995410800349631E-002   7.8301543671129605E-003
 -0.11068643300523412        3.3673893123947175E-002   7.6325500556924490E-003
 -0.10792474897520760        3.2955467024338554E-002   7.6071072561234750E-003
 -0.10516306494518113        3.1840132501523608E-002   7.7538259684058848E-003
 -0.12334030164426749        3.5897724410525744E-002   1.3769535844527503E-003
 -0.12039136546329962        3.6394644630262207E-002   6.2555831898170045E-004
 -0.11744242928233183        3.6271564884857638E-002   7.6505843541747887E-005
 -0.11449349310136400        3.5528485174311945E-002  -2.7020384186711259E-004
 -0.11154455692039617        3.4165405498625345E-002  -4.1457073724449067E-004
  -8.4623833665915346E-002   2.4864313510218269E-002   3.0103270542322383E-002
  -8.2221227894804141E-002   2.4550809667937087E-002   2.9395697551202263E-002
  -7.9818622123692895E-002   2.4082130066894861E-002   2.9033169526668519E-002
  -7.7416016352581676E-002   2.3458274707091470E-002   2.9015686468721120E-002
  -7.5013410581470430E-002   2.2679243588527104E-002   2.9343248377360048E-002
  -9.1702703317940698E-002   2.7189586507320077E-002   2.3012746608189361E-002
  -8.9002912809454937E-002   2.6569501220043049E-002   2.2387306333543008E-002
  -8.6303122300969259E-002   2.5899659131691431E-002   2.2011190567059295E-002
  -8.3603331792483554E-002   2.5180060242265163E-002   2.1884399308738183E-002
  -8.0903541283997821E-002   2.4410704551764417E-002   2.2006932558579634E-002
  -9.8549113744362621E-002   2.9514859504421807E-002   1.5562931750217186E-002
  -9.5647858956926096E-002   2.8588192772148933E-002   1.5125043149731048E-002
  -9.2746604169489627E-002   2.7717188196487996E-002   1.4840758598983846E-002
  -8.9845349382053172E-002   2.6901845777438885E-002   1.4710078097975660E-002
  -8.6944094594616605E-002   2.6142165515001828E-002   1.4733001646706274E-002
 -0.10516306494518113        3.1840132501523608E-002   7.7538259684058848E-003
 -0.10215606633721755        3.0606884324254940E-002   7.6089079997665185E-003
  -9.9149067729253984E-002   2.9534717261284441E-002   7.5218736224425264E-003
  -9.6142069121290433E-002   2.8623631312612537E-002   7.4927228364334957E-003
  -9.3135070513326867E-002   2.7873626478239079E-002   7.5214556417398052E-003
 -0.11154455692039617        3.4165405498625345E-002  -4.1457073724449067E-004
 -0.10852753495032924        3.2625575876360807E-002  -1.6109911635051044E-004
 -0.10551051298026234        3.1352246326081135E-002   5.4535637434890982E-005
 -0.10249349101019546        3.0345416847786327E-002   2.3233352411173788E-004
  -9.9476469040128523E-002   2.9605087441476496E-002   3.7229454368015169E-004
  -7.5013410581470430E-002   2.2679243588527104E-002   2.9343248377360048E-002
  -7.2712372626653810E-002   2.1849167130488678E-002   2.9383872258721133E-002
  -7.0411334671837175E-002   2.1072175752263091E-002   2.9535717487310806E-002
  -6.8110296717020541E-002   2.0348269453850522E-002   2.9798784063128879E-002
  -6.5809258762203920E-002   1.9677448235250861E-002   3.0173071986175692E-002
  -8.0903541283997821E-002   2.4410704551764417E-002   2.2006932558579634E-002
  -7.8479397910373255E-002   2.3621418631420393E-002   2.1940508614029325E-002
  -7.6055254536748662E-002   2.2842029052464463E-002   2.2009074159866249E-002
  -7.3631111163124069E-002   2.2072535814896349E-002   2.2212629196090780E-002
  -7.1206967789499503E-002   2.1312938918716440E-002   2.2551173722702406E-002
  -8.6944094594616605E-002   2.6142165515001828E-002   1.4733001646706274E-002
  -8.4373077659025228E-002   2.5393670132352164E-002   1.4516341137819355E-002
  -8.1802060723433850E-002   2.4611882352665721E-002   1.4458438262478949E-002
  -7.9231043787842417E-002   2.3796802175942228E-002   1.4559293020684537E-002
  -7.6660026852251095E-002   2.2948429602182019E-002   1.4818905412436523E-002
  -9.3135070513326867E-002   2.7873626478239079E-002   7.5214556417398052E-003
  -9.0393411872609825E-002   2.7165921633283852E-002   7.1113698300917377E-003
  -8.7651753231892754E-002   2.6381735652866868E-002   6.8838097951485063E-003
  -8.4910094591175683E-002   2.5521068536988194E-002   6.8387755369106566E-003
  -8.2168435950458640E-002   2.4583920285647543E-002   6.9762670553775996E-003
  -9.9476469040128523E-002   2.9605087441476496E-002   3.7229454368015169E-004
  -9.6540400551126948E-002   2.8938173134215650E-002  -2.7440530915429084E-004
  -9.3604332062125373E-002   2.8151588953068296E-002  -7.1481124212481595E-004
  -9.0668263573123797E-002   2.7245334898033921E-002  -9.4892325523124668E-004
  -8.7732195084122222E-002   2.6219410969113177E-002  -9.7674134847375305E-004
  -6.5809258762203920E-002   1.9677448235250861E-002   3.0173071986175692E-002
  -6.3340874527957808E-002   1.9020112943536394E-002   2.9941737581235056E-002
  -6.0872490293711765E-002   1.8336664425779636E-002   2.9921719764871485E-002
  -5.8404106059465700E-002   1.7627102681980256E-002   3.0113018537085381E-002
  -5.5935721825219581E-002   1.6891427712138529E-002   3.0515633897876371E-002
  -7.1206967789499503E-002   2.1312938918716440E-002   2.2551173722702406E-002
  -6.8527933516164707E-002   2.0557166400814633E-002   2.2249642327380095E-002
  -6.5848899242829870E-002   1.9799146298080994E-002   2.2158094421658031E-002
  -6.3169864969495115E-002   1.9038878610515467E-002   2.2276530005536185E-002
  -6.0490830696160236E-002   1.8276363338118107E-002   2.2604949079014613E-002
  -7.6660026852251095E-002   2.2948429602182019E-002   1.4818905412436523E-002
  -7.3771675638804546E-002   2.2094219858092817E-002   1.4471042667943038E-002
  -7.0883324425358024E-002   2.1261628170382407E-002   1.4331830314072924E-002
  -6.7994973211911475E-002   2.0450654539050567E-002   1.4401268350826092E-002
  -6.5106621998464981E-002   1.9661298964097657E-002   1.4679356778202202E-002
  -8.2168435950458640E-002   2.4583920285647543E-002   6.9762670553775996E-003
  -7.9072100895877406E-002   2.3631273315370863E-002   6.6059386029239733E-003
  -7.5975765841296214E-002   2.2724110042683765E-002   6.4429274421162492E-003
  -7.2879430786714994E-002   2.1862430467585639E-002   6.4872335729551471E-003
  -6.9783095732133787E-002   2.1046234590077165E-002   6.7388569954398465E-003
  -8.7732195084122222E-002   2.6219410969113177E-002  -9.7674134847375305E-004
  -8.4429209287383289E-002   2.5168326772649297E-002  -1.3456698676772016E-003
  -8.1126223490644411E-002   2.4186591914985039E-002  -1.5086141942115966E-003
  -7.7823237693905506E-002   2.3274206396120982E-002  -1.4655743280770177E-003
  -7.4520251897166601E-002   2.2431170216056895E-002  -1.2165502692728092E-003
  -5.5935721825219581E-002   1.6891427712138529E-002   3.0515633897876371E-002
  -5.3818116122751919E-002   1.6149364072380851E-002   3.0393317766891914E-002
  -5.1700510420284243E-002   1.5420636318833503E-002   3.0503380087666954E-002
  -4.9582904717816602E-002   1.4705244451496430E-002   3.0845820860202031E-002
  -4.7465299015348905E-002   1.4003188470370354E-002   3.1420640084496798E-002
  -6.0490830696160236E-002   1.8276363338118107E-002   2.2604949079014613E-002
  -5.8163810498470331E-002   1.7511837876731939E-002   2.2404768106660700E-002
  -5.5836790300780315E-002   1.6745539622199851E-002   2.2391037672991679E-002
  -5.3509770103090326E-002   1.5977468574522154E-002   2.2563757778007516E-002
  -5.1182749905400379E-002   1.5207624733698411E-002   2.2922928421708288E-002
  -6.5106621998464981E-002   1.9661298964097657E-002   1.4679356778202202E-002
  -6.2616115218627644E-002   1.8874311681082986E-002   1.4386202285123023E-002
  -6.0125608438790321E-002   1.8070442925566310E-002   1.4233570417653565E-002
  -5.7635101658953011E-002   1.7249692697547545E-002   1.4221461175794051E-002
  -5.5144594879115674E-002   1.6412060997026273E-002   1.4349874559544298E-002
  -6.9783095732133787E-002   2.1046234590077165E-002   6.7388569954398465E-003
  -6.7175030283223983E-002   2.0236785485434193E-002   6.3376203022785377E-003
  -6.4566964834314289E-002   1.9395346228932492E-002   6.0309783216525303E-003
  -6.1958899385404526E-002   1.8521916820572880E-002   5.8189310535611393E-003
  -5.9350833936494776E-002   1.7616497260354511E-002   5.7014784980049214E-003
  -7.4520251897166601E-002   2.2431170216056895E-002  -1.2165502692728092E-003
  -7.1840555692259389E-002   2.1599259289785178E-002  -1.7409778418721045E-003
  -6.9160859487352178E-002   2.0720249532299367E-002  -2.2167386150114821E-003
  -6.6481163282444966E-002   1.9794140943598222E-002  -2.6438325886907477E-003
  -6.3801467077537755E-002   1.8820933523682304E-002  -3.0222597629100401E-003
  -4.7465299015348905E-002   1.4003188470370354E-002   3.1420640084496798E-002
  -4.4739644475057377E-002   1.3291251327684384E-002   3.1560315265127759E-002
  -4.2013989934765933E-002   1.2546215975669253E-002   3.2206761453491245E-002
  -3.9288335394474502E-002   1.1768082414325132E-002   3.3359978649587188E-002
  -3.6562680854183016E-002   1.0956850643651483E-002   3.5019966853415463E-002
  -5.1182749905400379E-002   1.5207624733698411E-002   2.2922928421708288E-002
  -4.8045576615472541E-002   1.4434240738651544E-002   2.2703754398264636E-002
  -4.4908403325544792E-002   1.3655549228304448E-002   2.2800846866361246E-002
  -4.1771230035617016E-002   1.2871550202657227E-002   2.3214205825997730E-002
  -3.8634056745689205E-002   1.2082243661709513E-002   2.3943831277175143E-002
  -5.5144594879115674E-002   1.6412060997026273E-002   1.4349874559544298E-002
  -5.1786407355743774E-002   1.5577230149618537E-002   1.3799642026055076E-002
  -4.8428219832371812E-002   1.4764882480939635E-002   1.3375171467913789E-002
  -4.5070032308999738E-002   1.3975017990989208E-002   1.3076462885120415E-002
  -4.1711844785627950E-002   1.3207636679767654E-002   1.2903516277675442E-002
  -5.9350833936494776E-002   1.7616497260354511E-002   5.7014784980049214E-003
  -5.5962136695870891E-002   1.6720219560585503E-002   4.8479781484987647E-003
  -5.2573439455246972E-002   1.5874215733574493E-002   3.9297352581488410E-003
  -4.9184742214623024E-002   1.5078485779321079E-002   2.9467498269543793E-003
  -4.5796044973999167E-002   1.4333029697825794E-002   1.8990218549164994E-003
  -6.3801467077537755E-002   1.8820933523682304E-002  -3.0222597629100401E-003
  -6.0572764635854037E-002   1.7863208971552469E-002  -4.1512372344036375E-003
  -5.7344062194170320E-002   1.6983548986209823E-002  -5.5354617629335967E-003
  -5.4115359752486492E-002   1.6181953567653236E-002  -7.1749333484998554E-003
  -5.0886657310802885E-002   1.5458422715883824E-002  -9.0696519911022122E-003
 </DataArray>
 </PointData>
 </Piece>
 <Piece  NumberOfPoints="          1600 "  NumberOfCells="         1024 ">
 <Points>
 <DataArray  type="Float64" NumberOfComponents="3"  format="ascii" >
  0.50000000000000000        0.0000000000000000        0.0000000000000000     
  0.53125000000000000        0.0000000000000000        0.0000000000000000     
  0.56250000000000000        0.0000000000000000        0.0000000000000000     
  0.59375000000000000        0.0000000000000000        0.0000000000000000     
  0.62500000000000000        0.0000000000000000        0.0000000000000000     
  0.50000000000000000        3.1250000000000000E-002   0.0000000000000000     
  0.53125000000000000        3.1250000000000000E-002   0.0000000000000000     
  0.56250000000000000        3.1250000000000000E-002   0.0000000000000000     
  0.59375000000000000        3.1250000000000000E-002   0.0000000000000000     
  0.62500000000000000        3.1250000000000000E-002   0.0000000000000000     
  0.50000000000000000        6.2500000000000000E-002   0.0000000000000000     
  0.53125000000000000        6.2500000000000000E-002   0.0000000000000000     
  0.56250000000000000        6.2500000000000000E-002   0.0000000000000000     
  0.59375000000000000        6.2500000000000000E-002   0.0000000000000000     
  0.62500000000000000        6.2500000000000000E-002   0.0000000000000000     
  0.50000000000000000        9.3750000000000000E-002   0.0000000000000000     
  0.53125000000000000        9.3750000000000000E-002   0.0000000000000000     
  0.56250000000000000        9.3750000000000000E-002   0.0000000000000000     
  0.59375000000000000        9.3750000000000000E-002   0.0000000000000000     
  0.62500000000000000        9.3750000000000000E-002   0.0000000000000000     
  0.50000000000000000       0.12500000000000000        0.0000000000000000     
  0.53125000000000000       0.12500000000000000        0.0000000000000000     
  0.56250000000000000       0.12500000000000000        0.0000000000000000     
  0.59375000000000000       0.12500000000000000        0.0000000000000000     
  0.62500000000000000       0.12500000000000000        0.0000000000000000     
  0.62500000000000000        0.0000000000000000        0.0000000000000000     
  0.65625000000000000        0.0000000000000000        0.0000000000000000     
  0.68750000000000000        0.0000000000000000        0.0000000000000000     
  0.71875000000000000        0.0000000000000000        0.0000000000000000     
  0.75000000000000000        0.0000000000000000        0.0000000000000000     
  0.62500000000000000        3.1250000000000000E-002   0.0000000000000000     
  0.65625000000000000        3.1250000000000000E-002   0.0000000000000000     
  0.68750000000000000        3.1250000000000000E-002   0.0000000000000000     
  0.71875000000000000        3.1250000000000000E-002   0.0000000000000000     
  0.75000000000000000        3.1250000000000000E-002   0.0000000000000000     
  0.62500000000000000        6.2500000000000000E-002   0.0000000000000000     
  0.65625000000000000        6.2500000000000000E-002   0.0000000000000000     
  0.68750000000000000        6.2500000000000000E-002   0.0000000000000000     
  0.71875000000000000        6.2500000000000000E-002   0.0000000000000000     
  0.75000000000000000        6.2500000000000000E-002   0.0000000000000000     
  0.62500000000000000        9.3750000000000000E-002   0.0000000000000000     
  0.65625000000000000        9.3750000000000000E-002   0.0000000000000000     
  0.68750000000000000        9.3750000000000000E-002   0.0000000000000000     
  0.71875000000000000        9.3750000000000000E-002   0.0000000000000000     
  0.75000000000000000        9.3750000000000000E-002   0.0000000000000000     
  0.62500000000000000       0.12500000000000000        0.0000000000000000     
  0.65625000000000000       0.12500000000000000        0.0000000000000000     
  0.68750000000000000       0.12500000000000000        0.0000000000000000     
  0.71875000000000000       0.12500000000000000        0.0000000000000000     
  0.75000000000000000       0.12500000000000000        0.0000000000000000     
  0.75000000000000000        0.0000000000000000        0.0000000000000000     
  0.78125000000000000        0.0000000000000000        0.0000000000000000     
  0.81250000000000000        0.0000000000000000        0.0000000000000000     
  0.84375000000000000        0.0000000000000000        0.0000000000000000     
  0.87500000000000000        0.0000000000000000        0.0000000000000000     
  0.75000000000000000        3.1250000000000000E-002   0.0000000000000000     
  0.78125000000000000        3.1250000000000000E-002   0.0000000000000000     
  0.81250000000000000        3.1250000000000000E-002   0.0000000000000000     
  0.84375000000000000        3.1250000000000000E-002   0.0000000000000000     
  0.87500000000000000        3.1250000000000000E-002   0.0000000000000000     
  0.75000000000000000        6.2500000000000000E-002   0.0000000000000000     
  0.78125000000000000        6.2500000000000000E-002   0.0000000000000000     
  0.81250000000000000        6.2500000000000000E-002   0.0000000000000000     
  0.84375000000000000        6.2500000000000000E-002   0.0000000000000000     
  0.87500000000000000        6.2500000000000000E-002   0.0000000000000000     
  0.75000000000000000        9.3750000000000000E-002   0.0000000000000000     
  0.78125000000000000        9.3750000000000000E-002   0.0000000000000000     
  0.81250000000000000        9.3750000000000000E-002   0.0000000000000000     
  0.84375000000000000        9.3750000000000000E-002   0.0000000000000000     
  0.87500000000000000        9.3750000000000000E-002   0.0000000000000000     
  0.75000000000000000       0.12500000000000000        0.0000000000000000     
  0.78125000000000000       0.12500000000000000        0.0000000000000000     
  0.81250000000000000       0.12500000000000000        0.0000000000000000     
  0.84375000000000000       0.12500000000000000        0.0000000000000000     
  0.87500000000000000       0.12500000000000000        0.0000000000000000     
  0.87500000000000000        0.0000000000000000        0.0000000000000000     
  0.90625000000000000        0.0000000000000000        0.0000000000000000     
  0.93750000000000000        0.0000000000000000        0.0000000000000000     
  0.96875000000000000        0.0000000000000000        0.0000000000000000     
   1.0000000000000000        0.0000000000000000        0.0000000000000000     
  0.87500000000000000        3.1250000000000000E-002   0.0000000000000000     
  0.90625000000000000        3.1250000000000000E-002   0.0000000000000000     
  0.93750000000000000        3.1250000000000000E-002   0.0000000000000000     
  0.96875000000000000        3.1250000000000000E-002   0.0000000000000000     
   1.0000000000000000        3.1250000000000000E-002   0.0000000000000000     
  0.87500000000000000        6.2500000000000000E-002   0.0000000000000000     
  0.90625000000000000        6.2500000000000000E-002   0.0000000000000000     
  0.93750000000000000        6.2500000000000000E-002   0.0000000000000000     
  0.96875000000000000        6.2500000000000000E-002   0.0000000000000000     
   1.0000000000000000        6.2500000000000000E-002   0.0000000000000000     
  0.87500000000000000        9.3750000000000000E-002   0.0000000000000000     
  0.90625000000000000        9.3750000000000000E-002   0.0000000000000000     
  0.93750000000000000        9.3750000000000000E-002   0.0000000000000000     
  0.96875000000000000        9.3750000000000000E-002   0.0000000000000000     
   1.0000000000000000        9.3750000000000000E-002   0.0000000000000000     
  0.87500000000000000       0.12500000000000000        0.0000000000000000     
  0.90625000000000000       0.12500000000000000        0.0000000000000000     
  0.93750000000000000       0.12500000000000000        0.0000000000000000     
  0.96875000000000000       0.12500000000000000        0.0000000000000000     
   1.0000000000000000       0.12500000000000000        0.0000000000000000     
   1.0000000000000000        0.0000000000000000        0.0000000000000000     
   1.0312500000000000        0.0000000000000000        0.0000000000000000     
   1.0625000000000000        0.0000000000000000        0.0000000000000000     
   1.0937500000000000        0.0000000000000000        0.0000000000000000     
   1.1250000000000000        0.0000000000000000        0.0000000000000000     
   1.0000000000000000        3.1250000000000000E-002   0.0000000000000000     
   1.0312500000000000        3.1250000000000000E-002   0.0000000000000000     
   1.0625000000000000        3.1250000000000000E-002   0.0000000000000000     
   1.0937500000000000        3.1250000000000000E-002   0.0000000000000000     
   1.1250000000000000        3.1250000000000000E-002   0.0000000000000000     
   1.0000000000000000        6.2500000000000000E-002   0.0000000000000000     
   1.0312500000000000        6.2500000000000000E-002   0.0000000000000000     
   1.0625000000000000        6.2500000000000000E-002   0.0000000000000000     
   1.0937500000000000        6.2500000000000000E-002   0.0000000000000000     
   1.1250000000000000        6.2500000000000000E-002   0.0000000000000000     
   1.0000000000000000        9.3750000000000000E-002   0.0000000000000000     
   1.0312500000000000        9.3750000000000000E-002   0.0000000000000000     
   1.0625000000000000        9.3750000000000000E-002   0.0000000000000000     
   1.0937500000000000        9.3750000000000000E-002   0.0000000000000000     
   1.1250000000000000        9.3750000000000000E-002   0.0000000000000000     
   1.0000000000000000       0.12500000000000000        0.0000000000000000     
   1.0312500000000000       0.12500000000000000        0.0000000000000000     
   1.0625000000000000       0.12500000000000000        0.0000000000000000     
   1.0937500000000000       0.12500000000000000        0.0000000000000000     
   1.1250000000000000       0.12500000000000000        0.0000000000000000     
   1.1250000000000000        0.0000000000000000        0.0000000000000000     
   1.1562500000000000        0.0000000000000000        0.0000000000000000     
   1.1875000000000000        0.0000000000000000        0.0000000000000000     
   1.2187500000000000        0.0000000000000000        0.0000000000000000     
   1.2500000000000000        0.0000000000000000        0.0000000000000000     
   1.1250000000000000        3.1250000000000000E-002   0.0000000000000000     
   1.1562500000000000        3.1250000000000000E-002   0.0000000000000000     
   1.1875000000000000        3.1250000000000000E-002   0.0000000000000000     
   1.2187500000000000        3.1250000000000000E-002   0.0000000000000000     
   1.2500000000000000        3.1250000000000000E-002   0.0000000000000000     
   1.1250000000000000        6.2500000000000000E-002   0.0000000000000000     
   1.1562500000000000        6.2500000000000000E-002   0.0000000000000000     
   1.1875000000000000        6.2500000000000000E-002   0.0000000000000000     
   1.2187500000000000        6.2500000000000000E-002   0.0000000000000000     
   1.2500000000000000        6.2500000000000000E-002   0.0000000000000000     
   1.1250000000000000        9.3750000000000000E-002   0.0000000000000000     
   1.1562500000000000        9.3750000000000000E-002   0.0000000000000000     
   1.1875000000000000        9.3750000000000000E-002   0.0000000000000000     
   1.2187500000000000        9.3750000000000000E-002   0.0000000000000000     
   1.2500000000000000        9.3750000000000000E-002   0.0000000000000000     
   1.1250000000000000       0.12500000000000000        0.0000000000000000     
   1.1562500000000000       0.12500000000000000        0.0000000000000000     
   1.1875000000000000       0.12500000000000000        0.0000000000000000     
   1.2187500000000000       0.12500000000000000        0.0000000000000000     
   1.2500000000000000       0.12500000000000000        0.0000000000000000     
   1.2500000000000000        0.0000000000000000        0.0000000000000000     
   1.2812500000000000        0.0000000000000000        0.0000000000000000     
   1.3125000000000000        0.0000000000000000        0.0000000000000000     
   1.3437500000000000        0.0000000000000000        0.0000000000000000     
   1.3750000000000000        0.0000000000000000        0.0000000000000000     
   1.2500000000000000        3.1250000000000000E-002   0.0000000000000000     
   1.2812500000000000        3.1250000000000000E-002   0.0000000000000000     
   1.3125000000000000        3.1250000000000000E-002   0.0000000000000000     
   1.3437500000000000        3.1250000000000000E-002   0.0000000000000000     
   1.3750000000000000        3.1250000000000000E-002   0.0000000000000000     
   1.2500000000000000        6.2500000000000000E-002   0.0000000000000000     
   1.2812500000000000        6.2500000000000000E-002   0.0000000000000000     
   1.3125000000000000        6.2500000000000000E-002   0.0000000000000000     
   1.3437500000000000        6.2500000000000000E-002   0.0000000000000000     
   1.3750000000000000        6.2500000000000000E-002   0.0000000000000000     
   1.2500000000000000        9.3750000000000000E-002   0.0000000000000000     
   1.2812500000000000        9.3750000000000000E-002   0.0000000000000000     
   1.3125000000000000        9.3750000000000000E-002   0.0000000000000000     
   1.3437500000000000        9.3750000000000000E-002   0.0000000000000000     
   1.3750000000000000        9.3750000000000000E-002   0.0000000000000000     
   1.2500000000000000       0.12500000000000000        0.0000000000000000     
   1.2812500000000000       0.12500000000000000        0.0000000000000000     
   1.3125000000000000       0.12500000000000000        0.0000000000000000     
   1.3437500000000000       0.12500000000000000        0.0000000000000000     
   1.3750000000000000       0.12500000000000000        0.0000000000000000     
   1.3750000000000000        0.0000000000000000        0.0000000000000000     
   1.4062500000000000        0.0000000000000000        0.0000000000000000     
   1.4375000000000000        0.0000000000000000        0.0000000000000000     
   1.4687500000000000        0.0000000000000000        0.0000000000000000     
   1.5000000000000000        0.0000000000000000        0.0000000000000000     
   1.3750000000000000        3.1250000000000000E-002   0.0000000000000000     
   1.4062500000000000        3.1250000000000000E-002   0.0000000000000000     
   1.4375000000000000        3.1250000000000000E-002   0.0000000000000000     
   1.4687500000000000        3.1250000000000000E-002   0.0000000000000000     
   1.5000000000000000        3.1250000000000000E-002   0.0000000000000000     
   1.3750000000000000        6.2500000000000000E-002   0.0000000000000000     
   1.4062500000000000        6.2500000000000000E-002   0.0000000000000000     
   1.4375000000000000        6.2500000000000000E-002   0.0000000000000000     
   1.4687500000000000        6.2500000000000000E-002   0.0000000000000000     
   1.5000000000000000        6.2500000000000000E-002   0.0000000000000000     
   1.3750000000000000        9.3750000000000000E-002   0.0000000000000000     
   1.4062500000000000        9.3750000000000000E-002   0.0000000000000000     
   1.4375000000000000        9.3750000000000000E-002   0.0000000000000000     
   1.4687500000000000        9.3750000000000000E-002   0.0000000000000000     
   1.5000000000000000        9.3750000000000000E-002   0.0000000000000000     
   1.3750000000000000       0.12500000000000000        0.0000000000000000     
   1.4062500000000000       0.12500000000000000        0.0000000000000000     
   1.4375000000000000       0.12500000000000000        0.0000000000000000     
   1.4687500000000000       0.12500000000000000        0.0000000000000000     
   1.5000000000000000       0.12500000000000000        0.0000000000000000     
  0.50000000000000000       0.12500000000000000        0.0000000000000000     
  0.53125000000000000       0.12500000000000000        0.0000000000000000     
  0.56250000000000000       0.12500000000000000        0.0000000000000000     
  0.59375000000000000       0.12500000000000000        0.0000000000000000     
  0.62500000000000000       0.12500000000000000        0.0000000000000000     
  0.50000000000000000       0.15625000000000000        0.0000000000000000     
  0.53125000000000000       0.15625000000000000        0.0000000000000000     
  0.56250000000000000       0.15625000000000000        0.0000000000000000     
  0.59375000000000000       0.15625000000000000        0.0000000000000000     
  0.62500000000000000       0.15625000000000000        0.0000000000000000     
  0.50000000000000000       0.18750000000000000        0.0000000000000000     
  0.53125000000000000       0.18750000000000000        0.0000000000000000     
  0.56250000000000000       0.18750000000000000        0.0000000000000000     
  0.59375000000000000       0.18750000000000000        0.0000000000000000     
  0.62500000000000000       0.18750000000000000        0.0000000000000000     
  0.50000000000000000       0.21875000000000000        0.0000000000000000     
  0.53125000000000000       0.21875000000000000        0.0000000000000000     
  0.56250000000000000       0.21875000000000000        0.0000000000000000     
  0.59375000000000000       0.21875000000000000        0.0000000000000000     
  0.62500000000000000       0.21875000000000000        0.0000000000000000     
  0.50000000000000000       0.25000000000000000        0.0000000000000000     
  0.53125000000000000       0.25000000000000000        0.0000000000000000     
  0.56250000000000000       0.25000000000000000        0.0000000000000000     
  0.59375000000000000       0.25000000000000000        0.0000000000000000     
  0.62500000000000000       0.25000000000000000        0.0000000000000000     
  0.62500000000000000       0.12500000000000000        0.0000000000000000     
  0.65625000000000000       0.12500000000000000        0.0000000000000000     
  0.68750000000000000       0.12500000000000000        0.0000000000000000     
  0.71875000000000000       0.12500000000000000        0.0000000000000000     
  0.75000000000000000       0.12500000000000000        0.0000000000000000     
  0.62500000000000000       0.15625000000000000        0.0000000000000000     
  0.65625000000000000       0.15625000000000000        0.0000000000000000     
  0.68750000000000000       0.15625000000000000        0.0000000000000000     
  0.71875000000000000       0.15625000000000000        0.0000000000000000     
  0.75000000000000000       0.15625000000000000        0.0000000000000000     
  0.62500000000000000       0.18750000000000000        0.0000000000000000     
  0.65625000000000000       0.18750000000000000        0.0000000000000000     
  0.68750000000000000       0.18750000000000000        0.0000000000000000     
  0.71875000000000000       0.18750000000000000        0.0000000000000000     
  0.75000000000000000       0.18750000000000000        0.0000000000000000     
  0.62500000000000000       0.21875000000000000        0.0000000000000000     
  0.65625000000000000       0.21875000000000000        0.0000000000000000     
  0.68750000000000000       0.21875000000000000        0.0000000000000000     
  0.71875000000000000       0.21875000000000000        0.0000000000000000     
  0.75000000000000000       0.21875000000000000        0.0000000000000000     
  0.62500000000000000       0.25000000000000000        0.0000000000000000     
  0.65625000000000000       0.25000000000000000        0.0000000000000000     
  0.68750000000000000       0.25000000000000000        0.0000000000000000     
  0.71875000000000000       0.25000000000000000        0.0000000000000000     
  0.75000000000000000       0.25000000000000000        0.0000000000000000     
  0.75000000000000000       0.12500000000000000        0.0000000000000000     
  0.78125000000000000       0.12500000000000000        0.0000000000000000     
  0.81250000000000000       0.12500000000000000        0.0000000000000000     
  0.84375000000000000       0.12500000000000000        0.0000000000000000     
  0.87500000000000000       0.12500000000000000        0.0000000000000000     
  0.75000000000000000       0.15625000000000000        0.0000000000000000     
  0.78125000000000000       0.15625000000000000        0.0000000000000000     
  0.81250000000000000       0.15625000000000000        0.0000000000000000     
  0.84375000000000000       0.15625000000000000        0.0000000000000000     
  0.87500000000000000       0.15625000000000000        0.0000000000000000     
  0.75000000000000000       0.18750000000000000        0.0000000000000000     
  0.78125000000000000       0.18750000000000000        0.0000000000000000     
  0.81250000000000000       0.18750000000000000        0.0000000000000000     
  0.84375000000000000       0.18750000000000000        0.0000000000000000     
  0.87500000000000000       0.18750000000000000        0.0000000000000000     
  0.75000000000000000       0.21875000000000000        0.0000000000000000     
  0.78125000000000000       0.21875000000000000        0.0000000000000000     
  0.81250000000000000       0.21875000000000000        0.0000000000000000     
  0.84375000000000000       0.21875000000000000        0.0000000000000000     
  0.87500000000000000       0.21875000000000000        0.0000000000000000     
  0.75000000000000000       0.25000000000000000        0.0000000000000000     
  0.78125000000000000       0.25000000000000000        0.0000000000000000     
  0.81250000000000000       0.25000000000000000        0.0000000000000000     
  0.84375000000000000       0.25000000000000000        0.0000000000000000     
  0.87500000000000000       0.25000000000000000        0.0000000000000000     
  0.87500000000000000       0.12500000000000000        0.0000000000000000     
  0.90625000000000000       0.12500000000000000        0.0000000000000000     
  0.93750000000000000       0.12500000000000000        0.0000000000000000     
  0.96875000000000000       0.12500000000000000        0.0000000000000000     
   1.0000000000000000       0.12500000000000000        0.0000000000000000     
  0.87500000000000000       0.15625000000000000        0.0000000000000000     
  0.90625000000000000       0.15625000000000000        0.0000000000000000     
  0.93750000000000000       0.15625000000000000        0.0000000000000000     
  0.96875000000000000       0.15625000000000000        0.0000000000000000     
   1.0000000000000000       0.15625000000000000        0.0000000000000000     
  0.87500000000000000       0.18750000000000000        0.0000000000000000     
  0.90625000000000000       0.18750000000000000        0.0000000000000000     
  0.93750000000000000       0.18750000000000000        0.0000000000000000     
  0.96875000000000000       0.18750000000000000        0.0000000000000000     
   1.0000000000000000       0.18750000000000000        0.0000000000000000     
  0.87500000000000000       0.21875000000000000        0.0000000000000000     
  0.90625000000000000       0.21875000000000000        0.0000000000000000     
  0.93750000000000000       0.21875000000000000        0.0000000000000000     
  0.96875000000000000       0.21875000000000000        0.0000000000000000     
   1.0000000000000000       0.21875000000000000        0.0000000000000000     
  0.87500000000000000       0.25000000000000000        0.0000000000000000     
  0.90625000000000000       0.25000000000000000        0.0000000000000000     
  0.93750000000000000       0.25000000000000000        0.0000000000000000     
  0.96875000000000000       0.25000000000000000        0.0000000000000000     
   1.0000000000000000       0.25000000000000000        0.0000000000000000     
   1.0000000000000000       0.12500000000000000        0.0000000000000000     
   1.0312500000000000       0.12500000000000000        0.0000000000000000     
   1.0625000000000000       0.12500000000000000        0.0000000000000000     
   1.0937500000000000       0.12500000000000000        0.0000000000000000     
   1.1250000000000000       0.12500000000000000        0.0000000000000000     
   1.0000000000000000       0.15625000000000000        0.0000000000000000     
   1.0312500000000000       0.15625000000000000        0.0000000000000000     
   1.0625000000000000       0.15625000000000000        0.0000000000000000     
   1.0937500000000000       0.15625000000000000        0.0000000000000000     
   1.1250000000000000       0.15625000000000000        0.0000000000000000     
   1.0000000000000000       0.18750000000000000        0.0000000000000000     
   1.0312500000000000       0.18750000000000000        0.0000000000000000     
   1.0625000000000000       0.18750000000000000        0.0000000000000000     
   1.0937500000000000       0.18750000000000000        0.0000000000000000     
   1.1250000000000000       0.18750000000000000        0.0000000000000000     
   1.0000000000000000       0.21875000000000000        0.0000000000000000     
   1.0312500000000000       0.21875000000000000        0.0000000000000000     
   1.0625000000000000       0.21875000000000000        0.0000000000000000     
   1.0937500000000000       0.21875000000000000        0.0000000000000000     
   1.1250000000000000       0.21875000000000000        0.0000000000000000     
   1.0000000000000000       0.25000000000000000        0.0000000000000000     
   1.0312500000000000       0.25000000000000000        0.0000000000000000     
   1.0625000000000000       0.25000000000000000        0.0000000000000000     
   1.0937500000000000       0.25000000000000000        0.0000000000000000     
   1.1250000000000000       0.25000000000000000        0.0000000000000000     
   1.1250000000000000       0.12500000000000000        0.0000000000000000     
   1.1562500000000000       0.12500000000000000        0.0000000000000000     
   1.1875000000000000       0.12500000000000000        0.0000000000000000     
   1.2187500000000000       0.12500000000000000        0.0000000000000000     
   1.2500000000000000       0.12500000000000000        0.0000000000000000     
   1.1250000000000000       0.15625000000000000        0.0000000000000000     
   1.1562500000000000       0.15625000000000000        0.0000000000000000     
   1.1875000000000000       0.15625000000000000        0.0000000000000000     
   1.2187500000000000       0.15625000000000000        0.0000000000000000     
   1.2500000000000000       0.15625000000000000        0.0000000000000000     
   1.1250000000000000       0.18750000000000000        0.0000000000000000     
   1.1562500000000000       0.18750000000000000        0.0000000000000000     
   1.1875000000000000       0.18750000000000000        0.0000000000000000     
   1.2187500000000000       0.18750000000000000        0.0000000000000000     
   1.2500000000000000       0.18750000000000000        0.0000000000000000     
   1.1250000000000000       0.21875000000000000        0.0000000000000000     
   1.1562500000000000       0.21875000000000000        0.0000000000000000     
   1.1875000000000000       0.21875000000000000        0.0000000000000000     
   1.2187500000000000       0.21875000000000000        0.0000000000000000     
   1.2500000000000000       0.21875000000000000        0.0000000000000000     
   1.1250000000000000       0.25000000000000000        0.0000000000000000     
   1.1562500000000000       0.25000000000000000        0.0000000000000000     
   1.1875000000000000       0.25000000000000000        0.0000000000000000     
   1.2187500000000000       0.25000000000000000        0.0000000000000000     
   1.2500000000000000       0.25000000000000000        0.0000000000000000     
   1.2500000000000000       0.12500000000000000        0.0000000000000000     
   1.2812500000000000       0.12500000000000000        0.0000000000000000     
   1.3125000000000000       0.12500000000000000        0.0000000000000000     
   1.3437500000000000       0.12500000000000000        0.0000000000000000     
   1.3750000000000000       0.12500000000000000        0.0000000000000000     
   1.2500000000000000       0.15625000000000000        0.0000000000000000     
   1.2812500000000000       0.15625000000000000        0.0000000000000000     
   1.3125000000000000       0.15625000000000000        0.0000000000000000     
   1.3437500000000000       0.15625000000000000        0.0000000000000000     
   1.3750000000000000       0.15625000000000000        0.0000000000000000     
   1.2500000000000000       0.18750000000000000        0.0000000000000000     
   1.2812500000000000       0.18750000000000000        0.0000000000000000     
   1.3125000000000000       0.18750000000000000        0.0000000000000000     
   1.3437500000000000       0.18750000000000000        0.0000000000000000     
   1.3750000000000000       0.18750000000000000        0.0000000000000000     
   1.2500000000000000       0.21875000000000000        0.0000000000000000     
   1.2812500000000000       0.21875000000000000        0.0000000000000000     
   1.3125000000000000       0.21875000000000000        0.0000000000000000     
   1.3437500000000000       0.21875000000000000        0.0000000000000000     
   1.3750000000000000       0.21875000000000000        0.0000000000000000     
   1.2500000000000000       0.25000000000000000        0.0000000000000000     
   1.2812500000000000       0.25000000000000000        0.0000000000000000     
   1.3125000000000000       0.25000000000000000        0.0000000000000000     
   1.3437500000000000       0.25000000000000000        0.0000000000000000     
   1.3750000000000000       0.25000000000000000        0.0000000000000000     
   1.3750000000000000       0.12500000000000000        0.0000000000000000     
   1.4062500000000000       0.12500000000000000        0.0000000000000000     
   1.4375000000000000       0.12500000000000000        0.0000000000000000     
   1.4687500000000000       0.12500000000000000        0.0000000000000000     
   1.5000000000000000       0.12500000000000000        0.0000000000000000     
   1.3750000000000000       0.15625000000000000        0.0000000000000000     
   1.4062500000000000       0.15625000000000000        0.0000000000000000     
   1.4375000000000000       0.15625000000000000        0.0000000000000000     
   1.4687500000000000       0.15625000000000000        0.0000000000000000     
   1.5000000000000000       0.15625000000000000        0.0000000000000000     
   1.3750000000000000       0.18750000000000000        0.0000000000000000     
   1.4062500000000000       0.18750000000000000        0.0000000000000000     
   1.4375000000000000       0.18750000000000000        0.0000000000000000     
   1.4687500000000000       0.18750000000000000        0.0000000000000000     
   1.5000000000000000       0.18750000000000000        0.0000000000000000     
   1.3750000000000000       0.21875000000000000        0.0000000000000000     
   1.4062500000000000       0.21875000000000000        0.0000000000000000     
   1.4375000000000000       0.21875000000000000        0.0000000000000000     
   1.4687500000000000       0.21875000000000000        0.0000000000000000     
   1.5000000000000000       0.21875000000000000        0.0000000000000000     
   1.3750000000000000       0.25000000000000000        0.0000000000000000     
   1.4062500000000000       0.25000000000000000        0.0000000000000000     
   1.4375000000000000       0.25000000000000000        0.0000000000000000     
   1.4687500000000000       0.25000000000000000        0.0000000000000000     
   1.5000000000000000       0.25000000000000000        0.0000000000000000     
  0.50000000000000000       0.25000000000000000        0.0000000000000000     
  0.53125000000000000       0.25000000000000000        0.0000000000000000     
  0.56250000000000000       0.25000000000000000        0.0000000000000000     
  0.59375000000000000       0.25000000000000000        0.0000000000000000     
  0.62500000000000000       0.25000000000000000        0.0000000000000000     
  0.50000000000000000       0.28125000000000000        0.0000000000000000     
  0.53125000000000000       0.28125000000000000        0.0000000000000000     
  0.56250000000000000       0.28125000000000000        0.0000000000000000     
  0.59375000000000000       0.28125000000000000        0.0000000000000000     
  0.62500000000000000       0.28125000000000000        0.0000000000000000     
  0.50000000000000000       0.31250000000000000        0.0000000000000000     
  0.53125000000000000       0.31250000000000000        0.0000000000000000     
  0.56250000000000000       0.31250000000000000        0.0000000000000000     
  0.59375000000000000       0.31250000000000000        0.0000000000000000     
  0.62500000000000000       0.31250000000000000        0.0000000000000000     
  0.50000000000000000       0.34375000000000000        0.0000000000000000     
  0.53125000000000000       0.34375000000000000        0.0000000000000000     
  0.56250000000000000       0.34375000000000000        0.0000000000000000     
  0.59375000000000000       0.34375000000000000        0.0000000000000000     
  0.62500000000000000       0.34375000000000000        0.0000000000000000     
  0.50000000000000000       0.37500000000000000        0.0000000000000000     
  0.53125000000000000       0.37500000000000000        0.0000000000000000     
  0.56250000000000000       0.37500000000000000        0.0000000000000000     
  0.59375000000000000       0.37500000000000000        0.0000000000000000     
  0.62500000000000000       0.37500000000000000        0.0000000000000000     
  0.62500000000000000       0.25000000000000000        0.0000000000000000     
  0.65625000000000000       0.25000000000000000        0.0000000000000000     
  0.68750000000000000       0.25000000000000000        0.0000000000000000     
  0.71875000000000000       0.25000000000000000        0.0000000000000000     
  0.75000000000000000       0.25000000000000000        0.0000000000000000     
  0.62500000000000000       0.28125000000000000        0.0000000000000000     
  0.65625000000000000       0.28125000000000000        0.0000000000000000     
  0.68750000000000000       0.28125000000000000        0.0000000000000000     
  0.71875000000000000       0.28125000000000000        0.0000000000000000     
  0.75000000000000000       0.28125000000000000        0.0000000000000000     
  0.62500000000000000       0.31250000000000000        0.0000000000000000     
  0.65625000000000000       0.31250000000000000        0.0000000000000000     
  0.68750000000000000       0.31250000000000000        0.0000000000000000     
  0.71875000000000000       0.31250000000000000        0.0000000000000000     
  0.75000000000000000       0.31250000000000000        0.0000000000000000     
  0.62500000000000000       0.34375000000000000        0.0000000000000000     
  0.65625000000000000       0.34375000000000000        0.0000000000000000     
  0.68750000000000000       0.34375000000000000        0.0000000000000000     
  0.71875000000000000       0.34375000000000000        0.0000000000000000     
  0.75000000000000000       0.34375000000000000        0.0000000000000000     
  0.62500000000000000       0.37500000000000000        0.0000000000000000     
  0.65625000000000000       0.37500000000000000        0.0000000000000000     
  0.68750000000000000       0.37500000000000000        0.0000000000000000     
  0.71875000000000000       0.37500000000000000        0.0000000000000000     
  0.75000000000000000       0.37500000000000000        0.0000000000000000     
  0.75000000000000000       0.25000000000000000        0.0000000000000000     
  0.78125000000000000       0.25000000000000000        0.0000000000000000     
  0.81250000000000000       0.25000000000000000        0.0000000000000000     
  0.84375000000000000       0.25000000000000000        0.0000000000000000     
  0.87500000000000000       0.25000000000000000        0.0000000000000000     
  0.75000000000000000       0.28125000000000000        0.0000000000000000     
  0.78125000000000000       0.28125000000000000        0.0000000000000000     
  0.81250000000000000       0.28125000000000000        0.0000000000000000     
  0.84375000000000000       0.28125000000000000        0.0000000000000000     
  0.87500000000000000       0.28125000000000000        0.0000000000000000     
  0.75000000000000000       0.31250000000000000        0.0000000000000000     
  0.78125000000000000       0.31250000000000000        0.0000000000000000     
  0.81250000000000000       0.31250000000000000        0.0000000000000000     
  0.84375000000000000       0.31250000000000000        0.0000000000000000     
  0.87500000000000000       0.31250000000000000        0.0000000000000000     
  0.75000000000000000       0.34375000000000000        0.0000000000000000     
  0.78125000000000000       0.34375000000000000        0.0000000000000000     
  0.81250000000000000       0.34375000000000000        0.0000000000000000     
  0.84375000000000000       0.34375000000000000        0.0000000000000000     
  0.87500000000000000       0.34375000000000000        0.0000000000000000     
  0.75000000000000000       0.37500000000000000        0.0000000000000000     
  0.78125000000000000       0.37500000000000000        0.0000000000000000     
  0.81250000000000000       0.37500000000000000        0.0000000000000000     
  0.84375000000000000       0.37500000000000000        0.0000000000000000     
  0.87500000000000000       0.37500000000000000        0.0000000000000000     
  0.87500000000000000       0.25000000000000000        0.0000000000000000     
  0.90625000000000000       0.25000000000000000        0.0000000000000000     
  0.93750000000000000       0.25000000000000000        0.0000000000000000     
  0.96875000000000000       0.25000000000000000        0.0000000000000000     
   1.0000000000000000       0.25000000000000000        0.0000000000000000     
  0.87500000000000000       0.28125000000000000        0.0000000000000000     
  0.90625000000000000       0.28125000000000000        0.0000000000000000     
  0.93750000000000000       0.28125000000000000        0.0000000000000000     
  0.96875000000000000       0.28125000000000000        0.0000000000000000     
   1.0000000000000000       0.28125000000000000        0.0000000000000000     
  0.87500000000000000       0.31250000000000000        0.0000000000000000     
  0.90625000000000000       0.31250000000000000        0.0000000000000000     
  0.93750000000000000       0.31250000000000000        0.0000000000000000     
  0.96875000000000000       0.31250000000000000        0.0000000000000000     
   1.0000000000000000       0.31250000000000000        0.0000000000000000     
  0.87500000000000000       0.34375000000000000        0.0000000000000000     
  0.90625000000000000       0.34375000000000000        0.0000000000000000     
  0.93750000000000000       0.34375000000000000        0.0000000000000000     
  0.96875000000000000       0.34375000000000000        0.0000000000000000     
   1.0000000000000000       0.34375000000000000        0.0000000000000000     
  0.87500000000000000       0.37500000000000000        0.0000000000000000     
  0.90625000000000000       0.37500000000000000        0.0000000000000000     
  0.93750000000000000       0.37500000000000000        0.0000000000000000     
  0.96875000000000000       0.37500000000000000        0.0000000000000000     
   1.0000000000000000       0.37500000000000000        0.0000000000000000     
   1.0000000000000000       0.25000000000000000        0.0000000000000000     
   1.0312500000000000       0.25000000000000000        0.0000000000000000     
   1.0625000000000000       0.25000000000000000        0.0000000000000000     
   1.0937500000000000       0.25000000000000000        0.0000000000000000     
   1.1250000000000000       0.25000000000000000        0.0000000000000000     
   1.0000000000000000       0.28125000000000000        0.0000000000000000     
   1.0312500000000000       0.28125000000000000        0.0000000000000000     
   1.0625000000000000       0.28125000000000000        0.0000000000000000     
   1.0937500000000000       0.28125000000000000        0.0000000000000000     
   1.1250000000000000       0.28125000000000000        0.0000000000000000     
   1.0000000000000000       0.31250000000000000        0.0000000000000000     
   1.0312500000000000       0.31250000000000000        0.0000000000000000     
   1.0625000000000000       0.31250000000000000        0.0000000000000000     
   1.0937500000000000       0.31250000000000000        0.0000000000000000     
   1.1250000000000000       0.31250000000000000        0.0000000000000000     
   1.0000000000000000       0.34375000000000000        0.0000000000000000     
   1.0312500000000000       0.34375000000000000        0.0000000000000000     
   1.0625000000000000       0.34375000000000000        0.0000000000000000     
   1.0937500000000000       0.34375000000000000        0.0000000000000000     
   1.1250000000000000       0.34375000000000000        0.0000000000000000     
   1.0000000000000000       0.37500000000000000        0.0000000000000000     
   1.0312500000000000       0.37500000000000000        0.0000000000000000     
   1.0625000000000000       0.37500000000000000        0.0000000000000000     
   1.0937500000000000       0.37500000000000000        0.0000000000000000     
   1.1250000000000000       0.37500000000000000        0.0000000000000000     
   1.1250000000000000       0.25000000000000000        0.0000000000000000     
   1.1562500000000000       0.25000000000000000        0.0000000000000000     
   1.1875000000000000       0.25000000000000000        0.0000000000000000     
   1.2187500000000000       0.25000000000000000        0.0000000000000000     
   1.2500000000000000       0.25000000000000000        0.0000000000000000     
   1.1250000000000000       0.28125000000000000        0.0000000000000000     
   1.1562500000000000       0.28125000000000000        0.0000000000000000     
   1.1875000000000000       0.28125000000000000        0.0000000000000000     
   1.2187500000000000       0.28125000000000000        0.0000000000000000     
   1.2500000000000000       0.28125000000000000        0.0000000000000000     
   1.1250000000000000       0.31250000000000000        0.0000000000000000     
   1.1562500000000000       0.31250000000000000        0.0000000000000000     
   1.1875000000000000       0.31250000000000000        0.0000000000000000     
   1.2187500000000000       0.31250000000000000        0.0000000000000000     
   1.2500000000000000       0.31250000000000000        0.0000000000000000     
   1.1250000000000000       0.34375000000000000        0.0000000000000000     
   1.1562500000000000       0.34375000000000000        0.0000000000000000     
   1.1875000000000000       0.34375000000000000        0.0000000000000000     
   1.2187500000000000       0.34375000000000000        0.0000000000000000     
   1.2500000000000000       0.34375000000000000        0.0000000000000000     
   1.1250000000000000       0.37500000000000000        0.0000000000000000     
   1.1562500000000000       0.37500000000000000        0.0000000000000000     
   1.1875000000000000       0.37500000000000000        0.0000000000000000     
   1.2187500000000000       0.37500000000000000        0.0000000000000000     
   1.2500000000000000       0.37500000000000000        0.0000000000000000     
   1.2500000000000000       0.25000000000000000        0.0000000000000000     
   1.2812500000000000       0.25000000000000000        0.0000000000000000     
   1.3125000000000000       0.25000000000000000        0.0000000000000000     
   1.3437500000000000       0.25000000000000000        0.0000000000000000     
   1.3750000000000000       0.25000000000000000        0.0000000000000000     
   1.2500000000000000       0.28125000000000000        0.0000000000000000     
   1.2812500000000000       0.28125000000000000        0.0000000000000000     
   1.3125000000000000       0.28125000000000000        0.0000000000000000     
   1.3437500000000000       0.28125000000000000        0.0000000000000000     
   1.3750000000000000       0.28125000000000000        0.0000000000000000     
   1.2500000000000000       0.31250000000000000        0.0000000000000000     
   1.2812500000000000       0.31250000000000000        0.0000000000000000     
   1.3125000000000000       0.31250000000000000        0.0000000000000000     
   1.3437500000000000       0.31250000000000000        0.0000000000000000     
   1.3750000000000000       0.31250000000000000        0.0000000000000000     
   1.2500000000000000       0.34375000000000000        0.0000000000000000     
   1.2812500000000000       0.34375000000000000        0.0000000000000000     
   1.3125000000000000       0.34375000000000000        0.0000000000000000     
   1.3437500000000000       0.34375000000000000        0.0000000000000000     
   1.3750000000000000       0.34375000000000000        0.0000000000000000     
   1.2500000000000000       0.37500000000000000        0.0000000000000000     
   1.2812500000000000       0.37500000000000000        0.0000000000000000     
   1.3125000000000000       0.37500000000000000        0.0000000000000000     
   1.3437500000000000       0.37500000000000000        0.0000000000000000     
   1.3750000000000000       0.37500000000000000        0.0000000000000000     
   1.3750000000000000       0.25000000000000000        0.0000000000000000     
   1.4062500000000000       0.25000000000000000        0.0000000000000000     
   1.4375000000000000       0.25000000000000000        0.0000000000000000     
   1.4687500000000000       0.25000000000000000        0.0000000000000000     
   1.5000000000000000       0.25000000000000000        0.0000000000000000     
   1.3750000000000000       0.28125000000000000        0.0000000000000000     
   1.4062500000000000       0.28125000000000000        0.0000000000000000     
   1.4375000000000000       0.28125000000000000        0.0000000000000000     
   1.4687500000000000       0.28125000000000000        0.0000000000000000     
   1.5000000000000000       0.28125000000000000        0.0000000000000000     
   1.3750000000000000       0.31250000000000000        0.0000000000000000     
   1.4062500000000000       0.31250000000000000        0.0000000000000000     
   1.4375000000000000       0.31250000000000000        0.0000000000000000     
   1.4687500000000000       0.31250000000000000        0.0000000000000000     
   1.5000000000000000       0.31250000000000000        0.0000000000000000     
   1.3750000000000000       0.34375000000000000        0.0000000000000000     
   1.4062500000000000       0.34375000000000000        0.0000000000000000     
   1.4375000000000000       0.34375000000000000        0.0000000000000000     
   1.4687500000000000       0.34375000000000000        0.0000000000000000     
   1.5000000000000000       0.34375000000000000        0.0000000000000000     
   1.3750000000000000       0.37500000000000000        0.0000000000000000     
   1.4062500000000000       0.37500000000000000        0.0000000000000000     
   1.4375000000000000       0.37500000000000000        0.0000000000000000     
   1.4687500000000000       0.37500000000000000        0.0000000000000000     
   1.5000000000000000       0.37500000000000000        0.0000000000000000     
  0.50000000000000000       0.37500000000000000        0.0000000000000000     
  0.53125000000000000       0.37500000000000000        0.0000000000000000     
  0.56250000000000000       0.37500000000000000        0.0000000000000000     
  0.59375000000000000       0.37500000000000000        0.0000000000000000     
  0.62500000000000000       0.37500000000000000        0.0000000000000000     
  0.50000000000000000       0.40625000000000000        0.0000000000000000     
  0.53125000000000000       0.40625000000000000        0.0000000000000000     
  0.56250000000000000       0.40625000000000000        0.0000000000000000     
  0.59375000000000000       0.40625000000000000        0.0000000000000000     
  0.62500000000000000       0.40625000000000000        0.0000000000000000     
  0.50000000000000000       0.43750000000000000        0.0000000000000000     
  0.53125000000000000       0.43750000000000000        0.0000000000000000     
  0.56250000000000000       0.43750000000000000        0.0000000000000000     
  0.59375000000000000       0.43750000000000000        0.0000000000000000     
  0.62500000000000000       0.43750000000000000        0.0000000000000000     
  0.50000000000000000       0.46875000000000000        0.0000000000000000     
  0.53125000000000000       0.46875000000000000        0.0000000000000000     
  0.56250000000000000       0.46875000000000000        0.0000000000000000     
  0.59375000000000000       0.46875000000000000        0.0000000000000000     
  0.62500000000000000       0.46875000000000000        0.0000000000000000     
  0.50000000000000000       0.50000000000000000        0.0000000000000000     
  0.53125000000000000       0.50000000000000000        0.0000000000000000     
  0.56250000000000000       0.50000000000000000        0.0000000000000000     
  0.59375000000000000       0.50000000000000000        0.0000000000000000     
  0.62500000000000000       0.50000000000000000        0.0000000000000000     
  0.62500000000000000       0.37500000000000000        0.0000000000000000     
  0.65625000000000000       0.37500000000000000        0.0000000000000000     
  0.68750000000000000       0.37500000000000000        0.0000000000000000     
  0.71875000000000000       0.37500000000000000        0.0000000000000000     
  0.75000000000000000       0.37500000000000000        0.0000000000000000     
  0.62500000000000000       0.40625000000000000        0.0000000000000000     
  0.65625000000000000       0.40625000000000000        0.0000000000000000     
  0.68750000000000000       0.40625000000000000        0.0000000000000000     
  0.71875000000000000       0.40625000000000000        0.0000000000000000     
  0.75000000000000000       0.40625000000000000        0.0000000000000000     
  0.62500000000000000       0.43750000000000000        0.0000000000000000     
  0.65625000000000000       0.43750000000000000        0.0000000000000000     
  0.68750000000000000       0.43750000000000000        0.0000000000000000     
  0.71875000000000000       0.43750000000000000        0.0000000000000000     
  0.75000000000000000       0.43750000000000000        0.0000000000000000     
  0.62500000000000000       0.46875000000000000        0.0000000000000000     
  0.65625000000000000       0.46875000000000000        0.0000000000000000     
  0.68750000000000000       0.46875000000000000        0.0000000000000000     
  0.71875000000000000       0.46875000000000000        0.0000000000000000     
  0.75000000000000000       0.46875000000000000        0.0000000000000000     
  0.62500000000000000       0.50000000000000000        0.0000000000000000     
  0.65625000000000000       0.50000000000000000        0.0000000000000000     
  0.68750000000000000       0.50000000000000000        0.0000000000000000     
  0.71875000000000000       0.50000000000000000        0.0000000000000000     
  0.75000000000000000       0.50000000000000000        0.0000000000000000     
  0.75000000000000000       0.37500000000000000        0.0000000000000000     
  0.78125000000000000       0.37500000000000000        0.0000000000000000     
  0.81250000000000000       0.37500000000000000        0.0000000000000000     
  0.84375000000000000       0.37500000000000000        0.0000000000000000     
  0.87500000000000000       0.37500000000000000        0.0000000000000000     
  0.75000000000000000       0.40625000000000000        0.0000000000000000     
  0.78125000000000000       0.40625000000000000        0.0000000000000000     
  0.81250000000000000       0.40625000000000000        0.0000000000000000     
  0.84375000000000000       0.40625000000000000        0.0000000000000000     
  0.87500000000000000       0.40625000000000000        0.0000000000000000     
  0.75000000000000000       0.43750000000000000        0.0000000000000000     
  0.78125000000000000       0.43750000000000000        0.0000000000000000     
  0.81250000000000000       0.43750000000000000        0.0000000000000000     
  0.84375000000000000       0.43750000000000000        0.0000000000000000     
  0.87500000000000000       0.43750000000000000        0.0000000000000000     
  0.75000000000000000       0.46875000000000000        0.0000000000000000     
  0.78125000000000000       0.46875000000000000        0.0000000000000000     
  0.81250000000000000       0.46875000000000000        0.0000000000000000     
  0.84375000000000000       0.46875000000000000        0.0000000000000000     
  0.87500000000000000       0.46875000000000000        0.0000000000000000     
  0.75000000000000000       0.50000000000000000        0.0000000000000000     
  0.78125000000000000       0.50000000000000000        0.0000000000000000     
  0.81250000000000000       0.50000000000000000        0.0000000000000000     
  0.84375000000000000       0.50000000000000000        0.0000000000000000     
  0.87500000000000000       0.50000000000000000        0.0000000000000000     
  0.87500000000000000       0.37500000000000000        0.0000000000000000     
  0.90625000000000000       0.37500000000000000        0.0000000000000000     
  0.93750000000000000       0.37500000000000000        0.0000000000000000     
  0.96875000000000000       0.37500000000000000        0.0000000000000000     
   1.0000000000000000       0.37500000000000000        0.0000000000000000     
  0.87500000000000000       0.40625000000000000        0.0000000000000000     
  0.90625000000000000       0.40625000000000000        0.0000000000000000     
  0.93750000000000000       0.40625000000000000        0.0000000000000000     
  0.96875000000000000       0.40625000000000000        0.0000000000000000     
   1.0000000000000000       0.40625000000000000        0.0000000000000000     
  0.87500000000000000       0.43750000000000000        0.0000000000000000     
  0.90625000000000000       0.43750000000000000        0.0000000000000000     
  0.93750000000000000       0.43750000000000000        0.0000000000000000     
  0.96875000000000000       0.43750000000000000        0.0000000000000000     
   1.0000000000000000       0.43750000000000000        0.0000000000000000     
  0.87500000000000000       0.46875000000000000        0.0000000000000000     
  0.90625000000000000       0.46875000000000000        0.0000000000000000     
  0.93750000000000000       0.46875000000000000        0.0000000000000000     
  0.96875000000000000       0.46875000000000000        0.0000000000000000     
   1.0000000000000000       0.46875000000000000        0.0000000000000000     
  0.87500000000000000       0.50000000000000000        0.0000000000000000     
  0.90625000000000000       0.50000000000000000        0.0000000000000000     
  0.93750000000000000       0.50000000000000000        0.0000000000000000     
  0.96875000000000000       0.50000000000000000        0.0000000000000000     
   1.0000000000000000       0.50000000000000000        0.0000000000000000     
   1.0000000000000000       0.37500000000000000        0.0000000000000000     
   1.0312500000000000       0.37500000000000000        0.0000000000000000     
   1.0625000000000000       0.37500000000000000        0.0000000000000000     
   1.0937500000000000       0.37500000000000000        0.0000000000000000     
   1.1250000000000000       0.37500000000000000        0.0000000000000000     
   1.0000000000000000       0.40625000000000000        0.0000000000000000     
   1.0312500000000000       0.40625000000000000        0.0000000000000000     
   1.0625000000000000       0.40625000000000000        0.0000000000000000     
   1.0937500000000000       0.40625000000000000        0.0000000000000000     
   1.1250000000000000       0.40625000000000000        0.0000000000000000     
   1.0000000000000000       0.43750000000000000        0.0000000000000000     
   1.0312500000000000       0.43750000000000000        0.0000000000000000     
   1.0625000000000000       0.43750000000000000        0.0000000000000000     
   1.0937500000000000       0.43750000000000000        0.0000000000000000     
   1.1250000000000000       0.43750000000000000        0.0000000000000000     
   1.0000000000000000       0.46875000000000000        0.0000000000000000     
   1.0312500000000000       0.46875000000000000        0.0000000000000000     
   1.0625000000000000       0.46875000000000000        0.0000000000000000     
   1.0937500000000000       0.46875000000000000        0.0000000000000000     
   1.1250000000000000       0.46875000000000000        0.0000000000000000     
   1.0000000000000000       0.50000000000000000        0.0000000000000000     
   1.0312500000000000       0.50000000000000000        0.0000000000000000     
   1.0625000000000000       0.50000000000000000        0.0000000000000000     
   1.0937500000000000       0.50000000000000000        0.0000000000000000     
   1.1250000000000000       0.50000000000000000        0.0000000000000000     
   1.1250000000000000       0.37500000000000000        0.0000000000000000     
   1.1562500000000000       0.37500000000000000        0.0000000000000000     
   1.1875000000000000       0.37500000000000000        0.0000000000000000     
   1.2187500000000000       0.37500000000000000        0.0000000000000000     
   1.2500000000000000       0.37500000000000000        0.0000000000000000     
   1.1250000000000000       0.40625000000000000        0.0000000000000000     
   1.1562500000000000       0.40625000000000000        0.0000000000000000     
   1.1875000000000000       0.40625000000000000        0.0000000000000000     
   1.2187500000000000       0.40625000000000000        0.0000000000000000     
   1.2500000000000000       0.40625000000000000        0.0000000000000000     
   1.1250000000000000       0.43750000000000000        0.0000000000000000     
   1.1562500000000000       0.43750000000000000        0.0000000000000000     
   1.1875000000000000       0.43750000000000000        0.0000000000000000     
   1.2187500000000000       0.43750000000000000        0.0000000000000000     
   1.2500000000000000       0.43750000000000000        0.0000000000000000     
   1.1250000000000000       0.46875000000000000        0.0000000000000000     
   1.1562500000000000       0.46875000000000000        0.0000000000000000     
   1.1875000000000000       0.46875000000000000        0.0000000000000000     
   1.2187500000000000       0.46875000000000000        0.0000000000000000     
   1.2500000000000000       0.46875000000000000        0.0000000000000000     
   1.1250000000000000       0.50000000000000000        0.0000000000000000     
   1.1562500000000000       0.50000000000000000        0.0000000000000000     
   1.1875000000000000       0.50000000000000000        0.0000000000000000     
   1.2187500000000000       0.50000000000000000        0.0000000000000000     
   1.2500000000000000       0.50000000000000000        0.0000000000000000     
   1.2500000000000000       0.37500000000000000        0.0000000000000000     
   1.2812500000000000       0.37500000000000000        0.0000000000000000     
   1.3125000000000000       0.37500000000000000        0.0000000000000000     
   1.3437500000000000       0.37500000000000000        0.0000000000000000     
   1.3750000000000000       0.37500000000000000        0.0000000000000000     
   1.2500000000000000       0.40625000000000000        0.0000000000000000     
   1.2812500000000000       0.40625000000000000        0.0000000000000000     
   1.3125000000000000       0.40625000000000000        0.0000000000000000     
   1.3437500000000000       0.40625000000000000        0.0000000000000000     
   1.3750000000000000       0.40625000000000000        0.0000000000000000     
   1.2500000000000000       0.43750000000000000        0.0000000000000000     
   1.2812500000000000       0.43750000000000000        0.0000000000000000     
   1.3125000000000000       0.43750000000000000        0.0000000000000000     
   1.3437500000000000       0.43750000000000000        0.0000000000000000     
   1.3750000000000000       0.43750000000000000        0.0000000000000000     
   1.2500000000000000       0.46875000000000000        0.0000000000000000     
   1.2812500000000000       0.46875000000000000        0.0000000000000000     
   1.3125000000000000       0.46875000000000000        0.0000000000000000     
   1.3437500000000000       0.46875000000000000        0.0000000000000000     
   1.3750000000000000       0.46875000000000000        0.0000000000000000     
   1.2500000000000000       0.50000000000000000        0.0000000000000000     
   1.2812500000000000       0.50000000000000000        0.0000000000000000     
   1.3125000000000000       0.50000000000000000        0.0000000000000000     
   1.3437500000000000       0.50000000000000000        0.0000000000000000     
   1.3750000000000000       0.50000000000000000        0.0000000000000000     
   1.3750000000000000       0.37500000000000000        0.0000000000000000     
   1.4062500000000000       0.37500000000000000        0.0000000000000000     
   1.4375000000000000       0.37500000000000000        0.0000000000000000     
   1.4687500000000000       0.37500000000000000        0.0000000000000000     
   1.5000000000000000       0.37500000000000000        0.0000000000000000     
   1.3750000000000000       0.40625000000000000        0.0000000000000000     
   1.4062500000000000       0.40625000000000000        0.0000000000000000     
   1.4375000000000000       0.40625000000000000        0.0000000000000000     
   1.4687500000000000       0.40625000000000000        0.0000000000000000     
   1.5000000000000000       0.40625000000000000        0.0000000000000000     
   1.3750000000000000       0.43750000000000000        0.0000000000000000     
   1.4062500000000000       0.43750000000000000        0.0000000000000000     
   1.4375000000000000       0.43750000000000000        0.0000000000000000     
   1.4687500000000000       0.43750000000000000        0.0000000000000000     
   1.5000000000000000       0.43750000000000000        0.0000000000000000     
   1.3750000000000000       0.46875000000000000        0.0000000000000000     
   1.4062500000000000       0.46875000000000000        0.0000000000000000     
   1.4375000000000000       0.46875000000000000        0.0000000000000000     
   1.4687500000000000       0.46875000000000000        0.0000000000000000     
   1.5000000000000000       0.46875000000000000        0.0000000000000000     
   1.3750000000000000       0.50000000000000000        0.0000000000000000     
   1.4062500000000000       0.50000000000000000        0.0000000000000000     
   1.4375000000000000       0.50000000000000000        0.0000000000000000     
   1.4687500000000000       0.50000000000000000        0.0000000000000000     
   1.5000000000000000       0.50000000000000000        0.0000000000000000     
  0.50000000000000000       0.50000000000000000        0.0000000000000000     
  0.53125000000000000       0.50000000000000000        0.0000000000000000     
  0.56250000000000000       0.50000000000000000        0.0000000000000000     
  0.59375000000000000       0.50000000000000000        0.0000000000000000     
  0.62500000000000000       0.50000000000000000        0.0000000000000000     
  0.50000000000000000       0.53125000000000000        0.0000000000000000     
  0.53125000000000000       0.53125000000000000        0.0000000000000000     
  0.56250000000000000       0.53125000000000000        0.0000000000000000     
  0.59375000000000000       0.53125000000000000        0.0000000000000000     
  0.62500000000000000       0.53125000000000000        0.0000000000000000     
  0.50000000000000000       0.56250000000000000        0.0000000000000000     
  0.53125000000000000       0.56250000000000000        0.0000000000000000     
  0.56250000000000000       0.56250000000000000        0.0000000000000000     
  0.59375000000000000       0.56250000000000000        0.0000000000000000     
  0.62500000000000000       0.56250000000000000        0.0000000000000000     
  0.50000000000000000       0.59375000000000000        0.0000000000000000     
  0.53125000000000000       0.59375000000000000        0.0000000000000000     
  0.56250000000000000       0.59375000000000000        0.0000000000000000     
  0.59375000000000000       0.59375000000000000        0.0000000000000000     
  0.62500000000000000       0.59375000000000000        0.0000000000000000     
  0.50000000000000000       0.62500000000000000        0.0000000000000000     
  0.53125000000000000       0.62500000000000000        0.0000000000000000     
  0.56250000000000000       0.62500000000000000        0.0000000000000000     
  0.59375000000000000       0.62500000000000000        0.0000000000000000     
  0.62500000000000000       0.62500000000000000        0.0000000000000000     
  0.62500000000000000       0.50000000000000000        0.0000000000000000     
  0.65625000000000000       0.50000000000000000        0.0000000000000000     
  0.68750000000000000       0.50000000000000000        0.0000000000000000     
  0.71875000000000000       0.50000000000000000        0.0000000000000000     
  0.75000000000000000       0.50000000000000000        0.0000000000000000     
  0.62500000000000000       0.53125000000000000        0.0000000000000000     
  0.65625000000000000       0.53125000000000000        0.0000000000000000     
  0.68750000000000000       0.53125000000000000        0.0000000000000000     
  0.71875000000000000       0.53125000000000000        0.0000000000000000     
  0.75000000000000000       0.53125000000000000        0.0000000000000000     
  0.62500000000000000       0.56250000000000000        0.0000000000000000     
  0.65625000000000000       0.56250000000000000        0.0000000000000000     
  0.68750000000000000       0.56250000000000000        0.0000000000000000     
  0.71875000000000000       0.56250000000000000        0.0000000000000000     
  0.75000000000000000       0.56250000000000000        0.0000000000000000     
  0.62500000000000000       0.59375000000000000        0.0000000000000000     
  0.65625000000000000       0.59375000000000000        0.0000000000000000     
  0.68750000000000000       0.59375000000000000        0.0000000000000000     
  0.71875000000000000       0.59375000000000000        0.0000000000000000     
  0.75000000000000000       0.59375000000000000        0.0000000000000000     
  0.62500000000000000       0.62500000000000000        0.0000000000000000     
  0.65625000000000000       0.62500000000000000        0.0000000000000000     
  0.68750000000000000       0.62500000000000000        0.0000000000000000     
  0.71875000000000000       0.62500000000000000        0.0000000000000000     
  0.75000000000000000       0.62500000000000000        0.0000000000000000     
  0.75000000000000000       0.50000000000000000        0.0000000000000000     
  0.78125000000000000       0.50000000000000000        0.0000000000000000     
  0.81250000000000000       0.50000000000000000        0.0000000000000000     
  0.84375000000000000       0.50000000000000000        0.0000000000000000     
  0.87500000000000000       0.50000000000000000        0.0000000000000000     
  0.75000000000000000       0.53125000000000000        0.0000000000000000     
  0.78125000000000000       0.53125000000000000        0.0000000000000000     
  0.81250000000000000       0.53125000000000000        0.0000000000000000     
  0.84375000000000000       0.53125000000000000        0.0000000000000000     
  0.87500000000000000       0.53125000000000000        0.0000000000000000     
  0.75000000000000000       0.56250000000000000        0.0000000000000000     
  0.78125000000000000       0.56250000000000000        0.0000000000000000     
  0.81250000000000000       0.56250000000000000        0.0000000000000000     
  0.84375000000000000       0.56250000000000000        0.0000000000000000     
  0.87500000000000000       0.56250000000000000        0.0000000000000000     
  0.75000000000000000       0.59375000000000000        0.0000000000000000     
  0.78125000000000000       0.59375000000000000        0.0000000000000000     
  0.81250000000000000       0.59375000000000000        0.0000000000000000     
  0.84375000000000000       0.59375000000000000        0.0000000000000000     
  0.87500000000000000       0.59375000000000000        0.0000000000000000     
  0.75000000000000000       0.62500000000000000        0.0000000000000000     
  0.78125000000000000       0.62500000000000000        0.0000000000000000     
  0.81250000000000000       0.62500000000000000        0.0000000000000000     
  0.84375000000000000       0.62500000000000000        0.0000000000000000     
  0.87500000000000000       0.62500000000000000        0.0000000000000000     
  0.87500000000000000       0.50000000000000000        0.0000000000000000     
  0.90625000000000000       0.50000000000000000        0.0000000000000000     
  0.93750000000000000       0.50000000000000000        0.0000000000000000     
  0.96875000000000000       0.50000000000000000        0.0000000000000000     
   1.0000000000000000       0.50000000000000000        0.0000000000000000     
  0.87500000000000000       0.53125000000000000        0.0000000000000000     
  0.90625000000000000       0.53125000000000000        0.0000000000000000     
  0.93750000000000000       0.53125000000000000        0.0000000000000000     
  0.96875000000000000       0.53125000000000000        0.0000000000000000     
   1.0000000000000000       0.53125000000000000        0.0000000000000000     
  0.87500000000000000       0.56250000000000000        0.0000000000000000     
  0.90625000000000000       0.56250000000000000        0.0000000000000000     
  0.93750000000000000       0.56250000000000000        0.0000000000000000     
  0.96875000000000000       0.56250000000000000        0.0000000000000000     
   1.0000000000000000       0.56250000000000000        0.0000000000000000     
  0.87500000000000000       0.59375000000000000        0.0000000000000000     
  0.90625000000000000       0.59375000000000000        0.0000000000000000     
  0.93750000000000000       0.59375000000000000        0.0000000000000000     
  0.96875000000000000       0.59375000000000000        0.0000000000000000     
   1.0000000000000000       0.59375000000000000        0.0000000000000000     
  0.87500000000000000       0.62500000000000000        0.0000000000000000     
  0.90625000000000000       0.62500000000000000        0.0000000000000000     
  0.93750000000000000       0.62500000000000000        0.0000000000000000     
  0.96875000000000000       0.62500000000000000        0.0000000000000000     
   1.0000000000000000       0.62500000000000000        0.0000000000000000     
   1.0000000000000000       0.50000000000000000        0.0000000000000000     
   1.0312500000000000       0.50000000000000000        0.0000000000000000     
   1.0625000000000000       0.50000000000000000        0.0000000000000000     
   1.0937500000000000       0.50000000000000000        0.0000000000000000     
   1.1250000000000000       0.50000000000000000        0.0000000000000000     
   1.0000000000000000       0.53125000000000000        0.0000000000000000     
   1.0312500000000000       0.53125000000000000        0.0000000000000000     
   1.0625000000000000       0.53125000000000000        0.0000000000000000     
   1.0937500000000000       0.53125000000000000        0.0000000000000000     
   1.1250000000000000       0.53125000000000000        0.0000000000000000     
   1.0000000000000000       0.56250000000000000        0.0000000000000000     
   1.0312500000000000       0.56250000000000000        0.0000000000000000     
   1.0625000000000000       0.56250000000000000        0.0000000000000000     
   1.0937500000000000       0.56250000000000000        0.0000000000000000     
   1.1250000000000000       0.56250000000000000        0.0000000000000000     
   1.0000000000000000       0.59375000000000000        0.0000000000000000     
   1.0312500000000000       0.59375000000000000        0.0000000000000000     
   1.0625000000000000       0.59375000000000000        0.0000000000000000     
   1.0937500000000000       0.59375000000000000        0.0000000000000000     
   1.1250000000000000       0.59375000000000000        0.0000000000000000     
   1.0000000000000000       0.62500000000000000        0.0000000000000000     
   1.0312500000000000       0.62500000000000000        0.0000000000000000     
   1.0625000000000000       0.62500000000000000        0.0000000000000000     
   1.0937500000000000       0.62500000000000000        0.0000000000000000     
   1.1250000000000000       0.62500000000000000        0.0000000000000000     
   1.1250000000000000       0.50000000000000000        0.0000000000000000     
   1.1562500000000000       0.50000000000000000        0.0000000000000000     
   1.1875000000000000       0.50000000000000000        0.0000000000000000     
   1.2187500000000000       0.50000000000000000        0.0000000000000000     
   1.2500000000000000       0.50000000000000000        0.0000000000000000     
   1.1250000000000000       0.53125000000000000        0.0000000000000000     
   1.1562500000000000       0.53125000000000000        0.0000000000000000     
   1.1875000000000000       0.53125000000000000        0.0000000000000000     
   1.2187500000000000       0.53125000000000000        0.0000000000000000     
   1.2500000000000000       0.53125000000000000        0.0000000000000000     
   1.1250000000000000       0.56250000000000000        0.0000000000000000     
   1.1562500000000000       0.56250000000000000        0.0000000000000000     
   1.1875000000000000       0.56250000000000000        0.0000000000000000     
   1.2187500000000000       0.56250000000000000        0.0000000000000000     
   1.2500000000000000       0.56250000000000000        0.0000000000000000     
   1.1250000000000000       0.59375000000000000        0.0000000000000000     
   1.1562500000000000       0.59375000000000000        0.0000000000000000     
   1.1875000000000000       0.59375000000000000        0.0000000000000000     
   1.2187500000000000       0.59375000000000000        0.0000000000000000     
   1.2500000000000000       0.59375000000000000        0.0000000000000000     
   1.1250000000000000       0.62500000000000000        0.0000000000000000     
   1.1562500000000000       0.62500000000000000        0.0000000000000000     
   1.1875000000000000       0.62500000000000000        0.0000000000000000     
   1.2187500000000000       0.62500000000000000        0.0000000000000000     
   1.2500000000000000       0.62500000000000000        0.0000000000000000     
   1.2500000000000000       0.50000000000000000        0.0000000000000000     
   1.2812500000000000       0.50000000000000000        0.0000000000000000     
   1.3125000000000000       0.50000000000000000        0.0000000000000000     
   1.3437500000000000       0.50000000000000000        0.0000000000000000     
   1.3750000000000000       0.50000000000000000        0.0000000000000000     
   1.2500000000000000       0.53125000000000000        0.0000000000000000     
   1.2812500000000000       0.53125000000000000        0.0000000000000000     
   1.3125000000000000       0.53125000000000000        0.0000000000000000     
   1.3437500000000000       0.53125000000000000        0.0000000000000000     
   1.3750000000000000       0.53125000000000000        0.0000000000000000     
   1.2500000000000000       0.56250000000000000        0.0000000000000000     
   1.2812500000000000       0.56250000000000000        0.0000000000000000     
   1.3125000000000000       0.56250000000000000        0.0000000000000000     
   1.3437500000000000       0.56250000000000000        0.0000000000000000     
   1.3750000000000000       0.56250000000000000        0.0000000000000000     
   1.2500000000000000       0.59375000000000000        0.0000000000000000     
   1.2812500000000000       0.59375000000000000        0.0000000000000000     
   1.3125000000000000       0.59375000000000000        0.0000000000000000     
   1.3437500000000000       0.59375000000000000        0.0000000000000000     
   1.3750000000000000       0.59375000000000000        0.0000000000000000     
   1.2500000000000000       0.62500000000000000        0.0000000000000000     
   1.2812500000000000       0.62500000000000000        0.0000000000000000     
   1.3125000000000000       0.62500000000000000        0.0000000000000000     
   1.3437500000000000       0.62500000000000000        0.0000000000000000     
   1.3750000000000000       0.62500000000000000        0.0000000000000000     
   1.3750000000000000       0.50000000000000000        0.0000000000000000     
   1.4062500000000000       0.50000000000000000        0.0000000000000000     
   1.4375000000000000       0.50000000000000000        0.0000000000000000     
   1.4687500000000000       0.50000000000000000        0.0000000000000000     
   1.5000000000000000       0.50000000000000000        0.0000000000000000     
   1.3750000000000000       0.53125000000000000        0.0000000000000000     
   1.4062500000000000       0.53125000000000000        0.0000000000000000     
   1.4375000000000000       0.53125000000000000        0.0000000000000000     
   1.4687500000000000       0.53125000000000000        0.0000000000000000     
   1.5000000000000000       0.53125000000000000        0.0000000000000000     
   1.3750000000000000       0.56250000000000000        0.0000000000000000     
   1.4062500000000000       0.56250000000000000        0.0000000000000000     
   1.4375000000000000       0.56250000000000000        0.0000000000000000     
   1.4687500000000000       0.56250000000000000        0.0000000000000000     
   1.5000000000000000       0.56250000000000000        0.0000000000000000     
   1.3750000000000000       0.59375000000000000        0.0000000000000000     
   1.4062500000000000       0.59375000000000000        0.0000000000000000     
   1.4375000000000000       0.59375000000000000        0.0000000000000000     
   1.4687500000000000       0.59375000000000000        0.0000000000000000     
   1.5000000000000000       0.59375000000000000        0.0000000000000000     
   1.3750000000000000       0.62500000000000000        0.0000000000000000     
   1.4062500000000000       0.62500000000000000        0.0000000000000000     
   1.4375000000000000       0.62500000000000000        0.0000000000000000     
   1.4687500000000000       0.62500000000000000        0.0000000000000000     
   1.5000000000000000       0.62500000000000000        0.0000000000000000     
  0.50000000000000000       0.62500000000000000        0.0000000000000000     
  0.53125000000000000       0.62500000000000000        0.0000000000000000     
  0.56250000000000000       0.62500000000000000        0.0000000000000000     
  0.59375000000000000       0.62500000000000000        0.0000000000000000     
  0.62500000000000000       0.62500000000000000        0.0000000000000000     
  0.50000000000000000       0.65625000000000000        0.0000000000000000     
  0.53125000000000000       0.65625000000000000        0.0000000000000000     
  0.56250000000000000       0.65625000000000000        0.0000000000000000     
  0.59375000000000000       0.65625000000000000        0.0000000000000000     
  0.62500000000000000       0.65625000000000000        0.0000000000000000     
  0.50000000000000000       0.68750000000000000        0.0000000000000000     
  0.53125000000000000       0.68750000000000000        0.0000000000000000     
  0.56250000000000000       0.68750000000000000        0.0000000000000000     
  0.59375000000000000       0.68750000000000000        0.0000000000000000     
  0.62500000000000000       0.68750000000000000        0.0000000000000000     
  0.50000000000000000       0.71875000000000000        0.0000000000000000     
  0.53125000000000000       0.71875000000000000        0.0000000000000000     
  0.56250000000000000       0.71875000000000000        0.0000000000000000     
  0.59375000000000000       0.71875000000000000        0.0000000000000000     
  0.62500000000000000       0.71875000000000000        0.0000000000000000     
  0.50000000000000000       0.75000000000000000        0.0000000000000000     
  0.53125000000000000       0.75000000000000000        0.0000000000000000     
  0.56250000000000000       0.75000000000000000        0.0000000000000000     
  0.59375000000000000       0.75000000000000000        0.0000000000000000     
  0.62500000000000000       0.75000000000000000        0.0000000000000000     
  0.62500000000000000       0.62500000000000000        0.0000000000000000     
  0.65625000000000000       0.62500000000000000        0.0000000000000000     
  0.68750000000000000       0.62500000000000000        0.0000000000000000     
  0.71875000000000000       0.62500000000000000        0.0000000000000000     
  0.75000000000000000       0.62500000000000000        0.0000000000000000     
  0.62500000000000000       0.65625000000000000        0.0000000000000000     
  0.65625000000000000       0.65625000000000000        0.0000000000000000     
  0.68750000000000000       0.65625000000000000        0.0000000000000000     
  0.71875000000000000       0.65625000000000000        0.0000000000000000     
  0.75000000000000000       0.65625000000000000        0.0000000000000000     
  0.62500000000000000       0.68750000000000000        0.0000000000000000     
  0.65625000000000000       0.68750000000000000        0.0000000000000000     
  0.68750000000000000       0.68750000000000000        0.0000000000000000     
  0.71875000000000000       0.68750000000000000        0.0000000000000000     
  0.75000000000000000       0.68750000000000000        0.0000000000000000     
  0.62500000000000000       0.71875000000000000        0.0000000000000000     
  0.65625000000000000       0.71875000000000000        0.0000000000000000     
  0.68750000000000000       0.71875000000000000        0.0000000000000000     
  0.71875000000000000       0.71875000000000000        0.0000000000000000     
  0.75000000000000000       0.71875000000000000        0.0000000000000000     
  0.62500000000000000       0.75000000000000000        0.0000000000000000     
  0.65625000000000000       0.75000000000000000        0.0000000000000000     
  0.68750000000000000       0.75000000000000000        0.0000000000000000     
  0.71875000000000000       0.75000000000000000        0.0000000000000000     
  0.75000000000000000       0.75000000000000000        0.0000000000000000     
  0.75000000000000000       0.62500000000000000        0.0000000000000000     
  0.78125000000000000       0.62500000000000000        0.0000000000000000     
  0.81250000000000000       0.62500000000000000        0.0000000000000000     
  0.84375000000000000       0.62500000000000000        0.0000000000000000     
  0.87500000000000000       0.62500000000000000        0.0000000000000000     
  0.75000000000000000       0.65625000000000000        0.0000000000000000     
  0.78125000000000000       0.65625000000000000        0.0000000000000000     
  0.81250000000000000       0.65625000000000000        0.0000000000000000     
  0.84375000000000000       0.65625000000000000        0.0000000000000000     
  0.87500000000000000       0.65625000000000000        0.0000000000000000     
  0.75000000000000000       0.68750000000000000        0.0000000000000000     
  0.78125000000000000       0.68750000000000000        0.0000000000000000     
  0.81250000000000000       0.68750000000000000        0.0000000000000000     
  0.84375000000000000       0.68750000000000000        0.0000000000000000     
  0.87500000000000000       0.68750000000000000        0.0000000000000000     
  0.75000000000000000       0.71875000000000000        0.0000000000000000     
  0.78125000000000000       0.71875000000000000        0.0000000000000000     
  0.81250000000000000       0.71875000000000000        0.0000000000000000     
  0.84375000000000000       0.71875000000000000        0.0000000000000000     
  0.87500000000000000       0.71875000000000000        0.0000000000000000     
  0.75000000000000000       0.75000000000000000        0.0000000000000000     
  0.78125000000000000       0.75000000000000000        0.0000000000000000     
  0.81250000000000000       0.75000000000000000        0.0000000000000000     
  0.84375000000000000       0.75000000000000000        0.0000000000000000     
  0.87500000000000000       0.75000000000000000        0.0000000000000000     
  0.87500000000000000       0.62500000000000000        0.0000000000000000     
  0.90625000000000000       0.62500000000000000        0.0000000000000000     
  0.93750000000000000       0.62500000000000000        0.0000000000000000     
  0.96875000000000000       0.62500000000000000        0.0000000000000000     
   1.0000000000000000       0.62500000000000000        0.0000000000000000     
  0.87500000000000000       0.65625000000000000        0.0000000000000000     
  0.90625000000000000       0.65625000000000000        0.0000000000000000     
  0.93750000000000000       0.65625000000000000        0.0000000000000000     
  0.96875000000000000       0.65625000000000000        0.0000000000000000     
   1.0000000000000000       0.65625000000000000        0.0000000000000000     
  0.87500000000000000       0.68750000000000000        0.0000000000000000     
  0.90625000000000000       0.68750000000000000        0.0000000000000000     
  0.93750000000000000       0.68750000000000000        0.0000000000000000     
  0.96875000000000000       0.68750000000000000        0.0000000000000000     
   1.0000000000000000       0.68750000000000000        0.0000000000000000     
  0.87500000000000000       0.71875000000000000        0.0000000000000000     
  0.90625000000000000       0.71875000000000000        0.0000000000000000     
  0.93750000000000000       0.71875000000000000        0.0000000000000000     
  0.96875000000000000       0.71875000000000000        0.0000000000000000     
   1.0000000000000000       0.71875000000000000        0.0000000000000000     
  0.87500000000000000       0.75000000000000000        0.0000000000000000     
  0.90625000000000000       0.75000000000000000        0.0000000000000000     
  0.93750000000000000       0.75000000000000000        0.0000000000000000     
  0.96875000000000000       0.75000000000000000        0.0000000000000000     
   1.0000000000000000       0.75000000000000000        0.0000000000000000     
   1.0000000000000000       0.62500000000000000        0.0000000000000000     
   1.0312500000000000       0.62500000000000000        0.0000000000000000     
   1.0625000000000000       0.62500000000000000        0.0000000000000000     
   1.0937500000000000       0.62500000000000000        0.0000000000000000     
   1.1250000000000000       0.62500000000000000        0.0000000000000000     
   1.0000000000000000       0.65625000000000000        0.0000000000000000     
   1.0312500000000000       0.65625000000000000        0.0000000000000000     
   1.0625000000000000       0.65625000000000000        0.0000000000000000     
   1.0937500000000000       0.65625000000000000        0.0000000000000000     
   1.1250000000000000       0.65625000000000000        0.0000000000000000     
   1.0000000000000000       0.68750000000000000        0.0000000000000000     
   1.0312500000000000       0.68750000000000000        0.0000000000000000     
   1.0625000000000000       0.68750000000000000        0.0000000000000000     
   1.0937500000000000       0.68750000000000000        0.0000000000000000     
   1.1250000000000000       0.68750000000000000        0.0000000000000000     
   1.0000000000000000       0.71875000000000000        0.0000000000000000     
   1.0312500000000000       0.71875000000000000        0.0000000000000000     
   1.0625000000000000       0.71875000000000000        0.0000000000000000     
   1.0937500000000000       0.71875000000000000        0.0000000000000000     
   1.1250000000000000       0.71875000000000000        0.0000000000000000     
   1.0000000000000000       0.75000000000000000        0.0000000000000000     
   1.0312500000000000       0.75000000000000000        0.0000000000000000     
   1.0625000000000000       0.75000000000000000        0.0000000000000000     
   1.0937500000000000       0.75000000000000000        0.0000000000000000     
   1.1250000000000000       0.75000000000000000        0.0000000000000000     
   1.1250000000000000       0.62500000000000000        0.0000000000000000     
   1.1562500000000000       0.62500000000000000        0.0000000000000000     
   1.1875000000000000       0.62500000000000000        0.0000000000000000     
   1.2187500000000000       0.62500000000000000        0.0000000000000000     
   1.2500000000000000       0.62500000000000000        0.0000000000000000     
   1.1250000000000000       0.65625000000000000        0.0000000000000000     
   1.1562500000000000       0.65625000000000000        0.0000000000000000     
   1.1875000000000000       0.65625000000000000        0.0000000000000000     
   1.2187500000000000       0.65625000000000000        0.0000000000000000     
   1.2500000000000000       0.65625000000000000        0.0000000000000000     
   1.1250000000000000       0.68750000000000000        0.0000000000000000     
   1.1562500000000000       0.68750000000000000        0.0000000000000000     
   1.1875000000000000       0.68750000000000000        0.0000000000000000     
   1.2187500000000000       0.68750000000000000        0.0000000000000000     
   1.2500000000000000       0.68750000000000000        0.0000000000000000     
   1.1250000000000000       0.71875000000000000        0.0000000000000000     
   1.1562500000000000       0.71875000000000000        0.0000000000000000     
   1.1875000000000000       0.71875000000000000        0.0000000000000000     
   1.2187500000000000       0.71875000000000000        0.0000000000000000     
   1.2500000000000000       0.71875000000000000        0.0000000000000000     
   1.1250000000000000       0.75000000000000000        0.0000000000000000     
   1.1562500000000000       0.75000000000000000        0.0000000000000000     
   1.1875000000000000       0.75000000000000000        0.0000000000000000     
   1.2187500000000000       0.75000000000000000        0.0000000000000000     
   1.2500000000000000       0.75000000000000000        0.0000000000000000     
   1.2500000000000000       0.62500000000000000        0.0000000000000000     
   1.2812500000000000       0.62500000000000000        0.0000000000000000     
   1.3125000000000000       0.62500000000000000        0.0000000000000000     
   1.3437500000000000       0.62500000000000000        0.0000000000000000     
   1.3750000000000000       0.62500000000000000        0.0000000000000000     
   1.2500000000000000       0.65625000000000000        0.0000000000000000     
   1.2812500000000000       0.65625000000000000        0.0000000000000000     
   1.3125000000000000       0.65625000000000000        0.0000000000000000     
   1.3437500000000000       0.65625000000000000        0.0000000000000000     
   1.3750000000000000       0.65625000000000000        0.0000000000000000     
   1.2500000000000000       0.68750000000000000        0.0000000000000000     
   1.2812500000000000       0.68750000000000000        0.0000000000000000     
   1.3125000000000000       0.68750000000000000        0.0000000000000000     
   1.3437500000000000       0.68750000000000000        0.0000000000000000     
   1.3750000000000000       0.68750000000000000        0.0000000000000000     
   1.2500000000000000       0.71875000000000000        0.0000000000000000     
   1.2812500000000000       0.71875000000000000        0.0000000000000000     
   1.3125000000000000       0.71875000000000000        0.0000000000000000     
   1.3437500000000000       0.71875000000000000        0.0000000000000000     
   1.3750000000000000       0.71875000000000000        0.0000000000000000     
   1.2500000000000000       0.75000000000000000        0.0000000000000000     
   1.2812500000000000       0.75000000000000000        0.0000000000000000     
   1.3125000000000000       0.75000000000000000        0.0000000000000000     
   1.3437500000000000       0.75000000000000000        0.0000000000000000     
   1.3750000000000000       0.75000000000000000        0.0000000000000000     
   1.3750000000000000       0.62500000000000000        0.0000000000000000     
   1.4062500000000000       0.62500000000000000        0.0000000000000000     
   1.4375000000000000       0.62500000000000000        0.0000000000000000     
   1.4687500000000000       0.62500000000000000        0.0000000000000000     
   1.5000000000000000       0.62500000000000000        0.0000000000000000     
   1.3750000000000000       0.65625000000000000        0.0000000000000000     
   1.4062500000000000       0.65625000000000000        0.0000000000000000     
   1.4375000000000000       0.65625000000000000        0.0000000000000000     
   1.4687500000000000       0.65625000000000000        0.0000000000000000     
   1.5000000000000000       0.65625000000000000        0.0000000000000000     
   1.3750000000000000       0.68750000000000000        0.0000000000000000     
   1.4062500000000000       0.68750000000000000        0.0000000000000000     
   1.4375000000000000       0.68750000000000000        0.0000000000000000     
   1.4687500000000000       0.68750000000000000        0.0000000000000000     
   1.5000000000000000       0.68750000000000000        0.0000000000000000     
   1.3750000000000000       0.71875000000000000        0.0000000000000000     
   1.4062500000000000       0.71875000000000000        0.0000000000000000     
   1.4375000000000000       0.71875000000000000        0.0000000000000000     
   1.4687500000000000       0.71875000000000000        0.0000000000000000     
   1.5000000000000000       0.71875000000000000        0.0000000000000000     
   1.3750000000000000       0.75000000000000000        0.0000000000000000     
   1.4062500000000000       0.75000000000000000        0.0000000000000000     
   1.4375000000000000       0.75000000000000000        0.0000000000000000     
   1.4687500000000000       0.75000000000000000        0.0000000000000000     
   1.5000000000000000       0.75000000000000000        0.0000000000000000     
  0.50000000000000000       0.75000000000000000        0.0000000000000000     
  0.53125000000000000       0.75000000000000000        0.0000000000000000     
  0.56250000000000000       0.75000000000000000        0.0000000000000000     
  0.59375000000000000       0.75000000000000000        0.0000000000000000     
  0.62500000000000000       0.75000000000000000        0.0000000000000000     
  0.50000000000000000       0.78125000000000000        0.0000000000000000     
  0.53125000000000000       0.78125000000000000        0.0000000000000000     
  0.56250000000000000       0.78125000000000000        0.0000000000000000     
  0.59375000000000000       0.78125000000000000        0.0000000000000000     
  0.62500000000000000       0.78125000000000000        0.0000000000000000     
  0.50000000000000000       0.81250000000000000        0.0000000000000000     
  0.53125000000000000       0.81250000000000000        0.0000000000000000     
  0.56250000000000000       0.81250000000000000        0.0000000000000000     
  0.59375000000000000       0.81250000000000000        0.0000000000000000     
  0.62500000000000000       0.81250000000000000        0.0000000000000000     
  0.50000000000000000       0.84375000000000000        0.0000000000000000     
  0.53125000000000000       0.84375000000000000        0.0000000000000000     
  0.56250000000000000       0.84375000000000000        0.0000000000000000     
  0.59375000000000000       0.84375000000000000        0.0000000000000000     
  0.62500000000000000       0.84375000000000000        0.0000000000000000     
  0.50000000000000000       0.87500000000000000        0.0000000000000000     
  0.53125000000000000       0.87500000000000000        0.0000000000000000     
  0.56250000000000000       0.87500000000000000        0.0000000000000000     
  0.59375000000000000       0.87500000000000000        0.0000000000000000     
  0.62500000000000000       0.87500000000000000        0.0000000000000000     
  0.62500000000000000       0.75000000000000000        0.0000000000000000     
  0.65625000000000000       0.75000000000000000        0.0000000000000000     
  0.68750000000000000       0.75000000000000000        0.0000000000000000     
  0.71875000000000000       0.75000000000000000        0.0000000000000000     
  0.75000000000000000       0.75000000000000000        0.0000000000000000     
  0.62500000000000000       0.78125000000000000        0.0000000000000000     
  0.65625000000000000       0.78125000000000000        0.0000000000000000     
  0.68750000000000000       0.78125000000000000        0.0000000000000000     
  0.71875000000000000       0.78125000000000000        0.0000000000000000     
  0.75000000000000000       0.78125000000000000        0.0000000000000000     
  0.62500000000000000       0.81250000000000000        0.0000000000000000     
  0.65625000000000000       0.81250000000000000        0.0000000000000000     
  0.68750000000000000       0.81250000000000000        0.0000000000000000     
  0.71875000000000000       0.81250000000000000        0.0000000000000000     
  0.75000000000000000       0.81250000000000000        0.0000000000000000     
  0.62500000000000000       0.84375000000000000        0.0000000000000000     
  0.65625000000000000       0.84375000000000000        0.0000000000000000     
  0.68750000000000000       0.84375000000000000        0.0000000000000000     
  0.71875000000000000       0.84375000000000000        0.0000000000000000     
  0.75000000000000000       0.84375000000000000        0.0000000000000000     
  0.62500000000000000       0.87500000000000000        0.0000000000000000     
  0.65625000000000000       0.87500000000000000        0.0000000000000000     
  0.68750000000000000       0.87500000000000000        0.0000000000000000     
  0.71875000000000000       0.87500000000000000        0.0000000000000000     
  0.75000000000000000       0.87500000000000000        0.0000000000000000     
  0.75000000000000000       0.75000000000000000        0.0000000000000000     
  0.78125000000000000       0.75000000000000000        0.0000000000000000     
  0.81250000000000000       0.75000000000000000        0.0000000000000000     
  0.84375000000000000       0.75000000000000000        0.0000000000000000     
  0.87500000000000000       0.75000000000000000        0.0000000000000000     
  0.75000000000000000       0.78125000000000000        0.0000000000000000     
  0.78125000000000000       0.78125000000000000        0.0000000000000000     
  0.81250000000000000       0.78125000000000000        0.0000000000000000     
  0.84375000000000000       0.78125000000000000        0.0000000000000000     
  0.87500000000000000       0.78125000000000000        0.0000000000000000     
  0.75000000000000000       0.81250000000000000        0.0000000000000000     
  0.78125000000000000       0.81250000000000000        0.0000000000000000     
  0.81250000000000000       0.81250000000000000        0.0000000000000000     
  0.84375000000000000       0.81250000000000000        0.0000000000000000     
  0.87500000000000000       0.81250000000000000        0.0000000000000000     
  0.75000000000000000       0.84375000000000000        0.0000000000000000     
  0.78125000000000000       0.84375000000000000        0.0000000000000000     
  0.81250000000000000       0.84375000000000000        0.0000000000000000     
  0.84375000000000000       0.84375000000000000        0.0000000000000000     
  0.87500000000000000       0.84375000000000000        0.0000000000000000     
  0.75000000000000000       0.87500000000000000        0.0000000000000000     
  0.78125000000000000       0.87500000000000000        0.0000000000000000     
  0.81250000000000000       0.87500000000000000        0.0000000000000000     
  0.84375000000000000       0.87500000000000000        0.0000000000000000     
  0.87500000000000000       0.87500000000000000        0.0000000000000000     
  0.87500000000000000       0.75000000000000000        0.0000000000000000     
  0.90625000000000000       0.75000000000000000        0.0000000000000000     
  0.93750000000000000       0.75000000000000000        0.0000000000000000     
  0.96875000000000000       0.75000000000000000        0.0000000000000000     
   1.0000000000000000       0.75000000000000000        0.0000000000000000     
  0.87500000000000000       0.78125000000000000        0.0000000000000000     
  0.90625000000000000       0.78125000000000000        0.0000000000000000     
  0.93750000000000000       0.78125000000000000        0.0000000000000000     
  0.96875000000000000       0.78125000000000000        0.0000000000000000     
   1.0000000000000000       0.78125000000000000        0.0000000000000000     
  0.87500000000000000       0.81250000000000000        0.0000000000000000     
  0.90625000000000000       0.81250000000000000        0.0000000000000000     
  0.93750000000000000       0.81250000000000000        0.0000000000000000     
  0.96875000000000000       0.81250000000000000        0.0000000000000000     
   1.0000000000000000       0.81250000000000000        0.0000000000000000     
  0.87500000000000000       0.84375000000000000        0.0000000000000000     
  0.90625000000000000       0.84375000000000000        0.0000000000000000     
  0.93750000000000000       0.84375000000000000        0.0000000000000000     
  0.96875000000000000       0.84375000000000000        0.0000000000000000     
   1.0000000000000000       0.84375000000000000        0.0000000000000000     
  0.87500000000000000       0.87500000000000000        0.0000000000000000     
  0.90625000000000000       0.87500000000000000        0.0000000000000000     
  0.93750000000000000       0.87500000000000000        0.0000000000000000     
  0.96875000000000000       0.87500000000000000        0.0000000000000000     
   1.0000000000000000       0.87500000000000000        0.0000000000000000     
   1.0000000000000000       0.75000000000000000        0.0000000000000000     
   1.0312500000000000       0.75000000000000000        0.0000000000000000     
   1.0625000000000000       0.75000000000000000        0.0000000000000000     
   1.0937500000000000       0.75000000000000000        0.0000000000000000     
   1.1250000000000000       0.75000000000000000        0.0000000000000000     
   1.0000000000000000       0.78125000000000000        0.0000000000000000     
   1.0312500000000000       0.78125000000000000        0.0000000000000000     
   1.0625000000000000       0.78125000000000000        0.0000000000000000     
   1.0937500000000000       0.78125000000000000        0.0000000000000000     
   1.1250000000000000       0.78125000000000000        0.0000000000000000     
   1.0000000000000000       0.81250000000000000        0.0000000000000000     
   1.0312500000000000       0.81250000000000000        0.0000000000000000     
   1.0625000000000000       0.81250000000000000        0.0000000000000000     
   1.0937500000000000       0.81250000000000000        0.0000000000000000     
   1.1250000000000000       0.81250000000000000        0.0000000000000000     
   1.0000000000000000       0.84375000000000000        0.0000000000000000     
   1.0312500000000000       0.84375000000000000        0.0000000000000000     
   1.0625000000000000       0.84375000000000000        0.0000000000000000     
   1.0937500000000000       0.84375000000000000        0.0000000000000000     
   1.1250000000000000       0.84375000000000000        0.0000000000000000     
   1.0000000000000000       0.87500000000000000        0.0000000000000000     
   1.0312500000000000       0.87500000000000000        0.0000000000000000     
   1.0625000000000000       0.87500000000000000        0.0000000000000000     
   1.0937500000000000       0.87500000000000000        0.0000000000000000     
   1.1250000000000000       0.87500000000000000        0.0000000000000000     
   1.1250000000000000       0.75000000000000000        0.0000000000000000     
   1.1562500000000000       0.75000000000000000        0.0000000000000000     
   1.1875000000000000       0.75000000000000000        0.0000000000000000     
   1.2187500000000000       0.75000000000000000        0.0000000000000000     
   1.2500000000000000       0.75000000000000000        0.0000000000000000     
   1.1250000000000000       0.78125000000000000        0.0000000000000000     
   1.1562500000000000       0.78125000000000000        0.0000000000000000     
   1.1875000000000000       0.78125000000000000        0.0000000000000000     
   1.2187500000000000       0.78125000000000000        0.0000000000000000     
   1.2500000000000000       0.78125000000000000        0.0000000000000000     
   1.1250000000000000       0.81250000000000000        0.0000000000000000     
   1.1562500000000000       0.81250000000000000        0.0000000000000000     
   1.1875000000000000       0.81250000000000000        0.0000000000000000     
   1.2187500000000000       0.81250000000000000        0.0000000000000000     
   1.2500000000000000       0.81250000000000000        0.0000000000000000     
   1.1250000000000000       0.84375000000000000        0.0000000000000000     
   1.1562500000000000       0.84375000000000000        0.0000000000000000     
   1.1875000000000000       0.84375000000000000        0.0000000000000000     
   1.2187500000000000       0.84375000000000000        0.0000000000000000     
   1.2500000000000000       0.84375000000000000        0.0000000000000000     
   1.1250000000000000       0.87500000000000000        0.0000000000000000     
   1.1562500000000000       0.87500000000000000        0.0000000000000000     
   1.1875000000000000       0.87500000000000000        0.0000000000000000     
   1.2187500000000000       0.87500000000000000        0.0000000000000000     
   1.2500000000000000       0.87500000000000000        0.0000000000000000     
   1.2500000000000000       0.75000000000000000        0.0000000000000000     
   1.2812500000000000       0.75000000000000000        0.0000000000000000     
   1.3125000000000000       0.75000000000000000        0.0000000000000000     
   1.3437500000000000       0.75000000000000000        0.0000000000000000     
   1.3750000000000000       0.75000000000000000        0.0000000000000000     
   1.2500000000000000       0.78125000000000000        0.0000000000000000     
   1.2812500000000000       0.78125000000000000        0.0000000000000000     
   1.3125000000000000       0.78125000000000000        0.0000000000000000     
   1.3437500000000000       0.78125000000000000        0.0000000000000000     
   1.3750000000000000       0.78125000000000000        0.0000000000000000     
   1.2500000000000000       0.81250000000000000        0.0000000000000000     
   1.2812500000000000       0.81250000000000000        0.0000000000000000     
   1.3125000000000000       0.81250000000000000        0.0000000000000000     
   1.3437500000000000       0.81250000000000000        0.0000000000000000     
   1.3750000000000000       0.81250000000000000        0.0000000000000000     
   1.2500000000000000       0.84375000000000000        0.0000000000000000     
   1.2812500000000000       0.84375000000000000        0.0000000000000000     
   1.3125000000000000       0.84375000000000000        0.0000000000000000     
   1.3437500000000000       0.84375000000000000        0.0000000000000000     
   1.3750000000000000       0.84375000000000000        0.0000000000000000     
   1.2500000000000000       0.87500000000000000        0.0000000000000000     
   1.2812500000000000       0.87500000000000000        0.0000000000000000     
   1.3125000000000000       0.87500000000000000        0.0000000000000000     
   1.3437500000000000       0.87500000000000000        0.0000000000000000     
   1.3750000000000000       0.87500000000000000        0.0000000000000000     
   1.3750000000000000       0.75000000000000000        0.0000000000000000     
   1.4062500000000000       0.75000000000000000        0.0000000000000000     
   1.4375000000000000       0.75000000000000000        0.0000000000000000     
   1.4687500000000000       0.75000000000000000        0.0000000000000000     
   1.5000000000000000       0.75000000000000000        0.0000000000000000     
   1.3750000000000000       0.78125000000000000        0.0000000000000000     
   1.4062500000000000       0.78125000000000000        0.0000000000000000     
   1.4375000000000000       0.78125000000000000        0.0000000000000000     
   1.4687500000000000       0.78125000000000000        0.0000000000000000     
   1.5000000000000000       0.78125000000000000        0.0000000000000000     
   1.3750000000000000       0.81250000000000000        0.0000000000000000     
   1.4062500000000000       0.81250000000000000        0.0000000000000000     
   1.4375000000000000       0.81250000000000000        0.0000000000000000     
   1.4687500000000000       0.81250000000000000        0.0000000000000000     
   1.5000000000000000       0.81250000000000000        0.0000000000000000     
   1.3750000000000000       0.84375000000000000        0.0000000000000000     
   1.4062500000000000       0.84375000000000000        0.0000000000000000     
   1.4375000000000000       0.84375000000000000        0.0000000000000000     
   1.4687500000000000       0.84375000000000000        0.0000000000000000     
   1.5000000000000000       0.84375000000000000        0.0000000000000000     
   1.3750000000000000       0.87500000000000000        0.0000000000000000     
   1.4062500000000000       0.87500000000000000        0.0000000000000000     
   1.4375000000000000       0.87500000000000000        0.0000000000000000     
   1.4687500000000000       0.87500000000000000        0.0000000000000000     
   1.5000000000000000       0.87500000000000000        0.0000000000000000     
  0.50000000000000000       0.87500000000000000        0.0000000000000000     
  0.53125000000000000       0.87500000000000000        0.0000000000000000     
  0.56250000000000000       0.87500000000000000        0.0000000000000000     
  0.59375000000000000       0.87500000000000000        0.0000000000000000     
  0.62500000000000000       0.87500000000000000        0.0000000000000000     
  0.50000000000000000       0.90625000000000000        0.0000000000000000     
  0.53125000000000000       0.90625000000000000        0.0000000000000000     
  0.56250000000000000       0.90625000000000000        0.0000000000000000     
  0.59375000000000000       0.90625000000000000        0.0000000000000000     
  0.62500000000000000       0.90625000000000000        0.0000000000000000     
  0.50000000000000000       0.93750000000000000        0.0000000000000000     
  0.53125000000000000       0.93750000000000000        0.0000000000000000     
  0.56250000000000000       0.93750000000000000        0.0000000000000000     
  0.59375000000000000       0.93750000000000000        0.0000000000000000     
  0.62500000000000000       0.93750000000000000        0.0000000000000000     
  0.50000000000000000       0.96875000000000000        0.0000000000000000     
  0.53125000000000000       0.96875000000000000        0.0000000000000000     
  0.56250000000000000       0.96875000000000000        0.0000000000000000     
  0.59375000000000000       0.96875000000000000        0.0000000000000000     
  0.62500000000000000       0.96875000000000000        0.0000000000000000     
  0.50000000000000000        1.0000000000000000        0.0000000000000000     
  0.53125000000000000        1.0000000000000000        0.0000000000000000     
  0.56250000000000000        1.0000000000000000        0.0000000000000000     
  0.59375000000000000        1.0000000000000000        0.0000000000000000     
  0.62500000000000000        1.0000000000000000        0.0000000000000000     
  0.62500000000000000       0.87500000000000000        0.0000000000000000     
  0.65625000000000000       0.87500000000000000        0.0000000000000000     
  0.68750000000000000       0.87500000000000000        0.0000000000000000     
  0.71875000000000000       0.87500000000000000        0.0000000000000000     
  0.75000000000000000       0.87500000000000000        0.0000000000000000     
  0.62500000000000000       0.90625000000000000        0.0000000000000000     
  0.65625000000000000       0.90625000000000000        0.0000000000000000     
  0.68750000000000000       0.90625000000000000        0.0000000000000000     
  0.71875000000000000       0.90625000000000000        0.0000000000000000     
  0.75000000000000000       0.90625000000000000        0.0000000000000000     
  0.62500000000000000       0.93750000000000000        0.0000000000000000     
  0.65625000000000000       0.93750000000000000        0.0000000000000000     
  0.68750000000000000       0.93750000000000000        0.0000000000000000     
  0.71875000000000000       0.93750000000000000        0.0000000000000000     
  0.75000000000000000       0.93750000000000000        0.0000000000000000     
  0.62500000000000000       0.96875000000000000        0.0000000000000000     
  0.65625000000000000       0.96875000000000000        0.0000000000000000     
  0.68750000000000000       0.96875000000000000        0.0000000000000000     
  0.71875000000000000       0.96875000000000000        0.0000000000000000     
  0.75000000000000000       0.96875000000000000        0.0000000000000000     
  0.62500000000000000        1.0000000000000000        0.0000000000000000     
  0.65625000000000000        1.0000000000000000        0.0000000000000000     
  0.68750000000000000        1.0000000000000000        0.0000000000000000     
  0.71875000000000000        1.0000000000000000        0.0000000000000000     
  0.75000000000000000        1.0000000000000000        0.0000000000000000     
  0.75000000000000000       0.87500000000000000        0.0000000000000000     
  0.78125000000000000       0.87500000000000000        0.0000000000000000     
  0.81250000000000000       0.87500000000000000        0.0000000000000000     
  0.84375000000000000       0.87500000000000000        0.0000000000000000     
  0.87500000000000000       0.87500000000000000        0.0000000000000000     
  0.75000000000000000       0.90625000000000000        0.0000000000000000     
  0.78125000000000000       0.90625000000000000        0.0000000000000000     
  0.81250000000000000       0.90625000000000000        0.0000000000000000     
  0.84375000000000000       0.90625000000000000        0.0000000000000000     
  0.87500000000000000       0.90625000000000000        0.0000000000000000     
  0.75000000000000000       0.93750000000000000        0.0000000000000000     
  0.78125000000000000       0.93750000000000000        0.0000000000000000     
  0.81250000000000000       0.93750000000000000        0.0000000000000000     
  0.84375000000000000       0.93750000000000000        0.0000000000000000     
  0.87500000000000000       0.93750000000000000        0.0000000000000000     
  0.75000000000000000       0.96875000000000000        0.0000000000000000     
  0.78125000000000000       0.96875000000000000        0.0000000000000000     
  0.81250000000000000       0.96875000000000000        0.0000000000000000     
  0.84375000000000000       0.96875000000000000        0.0000000000000000     
  0.87500000000000000       0.96875000000000000        0.0000000000000000     
  0.75000000000000000        1.0000000000000000        0.0000000000000000     
  0.78125000000000000        1.0000000000000000        0.0000000000000000     
  0.81250000000000000        1.0000000000000000        0.0000000000000000     
  0.84375000000000000        1.0000000000000000        0.0000000000000000     
  0.87500000000000000        1.0000000000000000        0.0000000000000000     
  0.87500000000000000       0.87500000000000000        0.0000000000000000     
  0.90625000000000000       0.87500000000000000        0.0000000000000000     
  0.93750000000000000       0.87500000000000000        0.0000000000000000     
  0.96875000000000000       0.87500000000000000        0.0000000000000000     
   1.0000000000000000       0.87500000000000000        0.0000000000000000     
  0.87500000000000000       0.90625000000000000        0.0000000000000000     
  0.90625000000000000       0.90625000000000000        0.0000000000000000     
  0.93750000000000000       0.90625000000000000        0.0000000000000000     
  0.96875000000000000       0.90625000000000000        0.0000000000000000     
   1.0000000000000000       0.90625000000000000        0.0000000000000000     
  0.87500000000000000       0.93750000000000000        0.0000000000000000     
  0.90625000000000000       0.93750000000000000        0.0000000000000000     
  0.93750000000000000       0.93750000000000000        0.0000000000000000     
  0.96875000000000000       0.93750000000000000        0.0000000000000000     
   1.0000000000000000       0.93750000000000000        0.0000000000000000     
  0.87500000000000000       0.96875000000000000        0.0000000000000000     
  0.90625000000000000       0.96875000000000000        0.0000000000000000     
  0.93750000000000000       0.96875000000000000        0.0000000000000000     
  0.96875000000000000       0.96875000000000000        0.0000000000000000     
   1.0000000000000000       0.96875000000000000        0.0000000000000000     
  0.87500000000000000        1.0000000000000000        0.0000000000000000     
  0.90625000000000000        1.0000000000000000        0.0000000000000000     
  0.93750000000000000        1.0000000000000000        0.0000000000000000     
  0.96875000000000000        1.0000000000000000        0.0000000000000000     
   1.0000000000000000        1.0000000000000000        0.0000000000000000     
   1.0000000000000000       0.87500000000000000        0.0000000000000000     
   1.0312500000000000       0.87500000000000000        0.0000000000000000     
   1.0625000000000000       0.87500000000000000        0.0000000000000000     
   1.0937500000000000       0.87500000000000000        0.0000000000000000     
   1.1250000000000000       0.87500000000000000        0.0000000000000000     
   1.0000000000000000       0.90625000000000000        0.0000000000000000     
   1.0312500000000000       0.90625000000000000        0.0000000000000000     
   1.0625000000000000       0.90625000000000000        0.0000000000000000     
   1.0937500000000000       0.90625000000000000        0.0000000000000000     
   1.1250000000000000       0.90625000000000000        0.0000000000000000     
   1.0000000000000000       0.93750000000000000        0.0000000000000000     
   1.0312500000000000       0.93750000000000000        0.0000000000000000     
   1.0625000000000000       0.93750000000000000        0.0000000000000000     
   1.0937500000000000       0.93750000000000000        0.0000000000000000     
   1.1250000000000000       0.93750000000000000        0.0000000000000000     
   1.0000000000000000       0.96875000000000000        0.0000000000000000     
   1.0312500000000000       0.96875000000000000        0.0000000000000000     
   1.0625000000000000       0.96875000000000000        0.0000000000000000     
   1.0937500000000000       0.96875000000000000        0.0000000000000000     
   1.1250000000000000       0.96875000000000000        0.0000000000000000     
   1.0000000000000000        1.0000000000000000        0.0000000000000000     
   1.0312500000000000        1.0000000000000000        0.0000000000000000     
   1.0625000000000000        1.0000000000000000        0.0000000000000000     
   1.0937500000000000        1.0000000000000000        0.0000000000000000     
   1.1250000000000000        1.0000000000000000        0.0000000000000000     
   1.1250000000000000       0.87500000000000000        0.0000000000000000     
   1.1562500000000000       0.87500000000000000        0.0000000000000000     
   1.1875000000000000       0.87500000000000000        0.0000000000000000     
   1.2187500000000000       0.87500000000000000        0.0000000000000000     
   1.2500000000000000       0.87500000000000000        0.0000000000000000     
   1.1250000000000000       0.90625000000000000        0.0000000000000000     
   1.1562500000000000       0.90625000000000000        0.0000000000000000     
   1.1875000000000000       0.90625000000000000        0.0000000000000000     
   1.2187500000000000       0.90625000000000000        0.0000000000000000     
   1.2500000000000000       0.90625000000000000        0.0000000000000000     
   1.1250000000000000       0.93750000000000000        0.0000000000000000     
   1.1562500000000000       0.93750000000000000        0.0000000000000000     
   1.1875000000000000       0.93750000000000000        0.0000000000000000     
   1.2187500000000000       0.93750000000000000        0.0000000000000000     
   1.2500000000000000       0.93750000000000000        0.0000000000000000     
   1.1250000000000000       0.96875000000000000        0.0000000000000000     
   1.1562500000000000       0.96875000000000000        0.0000000000000000     
   1.1875000000000000       0.96875000000000000        0.0000000000000000     
   1.2187500000000000       0.96875000000000000        0.0000000000000000     
   1.2500000000000000       0.96875000000000000        0.0000000000000000     
   1.1250000000000000        1.0000000000000000        0.0000000000000000     
   1.1562500000000000        1.0000000000000000        0.0000000000000000     
   1.1875000000000000        1.0000000000000000        0.0000000000000000     
   1.2187500000000000        1.0000000000000000        0.0000000000000000     
   1.2500000000000000        1.0000000000000000        0.0000000000000000     
   1.2500000000000000       0.87500000000000000        0.0000000000000000     
   1.2812500000000000       0.87500000000000000        0.0000000000000000     
   1.3125000000000000       0.87500000000000000        0.0000000000000000     
   1.3437500000000000       0.87500000000000000        0.0000000000000000     
   1.3750000000000000       0.87500000000000000        0.0000000000000000     
   1.2500000000000000       0.90625000000000000        0.0000000000000000     
   1.2812500000000000       0.90625000000000000        0.0000000000000000     
   1.3125000000000000       0.90625000000000000        0.0000000000000000     
   1.3437500000000000       0.90625000000000000        0.0000000000000000     
   1.3750000000000000       0.90625000000000000        0.0000000000000000     
   1.2500000000000000       0.93750000000000000        0.0000000000000000     
   1.2812500000000000       0.93750000000000000        0.0000000000000000     
   1.3125000000000000       0.93750000000000000        0.0000000000000000     
   1.3437500000000000       0.93750000000000000        0.0000000000000000     
   1.3750000000000000       0.93750000000000000        0.0000000000000000     
   1.2500000000000000       0.96875000000000000        0.0000000000000000     
   1.2812500000000000       0.96875000000000000        0.0000000000000000     
   1.3125000000000000       0.96875000000000000        0.0000000000000000     
   1.3437500000000000       0.96875000000000000        0.0000000000000000     
   1.3750000000000000       0.96875000000000000        0.0000000000000000     
   1.2500000000000000        1.0000000000000000        0.0000000000000000     
   1.2812500000000000        1.0000000000000000        0.0000000000000000     
   1.3125000000000000        1.0000000000000000        0.0000000000000000     
   1.3437500000000000        1.0000000000000000        0.0000000000000000     
   1.3750000000000000        1.0000000000000000        0.0000000000000000     
   1.3750000000000000       0.87500000000000000        0.0000000000000000     
   1.4062500000000000       0.87500000000000000        0.0000000000000000     
   1.4375000000000000       0.87500000000000000        0.0000000000000000     
   1.4687500000000000       0.87500000000000000        0.0000000000000000     
   1.5000000000000000       0.87500000000000000        0.0000000000000000     
   1.3750000000000000       0.90625000000000000        0.0000000000000000     
   1.4062500000000000       0.90625000000000000        0.0000000000000000     
   1.4375000000000000       0.90625000000000000        0.0000000000000000     
   1.4687500000000000       0.90625000000000000        0.0000000000000000     
   1.5000000000000000       0.90625000000000000        0.0000000000000000     
   1.3750000000000000       0.93750000000000000        0.0000000000000000     
   1.4062500000000000       0.93750000000000000        0.0000000000000000     
   1.4375000000000000       0.93750000000000000        0.0000000000000000     
   1.4687500000000000       0.93750000000000000        0.0000000000000000     
   1.5000000000000000       0.93750000000000000        0.0000000000000000     
   1.3750000000000000       0.96875000000000000        0.0000000000000000     
   1.4062500000000000       0.96875000000000000        0.0000000000000000     
   1.4375000000000000       0.96875000000000000        0.0000000000000000     
   1.4687500000000000       0.96875000000000000        0.0000000000000000     
   1.5000000000000000       0.96875000000000000        0.0000000000000000     
   1.3750000000000000        1.0000000000000000        0.0000000000000000     
   1.4062500000000000        1.0000000000000000        0.0000000000000000     
   1.4375000000000000        1.0000000000000000        0.0000000000000000     
   1.4687500000000000        1.0000000000000000        0.0000000000000000     
   1.5000000000000000        1.0000000000000000        0.0000000000000000     
 </DataArray>
 </Points>
 <Cells>
 <DataArray  type="Int32"  Name="connectivity"  format="ascii">
           0           1           6           5
           1           2           7           6
           2           3           8           7
           3           4           9           8
           5           6          11          10
           6           7          12          11
           7           8          13          12
           8           9          14          13
          10          11          16          15
          11          12          17          16
          12          13          18          17
          13          14          19          18
          15          16          21          20
          16          17          22          21
          17          18          23          22
          18          19          24          23
          25          26          31          30
          26          27          32          31
          27          28          33          32
          28          29          34          33
          30          31          36          35
          31          32          37          36
          32          33          38          37
          33          34          39          38
          35          36          41          40
          36          37          42          41
          37          38          43          42
          38          39          44          43
          40          41          46          45
          41          42          47          46
          42          43          48          47
          43          44          49          48
          50          51          56          55
          51          52          57          56
          52          53          58          57
          53          54          59          58
          55          56          61          60
          56          57          62          61
          57          58          63          62
          58          59          64          63
          60          61          66          65
          61          62          67          66
          62          63          68          67
          63          64          69          68
          65          66          71          70
          66          67          72          71
          67          68          73          72
          68          69          74          73
          75          76          81          80
          76          77          82          81
          77          78          83          82
          78          79          84          83
          80          81          86          85
          81          82          87          86
          82          83          88          87
          83          84          89          88
          85          86          91          90
          86          87          92          91
          87          88          93          92
          88          89          94          93
          90          91          96          95
          91          92          97          96
          92          93          98          97
          93          94          99          98
         100         101         106         105
         101         102         107         106
         102         103         108         107
         103         104         109         108
         105         106         111         110
         106         107         112         111
         107         108         113         112
         108         109         114         113
         110         111         116         115
         111         112         117         116
         112         113         118         117
         113         114         119         118
         115         116         121         120
         116         117         122         121
         117         118         123         122
         118         119         124         123
         125         126         131         130
         126         127         132         131
         127         128         133         132
         128         129         134         133
         130         131         136         135
         131         132         137         136
         132         133         138         137
         133         134         139         138
         135         136         141         140
         136         137         142         141
         137         138         143         142
         138         139         144         143
         140         141         146         145
         141         142         147         146
         142         143         148         147
         143         144         149         148
         150         151         156         155
         151         152         157         156
         152         153         158         157
         153         154         159         158
         155         156         161         160
         156         157         162         161
         157         158         163         162
         158         159         164         163
         160         161         166         165
         161         162         167         166
         162         163         168         167
         163         164         169         168
         165         166         171         170
         166         167         172         171
         167         168         173         172
         168         169         174         173
         175         176         181         180
         176         177         182         181
         177         178         183         182
         178         179         184         183
         180         181         186         185
         181         182         187         186
         182         183         188         187
         183         184         189         188
         185         186         191         190
         186         187         192         191
         187         188         193         192
         188         189         194         193
         190         191         196         195
         191         192         197         196
         192         193         198         197
         193         194         199         198
         200         201         206         205
         201         202         207         206
         202         203         208         207
         203         204         209         208
         205         206         211         210
         206         207         212         211
         207         208         213         212
         208         209         214         213
         210         211         216         215
         211         212         217         216
         212         213         218         217
         213         214         219         218
         215         216         221         220
         216         217         222         221
         217         218         223         222
         218         219         224         223
         225         226         231         230
         226         227         232         231
         227         228         233         232
         228         229         234         233
         230         231         236         235
         231         232         237         236
         232         233         238         237
         233         234         239         238
         235         236         241         240
         236         237         242         241
         237         238         243         242
         238         239         244         243
         240         241         246         245
         241         242         247         246
         242         243         248         247
         243         244         249         248
         250         251         256         255
         251         252         257         256
         252         253         258         257
         253         254         259         258
         255         256         261         260
         256         257         262         261
         257         258         263         262
         258         259         264         263
         260         261         266         265
         261         262         267         266
         262         263         268         267
         263         264         269         268
         265         266         271         270
         266         267         272         271
         267         268         273         272
         268         269         274         273
         275         276         281         280
         276         277         282         281
         277         278         283         282
         278         279         284         283
         280         281         286         285
         281         282         287         286
         282         283         288         287
         283         284         289         288
         285         286         291         290
         286         287         292         291
         287         288         293         292
         288         289         294         293
         290         291         296         295
         291         292         297         296
         292         293         298         297
         293         294         299         298
         300         301         306         305
         301         302         307         306
         302         303         308         307
         303         304         309         308
         305         306         311         310
         306         307         312         311
         307         308         313         312
         308         309         314         313
         310         311         316         315
         311         312         317         316
         312         313         318         317
         313         314         319         318
         315         316         321         320
         316         317         322         321
         317         318         323         322
         318         319         324         323
         325         326         331         330
         326         327         332         331
         327         328         333         332
         328         329         334         333
         330         331         336         335
         331         332         337         336
         332         333         338         337
         333         334         339         338
         335         336         341         340
         336         337         342         341
         337         338         343         342
         338         339         344         343
         340         341         346         345
         341         342         347         346
         342         343         348         347
         343         344         349         348
         350         351         356         355
         351         352         357         356
         352         353         358         357
         353         354         359         358
         355         356         361         360
         356         357         362         361
         357         358         363         362
         358         359         364         363
         360         361         366         365
         361         362         367         366
         362         363         368         367
         363         364         369         368
         365         366         371         370
         366         367         372         371
         367         368         373         372
         368         369         374         373
         375         376         381         380
         376         377         382         381
         377         378         383         382
         378         379         384         383
         380         381         386         385
         381         382         387         386
         382         383         388         387
         383         384         389         388
         385         386         391         390
         386         387         392         391
         387         388         393         392
         388         389         394         393
         390         391         396         395
         391         392         397         396
         392         393         398         397
         393         394         399         398
         400         401         406         405
         401         402         407         406
         402         403         408         407
         403         404         409         408
         405         406         411         410
         406         407         412         411
         407         408         413         412
         408         409         414         413
         410         411         416         415
         411         412         417         416
         412         413         418         417
         413         414         419         418
         415         416         421         420
         416         417         422         421
         417         418         423         422
         418         419         424         423
         425         426         431         430
         426         427         432         431
         427         428         433         432
         428         429         434         433
         430         431         436         435
         431         432         437         436
         432         433         438         437
         433         434         439         438
         435         436         441         440
         436         437         442         441
         437         438         443         442
         438         439         444         443
         440         441         446         445
         441         442         447         446
         442         443         448         447
         443         444         449         448
         450         451         456         455
         451         452         457         456
         452         453         458         457
         453         454         459         458
         455         456         461         460
         456         457         462         461
         457         458         463         462
         458         459         464         463
         460         461         466         465
         461         462         467         466
         462         463         468         467
         463         464         469         468
         465         466         471         470
         466         467         472         471
         467         468         473         472
         468         469         474         473
         475         476         481         480
         476         477         482         481
         477         478         483         482
         478         479         484         483
         480         481         486         485
         481         482         487         486
         482         483         488         487
         483         484         489         488
         485         486         491         490
         486         487         492         491
         487         488         493         492
         488         489         494         493
         490         491         496         495
         491         492         497         496
         492         493         498         497
         493         494         499         498
         500         501         506         505
         501         502         507         506
         502         503         508         507
         503         504         509         508
         505         506         511         510
         506         507         512         511
         507         508         513         512
         508         509         514         513
         510         511         516         515
         511         512         517         516
         512         513         518         517
         513         514         519         518
         515         516         521         520
         516         517         522         521
         517         518         523         522
         518         519         524         523
         525         526         531         530
         526         527         532         531
         527         528         533         532
         528         529         534         533
         530         531         536         535
         531         532         537         536
         532         533         538         537
         533         534         539         538
         535         536         541         540
         536         537         542         541
         537         538         543         542
         538         539         544         543
         540         541         546         545
         541         542         547         546
         542         543         548         547
         543         544         549         548
         550         551         556         555
         551         552         557         556
         552         553         558         557
         553         554         559         558
         555         556         561         560
         556         557         562         561
         557         558         563         562
         558         559         564         563
         560         561         566         565
         561         562         567         566
         562         563         568         567
         563         564         569         568
         565         566         571         570
         566         567         572         571
         567         568         573         572
         568         569         574         573
         575         576         581         580
         576         577         582         581
         577         578         583         582
         578         579         584         583
         580         581         586         585
         581         582         587         586
         582         583         588         587
         583         584         589         588
         585         586         591         590
         586         587         592         591
         587         588         593         592
         588         589         594         593
         590         591         596         595
         591         592         597         596
         592         593         598         597
         593         594         599         598
         600         601         606         605
         601         602         607         606
         602         603         608         607
         603         604         609         608
         605         606         611         610
         606         607         612         611
         607         608         613         612
         608         609         614         613
         610         611         616         615
         611         612         617         616
         612         613         618         617
         613         614         619         618
         615         616         621         620
         616         617         622         621
         617         618         623         622
         618         619         624         623
         625         626         631         630
         626         627         632         631
         627         628         633         632
         628         629         634         633
         630         631         636         635
         631         632         637         636
         632         633         638         637
         633         634         639         638
         635         636         641         640
         636         637         642         641
         637         638         643         642
         638         639         644         643
         640         641         646         645
         641         642         647         646
         642         643         648         647
         643         644         649         648
         650         651         656         655
         651         652         657         656
         652         653         658         657
         653         654         659         658
         655         656         661         660
         656         657         662         661
         657         658         663         662
         658         659         664         663
         660         661         666         665
         661         662         667         666
         662         663         668         667
         663         664         669         668
         665         666         671         670
         666         667         672         671
         667         668         673         672
         668         669         674         673
         675         676         681         680
         676         677         682         681
         677         678         683         682
         678         679         684         683
         680         681         686         685
         681         682         687         686
         682         683         688         687
         683         684         689         688
         685         686         691         690
         686         687         692         691
         687         688         693         692
         688         689         694         693
         690         691         696         695
         691         692         697         696
         692         693         698         697
         693         694         699         698
         700         701         706         705
         701         702         707         706
         702         703         708         707
         703         704         709         708
         705         706         711         710
         706         707         712         711
         707         708         713         712
         708         709         714         713
         710         711         716         715
         711         712         717         716
         712         713         718         717
         713         714         719         718
         715         716         721         720
         716         717         722         721
         717         718         723         722
         718         719         724         723
         725         726         731         730
         726         727         732         731
         727         728         733         732
         728         729         734         733
         730         731         736         735
         731         732         737         736
         732         733         738         737
         733         734         739         738
         735         736         741         740
         736         737         742         741
         737         738         743         742
         738         739         744         743
         740         741         746         745
         741         742         747         746
         742         743         748         747
         743         744         749         748
         750         751         756         755
         751         752         757         756
         752         753         758         757
         753         754         759         758
         755         756         761         760
         756         757         762         761
         757         758         763         762
         758         759         764         763
         760         761         766         765
         761         762         767         766
         762         763         768         767
         763         764         769         768
         765         766         771         770
         766         767         772         771
         767         768         773         772
         768         769         774         773
         775         776         781         780
         776         777         782         781
         777         778         783         782
         778         779         784         783
         780         781         786         785
         781         782         787         786
         782         783         788         787
         783         784         789         788
         785         786         791         790
         786         787         792         791
         787         788         793         792
         788         789         794         793
         790         791         796         795
         791         792         797         796
         792         793         798         797
         793         794         799         798
         800         801         806         805
         801         802         807         806
         802         803         808         807
         803         804         809         808
         805         806         811         810
         806         807         812         811
         807         808         813         812
         808         809         814         813
         810         811         816         815
         811         812         817         816
         812         813         818         817
         813         814         819         818
         815         816         821         820
         816         817         822         821
         817         818         823         822
         818         819         824         823
         825         826         831         830
         826         827         832         831
         827         828         833         832
         828         829         834         833
         830         831         836         835
         831         832         837         836
         832         833         838         837
         833         834         839         838
         835         836         841         840
         836         837         842         841
         837         838         843         842
         838         839         844         843
         840         841         846         845
         841         842         847         846
         842         843         848         847
         843         844         849         848
         850         851         856         855
         851         852         857         856
         852         853         858         857
         853         854         859         858
         855         856         861         860
         856         857         862         861
         857         858         863         862
         858         859         864         863
         860         861         866         865
         861         862         867         866
         862         863         868         867
         863         864         869         868
         865         866         871         870
         866         867         872         871
         867         868         873         872
         868         869         874         873
         875         876         881         880
         876         877         882         881
         877         878         883         882
         878         879         884         883
         880         881         886         885
         881         882         887         886
         882         883         888         887
         883         884         889         888
         885         886         891         890
         886         887         892         891
         887         888         893         892
         888         889         894         893
         890         891         896         895
         891         892         897         896
         892         893         898         897
         893         894         899         898
         900         901         906         905
         901         902         907         906
         902         903         908         907
         903         904         909         908
         905         906         911         910
         906         907         912         911
         907         908         913         912
         908         909         914         913
         910         911         916         915
         911         912         917         916
         912         913         918         917
         913         914         919         918
         915         916         921         920
         916         917         922         921
         917         918         923         922
         918         919         924         923
         925         926         931         930
         926         927         932         931
         927         928         933         932
         928         929         934         933
         930         931         936         935
         931         932         937         936
         932         933         938         937
         933         934         939         938
         935         936         941         940
         936         937         942         941
         937         938         943         942
         938         939         944         943
         940         941         946         945
         941         942         947         946
         942         943         948         947
         943         944         949         948
         950         951         956         955
         951         952         957         956
         952         953         958         957
         953         954         959         958
         955         956         961         960
         956         957         962         961
         957         958         963         962
         958         959         964         963
         960         961         966         965
         961         962         967         966
         962         963         968         967
         963         964         969         968
         965         966         971         970
         966         967         972         971
         967         968         973         972
         968         969         974         973
         975         976         981         980
         976         977         982         981
         977         978         983         982
         978         979         984         983
         980         981         986         985
         981         982         987         986
         982         983         988         987
         983         984         989         988
         985         986         991         990
         986         987         992         991
         987         988         993         992
         988         989         994         993
         990         991         996         995
         991         992         997         996
         992         993         998         997
         993         994         999         998
        1000        1001        1006        1005
        1001        1002        1007        1006
        1002        1003        1008        1007
        1003        1004        1009        1008
        1005        1006        1011        1010
        1006        1007        1012        1011
        1007        1008        1013        1012
        1008        1009        1014        1013
        1010        1011        1016        1015
        1011        1012        1017        1016
        1012        1013        1018        1017
        1013        1014        1019        1018
        1015        1016        1021        1020
        1016        1017        1022        1021
        1017        1018        1023        1022
        1018        1019        1024        1023
        1025        1026        1031        1030
        1026        1027        1032        1031
        1027        1028        1033        1032
        1028        1029        1034        1033
        1030        1031        1036        1035
        1031        1032        1037        1036
        1032        1033        1038        1037
        1033        1034        1039        1038
        1035        1036        1041        1040
        1036        1037        1042        1041
        1037        1038        1043        1042
        1038        1039        1044        1043
        1040        1041        1046        1045
        1041        1042        1047        1046
        1042        1043        1048        1047
        1043        1044        1049        1048
        1050        1051        1056        1055
        1051        1052        1057        1056
        1052        1053        1058        1057
        1053        1054        1059        1058
        1055        1056        1061        1060
        1056        1057        1062        1061
        1057        1058        1063        1062
        1058        1059        1064        1063
        1060        1061        1066        1065
        1061        1062        1067        1066
        1062        1063        1068        1067
        1063        1064        1069        1068
        1065        1066        1071        1070
        1066        1067        1072        1071
        1067        1068        1073        1072
        1068        1069        1074        1073
        1075        1076        1081        1080
        1076        1077        1082        1081
        1077        1078        1083        1082
        1078        1079        1084        1083
        1080        1081        1086        1085
        1081        1082        1087        1086
        1082        1083        1088        1087
        1083        1084        1089        1088
        1085        1086        1091        1090
        1086        1087        1092        1091
        1087        1088        1093        1092
        1088        1089        1094        1093
        1090        1091        1096        1095
        1091        1092        1097        1096
        1092        1093        1098        1097
        1093        1094        1099        1098
        1100        1101        1106        1105
        1101        1102        1107        1106
        1102        1103        1108        1107
        1103        1104        1109        1108
        1105        1106        1111        1110
        1106        1107        1112        1111
        1107        1108        1113        1112
        1108        1109        1114        1113
        1110        1111        1116        1115
        1111        1112        1117        1116
        1112        1113        1118        1117
        1113        1114        1119        1118
        1115        1116        1121        1120
        1116        1117        1122        1121
        1117        1118        1123        1122
        1118        1119        1124        1123
        1125        1126        1131        1130
        1126        1127        1132        1131
        1127        1128        1133        1132
        1128        1129        1134        1133
        1130        1131        1136        1135
        1131        1132        1137        1136
        1132        1133        1138        1137
        1133        1134        1139        1138
        1135        1136        1141        1140
        1136        1137        1142        1141
        1137        1138        1143        1142
        1138        1139        1144        1143
        1140        1141        1146        1145
        1141        1142        1147        1146
        1142        1143        1148        1147
        1143        1144        1149        1148
        1150        1151        1156        1155
        1151        1152        1157        1156
        1152        1153        1158        1157
        1153        1154        1159        1158
        1155        1156        1161        1160
        1156        1157        1162        1161
        1157        1158        1163        1162
        1158        1159        1164        1163
        1160        1161        1166        1165
        1161        1162        1167        1166
        1162        1163        1168        1167
        1163        1164        1169        1168
        1165        1166        1171        1170
        1166        1167        1172        1171
        1167        1168        1173        1172
        1168        1169        1174        1173
        1175        1176        1181        1180
        1176        1177        1182        1181
        1177        1178        1183        1182
        1178        1179        1184        1183
        1180        1181        1186        1185
        1181        1182        1187        1186
        1182        1183        1188        1187
        1183        1184        1189        1188
        1185        1186        1191        1190
        1186        1187        1192        1191
        1187        1188        1193        1192
        1188        1189        1194        1193
        1190        1191        1196        1195
        1191        1192        1197        1196
        1192        1193        1198        1197
        1193        1194        1199        1198
        1200        1201        1206        1205
        1201        1202        1207        1206
        1202        1203        1208        1207
        1203        1204        1209        1208
        1205        1206        1211        1210
        1206        1207        1212        1211
        1207        1208        1213        1212
        1208        1209        1214        1213
        1210        1211        1216        1215
        1211        1212        1217        1216
        1212        1213        1218        1217
        1213        1214        1219        1218
        1215        1216        1221        1220
        1216        1217        1222        1221
        1217        1218        1223        1222
        1218        1219        1224        1223
        1225        1226        1231        1230
        1226        1227        1232        1231
        1227        1228        1233        1232
        1228        1229        1234        1233
        1230        1231        1236        1235
        1231        1232        1237        1236
        1232        1233        1238        1237
        1233        1234        1239        1238
        1235        1236        1241        1240
        1236        1237        1242        1241
        1237        1238        1243        1242
        1238        1239        1244        1243
        1240        1241        1246        1245
        1241        1242        1247        1246
        1242        1243        1248        1247
        1243        1244        1249        1248
        1250        1251        1256        1255
        1251        1252        1257        1256
        1252        1253        1258        1257
        1253        1254        1259        1258
        1255        1256        1261        1260
        1256        1257        1262        1261
        1257        1258        1263        1262
        1258        1259        1264        1263
        1260        1261        1266        1265
        1261        1262        1267        1266
        1262        1263        1268        1267
        1263        1264        1269        1268
        1265        1266        1271        1270
        1266        1267        1272        1271
        1267        1268        1273        1272
        1268        1269        1274        1273
        1275        1276        1281        1280
        1276        1277        1282        1281
        1277        1278        1283        1282
        1278        1279        1284        1283
        1280        1281        1286        1285
        1281        1282        1287        1286
        1282        1283        1288        1287
        1283        1284        1289        1288
        1285        1286        1291        1290
        1286        1287        1292        1291
        1287        1288        1293        1292
        1288        1289        1294        1293
        1290        1291        1296        1295
        1291        1292        1297        1296
        1292        1293        1298        1297
        1293        1294        1299        1298
        1300        1301        1306        1305
        1301        1302        1307        1306
        1302        1303        1308        1307
        1303        1304        1309        1308
        1305        1306        1311        1310
        1306        1307        1312        1311
        1307        1308        1313        1312
        1308        1309        1314        1313
        1310        1311        1316        1315
        1311        1312        1317        1316
        1312        1313        1318        1317
        1313        1314        1319        1318
        1315        1316        1321        1320
        1316        1317        1322        1321
        1317        1318        1323        1322
        1318        1319        1324        1323
        1325        1326        1331        1330
        1326        1327        1332        1331
        1327        1328        1333        1332
        1328        1329        1334        1333
        1330        1331        1336        1335
        1331        1332        1337        1336
        1332        1333        1338        1337
        1333        1334        1339        1338
        1335        1336        1341        1340
        1336        1337        1342        1341
        1337        1338        1343        1342
        1338        1339        1344        1343
        1340        1341        1346        1345
        1341        1342        1347        1346
        1342        1343        1348        1347
        1343        1344        1349        1348
        1350        1351        1356        1355
        1351        1352        1357        1356
        1352        1353        1358        1357
        1353        1354        1359        1358
        1355        1356        1361        1360
        1356        1357        1362        1361
        1357        1358        1363        1362
        1358        1359        1364        1363
        1360        1361        1366        1365
        1361        1362        1367        1366
        1362        1363        1368        1367
        1363        1364        1369        1368
        1365        1366        1371        1370
        1366        1367        1372        1371
        1367        1368        1373        1372
        1368        1369        1374        1373
        1375        1376        1381        1380
        1376        1377        1382        1381
        1377        1378        1383        1382
        1378        1379        1384        1383
        1380        1381        1386        1385
        1381        1382        1387        1386
        1382        1383        1388        1387
        1383        1384        1389        1388
        1385        1386        1391        1390
        1386        1387        1392        1391
        1387        1388        1393        1392
        1388        1389        1394        1393
        1390        1391        1396        1395
        1391        1392        1397        1396
        1392        1393        1398        1397
        1393        1394        1399        1398
        1400        1401        1406        1405
        1401        1402        1407        1406
        1402        1403        1408        1407
        1403        1404        1409        1408
        1405        1406        1411        1410
        1406        1407        1412        1411
        1407        1408        1413        1412
        1408        1409        1414        1413
        1410        1411        1416        1415
        1411        1412        1417        1416
        1412        1413        1418        1417
        1413        1414        1419        1418
        1415        1416        1421        1420
        1416        1417        1422        1421
        1417        1418        1423        1422
        1418        1419        1424        1423
        1425        1426        1431        1430
        1426        1427        1432        1431
        1427        1428        1433        1432
        1428        1429        1434        1433
        1430        1431        1436        1435
        1431        1432        1437        1436
        1432        1433        1438        1437
        1433        1434        1439        1438
        1435        1436        1441        1440
        1436        1437        1442        1441
        1437        1438        1443        1442
        1438        1439        1444        1443
        1440        1441        1446        1445
        1441        1442        1447        1446
        1442        1443        1448        1447
        1443        1444        1449        1448
        1450        1451        1456        1455
        1451        1452        1457        1456
        1452        1453        1458        1457
        1453        1454        1459        1458
        1455        1456        1461        1460
        1456        1457        1462        1461
        1457        1458        1463        1462
        1458        1459        1464        1463
        1460        1461        1466        1465
        1461        1462        1467        1466
        1462        1463        1468        1467
        1463        1464        1469        1468
        1465        1466        1471        1470
        1466        1467        1472        1471
        1467        1468        1473        1472
        1468        1469        1474        1473
        1475        1476        1481        1480
        1476        1477        1482        1481
        1477        1478        1483        1482
        1478        1479        1484        1483
        1480        1481        1486        1485
        1481        1482        1487        1486
        1482        1483        1488        1487
        1483        1484        1489        1488
        1485        1486        1491        1490
        1486        1487        1492        1491
        1487        1488        1493        1492
        1488        1489        1494        1493
        1490        1491        1496        1495
        1491        1492        1497        1496
        1492        1493        1498        1497
        1493        1494        1499        1498
        1500        1501        1506        1505
        1501        1502        1507        1506
        1502        1503        1508        1507
        1503        1504        1509        1508
        1505        1506        1511        1510
        1506        1507        1512        1511
        1507        1508        1513        1512
        1508        1509        1514        1513
        1510        1511        1516        1515
        1511        1512        1517        1516
        1512        1513        1518        1517
        1513        1514        1519        1518
        1515        1516        1521        1520
        1516        1517        1522        1521
        1517        1518        1523        1522
        1518        1519        1524        1523
        1525        1526        1531        1530
        1526        1527        1532        1531
        1527        1528        1533        1532
        1528        1529        1534        1533
        1530        1531        1536        1535
        1531        1532        1537        1536
        1532        1533        1538        1537
        1533        1534        1539        1538
        1535        1536        1541        1540
        1536        1537        1542        1541
        1537        1538        1543        1542
        1538        1539        1544        1543
        1540        1541        1546        1545
        1541        1542        1547        1546
        1542        1543        1548        1547
        1543        1544        1549        1548
        1550        1551        1556        1555
        1551        1552        1557        1556
        1552        1553        1558        1557
        1553        1554        1559        1558
        1555        1556        1561        1560
        1556        1557        1562        1561
        1557        1558        1563        1562
        1558        1559        1564        1563
        1560        1561        1566        1565
        1561        1562        1567        1566
        1562        1563        1568        1567
        1563        1564        1569        1568
        1565        1566        1571        1570
        1566        1567        1572        1571
        1567        1568        1573        1572
        1568        1569        1574        1573
        1575        1576        1581        1580
        1576        1577        1582        1581
        1577        1578        1583        1582
        1578        1579        1584        1583
        1580        1581        1586        1585
        1581        1582        1587        1586
        1582        1583        1588        1587
        1583        1584        1589        1588
        1585        1586        1591        1590
        1586        1587        1592        1591
        1587        1588        1593        1592
        1588        1589        1594        1593
        1590        1591        1596        1595
        1591        1592        1597        1596
        1592        1593        1598        1597
        1593        1594        1599        1598
 </DataArray>
 <DataArray  type="Int32"  Name="offsets"  format="ascii"> 
           4
           8
          12
          16
          20
          24
          28
          32
          36
          40
          44
          48
          52
          56
          60
          64
          68
          72
          76
          80
          84
          88
          92
          96
         100
         104
         108
         112
         116
         120
         124
         128
         132
         136
         140
         144
         148
         152
         156
         160
         164
         168
         172
         176
         180
         184
         188
         192
         196
         200
         204
         208
         212
         216
         220
         224
         228
         232
         236
         240
         244
         248
         252
         256
         260
         264
         268
         272
         276
         280
         284
         288
         292
         296
         300
         304
         308
         312
         316
         320
         324
         328
         332
         336
         340
         344
         348
         352
         356
         360
         364
         368
         372
         376
         380
         384
         388
         392
         396
         400
         404
         408
         412
         416
         420
         424
         428
         432
         436
         440
         444
         448
         452
         456
         460
         464
         468
         472
         476
         480
         484
         488
         492
         496
         500
         504
         508
         512
         516
         520
         524
         528
         532
         536
         540
         544
         548
         552
         556
         560
         564
         568
         572
         576
         580
         584
         588
         592
         596
         600
         604
         608
         612
         616
         620
         624
         628
         632
         636
         640
         644
         648
         652
         656
         660
         664
         668
         672
         676
         680
         684
         688
         692
         696
         700
         704
         708
         712
         716
         720
         724
         728
         732
         736
         740
         744
         748
         752
         756
         760
         764
         768
         772
         776
         780
         784
         788
         792
         796
         800
         804
         808
         812
         816
         820
         824
         828
         832
         836
         840
         844
         848
         852
         856
         860
         864
         868
         872
         876
         880
         884
         888
         892
         896
         900
         904
         908
         912
         916
         920
         924
         928
         932
         936
         940
         944
         948
         952
         956
         960
         964
         968
         972
         976
         980
         984
         988
         992
         996
        1000
        1004
        1008
        1012
        1016
        1020
        1024
        1028
        1032
        1036
        1040
        1044
        1048
        1052
        1056
        1060
        1064
        1068
        1072
        1076
        1080
        1084
        1088
        1092
        1096
        1100
        1104
        1108
        1112
        1116
        1120
        1124
        1128
        1132
        1136
        1140
        1144
        1148
        1152
        1156
        1160
        1164
        1168
        1172
        1176
        1180
        1184
        1188
        1192
        1196
        1200
        1204
        1208
        1212
        1216
        1220
        1224
        1228
        1232
        1236
        1240
        1244
        1248
        1252
        1256
        1260
        1264
        1268
        1272
        1276
        1280
        1284
        1288
        1292
        1296
        1300
        1304
        1308
        1312
        1316
        1320
        1324
        1328
        1332
        1336
        1340
        1344
        1348
        1352
        1356
        1360
        1364
        1368
        1372
        1376
        1380
        1384
        1388
        1392
        1396
        1400
        1404
        1408
        1412
        1416
        1420
        1424
        1428
        1432
        1436
        1440
        1444
        1448
        1452
        1456
        1460
        1464
        1468
        1472
        1476
        1480
        1484
        1488
        1492
        1496
        1500
        1504
        1508
        1512
        1516
        1520
        1524
        1528
        1532
        1536
        1540
        1544
        1548
        1552
        1556
        1560
        1564
        1568
        1572
        1576
        1580
        1584
        1588
        1592
        1596
        1600
        1604
        1608
        1612
        1616
        1620
        1624
        1628
        1632
        1636
        1640
        1644
        1648
        1652
        1656
        1660
        1664
        1668
        1672
        1676
        1680
        1684
        1688
        1692
        1696
        1700
        1704
        1708
        1712
        1716
        1720
        1724
        1728
        1732
        1736
        1740
        1744
        1748
        1752
        1756
        1760
        1764
        1768
        1772
        1776
        1780
        1784
        1788
        1792
        1796
        1800
        1804
        1808
        1812
        1816
        1820
        1824
        1828
        1832
        1836
        1840
        1844
        1848
        1852
        1856
        1860
        1864
        1868
        1872
        1876
        1880
        1884
        1888
        1892
        1896
        1900
        1904
        1908
        1912
        1916
        1920
        1924
        1928
        1932
        1936
        1940
        1944
        1948
        1952
        1956
        1960
        1964
        1968
        1972
        1976
        1980
        1984
        1988
        1992
        1996
        2000
        2004
        2008
        2012
        2016
        2020
        2024
        2028
        2032
        2036
        2040
        2044
        2048
        2052
        2056
        2060
        2064
        2068
        2072
        2076
        2080
        2084
        2088
        2092
        2096
        2100
        2104
        2108
        2112
        2116
        2120
        2124
        2128
        2132
        2136
        2140
        2144
        2148
        2152
        2156
        2160
        2164
        2168
        2172
        2176
        2180
        2184
        2188
        2192
        2196
        2200
        2204
        2208
        2212
        2216
        2220
        2224
        2228
        2232
        2236
        2240
        2244
        2248
        2252
        2256
        2260
        2264
        2268
        2272
        2276
        2280
        2284
        2288
        2292
        2296
        2300
        2304
        2308
        2312
        2316
        2320
        2324
        2328
        2332
        2336
        2340
        2344
        2348
        2352
        2356
        2360
        2364
        2368
        2372
        2376
        2380
        2384
        2388
        2392
        2396
        2400
        2404
        2408
        2412
        2416
        2420
        2424
        2428
        2432
        2436
        2440
        2444
        2448
        2452
        2456
        2460
        2464
        2468
        2472
        2476
        2480
        2484
        2488
        2492
        2496
        2500
        2504
        2508
        2512
        2516
        2520
        2524
        2528
        2532
        2536
        2540
        2544
        2548
        2552
        2556
        2560
        2564
        2568
        2572
        2576
        2580
        2584
        2588
        2592
        2596
        2600
        2604
        2608
        2612
        2616
        2620
        2624
        2628
        2632
        2636
        2640
        2644
        2648
        2652
        2656
        2660
        2664
        2668
        2672
        2676
        2680
        2684
        2688
        2692
        2696
        2700
        2704
        2708
        2712
        2716
        2720
        2724
        2728
        2732
        2736
        2740
        2744
        2748
        2752
        2756
        2760
        2764
        2768
        2772
        2776
        2780
        2784
        2788
        2792
        2796
        2800
        2804
        2808
        2812
        2816
        2820
        2824
        2828
        2832
        2836
        2840
        2844
        2848
        2852
        2856
        2860
        2864
        2868
        2872
        2876
        2880
        2884
        2888
        2892
        2896
        2900
        2904
        2908
        2912
        2916
        2920
        2924
        2928
        2932
        2936
        2940
        2944
        2948
        2952
        2956
        2960
        2964
        2968
        2972
        2976
        2980
        2984
        2988
        2992
        2996
        3000
        3004
        3008
        3012
        3016
        3020
        3024
        3028
        3032
        3036
        3040
        3044
        3048
        3052
        3056
        3060
        3064
        3068
        3072
        3076
        3080
        3084
        3088
        3092
        3096
        3100
        3104
        3108
        3112
        3116
        3120
        3124
        3128
        3132
        3136
        3140
        3144
        3148
        3152
        3156
        3160
        3164
        3168
        3172
        3176
        3180
        3184
        3188
        3192
        3196
        3200
        3204
        3208
        3212
        3216
        3220
        3224
        3228
        3232
        3236
        3240
        3244
        3248
        3252
        3256
        3260
        3264
        3268
        3272
        3276
        3280
        3284
        3288
        3292
        3296
        3300
        3304
        3308
        3312
        3316
        3320
        3324
        3328
        3332
        3336
        3340
        3344
        3348
        3352
        3356
        3360
        3364
        3368
        3372
        3376
        3380
        3384
        3388
        3392
        3396
        3400
        3404
        3408
        3412
        3416
        3420
        3424
        3428
        3432
        3436
        3440
        3444
        3448
        3452
        3456
        3460
        3464
        3468
        3472
        3476
        3480
        3484
        3488
        3492
        3496
        3500
        3504
        3508
        3512
        3516
        3520
        3524
        3528
        3532
        3536
        3540
        3544
        3548
        3552
        3556
        3560
        3564
        3568
        3572
        3576
        3580
        3584
        3588
        3592
        3596
        3600
        3604
        3608
        3612
        3616
        3620
        3624
        3628
        3632
        3636
        3640
        3644
        3648
        3652
        3656
        3660
        3664
        3668
        3672
        3676
        3680
        3684
        3688
        3692
        3696
        3700
        3704
        3708
        3712
        3716
        3720
        3724
        3728
        3732
        3736
        3740
        3744
        3748
        3752
        3756
        3760
        3764
        3768
        3772
        3776
        3780
        3784
        3788
        3792
        3796
        3800
        3804
        3808
        3812
        3816
        3820
        3824
        3828
        3832
        3836
        3840
        3844
        3848
        3852
        3856
        3860
        3864
        3868
        3872
        3876
        3880
        3884
        3888
        3892
        3896
        3900
        3904
        3908
        3912
        3916
        3920
        3924
        3928
        3932
        3936
        3940
        3944
        3948
        3952
        3956
        3960
        3964
        3968
        3972
        3976
        3980
        3984
        3988
        3992
        3996
        4000
        4004
        4008
        4012
        4016
        4020
        4024
        4028
        4032
        4036
        4040
        4044
        4048
        4052
        4056
        4060
        4064
        4068
        4072
        4076
        4080
        4084
        4088
        4092
        4096
 </DataArray>
 <DataArray  type="UInt8"  Name="types"  format="ascii">
 9
 9
 9
 9
 9
 9
 9
 9
 9
 9
 9
 9
 9
 9
 9
 9
 9
 9
 9
 9
 9
 9
 9
 9
 9
 9
 9
 9
 9
 9
 9
 9
 9
 9
 9
 9
 9
 9
 9
 9
 9
 9
 9
 9
 9
 9
 9
 9
 9
 9
 9
 9
 9
 9
 9
 9
 9
 9
 9
 9
 9
 9
 9
 9
 9
 9
 9
 9
 9
 9
 9
 9
 9
 9
 9
 9
 9
 9
 9
 9
 9
 9
 9
 9
 9
 9
 9
 9
 9
 9
 9
 9
 9
 9
 9
 9
 9
 9
 9
 9
 9
 9
 9
 9
 9
 9
 9
 9
 9
 9
 9
 9
 9
 9
 9
 9
 9
 9
 9
 9
 9
 9
 9
 9
 9
 9
 9
 9
 9
 9
 9
 9
 9
 9
 9
 9
 9
 9
 9
 9
 9
 9
 9
 9
 9
 9
 9
 9
 9
 9
 9
 9
 9
 9
 9
 9
 9
 9
 9
 9
 9
 9
 9
 9
 9
 9
 9
 9
 9
 9
 9
 9
 9
 9
 9
 9
 9
 9
 9
 9
 9
 9
 9
 9
 9
 9
 9
 9
 9
 9
 9
 9
 9
 9
 9
 9
 9
 9
 9
 9
 9
 9
 9
 9
 9
 9
 9
 9
 9
 9
 9
 9
 9
 9
 9
 9
 9
 9
 9
 9
 9
 9
 9
 9
 9
 9
 9
 9
 9
 9
 9
 9
 9
 9
 9
 9
 9
 9
 9
 9
 9
 9
 9
 9
 9
 9
 9
 9
 9
 9
 9
 9
 9
 9
 9
 9
 9
 9
 9
 9
 9
 9
 9
 9
 9
 9
 9
 9
 9
 9
 9
 9
 9
 9
 9
 9
 9
 9
 9
 9
 9
 9
 9
 9
 9
 9
 9
 9
 9
 9
 9
 9
 9
 9
 9
 9
 9
 9
 9
 9
 9
 9
 9
 9
 9
 9
 9
 9
 9
 9
 9
 9
 9
 9
 9
 9
 9
 9
 9
 9
 9
 9
 9
 9
 9
 9
 9
 9
 9
 9
 9
 9
 9
 9
 9
 9
 9
 9
 9
 9
 9
 9
 9
 9
 9
 9
 9
 9
 9
 9
 9
 9
 9
 9
 9
 9
 9
 9
 9
 9
 9
 9
 9
 9
 9
 9
 9
 9
 9
 9
 9
 9
 9
 9
 9
 9
 9
 9
 9
 9
 9
 9
 9
 9
 9
 9
 9
 9
 9
 9
 9
 9
 9
 9
 9
 9
 9
 9
 9
 9
 9
 9
 9
 9
 9
 9
 9
 9
 9
 9
 9
 9
 9
 9
 9
 9
 9
 9
 9
 9
 9
 9
 9
 9
 9
 9
 9
 9
 9
 9
 9
 9
 9
 9
 9
 9
 9
 9
 9
 9
 9
 9
 9
 9
 9
 9
 9
 9
 9
 9
 9
 9
 9
 9
 9
 9
 9
 9
 9
 9
 9
 9
 9
 9
 9
 9
 9
 9
 9
 9
 9
 9
 9
 9
 9
 9
 9
 9
 9
 9
 9
 9
 9
 9
 9
 9
 9
 9
 9
 9
 9
 9
 9
 9
 9
 9
 9
 9
 9
 9
 9
 9
 9
 9
 9
 9
 9
 9
 9
 9
 9
 9
 9
 9
 9
 9
 9
 9
 9
 9
 9
 9
 9
 9
 9
 9
 9
 9
 9
 9
 9
 9
 9
 9
 9
 9
 9
 9
 9
 9
 9
 9
 9
 9
 9
 9
 9
 9
 9
 9
 9
 9
 9
 9
 9
 9
 9
 9
 9
 9
 9
 9
 9
 9
 9
 9
 9
 9
 9
 9
 9
 9
 9
 9
 9
 9
 9
 9
 9
 9
 9
 9
 9
 9
 9
 9
 9
 9
 9
 9
 9
 9
 9
 9
 9
 9
 9
 9
 9
 9
 9
 9
 9
 9
 9
 9
 9
 9
 9
 9
 9
 9
 9
 9
 9
 9
 9
 9
 9
 9
 9
 9
 9
 9
 9
 9
 9
 9
 9
 9
 9
 9
 9
 9
 9
 9
 9
 9
 9
 9
 9
 9
 9
 9
 9
 9
 9
 9
 9
 9
 9
 9
 9
 9
 9
 9
 9
 9
 9
 9
 9
 9
 9
 9
 9
 9
 9
 9
 9
 9
 9
 9
 9
 9
 9
 9
 9
 9
 9
 9
 9
 9
 9
 9
 9
 9
 9
 9
 9
 9
 9
 9
 9
 9
 9
 9
 9
 9
 9
 9
 9
 9
 9
 9
 9
 9
 9
 9
 9
 9
 9
 9
 9
 9
 9
 9
 9
 9
 9
 9
 9
 9
 9
 9
 9
 9
 9
 9
 9
 9
 9
 9
 9
 9
 9
 9
 9
 9
 9
 9
 9
 9
 9
 9
 9
 9
 9
 9
 9
 9
 9
 9
 9
 9
 9
 9
 9
 9
 9
 9
 9
 9
 9
 9
 9
 9
 9
 9
 9
 9
 9
 9
 9
 9
 9
 9
 9
 9
 9
 9
 9
 9
 9
 9
 9
 9
 9
 9
 9
 9
 9
 9
 9
 9
 9
 9
 9
 9
 9
 9
 9
 9
 9
 9
 9
 9
 9
 9
 9
 9
 9
 9
 9
 9
 9
 9
 9
 9
 9
 9
 9
 9
 9
 9
 9
 9
 9
 9
 9
 9
 9
 9
 9
 9
 9
 9
 9
 9
 9
 9
 9
 9
 9
 9
 9
 9
 9
 9
 9
 9
 9
 9
 9
 9
 9
 9
 9
 9
 9
 9
 9
 9
 9
 9
 9
 9
 9
 9
 9
 9
 9
 9
 9
 9
 9
 9
 9
 9
 9
 9
 9
 9
 9
 9
 9
 9
 9
 9
 9
 9
 9
 9
 9
 9
 9
 9
 9
 9
 9
 9
 9
 9
 9
 9
 9
 9
 9
 9
 9
 9
 9
 9
 9
 9
 9
 9
 9
 9
 9
 9
 9
 9
 9
 9
 9
 9
 9
 9
 9
 9
 9
 9
 9
 9
 9
 9
 9
 9
 9
 9
 9
 9
 9
 9
 9
 9
 9
 9
 9
 9
 9
 9
 9
 9
 9
 9
 9
 9
 9
 9
 9
 9
 9
 9
 9
 9
 9
 9
 9
 9
 9
 9
 9
 9
 9
 9
 9
 9
 9
 9
 9
 9
 9
 9
 9
 9
 9
 9
 9
 9
 9
 9
 9
 9
 9
 9
 9
 9
 9
 9
 9
 9
 9
 9
 9
 9
 9
 9
 9
 9
 9
 9
 9
 9
 9
 9
 9
 9
 9
 9
 9
 9
 9
 9
 </DataArray>
 </Cells> 
 <PointData>
 <DataArray  type="Float64" Name="disp" NumberOfComponents="3" format="ascii">
   6.4998980869693801E-002   6.2786780077909748E-002   0.0000000000000000     
   6.8169991479400519E-002   6.8174674698690152E-002   0.0000000000000000     
   7.1213148265358850E-002   7.3741618272386275E-002   0.0000000000000000     
   7.4128451227568809E-002   7.9487610798998132E-002   0.0000000000000000     
   7.6915900366030382E-002   8.5412652278525694E-002   0.0000000000000000     
   6.0247552253515121E-002   6.1886409622238535E-002   0.0000000000000000     
   6.3118719868851647E-002   6.7298543635553654E-002   0.0000000000000000     
   6.5892141845244612E-002   7.2891345955423972E-002   0.0000000000000000     
   6.8567818182694015E-002   7.8664816581849498E-002   0.0000000000000000     
   7.1145748881199886E-002   8.4618955514830188E-002   0.0000000000000000     
   5.5456959846392317E-002   6.1041035307501212E-002   0.0000000000000000     
   5.8088215628580006E-002   6.6477603595756746E-002   0.0000000000000000     
   6.0638971002971859E-002   7.2095674752426259E-002   0.0000000000000000     
   6.3109225969567861E-002   7.7895248777509696E-002   0.0000000000000000     
   6.5498980528368028E-002   8.3876325671007085E-002   0.0000000000000000     
   5.0627203648325396E-002   6.0250657133697774E-002   0.0000000000000000     
   5.3078478758585637E-002   6.5711854579299442E-002   0.0000000000000000     
   5.5453635738540605E-002   7.1354604663393106E-002   0.0000000000000000     
   5.7752674588190320E-002   7.7178907385978754E-002   0.0000000000000000     
   5.9975595307534768E-002   8.3184762747056371E-002   0.0000000000000000     
   4.5758283659314364E-002   5.9515275100828227E-002   0.0000000000000000     
   4.8089509258868512E-002   6.5001296586181714E-002   0.0000000000000000     
   5.0336136051950857E-002   7.0668135688324515E-002   0.0000000000000000     
   5.2498164038561404E-002   7.6515792407256616E-002   0.0000000000000000     
   5.4575593218700147E-002   8.2544266742978045E-002   0.0000000000000000     
   7.6915900366030382E-002   8.5412652278525694E-002   0.0000000000000000     
   7.9594378985381936E-002   9.1506435677176243E-002   0.0000000000000000     
   8.2182770390261894E-002   9.7758653961157044E-002   0.0000000000000000     
   8.4681074580670201E-002  0.10416930713046807        0.0000000000000000     
   8.7089291556606885E-002  0.11073839518510936        0.0000000000000000     
   7.1145748881199886E-002   8.4618955514830188E-002   0.0000000000000000     
   7.3634655812631122E-002   9.0742316903453052E-002   0.0000000000000000     
   7.6043260848856639E-002   9.7023454896805056E-002   0.0000000000000000     
   7.8371563989876408E-002  0.10346236949488614        0.0000000000000000     
   8.0619565235690471E-002  0.11005906069769639        0.0000000000000000     
   6.5498980528368028E-002   8.3876325671007085E-002   0.0000000000000000     
   6.7811955606829483E-002   9.0026864403431273E-002   0.0000000000000000     
   7.0051872132409376E-002   9.6334823945295051E-002   0.0000000000000000     
   7.2218730105107723E-002  0.10280020429659845        0.0000000000000000     
   7.4312529524924509E-002  0.10942300545734146        0.0000000000000000     
   5.9975595307534768E-002   8.3184762747056371E-002   0.0000000000000000     
   6.2126278367977024E-002   8.9360078177110863E-002   0.0000000000000000     
   6.4208604240920134E-002   9.5692761106627056E-002   0.0000000000000000     
   6.6222572926364118E-002  0.10218281153560496        0.0000000000000000     
   6.8168184424308970E-002  0.10883022946404457        0.0000000000000000     
   5.4575593218700147E-002   8.2544266742978045E-002   0.0000000000000000     
   5.6577624096073746E-002   8.8741958224491851E-002   0.0000000000000000     
   5.8513457174388911E-002   9.5097266380801057E-002   0.0000000000000000     
   6.0383092453645607E-002  0.10161019121190570        0.0000000000000000     
   6.2186529933843868E-002  0.10828073271780575        0.0000000000000000     
   8.7089291556606885E-002  0.11073839518510936        0.0000000000000000     
   8.9401599779135227E-002  0.11745339338113725        0.0000000000000000     
   9.1612177709318579E-002  0.12430177697460816        0.0000000000000000     
   9.3721025347156900E-002  0.13128354596552208        0.0000000000000000     
   9.5728142692650231E-002  0.13839870035387897        0.0000000000000000     
   8.0619565235690471E-002  0.11005906069769639        0.0000000000000000     
   8.2780185720266880E-002  0.11680138280003657        0.0000000000000000     
   8.4846346577573686E-002  0.12367719009670755        0.0000000000000000     
   8.6818047807610904E-002  0.13068648258770932        0.0000000000000000     
   8.8695289410378519E-002  0.13782926027304188        0.0000000000000000     
   7.4312529524924509E-002  0.10942300545734146        0.0000000000000000     
   7.6325804302589617E-002  0.11619129510119219        0.0000000000000000     
   7.8251088348832959E-002  0.12309314090181875        0.0000000000000000     
   8.0088381663654479E-002  0.13012854285922112        0.0000000000000000     
   8.1837684247054218E-002  0.13729750097339932        0.0000000000000000     
   6.8168184424308970E-002  0.10883022946404457        0.0000000000000000     
   7.0038455526103466E-002  0.11562313028460411        0.0000000000000000     
   7.1826403023096355E-002  0.12254962938994174        0.0000000000000000     
   7.3532026915287638E-002  0.12960972678005747        0.0000000000000000     
   7.5155327202677327E-002  0.13680342245495131        0.0000000000000000     
   6.2186529933843868E-002  0.10828073271780575        0.0000000000000000     
   6.3918139390808398E-002  0.11509688835027232        0.0000000000000000     
   6.5572290600363903E-002  0.12204665556107651        0.0000000000000000     
   6.7148983562510395E-002  0.12913003435021839        0.0000000000000000     
   6.8648218277247874E-002  0.13634702471769783        0.0000000000000000     
   9.5728142692650231E-002  0.13839870035387897        0.0000000000000000     
   9.7639207197287331E-002  0.14563537050646216        0.0000000000000000     
   9.9459896312557070E-002  0.15298168679005497        0.0000000000000000     
  0.10119021003845943       0.16043764920465733        0.0000000000000000     
  0.10283014837499441       0.16800325775026931        0.0000000000000000     
   8.8695289410378519E-002  0.13782926027304188        0.0000000000000000     
   9.0482698522718868E-002  0.14509332369561717        0.0000000000000000     
   9.2184902281474315E-002  0.15246647339834724        0.0000000000000000     
   9.3801900686644804E-002  0.15994870938123210        0.0000000000000000     
   9.5333693738230418E-002  0.16754003164427164        0.0000000000000000     
   8.1837684247054218E-002  0.13729750097339932        0.0000000000000000     
   8.3502851850680890E-002  0.14458765219182698        0.0000000000000000     
   8.5087740226183206E-002  0.15198663346197777        0.0000000000000000     
   8.6592349373561139E-002  0.15949444478385169        0.0000000000000000     
   8.8016679292814731E-002  0.16711108615744874        0.0000000000000000     
   7.5155327202677327E-002  0.13680342245495131        0.0000000000000000     
   7.6699667181173395E-002  0.14411835599509160        0.0000000000000000     
   7.8168410146683742E-002  0.15154216698094655        0.0000000000000000     
   7.9561556099208397E-002  0.15907485541251623        0.0000000000000000     
   8.0879105038747373E-002  0.16671642128980060        0.0000000000000000     
   6.8648218277247874E-002  0.13634702471769783        0.0000000000000000     
   7.0073144514196370E-002  0.14368543510541093        0.0000000000000000     
   7.1426912042975951E-002  0.15113307395525349        0.0000000000000000     
   7.2709520863586591E-002  0.15868994126722560        0.0000000000000000     
   7.3920970976028288E-002  0.16635603704132726        0.0000000000000000     
  0.10283014837499441       0.16800325775026931        0.0000000000000000     
  0.10438107985879258       0.17566871396377778        0.0000000000000000     
  0.10584437302648454       0.18342421938206971        0.0000000000000000     
  0.10722002787807031       0.19126977400514514        0.0000000000000000     
  0.10850804441354987       0.19920537783300396        0.0000000000000000     
   9.5333693738230418E-002  0.16754003164427164        0.0000000000000000     
   9.6780842140547052E-002  0.17523114860035879        0.0000000000000000     
   9.8143906597910738E-002  0.18301276866238642        0.0000000000000000     
   9.9422887110321420E-002  0.19088489183035454        0.0000000000000000     
  0.10061778367777915       0.19884751810426307        0.0000000000000000     
   8.8016679292814731E-002  0.16711108615744874        0.0000000000000000     
   8.9360497357685059E-002  0.17482744210939233        0.0000000000000000     
   9.0623570941913173E-002  0.18263439716630592        0.0000000000000000     
   9.1805900045499156E-002  0.19053195132818948        0.0000000000000000     
   9.2907484668442938E-002  0.19852010459504302        0.0000000000000000     
   8.0879105038747373E-002  0.16671642128980060        0.0000000000000000     
   8.2120045510206560E-002  0.17445759449087839        0.0000000000000000     
   8.3283366058491973E-002  0.18228910489382819        0.0000000000000000     
   8.4369066683603527E-002  0.19021095249865003        0.0000000000000000     
   8.5377147385541308E-002  0.19822313730534383        0.0000000000000000     
   7.3920970976028288E-002  0.16635603704132726        0.0000000000000000     
   7.5059486598111597E-002  0.17412160574481694        0.0000000000000000     
   7.6123291947647012E-002  0.18197689184495328        0.0000000000000000     
   7.7112387024634563E-002  0.18992189534173612        0.0000000000000000     
   7.8026771829074207E-002  0.19795661623516558        0.0000000000000000     
  0.10850804441354987       0.19920537783300396        0.0000000000000000     
  0.10971474942320375       0.20722663403835126        0.0000000000000000     
  0.11084646969731246       0.21532914579389190        0.0000000000000000     
  0.11190320523587603       0.22351291309962593        0.0000000000000000     
  0.11288495603889442       0.23177793595555335        0.0000000000000000     
  0.10061778367777915       0.19884751810426307        0.0000000000000000     
  0.10173414009964570       0.20689399091094579        0.0000000000000000     
  0.10277750017528288       0.21501765367723644        0.0000000000000000     
  0.10374786390469071       0.22321850640313501        0.0000000000000000     
  0.10464523128786915       0.23149654908864140        0.0000000000000000     
   9.2907484668442938E-002  0.19852010459504302        0.0000000000000000     
   9.3932668918807152E-002  0.20659097036122032        0.0000000000000000     
   9.4885796904654304E-002  0.21473666202107508        0.0000000000000000     
   9.5766868625984450E-002  0.22295717957460734        0.0000000000000000     
   9.6575884082797589E-002  0.23125252302181706        0.0000000000000000     
   8.5377147385541308E-002  0.19822313730534383        0.0000000000000000     
   8.6310335880688108E-002  0.20631757238917481        0.0000000000000000     
   8.7171359885426750E-002  0.21448617082540788        0.0000000000000000     
   8.7960219399757289E-002  0.22272893261404303        0.0000000000000000     
   8.8676914423679670E-002  0.23104585775508035        0.0000000000000000     
   7.8026771829074207E-002  0.19795661623516558        0.0000000000000000     
   7.8867140985288575E-002  0.20607379699480924        0.0000000000000000     
   7.9634189117600257E-002  0.21426618009023476        0.0000000000000000     
   8.0327916226009211E-002  0.22253376552144208        0.0000000000000000     
   8.0948322310515464E-002  0.23087655328843126        0.0000000000000000     
  0.11288495603889442       0.23177793595555335        0.0000000000000000     
  0.11381969035247518       0.24014111555047626        0.0000000000000000     
  0.11473537642272581       0.24861935307319691        0.0000000000000000     
  0.11563201424964629       0.25721264852371523        0.0000000000000000     
  0.11650960383323666       0.26592100190203122        0.0000000000000000     
  0.10464523128786915       0.23149654908864140        0.0000000000000000     
  0.10547453978683012       0.23987550848640077        0.0000000000000000     
  0.10624072686358541       0.24837911134905810        0.0000000000000000     
  0.10694379251813504       0.25700735767661348        0.0000000000000000     
  0.10758373675047903       0.26576024746906673        0.0000000000000000     
   9.6575884082797589E-002  0.23125252302181706        0.0000000000000000     
   9.7303677793471127E-002  0.23964932400614899        0.0000000000000000     
   9.7941084276382553E-002  0.24817421417104782        0.0000000000000000     
   9.8488103531531868E-002  0.25682719351651356        0.0000000000000000     
   9.8944735558919056E-002  0.26560826204254623        0.0000000000000000     
   8.8676914423679670E-002  0.23104585775508035        0.0000000000000000     
   8.9307104372398249E-002  0.23946256210972094        0.0000000000000000     
   8.9836448661117285E-002  0.24800466153916609        0.0000000000000000     
   9.0264947289836805E-002  0.25667215604341564        0.0000000000000000     
   9.0592600258556782E-002  0.26546504562246970        0.0000000000000000     
   8.0948322310515464E-002  0.23087655328843126        0.0000000000000000     
   8.1484819523611460E-002  0.23931522279711667        0.0000000000000000     
   8.1926820017789559E-002  0.24787045345341280        0.0000000000000000     
   8.2274323793049817E-002  0.25654224525731961        0.0000000000000000     
   8.2527330849392219E-002  0.26533059820883720        0.0000000000000000     
  0.11650960383323666       0.26592100190203122        0.0000000000000000     
  0.11730851372839660       0.27490886640761908        0.0000000000000000     
  0.11796911249002577       0.28434069523995298        0.0000000000000000     
  0.11849140011812416       0.29421648839903292        0.0000000000000000     
  0.11887537661269180       0.30453624588485884        0.0000000000000000     
  0.10758373675047903       0.26576024746906673        0.0000000000000000     
  0.10814158406556384       0.27476982661054061        0.0000000000000000     
  0.10859835896833604       0.28416814098515775        0.0000000000000000     
  0.10895406145879559       0.29395519059291819        0.0000000000000000     
  0.10920869153694249       0.30413097543382184        0.0000000000000000     
   9.8944735558919056E-002  0.26560826204254623        0.0000000000000000     
   9.9321995588681308E-002  0.27461565376875746        0.0000000000000000     
   9.9630898850955718E-002  0.28394760271475894        0.0000000000000000     
   9.9871445345742341E-002  0.29360410888055066        0.0000000000000000     
  0.10004363507304118       0.30358517226613269        0.0000000000000000     
   9.0592600258556782E-002  0.26546504562246970        0.0000000000000000     
   9.0849748297748903E-002  0.27444634788226957        0.0000000000000000     
   9.1066732137884812E-002  0.28367908042875645        0.0000000000000000     
   9.1243551778964455E-002  0.29316324326193044        0.0000000000000000     
   9.1380207220987872E-002  0.30289883638179155        0.0000000000000000     
   8.2527330849392219E-002  0.26533059820883720        0.0000000000000000     
   8.2724842192766698E-002  0.27426190895107694        0.0000000000000000     
   8.2905858829123269E-002  0.28336257412715032        0.0000000000000000     
   8.3070380758461876E-002  0.29263259373705747        0.0000000000000000     
   8.3218407980782574E-002  0.30207196778079826        0.0000000000000000     
   4.5758283659314364E-002   5.9515275100828227E-002   0.0000000000000000     
   4.8089509258868512E-002   6.5001296586181714E-002   0.0000000000000000     
   5.0336136051950857E-002   7.0668135688324515E-002   0.0000000000000000     
   5.2498164038561404E-002   7.6515792407256616E-002   0.0000000000000000     
   5.4575593218700147E-002   8.2544266742978045E-002   0.0000000000000000     
   4.1041169903011279E-002   5.8837777727372823E-002   0.0000000000000000     
   4.3256887488806878E-002   6.4346981115093543E-002   0.0000000000000000     
   4.5378469079347804E-002   7.0036200232799065E-002   0.0000000000000000     
   4.7405914674634043E-002   7.5905435080489400E-002   0.0000000000000000     
   4.9339224274665590E-002   8.1954685658164550E-002   0.0000000000000000     
   3.6666832403068200E-002   5.8221053531811853E-002   0.0000000000000000     
   3.8716193807778972E-002   6.3749959664724909E-002   0.0000000000000000     
   4.0672631956876634E-002   6.9458730702395333E-002   0.0000000000000000     
   4.2536146850361160E-002   7.5347366644823111E-002   0.0000000000000000     
   4.4306738488232578E-002   8.1415867492008229E-002   0.0000000000000000     
   3.2635271159485134E-002   5.7665102514145271E-002   0.0000000000000000     
   3.4467428215784801E-002   6.3210232235075811E-002   0.0000000000000000     
   3.6218624684537348E-002   6.8935727097113292E-002   0.0000000000000000     
   3.7888860565742789E-002   7.4841587100257762E-002   0.0000000000000000     
   3.9478135859401103E-002   8.0927812244509151E-002   0.0000000000000000     
   2.8946486172262073E-002   5.7169924674373117E-002   0.0000000000000000     
   3.0510590712824349E-002   6.2727798826146264E-002   0.0000000000000000     
   3.2016447262329953E-002   6.8467189416953012E-002   0.0000000000000000     
   3.3464055820778896E-002   7.4388096446793325E-002   0.0000000000000000     
   3.4853416388171167E-002   8.0490519915667275E-002   0.0000000000000000     
   5.4575593218700147E-002   8.2544266742978045E-002   0.0000000000000000     
   5.6577624096073746E-002   8.8741958224491851E-002   0.0000000000000000     
   5.8513457174388911E-002   9.5097266380801057E-002   0.0000000000000000     
   6.0383092453645607E-002  0.10161019121190570        0.0000000000000000     
   6.2186529933843868E-002  0.10828073271780575        0.0000000000000000     
   4.9339224274665590E-002   8.1954685658164550E-002   0.0000000000000000     
   5.1193352463091563E-002   8.8172920611345504E-002   0.0000000000000000     
   5.2983253823561047E-002   9.4549108585553307E-002   0.0000000000000000     
   5.4708928356074049E-002  0.10108324958078790        0.0000000000000000     
   5.6370376060630577E-002  0.10777534359704936        0.0000000000000000     
   4.4306738488232578E-002   8.1415867492008229E-002   0.0000000000000000     
   4.6000823141002338E-002   8.7653381403443087E-002   0.0000000000000000     
   4.7634817079181907E-002   9.4049056538619932E-002   0.0000000000000000     
   4.9208720302771285E-002  0.10060289289753886        0.0000000000000000     
   5.0722532811770478E-002  0.10731489048019979        0.0000000000000000     
   3.9478135859401103E-002   8.0927812244509151E-002   0.0000000000000000     
   4.1000036129806072E-002   8.7183340600784545E-002   0.0000000000000000     
   4.2468146941251478E-002   9.3597110240001016E-002   0.0000000000000000     
   4.3882468293737299E-002  0.10016912116215854        0.0000000000000000     
   4.5243000187263543E-002  0.10689937336725708        0.0000000000000000     
   3.4853416388171167E-002   8.0490519915667275E-002   0.0000000000000000     
   3.6190991429502786E-002   8.6762798203369962E-002   0.0000000000000000     
   3.7483243409769766E-002   9.3193269689696503E-002   0.0000000000000000     
   3.8730172328972100E-002   9.9781934374646927E-002   0.0000000000000000     
   3.9931778187109801E-002  0.10652879225822122        0.0000000000000000     
   6.2186529933843868E-002  0.10828073271780575        0.0000000000000000     
   6.3918139390808398E-002  0.11509688835027232        0.0000000000000000     
   6.5572290600363903E-002  0.12204665556107651        0.0000000000000000     
   6.7148983562510395E-002  0.12913003435021839        0.0000000000000000     
   6.8648218277247874E-002  0.13634702471769783        0.0000000000000000     
   5.6370376060630577E-002  0.10777534359704936        0.0000000000000000     
   5.7963396084775208E-002  0.11461324900404656        0.0000000000000000     
   5.9483787576052542E-002  0.12158482417148846        0.0000000000000000     
   6.0931550534462579E-002  0.12869006909937503        0.0000000000000000     
   6.2306684960005299E-002  0.13592898378770629        0.0000000000000000     
   5.0722532811770478E-002  0.10731489048019979        0.0000000000000000     
   5.2172765796074702E-002  0.11417289195177655        0.0000000000000000     
   5.3555930445579228E-002  0.12116473997744280        0.0000000000000000     
   5.4872026760284028E-002  0.12829043455719863        0.0000000000000000     
   5.6121054740189129E-002  0.13554997569104396        0.0000000000000000     
   4.5243000187263543E-002  0.10689937336725708        0.0000000000000000     
   4.6546248524706874E-002  0.11377581719346226        0.0000000000000000     
   4.7788719208943939E-002  0.12078640297893962        0.0000000000000000     
   4.8970412239974774E-002  0.12793113072368917        0.0000000000000000     
   5.0091327617799331E-002  0.13521000042771089        0.0000000000000000     
   3.9931778187109801E-002  0.10652879225822122        0.0000000000000000     
   4.1083844270671716E-002  0.11342202472910375        0.0000000000000000     
   4.2182153866146717E-002  0.12044981317597891        0.0000000000000000     
   4.3226706973534784E-002  0.12761215759884667        0.0000000000000000     
   4.4217503592835931E-002  0.13490905799770705        0.0000000000000000     
   6.8648218277247874E-002  0.13634702471769783        0.0000000000000000     
   7.0073144514196370E-002  0.14368543510541093        0.0000000000000000     
   7.1426912042975951E-002  0.15113307395525349        0.0000000000000000     
   7.2709520863586591E-002  0.15868994126722560        0.0000000000000000     
   7.3920970976028288E-002  0.16635603704132726        0.0000000000000000     
   6.2306684960005299E-002  0.13592898378770629        0.0000000000000000     
   6.3612155996241398E-002  0.14328958106397599        0.0000000000000000     
   6.4850928786731515E-002  0.15075987375567790        0.0000000000000000     
   6.6023003331475622E-002  0.15833986186281201        0.0000000000000000     
   6.7128379630473800E-002  0.16602954538537831        0.0000000000000000     
   5.6121054740189129E-002  0.13554997569104396        0.0000000000000000     
   5.7305573773799995E-002  0.14293148541197775        0.0000000000000000     
   5.8428143249622123E-002  0.15042308575299893        0.0000000000000000     
   5.9488763167655501E-002  0.15802477671410747        0.0000000000000000     
   6.0487433527900147E-002  0.16573655829530340        0.0000000000000000     
   5.0091327617799331E-002  0.13521000042771089        0.0000000000000000     
   5.1153397846872159E-002  0.14261114814941625        0.0000000000000000     
   5.2158555431647768E-002  0.15012270994721663        0.0000000000000000     
   5.3106800372126152E-002  0.15774468582111204        0.0000000000000000     
   5.3998132668307330E-002  0.16547707577110254        0.0000000000000000     
   4.4217503592835931E-002  0.13490905799770705        0.0000000000000000     
   4.5155628215457905E-002  0.14232856927629139        0.0000000000000000     
   4.6042165332808471E-002  0.14985874633833093        0.0000000000000000     
   4.6877114944887610E-002  0.15749958918382570        0.0000000000000000     
   4.7660477051695349E-002  0.16525109781277569        0.0000000000000000     
   7.3920970976028288E-002  0.16635603704132726        0.0000000000000000     
   7.5059486598111597E-002  0.17412160574481694        0.0000000000000000     
   7.6123291947647012E-002  0.18197689184495328        0.0000000000000000     
   7.7112387024634563E-002  0.18992189534173612        0.0000000000000000     
   7.8026771829074207E-002  0.19795661623516558        0.0000000000000000     
   6.7128379630473800E-002  0.16602954538537831        0.0000000000000000     
   6.8164682513524949E-002  0.17381860163396776        0.0000000000000000     
   6.9129536810428049E-002  0.18169670791917111        0.0000000000000000     
   7.0022942521183115E-002  0.18966386424098852        0.0000000000000000     
   7.0844899645790133E-002  0.19772007059941996        0.0000000000000000     
   6.0487433527900147E-002  0.16573655829530340        0.0000000000000000     
   6.1421495148571439E-002  0.17354770792109028        0.0000000000000000     
   6.2288288847884780E-002  0.18144750301597187        0.0000000000000000     
   6.3087814625840163E-002  0.18943594357994800        0.0000000000000000     
   6.3820072482437568E-002  0.19751302961301878        0.0000000000000000     
   5.3998132668307330E-002  0.16547707577110254        0.0000000000000000     
   5.4829924503251075E-002  0.17330892460618477        0.0000000000000000     
   5.5599548060017191E-002  0.18122927713535544        0.0000000000000000     
   5.6307003338605673E-002  0.18923813335861453        0.0000000000000000     
   5.6952290339016526E-002  0.19733549327596206        0.0000000000000000     
   4.7660477051695349E-002  0.16525109781277569        0.0000000000000000     
   4.8389970577563848E-002  0.17310225168925106        0.0000000000000000     
   4.9063314446825275E-002  0.18104203027732185        0.0000000000000000     
   4.9680508659479657E-002  0.18907043357698808        0.0000000000000000     
   5.0241553215526993E-002  0.19718746158824979        0.0000000000000000     
   7.8026771829074207E-002  0.19795661623516558        0.0000000000000000     
   7.8867140985288575E-002  0.20607379699480924        0.0000000000000000     
   7.9634189117600257E-002  0.21426618009023476        0.0000000000000000     
   8.0327916226009211E-002  0.22253376552144208        0.0000000000000000     
   8.0948322310515464E-002  0.23087655328843126        0.0000000000000000     
   7.0844899645790133E-002  0.19772007059941996        0.0000000000000000     
   7.1594238653507558E-002  0.20585900009296826        0.0000000000000000     
   7.2269790013593876E-002  0.21407432582013630        0.0000000000000000     
   7.2871553726049088E-002  0.22236604778092406        0.0000000000000000     
   7.3399529790873164E-002  0.23073416597533153        0.0000000000000000     
   6.3820072482437568E-002  0.19751302961301878        0.0000000000000000     
   6.4482783306244101E-002  0.20567253759849635        0.0000000000000000     
   6.5073667985826866E-002  0.21390824401969294        0.0000000000000000     
   6.5592726521185848E-002  0.22222014887660851        0.0000000000000000     
   6.6039958912321034E-002  0.23060825216924302        0.0000000000000000     
   5.6952290339016526E-002  0.19733549327596206        0.0000000000000000     
   5.7532774943498205E-002  0.20551440951139363        0.0000000000000000     
   5.8045823034299178E-002  0.21376793468890470        0.0000000000000000     
   5.8491434611419459E-002  0.22209606880849542        0.0000000000000000     
   5.8869609674859033E-002  0.23049881187016569        0.0000000000000000     
   5.0241553215526993E-002  0.19718746158824979        0.0000000000000000     
   5.0744213565269848E-002  0.20538461583165993        0.0000000000000000     
   5.1186255159010832E-002  0.21365339782777162        0.0000000000000000     
   5.1567677996749960E-002  0.22199380757658482        0.0000000000000000     
   5.1888482078487203E-002  0.23040584507809955        0.0000000000000000     
   8.0948322310515464E-002  0.23087655328843126        0.0000000000000000     
   8.1484819523611460E-002  0.23931522279711667        0.0000000000000000     
   8.1926820017789559E-002  0.24787045345341280        0.0000000000000000     
   8.2274323793049817E-002  0.25654224525731961        0.0000000000000000     
   8.2527330849392219E-002  0.26533059820883720        0.0000000000000000     
   7.3399529790873164E-002  0.23073416597533153        0.0000000000000000     
   7.3850459563757534E-002  0.23919237117967648        0.0000000000000000     
   7.4221084400393558E-002  0.24775435417027647        0.0000000000000000     
   7.4511404300781264E-002  0.25642011494713157        0.0000000000000000     
   7.4721419264920638E-002  0.26518965351024171        0.0000000000000000     
   6.6039958912321034E-002  0.23060825216924302        0.0000000000000000     
   6.6417660809483262E-002  0.23907907236874062        0.0000000000000000     
   6.6728127862923398E-002  0.24763912794624537        0.0000000000000000     
   6.6971360072641428E-002  0.25628841890175730        0.0000000000000000     
   6.7147357438637367E-002  0.26502694523527631        0.0000000000000000     
   5.8869609674859033E-002  0.23049881187016569        0.0000000000000000     
   5.9186423260788663E-002  0.23897532636430921        0.0000000000000000     
   5.9447950405379098E-002  0.24752477478131960        0.0000000000000000     
   5.9654191108630350E-002  0.25614715712119690        0.0000000000000000     
   5.9805145370542413E-002  0.26484247338394107        0.0000000000000000     
   5.1888482078487203E-002  0.23040584507809955        0.0000000000000000     
   5.2156746917673732E-002  0.23888113316638213        0.0000000000000000     
   5.2380552027760666E-002  0.24741129467549910        0.0000000000000000     
   5.2559897408748009E-002  0.25599632960545032        0.0000000000000000     
   5.2694783060635769E-002  0.26463623795623581        0.0000000000000000     
   8.2527330849392219E-002  0.26533059820883720        0.0000000000000000     
   8.2724842192766698E-002  0.27426190895107694        0.0000000000000000     
   8.2905858829123269E-002  0.28336257412715032        0.0000000000000000     
   8.3070380758461876E-002  0.29263259373705747        0.0000000000000000     
   8.3218407980782574E-002  0.30207196778079826        0.0000000000000000     
   7.4721419264920638E-002  0.26518965351024171        0.0000000000000000     
   7.4892116081979987E-002  0.27405664886061576        0.0000000000000000     
   7.5064481541127631E-002  0.28301477999926239        0.0000000000000000     
   7.5238515642363557E-002  0.29206404692618165        0.0000000000000000     
   7.5414218385687792E-002  0.30120444964137355        0.0000000000000000     
   6.7147357438637367E-002  0.26502694523527631        0.0000000000000000     
   6.7296408773634075E-002  0.27382487949632223        0.0000000000000000     
   6.7458802890354400E-002  0.28265239423441441        0.0000000000000000     
   6.7634539788798381E-002  0.29150948944955291        0.0000000000000000     
   6.7823619468966007E-002  0.30039616514173789        0.0000000000000000     
   5.9805145370542413E-002  0.26484247338394107        0.0000000000000000     
   5.9937720267728929E-002  0.27356660085819617        0.0000000000000000     
   6.0088822876803574E-002  0.28227541683260626        0.0000000000000000     
   6.0258453197766342E-002  0.29096892130717134        0.0000000000000000     
   6.0446611230617224E-002  0.29964711428189145        0.0000000000000000     
   5.2694783060635769E-002  0.26463623795623581        0.0000000000000000     
   5.2816050564264597E-002  0.27328181294623771        0.0000000000000000     
   5.2954541500475148E-002  0.28188384779383807        0.0000000000000000     
   5.3110255869267431E-002  0.29044234249903683        0.0000000000000000     
   5.3283193670641452E-002  0.29895729706183416        0.0000000000000000     
   2.8946486172262073E-002   5.7169924674373117E-002   0.0000000000000000     
   3.0510590712824349E-002   6.2727798826146264E-002   0.0000000000000000     
   3.2016447262329953E-002   6.8467189416953012E-002   0.0000000000000000     
   3.3464055820778896E-002   7.4388096446793325E-002   0.0000000000000000     
   3.4853416388171167E-002   8.0490519915667275E-002   0.0000000000000000     
   2.5374570505324510E-002   5.6734489363474430E-002   0.0000000000000000     
   2.6669709350381408E-002   6.2302718381915159E-002   0.0000000000000000     
   2.7929500394650163E-002   6.8053805806279261E-002   0.0000000000000000     
   2.9153943638130765E-002   7.3987751636566748E-002   0.0000000000000000     
   3.0343039080823225E-002   8.0104555872777594E-002   0.0000000000000000     
   2.1693617222597918E-002   5.6357765932428264E-002   0.0000000000000000     
   2.2768812179939760E-002   6.1935049846361417E-002   0.0000000000000000     
   2.3821184785893675E-002   6.7696264409456933E-002   0.0000000000000000     
   2.4850735040459666E-002   7.3641409621714823E-002   0.0000000000000000     
   2.5857462943637732E-002   7.9770485483135076E-002   0.0000000000000000     
   1.7903626324082305E-002   5.6039754381234638E-002   0.0000000000000000     
   1.8807899201499403E-002   6.1624793219485052E-002   0.0000000000000000     
   1.9691500436060501E-002   6.7394565226486042E-002   0.0000000000000000     
   2.0554430027765601E-002   7.3349070402237579E-002   0.0000000000000000     
   2.1396687976614686E-002   7.9488308746739691E-002   0.0000000000000000     
   1.4004597809777662E-002   5.5780454709893526E-002   0.0000000000000000     
   1.4786970415060339E-002   6.1371948501286057E-002   0.0000000000000000     
   1.5540447345150636E-002   6.7148708257366560E-002   0.0000000000000000     
   1.6265028600048553E-002   7.3110733978135042E-002   0.0000000000000000     
   1.6960714179754092E-002   7.9258025663591483E-002   0.0000000000000000     
   3.4853416388171167E-002   8.0490519915667275E-002   0.0000000000000000     
   3.6190991429502786E-002   8.6762798203369962E-002   0.0000000000000000     
   3.7483243409769766E-002   9.3193269689696503E-002   0.0000000000000000     
   3.8730172328972100E-002   9.9781934374646927E-002   0.0000000000000000     
   3.9931778187109801E-002  0.10652879225822122        0.0000000000000000     
   3.0343039080823225E-002   8.0104555872777594E-002   0.0000000000000000     
   3.1496072884301139E-002   8.6391858017428796E-002   0.0000000000000000     
   3.2612331210138103E-002   9.2837297573037381E-002   0.0000000000000000     
   3.3691814058334123E-002   9.9440874539603333E-002   0.0000000000000000     
   3.4734521428889185E-002  0.10620258891712661        0.0000000000000000     
   2.5857462943637732E-002   7.9770485483135076E-002   0.0000000000000000     
   2.6837664338409804E-002   8.6070623849190661E-002   0.0000000000000000     
   2.7787635067757815E-002   9.2528956575354662E-002   0.0000000000000000     
   2.8707375131681763E-002   9.9145483661627010E-002   0.0000000000000000     
   2.9596884530181652E-002  0.10592020510800776        0.0000000000000000     
   2.1396687976614686E-002   7.9488308746739691E-002   0.0000000000000000     
   2.2215765791828788E-002   8.5799095698655556E-002   0.0000000000000000     
   2.3009154982628906E-002   9.2268246696648293E-002   0.0000000000000000     
   2.3776855549015041E-002   9.8895761740718000E-002   0.0000000000000000     
   2.4518867490987192E-002  0.10568164083086462        0.0000000000000000     
   1.6960714179754092E-002   7.9258025663591483E-002   0.0000000000000000     
   1.7630377244558088E-002   8.5577273565823411E-002   0.0000000000000000     
   1.8276890954751369E-002   9.2055167936918356E-002   0.0000000000000000     
   1.8900255310333944E-002   9.8691708776876289E-002   0.0000000000000000     
   1.9500470311305813E-002  0.10548689608569722        0.0000000000000000     
   3.9931778187109801E-002  0.10652879225822122        0.0000000000000000     
   4.1083844270671716E-002  0.11342202472910375        0.0000000000000000     
   4.2182153866146717E-002  0.12044981317597891        0.0000000000000000     
   4.3226706973534784E-002  0.12761215759884667        0.0000000000000000     
   4.4217503592835931E-002  0.13490905799770705        0.0000000000000000     
   3.4734521428889185E-002  0.10620258891712661        0.0000000000000000     
   3.5735539209076954E-002  0.11311087206925037        0.0000000000000000     
   3.6689953286171070E-002  0.12015415535961770        0.0000000000000000     
   3.7597763660171521E-002  0.12733243878822859        0.0000000000000000     
   3.8458970331078327E-002  0.13464572235508299        0.0000000000000000     
   2.9596884530181652E-002  0.10592020510800776        0.0000000000000000     
   3.0451319515030308E-002  0.11284171672445155        0.0000000000000000     
   3.1265836338000570E-002  0.11989861432091303        0.0000000000000000     
   3.2040434999092440E-002  0.12709089789739225        0.0000000000000000     
   3.2775115498305911E-002  0.13441856745388919        0.0000000000000000     
   2.4518867490987192E-002  0.10568164083086462        0.0000000000000000     
   2.5231185188531787E-002  0.11261455869470724        0.0000000000000000     
   2.5909803021635230E-002  0.11968319005986498        0.0000000000000000     
   2.6554720990297542E-002  0.12688753492633778        0.0000000000000000     
   2.7165939094518705E-002  0.13422759329412570        0.0000000000000000     
   1.9500470311305813E-002  0.10548689608569722        0.0000000000000000     
   2.0075136229581375E-002  0.11242939798001751        0.0000000000000000     
   2.0621853337075044E-002  0.11950788257647348        0.0000000000000000     
   2.1140621633786816E-002  0.12672234987506514        0.0000000000000000     
   2.1631441119716700E-002  0.13407279987579246        0.0000000000000000     
   4.4217503592835931E-002  0.13490905799770705        0.0000000000000000     
   4.5155628215457905E-002  0.14232856927629139        0.0000000000000000     
   4.6042165332808471E-002  0.14985874633833093        0.0000000000000000     
   4.6877114944887610E-002  0.15749958918382570        0.0000000000000000     
   4.7660477051695349E-002  0.16525109781277569        0.0000000000000000     
   3.8458970331078327E-002  0.13464572235508299        0.0000000000000000     
   3.9273895570994879E-002  0.14208194778530325        0.0000000000000000     
   4.0042861652024600E-002  0.14962905680401170        0.0000000000000000     
   4.0765868574167467E-002  0.15728704941120825        0.0000000000000000     
   4.1442916337423516E-002  0.16505592560689294        0.0000000000000000     
   3.2775115498305911E-002  0.13441856745388919        0.0000000000000000     
   3.3469830604920696E-002  0.14186948266915200        0.0000000000000000     
   3.4124533088216488E-002  0.14943150322192877        0.0000000000000000     
   3.4739222948193302E-002  0.15710462911221951        0.0000000000000000     
   3.5313900184851123E-002  0.16488886034002428        0.0000000000000000     
   2.7165939094518705E-002  0.13422759329412570        0.0000000000000000     
   2.7743433317235368E-002  0.14169117392783750        0.0000000000000000     
   2.8287179641384167E-002  0.14926608559208215        0.0000000000000000     
   2.8797178066965107E-002  0.15695232828685954        0.0000000000000000     
   2.9273428593978176E-002  0.16474990201216971        0.0000000000000000     
   2.1631441119716700E-002  0.13407279987579246        0.0000000000000000     
   2.2094703707938895E-002  0.14154702156135987        0.0000000000000000     
   2.2530801311527630E-002  0.14913280391447184        0.0000000000000000     
   2.2939733930482889E-002  0.15683014693512828        0.0000000000000000     
   2.3321501564804684E-002  0.16463905062332923        0.0000000000000000     
   4.7660477051695349E-002  0.16525109781277569        0.0000000000000000     
   4.8389970577563848E-002  0.17310225168925106        0.0000000000000000     
   4.9063314446825275E-002  0.18104203027732185        0.0000000000000000     
   4.9680508659479657E-002  0.18907043357698808        0.0000000000000000     
   5.0241553215526993E-002  0.19718746158824979        0.0000000000000000     
   4.1442916337423516E-002  0.16505592560689294        0.0000000000000000     
   4.2072143859178616E-002  0.17292463334111813        0.0000000000000000     
   4.2651690056818709E-002  0.18088212056393618        0.0000000000000000     
   4.3181554930343778E-002  0.18892838727534708        0.0000000000000000     
   4.3661738479753832E-002  0.19706343347535088        0.0000000000000000     
   3.5313900184851123E-002  0.16488886034002428        0.0000000000000000     
   3.5846954835764291E-002  0.17277301373261497        0.0000000000000000     
   3.6336776938507148E-002  0.18074590611726349        0.0000000000000000     
   3.6783366493079700E-002  0.18880753749396995        0.0000000000000000     
   3.7186723499481933E-002  0.19695790786273429        0.0000000000000000     
   2.9273428593978176E-002  0.16474990201216971        0.0000000000000000     
   2.9714403507320849E-002  0.17264739286374153        0.0000000000000000     
   3.0118575091890597E-002  0.18063338693730385        0.0000000000000000     
   3.0485943347687412E-002  0.18870788423285664        0.0000000000000000     
   3.0816508274711291E-002  0.19687088475039993        0.0000000000000000     
   2.3321501564804684E-002  0.16463905062332923        0.0000000000000000     
   2.3674489873848303E-002  0.17254777073449784        0.0000000000000000     
   2.3997084516969046E-002  0.18054456302405716        0.0000000000000000     
   2.4289285494166913E-002  0.18862942749200717        0.0000000000000000     
   2.4551092805441904E-002  0.19680236413834795        0.0000000000000000     
   5.0241553215526993E-002  0.19718746158824979        0.0000000000000000     
   5.0744213565269848E-002  0.20538461583165993        0.0000000000000000     
   5.1186255159010832E-002  0.21365339782777162        0.0000000000000000     
   5.1567677996749960E-002  0.22199380757658482        0.0000000000000000     
   5.1888482078487203E-002  0.23040584507809955        0.0000000000000000     
   4.3661738479753832E-002  0.19706343347535088        0.0000000000000000     
   4.4090767497541969E-002  0.20527685925097028        0.0000000000000000     
   4.4467168776201292E-002  0.21355826468922789        0.0000000000000000     
   4.4790942315731809E-002  0.22190764979012381        0.0000000000000000     
   4.5062088116133527E-002  0.23032501455365806        0.0000000000000000     
   3.7186723499481933E-002  0.19695790786273429        0.0000000000000000     
   3.7546105066297492E-002  0.20518484246099922        0.0000000000000000     
   3.7860768302110014E-002  0.21347616652620763        0.0000000000000000     
   3.8130713206919506E-002  0.22183188005835949        0.0000000000000000     
   3.8355939780725948E-002  0.23025198305745470        0.0000000000000000     
   3.0816508274711291E-002  0.19687088475039993        0.0000000000000000     
   3.1110226271536430E-002  0.20510856546174699        0.0000000000000000     
   3.1367053736737011E-002  0.21340710333871094        0.0000000000000000     
   3.1586990670313037E-002  0.22176649838129173        0.0000000000000000     
   3.1770037072264501E-002  0.23018675058948945        0.0000000000000000     
   2.4551092805441904E-002  0.19680236413834795        0.0000000000000000     
   2.4783131113258770E-002  0.20504802825321344        0.0000000000000000     
   2.4986025080082273E-002  0.21335107512673765        0.0000000000000000     
   2.5159774705912401E-002  0.22171150475892065        0.0000000000000000     
   2.5304379990749165E-002  0.23012931714976242        0.0000000000000000     
   5.1888482078487203E-002  0.23040584507809955        0.0000000000000000     
   5.2156746917673732E-002  0.23888113316638213        0.0000000000000000     
   5.2380552027760666E-002  0.24741129467549910        0.0000000000000000     
   5.2559897408748009E-002  0.25599632960545032        0.0000000000000000     
   5.2694783060635769E-002  0.26463623795623581        0.0000000000000000     
   4.5062088116133527E-002  0.23032501455365806        0.0000000000000000     
   4.5289410835779080E-002  0.23879506442636741        0.0000000000000000     
   4.5481715133041160E-002  0.24730250485478872        0.0000000000000000     
   4.5639001007919747E-002  0.25584733583892200        0.0000000000000000     
   4.5761268460414853E-002  0.26442955737876722        0.0000000000000000     
   3.8355939780725948E-002  0.23025198305745470        0.0000000000000000     
   3.8545194070745338E-002  0.23871569179567287        0.0000000000000000     
   3.8707222124193655E-002  0.24720222254519347        0.0000000000000000     
   3.8842023941070905E-002  0.25571157530601646        0.0000000000000000     
   3.8949599521377061E-002  0.26424375007814183        0.0000000000000000     
   3.1770037072264501E-002  0.23018675058948945        0.0000000000000000     
   3.1924096622572506E-002  0.23864301527429854        0.0000000000000000     
   3.2057073001218156E-002  0.24711044774671326        0.0000000000000000     
   3.2168966208201463E-002  0.25558904800673360        0.0000000000000000     
   3.2259776243522414E-002  0.26407881605435968        0.0000000000000000     
   2.5304379990749165E-002  0.23012931714976242        0.0000000000000000     
   2.5426118491260582E-002  0.23857703486224438        0.0000000000000000     
   2.5531267764114671E-002  0.24702718045934810        0.0000000000000000     
   2.5619827809311446E-002  0.25547975394107353        0.0000000000000000     
   2.5691798626850892E-002  0.26393475530742067        0.0000000000000000     
   5.2694783060635769E-002  0.26463623795623581        0.0000000000000000     
   5.2816050564264597E-002  0.27328181294623771        0.0000000000000000     
   5.2954541500475148E-002  0.28188384779383807        0.0000000000000000     
   5.3110255869267431E-002  0.29044234249903683        0.0000000000000000     
   5.3283193670641452E-002  0.29895729706183416        0.0000000000000000     
   4.5761268460414853E-002  0.26442955737876722        0.0000000000000000     
   4.5872638284594987E-002  0.27299923235580120        0.0000000000000000     
   4.5997231274528670E-002  0.28150642365150064        0.0000000000000000     
   4.6135047430215903E-002  0.28995113126586569        0.0000000000000000     
   4.6286086751656685E-002  0.29833335519889620        0.0000000000000000     
   3.8949599521377061E-002  0.26424375007814183        0.0000000000000000     
   3.9048722050074029E-002  0.27274757568224089        0.0000000000000000     
   3.9158164712123661E-002  0.28117188093898499        0.0000000000000000     
   3.9277927507525956E-002  0.28951666584837399        0.0000000000000000     
   3.9408010436280928E-002  0.29778193041040796        0.0000000000000000     
   3.2259776243522414E-002  0.26407881605435968        0.0000000000000000     
   3.2344301860701717E-002  0.27252684292555690        0.0000000000000000     
   3.2437341813260127E-002  0.28088021965629095        0.0000000000000000     
   3.2538896101197610E-002  0.28913894624656183        0.0000000000000000     
   3.2648964724514173E-002  0.29730302269636949        0.0000000000000000     
   2.5691798626850892E-002  0.26393475530742067        0.0000000000000000     
   2.5759377716478078E-002  0.27233703408574916        0.0000000000000000     
   2.5834762577938063E-002  0.28063143980341870        0.0000000000000000     
   2.5917953211230849E-002  0.28881797246042912        0.0000000000000000     
   2.6008949616356424E-002  0.29689663205678063        0.0000000000000000     
   1.4004597809777662E-002   5.5780454709893526E-002   0.0000000000000000     
   1.4786970415060339E-002   6.1371948501286057E-002   0.0000000000000000     
   1.5540447345150636E-002   6.7148708257366560E-002   0.0000000000000000     
   1.6265028600048553E-002   7.3110733978135042E-002   0.0000000000000000     
   1.6960714179754092E-002   7.9258025663591483E-002   0.0000000000000000     
   1.0164149953298864E-002   5.5579253943757359E-002   0.0000000000000000     
   1.0824582244960360E-002   6.1175827081968046E-002   0.0000000000000000     
   1.1447866288978717E-002   6.6958014377190289E-002   0.0000000000000000     
   1.2034002085353929E-002   7.2925815829424132E-002   0.0000000000000000     
   1.2582989634085998E-002   7.9079231438669531E-002   0.0000000000000000     
   6.5499010282607786E-003   5.5435539108178548E-002   0.0000000000000000     
   7.0392911155372634E-003   6.1035740351734605E-002   0.0000000000000000     
   7.4935980433593723E-003   6.6821804461049031E-002   0.0000000000000000     
   7.9128218117271044E-003   7.2793731436121820E-002   0.0000000000000000     
   8.2969624206404614E-003   7.8951521276952971E-002   0.0000000000000000     
   3.1618510346634082E-003   5.5349310203157087E-002   0.0000000000000000     
   3.4310970267910470E-003   6.0951688310585769E-002   0.0000000000000000     
   3.6776426082926052E-003   6.6740078508942785E-002   0.0000000000000000     
   3.9014877791680815E-003   7.2714480798228093E-002   0.0000000000000000     
   4.1026325394174761E-003   7.8874895178441776E-002   0.0000000000000000     
  -2.7493248996868225E-011   5.5320567228692989E-002   0.0000000000000000     
  -2.1278287508710858E-011   6.0923670958521532E-002   0.0000000000000000     
  -1.6221584622430618E-011   6.6712836520871538E-002   0.0000000000000000     
  -1.2323140392237614E-011   7.2688063915743020E-002   0.0000000000000000     
  -9.5829537881397808E-012   7.8849353143135958E-002   0.0000000000000000     
   1.6960714179754092E-002   7.9258025663591483E-002   0.0000000000000000     
   1.7630377244558088E-002   8.5577273565823411E-002   0.0000000000000000     
   1.8276890954751369E-002   9.2055167936918356E-002   0.0000000000000000     
   1.8900255310333944E-002   9.8691708776876289E-002   0.0000000000000000     
   1.9500470311305813E-002  0.10548689608569722        0.0000000000000000     
   1.2582989634085998E-002   7.9079231438669531E-002   0.0000000000000000     
   1.3103128505589316E-002   8.5404925581988603E-002   0.0000000000000000     
   1.3602718270278258E-002   9.1889562636443406E-002   0.0000000000000000     
   1.4081758928152834E-002   9.8533142602033941E-002   0.0000000000000000     
   1.4540250479213038E-002  0.10533566547876023        0.0000000000000000     
   8.2969624206404614E-003   7.8951521276952971E-002   0.0000000000000000     
   8.6556493839140842E-003   8.5281819878445408E-002   0.0000000000000000     
   8.9985122153626168E-003   9.1771273135502152E-002   0.0000000000000000     
   9.3255509149860576E-003   9.8419881048123103E-002   0.0000000000000000     
   9.6367654827844082E-003  0.10522764361630833        0.0000000000000000     
   4.1026325394174761E-003   7.8874895178441776E-002   0.0000000000000000     
   4.2879398795323950E-003   8.5207956455193870E-002   0.0000000000000000     
   4.4642727900044412E-003   9.1700299434094537E-002   0.0000000000000000     
   4.6316312708336157E-003   9.8351924115143735E-002   0.0000000000000000     
   4.7900153220199193E-003  0.10516283049834151        0.0000000000000000     
  -9.5829537881397808E-012   7.8849353143135958E-002   0.0000000000000000     
  -7.5557526815067666E-012   8.5183335312233960E-002   0.0000000000000000     
  -5.7962648352880008E-012   9.1676641532220590E-002   0.0000000000000000     
  -4.3044895718571258E-012   9.8329271803095850E-002   0.0000000000000000     
  -3.0804274062101733E-012  0.10514122612485975        0.0000000000000000     
   1.9500470311305813E-002  0.10548689608569722        0.0000000000000000     
   2.0075136229581375E-002  0.11242939798001751        0.0000000000000000     
   2.0621853337075044E-002  0.11950788257647348        0.0000000000000000     
   2.1140621633786816E-002  0.12672234987506514        0.0000000000000000     
   2.1631441119716700E-002  0.13407279987579246        0.0000000000000000     
   1.4540250479213038E-002  0.10533566547876023        0.0000000000000000     
   1.4977435508721264E-002  0.11228575617987469        0.0000000000000000     
   1.5392556601939895E-002  0.11937203961862972        0.0000000000000000     
   1.5785613758868940E-002  0.12659451579502534        0.0000000000000000     
   1.6156606979508388E-002  0.13395318470906156        0.0000000000000000     
   9.6367654827844082E-003  0.10522764361630833        0.0000000000000000     
   9.9323458964936280E-003  0.11218315489377113        0.0000000000000000     
   1.0212482133849676E-002  0.11927500893422487        0.0000000000000000     
   1.0477174194852557E-002  0.12650320573766954        0.0000000000000000     
   1.0726422079502267E-002  0.13386774530410514        0.0000000000000000     
   4.7900153220199193E-003  0.10516283049834151        0.0000000000000000     
   4.9398673928984713E-003  0.11212159412170687        0.0000000000000000     
   5.0816299328043909E-003  0.11921679052325893        0.0000000000000000     
   5.2153029417376781E-003  0.12644841970299769        0.0000000000000000     
   5.3408864196983347E-003  0.13381648166092311        0.0000000000000000     
  -3.0804274062101733E-012  0.10514122612485975        0.0000000000000000     
  -2.0642099141099379E-012  0.11210107386368190        0.0000000000000000     
  -1.1959660692340002E-012  0.11919738438573189        0.0000000000000000     
  -4.7569858208779126E-013  0.12643015769100976        0.0000000000000000     
   9.6592872589340573E-014  0.13379939377951550        0.0000000000000000     
   2.1631441119716700E-002  0.13407279987579246        0.0000000000000000     
   2.2094703707938895E-002  0.14154702156135987        0.0000000000000000     
   2.2530801311527630E-002  0.14913280391447184        0.0000000000000000     
   2.2939733930482889E-002  0.15683014693512828        0.0000000000000000     
   2.3321501564804684E-002  0.16463905062332923        0.0000000000000000     
   1.6156606979508388E-002  0.13395318470906156        0.0000000000000000     
   1.6506362898649291E-002  0.14143583165463097        0.0000000000000000     
   1.6835708151082682E-002  0.14903024192562606        0.0000000000000000     
   1.7144642736808560E-002  0.15673641552204687        0.0000000000000000     
   1.7433166655826927E-002  0.16455435244389346        0.0000000000000000     
   1.0726422079502267E-002  0.13386774530410514        0.0000000000000000     
   1.0961132010984543E-002  0.14135641029256266        0.0000000000000000     
   1.1182210212485126E-002  0.14895698336207311        0.0000000000000000     
   1.1389656684004013E-002  0.15666946451263652        0.0000000000000000     
   1.1583471425541204E-002  0.16449385374425293        0.0000000000000000     
   5.3408864196983347E-003  0.13381648166092311        0.0000000000000000     
   5.4590110449446649E-003  0.14130875747515492        0.0000000000000000     
   5.5703074957349687E-003  0.14891302822381300        0.0000000000000000     
   5.6747757720692522E-003  0.15662929390689717        0.0000000000000000     
   5.7724158739475102E-003  0.16445755452440755        0.0000000000000000     
   9.6592872589340573E-014  0.13379939377951550        0.0000000000000000     
   5.2964967481305969E-013  0.14129287320240788        0.0000000000000000     
   8.3221038567338201E-013  0.14889837651084570        0.0000000000000000     
   1.0042757099017197E-012  0.15661590370482886        0.0000000000000000     
   1.0458457017081813E-012  0.16444545478435749        0.0000000000000000     
   2.3321501564804684E-002  0.16463905062332923        0.0000000000000000     
   2.3674489873848303E-002  0.17254777073449784        0.0000000000000000     
   2.3997084516969046E-002  0.18054456302405716        0.0000000000000000     
   2.4289285494166913E-002  0.18862942749200717        0.0000000000000000     
   2.4551092805441904E-002  0.19680236413834795        0.0000000000000000     
   1.7433166655826927E-002  0.16455435244389346        0.0000000000000000     
   1.7699638167305999E-002  0.17247197581998697        0.0000000000000000     
   1.7942415530413987E-002  0.18047720877914863        0.0000000000000000     
   1.8161498745150884E-002  0.18857005132137850        0.0000000000000000     
   1.8356887811516696E-002  0.19675050344667649        0.0000000000000000     
   1.1583471425541204E-002  0.16449385374425293        0.0000000000000000     
   1.1762272619653298E-002  0.17241783659531196        0.0000000000000000     
   1.1924678448896891E-002  0.18042909860420348        0.0000000000000000     
   1.2070688913271985E-002  0.18852763977092740        0.0000000000000000     
   1.2200304012778577E-002  0.19671346009548377        0.0000000000000000     
   5.7724158739475102E-003  0.16445755452440755        0.0000000000000000     
   5.8623932308901981E-003  0.17238535306047278        0.0000000000000000     
   5.9438732724177669E-003  0.18040023249922163        0.0000000000000000     
   6.0168559985302175E-003  0.18850219284065395        0.0000000000000000     
   6.0813414092275482E-003  0.19669123408476991        0.0000000000000000     
   1.0458457017081813E-012  0.16444545478435749        0.0000000000000000     
   1.0166977936626465E-012  0.17237452521546953        0.0000000000000000     
   9.7661006885629842E-013  0.18039061046420313        0.0000000000000000     
   9.2558182255772503E-013  0.18849371053055822        0.0000000000000000     
   8.6361343423768666E-013  0.19668382541453483        0.0000000000000000     
   2.4551092805441904E-002  0.19680236413834795        0.0000000000000000     
   2.4783131113258770E-002  0.20504802825321344        0.0000000000000000     
   2.4986025080082273E-002  0.21335107512673765        0.0000000000000000     
   2.5159774705912401E-002  0.22171150475892065        0.0000000000000000     
   2.5304379990749165E-002  0.23012931714976242        0.0000000000000000     
   1.8356887811516696E-002  0.19675050344667649        0.0000000000000000     
   1.8529657913703212E-002  0.20500194435418684        0.0000000000000000     
   1.8680884235902227E-002  0.21330775324305379        0.0000000000000000     
   1.8810566778113741E-002  0.22166793011327737        0.0000000000000000     
   1.8918705540337751E-002  0.23008247496485756        0.0000000000000000     
   1.2200304012778577E-002  0.19671346009548377        0.0000000000000000     
   1.2314644995108424E-002  0.20496902728345542        0.0000000000000000     
   1.2414833107953287E-002  0.21327680904042515        0.0000000000000000     
   1.2500868351313164E-002  0.22163680536639305        0.0000000000000000     
   1.2572750725188054E-002  0.23004901626135899        0.0000000000000000     
   6.0813414092275482E-003  0.19669123408476991        0.0000000000000000     
   6.1380923574744107E-003  0.20494927704101926        0.0000000000000000     
   6.1878716962354505E-003  0.21325824251885184        0.0000000000000000     
   6.2306794255106712E-003  0.22161813051826770        0.0000000000000000     
   6.2665155453000693E-003  0.23002894103926677        0.0000000000000000     
   8.6361343423768666E-013  0.19668382541453483        0.0000000000000000     
   8.0117184587946699E-013  0.20494269362687823        0.0000000000000000     
   7.4872334894504622E-013  0.21325205367833369        0.0000000000000000     
   7.0626734712322947E-013  0.22161190556890126        0.0000000000000000     
   6.7380346094325638E-013  0.23002224929858089        0.0000000000000000     
   2.5304379990749165E-002  0.23012931714976242        0.0000000000000000     
   2.5426118491260582E-002  0.23857703486224438        0.0000000000000000     
   2.5531267764114671E-002  0.24702718045934810        0.0000000000000000     
   2.5619827809311446E-002  0.25547975394107353        0.0000000000000000     
   2.5691798626850892E-002  0.26393475530742067        0.0000000000000000     
   1.8918705540337751E-002  0.23008247496485756        0.0000000000000000     
   1.9009672230936154E-002  0.23852223154952734        0.0000000000000000     
   1.9087838558270846E-002  0.24695804361901971        0.0000000000000000     
   1.9153204522341819E-002  0.25538991117333470        0.0000000000000000     
   1.9205770123149085E-002  0.26381783421247229        0.0000000000000000     
   1.2572750725188054E-002  0.23004901626135899        0.0000000000000000     
   1.2633170395725821E-002  0.23848308632616425        0.0000000000000000     
   1.2684817529074325E-002  0.24690866016164978        0.0000000000000000     
   1.2727692125233572E-002  0.25532573776781575        0.0000000000000000     
   1.2761794184203559E-002  0.26373431914466205        0.0000000000000000     
   6.2665155453000693E-003  0.23002894103926677        0.0000000000000000     
   6.2966129856295771E-003  0.23845959919215498        0.0000000000000000     
   6.3222046765251221E-003  0.24687903008723830        0.0000000000000000     
   6.3432906179867014E-003  0.25528723372451662        0.0000000000000000     
   6.3598708100143196E-003  0.26368421010398985        0.0000000000000000     
   6.7380346094325638E-013  0.23002224929858089        0.0000000000000000     
   6.4742460524624956E-013  0.23845177014749980        0.0000000000000000     
   6.2322445381485236E-013  0.24686915339578527        0.0000000000000000     
   6.0120482268770370E-013  0.25527439904343729        0.0000000000000000     
   5.8136178163192831E-013  0.26366750709045583        0.0000000000000000     
   2.5691798626850892E-002  0.26393475530742067        0.0000000000000000     
   2.5759377716478078E-002  0.27233703408574916        0.0000000000000000     
   2.5834762577938063E-002  0.28063143980341870        0.0000000000000000     
   2.5917953211230849E-002  0.28881797246042912        0.0000000000000000     
   2.6008949616356424E-002  0.29689663205678063        0.0000000000000000     
   1.9205770123149085E-002  0.26381783421247229        0.0000000000000000     
   1.9255534517996387E-002  0.27218448056455585        0.0000000000000000     
   1.9312496864187477E-002  0.28043251805770841        0.0000000000000000     
   1.9376657161722360E-002  0.28856194669193008        0.0000000000000000     
   1.9448015410601031E-002  0.29657276646722092        0.0000000000000000     
   1.2761794184203559E-002  0.26373431914466205        0.0000000000000000     
   1.2794357165849937E-002  0.27207551376371497        0.0000000000000000     
   1.2832614530038361E-002  0.28029043109650054        0.0000000000000000     
   1.2876566276768827E-002  0.28837907114301881        0.0000000000000000     
   1.2926212406041342E-002  0.29634143390326984        0.0000000000000000     
   6.3598708100143196E-003  0.26368421010398985        0.0000000000000000     
   6.3758456600387344E-003  0.27201013368322663        0.0000000000000000     
   6.3951155754907139E-003  0.28020517891979513        0.0000000000000000     
   6.4176805563702548E-003  0.28826934581369534        0.0000000000000000     
   6.4435406026773579E-003  0.29620263436492733        0.0000000000000000     
   5.8136178163192831E-013  0.26366750709045583        0.0000000000000000     
   5.6277964059769925E-013  0.27198834032309077        0.0000000000000000     
   5.4453815588606513E-013  0.28017676152759202        0.0000000000000000     
   5.2663792380822083E-013  0.28823277070395947        0.0000000000000000     
   5.0907802279231973E-013  0.29615636785219346        0.0000000000000000     
  -2.7493248996868225E-011   5.5320567228692989E-002   0.0000000000000000     
  -2.1278287508710858E-011   6.0923670958521532E-002   0.0000000000000000     
  -1.6221584622430618E-011   6.6712836520871538E-002   0.0000000000000000     
  -1.2323140392237614E-011   7.2688063915743020E-002   0.0000000000000000     
  -9.5829537881397808E-012   7.8849353143135958E-002   0.0000000000000000     
  -3.1618510871869068E-003   5.5349310184548049E-002   0.0000000000000000     
  -3.4310970674115270E-003   6.0951688295826562E-002   0.0000000000000000     
  -3.6776426392493883E-003   6.6740078497454308E-002   0.0000000000000000     
  -3.9014878027004889E-003   7.2714480789431324E-002   0.0000000000000000     
  -4.1026325577648310E-003   7.8874895171757567E-002   0.0000000000000000     
  -6.5499010733952780E-003   5.5435539070484062E-002   0.0000000000000000     
  -7.0392911503494521E-003   6.1035740322785553E-002   0.0000000000000000     
  -7.4935980698569897E-003   6.6821804439310142E-002   0.0000000000000000     
  -7.9128218319178874E-003   7.2793731420057808E-002   0.0000000000000000     
  -8.2969624365321522E-003   7.8951521265028593E-002   0.0000000000000000     
  -1.0164149986118363E-002   5.5579253886501041E-002   0.0000000000000000     
  -1.0824582270092064E-002   6.1175827039398507E-002   0.0000000000000000     
  -1.1447866308044391E-002   6.6958014346439013E-002   0.0000000000000000     
  -1.2034002099975346E-002   7.2925815807622529E-002   0.0000000000000000     
  -1.2582989645884925E-002   7.9079231422949051E-002   0.0000000000000000     
  -1.4004597825356162E-002   5.5780454632598973E-002   0.0000000000000000     
  -1.4786970426639364E-002   6.1371948445665431E-002   0.0000000000000000     
  -1.5540447353811595E-002   6.7148708218840919E-002   0.0000000000000000     
  -1.6265028606872851E-002   7.3110733952125445E-002   0.0000000000000000     
  -1.6960714185823136E-002   7.9258025645518954E-002   0.0000000000000000     
  -9.5829537881397808E-012   7.8849353143135958E-002   0.0000000000000000     
  -7.5557526815067666E-012   8.5183335312233960E-002   0.0000000000000000     
  -5.7962648352880008E-012   9.1676641532220590E-002   0.0000000000000000     
  -4.3044895718571258E-012   9.8329271803095850E-002   0.0000000000000000     
  -3.0804274062101733E-012  0.10514122612485975        0.0000000000000000     
  -4.1026325577648310E-003   7.8874895171757567E-002   0.0000000000000000     
  -4.2879398940597379E-003   8.5207956450158079E-002   0.0000000000000000     
  -4.4642728012025349E-003   9.1700299430357970E-002   0.0000000000000000     
  -4.6316312791932213E-003   9.8351924112357159E-002   0.0000000000000000     
  -4.7900153280318013E-003  0.10516283049615571        0.0000000000000000     
  -8.2969624365321522E-003   7.8951521265028593E-002   0.0000000000000000     
  -8.6556493966889383E-003   8.5281819869558670E-002   0.0000000000000000     
  -8.9985122253774027E-003   9.1771273128984268E-002   0.0000000000000000     
  -9.3255509225975489E-003   9.8419881043305402E-002   0.0000000000000000     
  -9.6367654883493734E-003  0.10522764361252206        0.0000000000000000     
  -1.2582989645884925E-002   7.9079231422949051E-002   0.0000000000000000     
  -1.3103128515443353E-002   8.5404925570435691E-002   0.0000000000000000     
  -1.3602718278320868E-002   9.1889562628099511E-002   0.0000000000000000     
  -1.4081758934517465E-002   9.8533142595940523E-002   0.0000000000000000     
  -1.4540250484033145E-002  0.10533566547395871        0.0000000000000000     
  -1.6960714185823136E-002   7.9258025645518954E-002   0.0000000000000000     
  -1.7630377250322987E-002   8.5577273552789157E-002   0.0000000000000000     
  -1.8276890960032932E-002   9.2055167927703713E-002   0.0000000000000000     
  -1.8900255314952968E-002   9.8691708770262579E-002   0.0000000000000000     
  -1.9500470315083108E-002  0.10548689608046578        0.0000000000000000     
  -3.0804274062101733E-012  0.10514122612485975        0.0000000000000000     
  -2.0642099141099379E-012  0.11210107386368190        0.0000000000000000     
  -1.1959660692340002E-012  0.11919738438573189        0.0000000000000000     
  -4.7569858208779126E-013  0.12643015769100976        0.0000000000000000     
   9.6592872589340573E-014  0.13379939377951550        0.0000000000000000     
  -4.7900153280318013E-003  0.10516283049615571        0.0000000000000000     
  -4.9398673969475006E-003  0.11212159411991755        0.0000000000000000     
  -5.0816299351695467E-003  0.11921679052180663        0.0000000000000000     
  -5.2153029426979438E-003  0.12644841970182294        0.0000000000000000     
  -5.3408864195326842E-003  0.13381648165996651        0.0000000000000000     
  -9.6367654883493734E-003  0.10522764361252206        0.0000000000000000     
  -9.9323459003044876E-003  0.11218315489063524        0.0000000000000000     
  -1.0212482136134501E-002  0.11927500893164600        0.0000000000000000     
  -1.0477174195839415E-002  0.12650320573555435        0.0000000000000000     
  -1.0726422079419226E-002  0.13386774530236026        0.0000000000000000     
  -1.4540250484033145E-002  0.10533566547395871        0.0000000000000000     
  -1.4977435512135174E-002  0.11228575617583496        0.0000000000000000     
  -1.5392556604090836E-002  0.11937203961525003        0.0000000000000000     
  -1.5785613759900112E-002  0.12659451579220390        0.0000000000000000     
  -1.6156606979563025E-002  0.13395318470669668        0.0000000000000000     
  -1.9500470315083108E-002  0.10548689608046578        0.0000000000000000     
  -2.0075136232439561E-002  0.11242939797551668        0.0000000000000000     
  -2.0621853339038536E-002  0.11950788257261867        0.0000000000000000     
  -2.1140621634880050E-002  0.12672234987177172        0.0000000000000000     
  -2.1631441119964085E-002  0.13407279987297585        0.0000000000000000     
   9.6592872589340573E-014  0.13379939377951550        0.0000000000000000     
   5.2964967481305969E-013  0.14129287320240788        0.0000000000000000     
   8.3221038567338201E-013  0.14889837651084570        0.0000000000000000     
   1.0042757099017197E-012  0.15661590370482886        0.0000000000000000     
   1.0458457017081813E-012  0.16444545478435749        0.0000000000000000     
  -5.3408864195326842E-003  0.13381648165996651        0.0000000000000000     
  -5.4590110439214842E-003  0.14130875747438132        0.0000000000000000     
  -5.5703074941120491E-003  0.14891302822321131        0.0000000000000000     
  -5.6747757701043804E-003  0.15662929390645658        0.0000000000000000     
  -5.7724158718984739E-003  0.16445755452411706        0.0000000000000000     
  -1.0726422079419226E-002  0.13386774530236026        0.0000000000000000     
  -1.0961132010069725E-002  0.14135641029113502        0.0000000000000000     
  -1.1182210210986712E-002  0.14895698336095003        0.0000000000000000     
  -1.1389656682170178E-002  0.15666946451180525        0.0000000000000000     
  -1.1583471423620128E-002  0.16449385374370071        0.0000000000000000     
  -1.6156606979563025E-002  0.13395318470669668        0.0000000000000000     
  -1.6506362897915069E-002  0.14143583165266904        0.0000000000000000     
  -1.6835708149791771E-002  0.14903024192406181        0.0000000000000000     
  -1.7144642735193120E-002  0.15673641552087489        0.0000000000000000     
  -1.7433166654119123E-002  0.16455435244310843        0.0000000000000000     
  -2.1631441119964085E-002  0.13407279987297585        0.0000000000000000     
  -2.2094703707457523E-002  0.14154702155898338        0.0000000000000000     
  -2.2530801310527229E-002  0.14913280391254657        0.0000000000000000     
  -2.2939733929173211E-002  0.15683014693366554        0.0000000000000000     
  -2.3321501563395457E-002  0.16463905062234019        0.0000000000000000     
   1.0458457017081813E-012  0.16444545478435749        0.0000000000000000     
   1.0166977936626465E-012  0.17237452521546953        0.0000000000000000     
   9.7661006885629842E-013  0.18039061046420313        0.0000000000000000     
   9.2558182255772503E-013  0.18849371053055822        0.0000000000000000     
   8.6361343423768666E-013  0.19668382541453483        0.0000000000000000     
  -5.7724158718984739E-003  0.16445755452411706        0.0000000000000000     
  -5.8623932288966660E-003  0.17238535306030930        0.0000000000000000     
  -5.9438732705012990E-003  0.18040023249914985        0.0000000000000000     
  -6.0168559967123643E-003  0.18850219284063874        0.0000000000000000     
  -6.0813414075298715E-003  0.19669123408477601        0.0000000000000000     
  -1.1583471423620128E-002  0.16449385374370071        0.0000000000000000     
  -1.1762272617779363E-002  0.17241783659499924        0.0000000000000000     
  -1.1924678447090673E-002  0.18042909860406375        0.0000000000000000     
  -1.2070688911554070E-002  0.18852763977089429        0.0000000000000000     
  -1.2200304011169543E-002  0.19671346009549087        0.0000000000000000     
  -1.7433166654119123E-002  0.16455435244310843        0.0000000000000000     
  -1.7699638165631391E-002  0.17247197581953935        0.0000000000000000     
  -1.7942415528791517E-002  0.18047720877894483        0.0000000000000000     
  -1.8161498743599534E-002  0.18857005132132487        0.0000000000000000     
  -1.8356887810055407E-002  0.19675050344667944        0.0000000000000000     
  -2.3321501563395457E-002  0.16463905062234019        0.0000000000000000     
  -2.3674489872452742E-002  0.17254777073392966        0.0000000000000000     
  -2.3997084515603832E-002  0.18054456302379307        0.0000000000000000     
  -2.4289285492848749E-002  0.18862942749193043        0.0000000000000000     
  -2.4551092804187463E-002  0.19680236413834173        0.0000000000000000     
   8.6361343423768666E-013  0.19668382541453483        0.0000000000000000     
   8.0117184587946699E-013  0.20494269362687823        0.0000000000000000     
   7.4872334894504622E-013  0.21325205367833369        0.0000000000000000     
   7.0626734712322947E-013  0.22161190556890126        0.0000000000000000     
   6.7380346094325638E-013  0.23002224929858089        0.0000000000000000     
  -6.0813414075298715E-003  0.19669123408477601        0.0000000000000000     
  -6.1380923558980102E-003  0.20494927704102975        0.0000000000000000     
  -6.1878716947609876E-003  0.21325824251886819        0.0000000000000000     
  -6.2306794241187985E-003  0.22161813051829130        0.0000000000000000     
  -6.2665155439714498E-003  0.23002894103929913        0.0000000000000000     
  -1.2200304011169543E-002  0.19671346009549087        0.0000000000000000     
  -1.2314644993609855E-002  0.20496902728347105        0.0000000000000000     
  -1.2414833106547767E-002  0.21327680904045251        0.0000000000000000     
  -1.2500868349983277E-002  0.22163680536643529        0.0000000000000000     
  -1.2572750723916382E-002  0.23004901626141933        0.0000000000000000     
  -1.8356887810055407E-002  0.19675050344667944        0.0000000000000000     
  -1.8529657912334366E-002  0.20500194435420221        0.0000000000000000     
  -1.8680884234611620E-002  0.21330775324308679        0.0000000000000000     
  -1.8810566776887156E-002  0.22166793011333322        0.0000000000000000     
  -1.8918705539160998E-002  0.23008247496494144        0.0000000000000000     
  -2.4551092804187463E-002  0.19680236413834173        0.0000000000000000     
  -2.4783131112071539E-002  0.20504802825322319        0.0000000000000000     
  -2.4986025078952537E-002  0.21335107512677096        0.0000000000000000     
  -2.5159774704830457E-002  0.22171150475898510        0.0000000000000000     
  -2.5304379989705299E-002  0.23012931714986556        0.0000000000000000     
   6.7380346094325638E-013  0.23002224929858089        0.0000000000000000     
   6.4742460524624956E-013  0.23845177014749980        0.0000000000000000     
   6.2322445381485236E-013  0.24686915339578527        0.0000000000000000     
   6.0120482268770370E-013  0.25527439904343729        0.0000000000000000     
   5.8136178163192831E-013  0.26366750709045583        0.0000000000000000     
  -6.2665155439714498E-003  0.23002894103929913        0.0000000000000000     
  -6.2966129843524503E-003  0.23845959919219670        0.0000000000000000     
  -6.3222046752953219E-003  0.24687903008728909        0.0000000000000000     
  -6.3432906168000647E-003  0.25528723372457623        0.0000000000000000     
  -6.3598708088666760E-003  0.26368421010405824        0.0000000000000000     
  -1.2572750723916382E-002  0.23004901626141933        0.0000000000000000     
  -1.2633170394501859E-002  0.23848308632624385        0.0000000000000000     
  -1.2684817527894479E-002  0.24690866016174806        0.0000000000000000     
  -1.2727692124094253E-002  0.25532573776793205        0.0000000000000000     
  -1.2761794183101168E-002  0.26373431914479561        0.0000000000000000     
  -1.8918705539160998E-002  0.23008247496494144        0.0000000000000000     
  -1.9009672229800802E-002  0.23852223154964125        0.0000000000000000     
  -1.9087838557174251E-002  0.24695804361916229        0.0000000000000000     
  -1.9153204521281355E-002  0.25538991117350451        0.0000000000000000     
  -1.9205770122122105E-002  0.26381783421266808        0.0000000000000000     
  -2.5304379989705299E-002  0.23012931714986556        0.0000000000000000     
  -2.5426118490249283E-002  0.23857703486238893        0.0000000000000000     
  -2.5531267763134642E-002  0.24702718045953170        0.0000000000000000     
  -2.5619827808361379E-002  0.25547975394129391        0.0000000000000000     
  -2.5691798625929491E-002  0.26393475530767546        0.0000000000000000     
   5.8136178163192831E-013  0.26366750709045583        0.0000000000000000     
   5.6277964059769925E-013  0.27198834032309077        0.0000000000000000     
   5.4453815588606513E-013  0.28017676152759202        0.0000000000000000     
   5.2663792380822083E-013  0.28823277070395947        0.0000000000000000     
   5.0907802279231973E-013  0.29615636785219346        0.0000000000000000     
  -6.3598708088666760E-003  0.26368421010405824        0.0000000000000000     
  -6.3758456589276952E-003  0.27201013368330562        0.0000000000000000     
  -6.3951155744156538E-003  0.28020517891988928        0.0000000000000000     
  -6.4176805553305509E-003  0.28826934581380897        0.0000000000000000     
  -6.4435406016723883E-003  0.29620263436506494        0.0000000000000000     
  -1.2761794183101168E-002  0.26373431914479561        0.0000000000000000     
  -1.2794357164782451E-002  0.27207551376386968        0.0000000000000000     
  -1.2832614529005344E-002  0.28029043109668483        0.0000000000000000     
  -1.2876566275769837E-002  0.28837907114324113        0.0000000000000000     
  -1.2926212405075931E-002  0.29634143390353856        0.0000000000000000     
  -1.9205770122122105E-002  0.26381783421266808        0.0000000000000000     
  -1.9255534517001495E-002  0.27218448056478278        0.0000000000000000     
  -1.9312496863224535E-002  0.28043251805797875        0.0000000000000000     
  -1.9376657160791212E-002  0.28856194669225604        0.0000000000000000     
  -1.9448015409701553E-002  0.29657276646761443        0.0000000000000000     
  -2.5691798625929491E-002  0.26393475530767546        0.0000000000000000     
  -2.5759377715584817E-002  0.27233703408604504        0.0000000000000000     
  -2.5834762577073223E-002  0.28063143980377103        0.0000000000000000     
  -2.5917953210394699E-002  0.28881797246085350        0.0000000000000000     
  -2.6008949615549247E-002  0.29689663205729244        0.0000000000000000     
  -1.4004597825356162E-002   5.5780454632598973E-002   0.0000000000000000     
  -1.4786970426639364E-002   6.1371948445665431E-002   0.0000000000000000     
  -1.5540447353811595E-002   6.7148708218840919E-002   0.0000000000000000     
  -1.6265028606872851E-002   7.3110733952125445E-002   0.0000000000000000     
  -1.6960714185823136E-002   7.9258025645518954E-002   0.0000000000000000     
  -1.7903626322340799E-002   5.6039754287034477E-002   0.0000000000000000     
  -1.8807899199596759E-002   6.1624793153697566E-002   0.0000000000000000     
  -1.9691500434487655E-002   6.7394565182778837E-002   0.0000000000000000     
  -2.0554430027013484E-002   7.3349070374278263E-002   0.0000000000000000     
  -2.1396687977174245E-002   7.9488308728195858E-002   0.0000000000000000     
  -2.1693617208304386E-002   5.6357765828064128E-002   0.0000000000000000     
  -2.2768812168569651E-002   6.1935049775606141E-002   0.0000000000000000     
  -2.3821184777401621E-002   6.7696264364515674E-002   0.0000000000000000     
  -2.4850735034800304E-002   7.3641409594792762E-002   0.0000000000000000     
  -2.5857462940765692E-002   7.9770485466437363E-002   0.0000000000000000     
  -2.5374570483246928E-002   5.6734489255687963E-002   0.0000000000000000     
  -2.6669709333558035E-002   6.2302718311391163E-002   0.0000000000000000     
  -2.7929500382553502E-002   6.8053805764051470E-002   0.0000000000000000     
  -2.9153943630233308E-002   7.3987751613668884E-002   0.0000000000000000     
  -3.0343039076597470E-002   8.0104555860243412E-002   0.0000000000000000     
  -2.8946486147168427E-002   5.7169924569905946E-002   0.0000000000000000     
  -3.0510590694561926E-002   6.2727798761052639E-002   0.0000000000000000     
  -3.2016447249943292E-002   6.8467189381386212E-002   0.0000000000000000     
  -3.3464055813312507E-002   7.4388096430906700E-002   0.0000000000000000     
  -3.4853416384669593E-002   8.0490519909614061E-002   0.0000000000000000     
  -1.6960714185823136E-002   7.9258025645518954E-002   0.0000000000000000     
  -1.7630377250322987E-002   8.5577273552789157E-002   0.0000000000000000     
  -1.8276890960032932E-002   9.2055167927703713E-002   0.0000000000000000     
  -1.8900255314952968E-002   9.8691708770262579E-002   0.0000000000000000     
  -1.9500470315083108E-002  0.10548689608046578        0.0000000000000000     
  -2.1396687977174245E-002   7.9488308728195858E-002   0.0000000000000000     
  -2.2215765793700788E-002   8.5799095685646504E-002   0.0000000000000000     
  -2.3009154985323962E-002   9.2268246687745054E-002   0.0000000000000000     
  -2.3776855552043754E-002   9.8895761734491494E-002   0.0000000000000000     
  -2.4518867493860178E-002  0.10568164082588584        0.0000000000000000     
  -2.5857462940765692E-002   7.9770485466437363E-002   0.0000000000000000     
  -2.6837664337949724E-002   8.6070623838035140E-002   0.0000000000000000     
  -2.7787635069004325E-002   9.2528956568171783E-002   0.0000000000000000     
  -2.8707375133929503E-002   9.9145483656847250E-002   0.0000000000000000     
  -2.9596884532725253E-002  0.10592020510406157        0.0000000000000000     
  -3.0343039076597470E-002   8.0104555860243412E-002   0.0000000000000000     
  -3.1496072883069784E-002   8.6391858009955094E-002   0.0000000000000000     
  -3.2612331211074035E-002   9.2837297568983901E-002   0.0000000000000000     
  -3.3691814060610205E-002   9.9440874537329860E-002   0.0000000000000000     
  -3.4734521431678336E-002  0.10620258891499297        0.0000000000000000     
  -3.4853416384669593E-002   8.0490519909614061E-002   0.0000000000000000     
  -3.6190991429060973E-002   8.6762798201406297E-002   0.0000000000000000     
  -3.7483243411533057E-002   9.3193269690181407E-002   0.0000000000000000     
  -3.8730172332085887E-002   9.9781934375939282E-002   0.0000000000000000     
  -3.9931778190719427E-002  0.10652879225868003        0.0000000000000000     
  -1.9500470315083108E-002  0.10548689608046578        0.0000000000000000     
  -2.0075136232439561E-002  0.11242939797551668        0.0000000000000000     
  -2.0621853339038536E-002  0.11950788257261867        0.0000000000000000     
  -2.1140621634880050E-002  0.12672234987177172        0.0000000000000000     
  -2.1631441119964085E-002  0.13407279987297585        0.0000000000000000     
  -2.4518867493860178E-002  0.10568164082588584        0.0000000000000000     
  -2.5231185190957673E-002  0.11261455869024600        0.0000000000000000     
  -2.5909803023520705E-002  0.11968319005588988        0.0000000000000000     
  -2.6554720991549256E-002  0.12688753492281749        0.0000000000000000     
  -2.7165939095043345E-002  0.13422759329102882        0.0000000000000000     
  -2.9596884532725253E-002  0.10592020510406157        0.0000000000000000     
  -3.0451319517429565E-002  0.11284171672058844        0.0000000000000000     
  -3.1265836340080413E-002  0.11989861431720156        0.0000000000000000     
  -3.2040435000677804E-002  0.12709089789390102        0.0000000000000000     
  -3.2775115499221727E-002  0.13441856745068667        0.0000000000000000     
  -3.4734521431678336E-002  0.10620258891499297        0.0000000000000000     
  -3.5735539211855204E-002  0.11311087206654401        0.0000000000000000     
  -3.6689953288717658E-002  0.12015415535655377        0.0000000000000000     
  -3.7597763662265665E-002  0.12733243878502223        0.0000000000000000     
  -3.8458970332499239E-002  0.13464572235194938        0.0000000000000000     
  -3.9931778190719427E-002  0.10652879225868003        0.0000000000000000     
  -4.1083844274234629E-002  0.11342202472811272        0.0000000000000000     
  -4.2182153869432436E-002  0.12044981317394643        0.0000000000000000     
  -4.3226706976312854E-002  0.12761215759618122        0.0000000000000000     
  -4.4217503594875890E-002  0.13490905799481703        0.0000000000000000     
  -2.1631441119964085E-002  0.13407279987297585        0.0000000000000000     
  -2.2094703707457523E-002  0.14154702155898338        0.0000000000000000     
  -2.2530801310527229E-002  0.14913280391254657        0.0000000000000000     
  -2.2939733929173211E-002  0.15683014693366554        0.0000000000000000     
  -2.3321501563395457E-002  0.16463905062234019        0.0000000000000000     
  -2.7165939095043345E-002  0.13422759329102882        0.0000000000000000     
  -2.7743433317080592E-002  0.14169117392516706        0.0000000000000000     
  -2.8287179640738663E-002  0.14926608558987539        0.0000000000000000     
  -2.8797178066017542E-002  0.15695232828515387        0.0000000000000000     
  -2.9273428592917240E-002  0.16474990201100240        0.0000000000000000     
  -3.2775115499221727E-002  0.13441856745068667        0.0000000000000000     
  -3.3469830605167811E-002  0.14186948266630922        0.0000000000000000     
  -3.4124533087971642E-002  0.14943150321951917        0.0000000000000000     
  -3.4739222947633243E-002  0.15710462911031658        0.0000000000000000     
  -3.5313900184152598E-002  0.16488886033870140        0.0000000000000000     
  -3.8458970332499239E-002  0.13464572235194938        0.0000000000000000     
  -3.9273895571719161E-002  0.14208194778240976        0.0000000000000000     
  -4.0042861652226175E-002  0.14962905680147787        0.0000000000000000     
  -4.0765868574020293E-002  0.15728704940915361        0.0000000000000000     
  -4.1442916337101517E-002  0.16505592560543711        0.0000000000000000     
  -4.4217503594875890E-002  0.13490905799481703        0.0000000000000000     
  -4.5155628216734647E-002  0.14232856927346882        0.0000000000000000     
  -4.6042165333502257E-002  0.14985874633575150        0.0000000000000000     
  -4.6877114945178711E-002  0.15749958918166510        0.0000000000000000     
  -4.7660477051764016E-002  0.16525109781120959        0.0000000000000000     
  -2.3321501563395457E-002  0.16463905062234019        0.0000000000000000     
  -2.3674489872452742E-002  0.17254777073392966        0.0000000000000000     
  -2.3997084515603832E-002  0.18054456302379307        0.0000000000000000     
  -2.4289285492848749E-002  0.18862942749193043        0.0000000000000000     
  -2.4551092804187463E-002  0.19680236413834173        0.0000000000000000     
  -2.9273428592917240E-002  0.16474990201100240        0.0000000000000000     
  -2.9714403506248582E-002  0.17264739286306355        0.0000000000000000     
  -3.0118575090822386E-002  0.18063338693697978        0.0000000000000000     
  -3.0485943346638664E-002  0.18870788423275109        0.0000000000000000     
  -3.0816508273697404E-002  0.19687088475037751        0.0000000000000000     
  -3.5313900184152598E-002  0.16488886033870140        0.0000000000000000     
  -3.5846954835024036E-002  0.17277301373183435        0.0000000000000000     
  -3.6336776937741920E-002  0.18074590611687619        0.0000000000000000     
  -3.6783366492306208E-002  0.18880753749382687        0.0000000000000000     
  -3.7186723498716941E-002  0.19695790786268647        0.0000000000000000     
  -4.1442916337101517E-002  0.16505592560543711        0.0000000000000000     
  -4.2072143858779137E-002  0.17292463334024205        0.0000000000000000     
  -4.2651690056362435E-002  0.18088212056348230        0.0000000000000000     
  -4.3181554929851401E-002  0.18892838727515784        0.0000000000000000     
  -4.3661738479246065E-002  0.19706343347526867        0.0000000000000000     
  -4.7660477051764016E-002  0.16525109781120959        0.0000000000000000     
  -4.8389970577513861E-002  0.17310225168828669        0.0000000000000000     
  -4.9063314446683937E-002  0.18104203027679816        0.0000000000000000     
  -4.9680508659274251E-002  0.18907043357674394        0.0000000000000000     
  -5.0241553215284784E-002  0.19718746158812406        0.0000000000000000     
  -2.4551092804187463E-002  0.19680236413834173        0.0000000000000000     
  -2.4783131112071539E-002  0.20504802825322319        0.0000000000000000     
  -2.4986025078952537E-002  0.21335107512677096        0.0000000000000000     
  -2.5159774704830457E-002  0.22171150475898510        0.0000000000000000     
  -2.5304379989705299E-002  0.23012931714986556        0.0000000000000000     
  -3.0816508273697404E-002  0.19687088475037751        0.0000000000000000     
  -3.1110226270562563E-002  0.20510856546174477        0.0000000000000000     
  -3.1367053735798088E-002  0.21340710333873869        0.0000000000000000     
  -3.1586990669403986E-002  0.22176649838135939        0.0000000000000000     
  -3.1770037071380229E-002  0.23018675058960675        0.0000000000000000     
  -3.7186723498716941E-002  0.19695790786268647        0.0000000000000000     
  -3.7546105065548632E-002  0.20518484246097779        0.0000000000000000     
  -3.7860768301375830E-002  0.21347616652622387        0.0000000000000000     
  -3.8130713206198555E-002  0.22183188005842458        0.0000000000000000     
  -3.8355939780016772E-002  0.23025198305757999        0.0000000000000000     
  -4.3661738479246065E-002  0.19706343347526867        0.0000000000000000     
  -4.4090767497029740E-002  0.20527685925092226        0.0000000000000000     
  -4.4467168775685774E-002  0.21355826468922631        0.0000000000000000     
  -4.4790942315214161E-002  0.22190764979018066        0.0000000000000000     
  -4.5062088115614914E-002  0.23032501455378540        0.0000000000000000     
  -5.0241553215284784E-002  0.19718746158812406        0.0000000000000000     
  -5.0744213565005893E-002  0.20538461583157822        0.0000000000000000     
  -5.1186255158727906E-002  0.21365339782774609        0.0000000000000000     
  -5.1567677996450817E-002  0.22199380757662765        0.0000000000000000     
  -5.1888482078174640E-002  0.23040584507822298        0.0000000000000000     
  -2.5304379989705299E-002  0.23012931714986556        0.0000000000000000     
  -2.5426118490249283E-002  0.23857703486238893        0.0000000000000000     
  -2.5531267763134642E-002  0.24702718045953170        0.0000000000000000     
  -2.5619827808361379E-002  0.25547975394129391        0.0000000000000000     
  -2.5691798625929491E-002  0.26393475530767546        0.0000000000000000     
  -3.1770037071380229E-002  0.23018675058960675        0.0000000000000000     
  -3.1924096621710606E-002  0.23864301527446855        0.0000000000000000     
  -3.2057073000378862E-002  0.24711044774693280        0.0000000000000000     
  -3.2168966207385005E-002  0.25558904800699939        0.0000000000000000     
  -3.2259776242729028E-002  0.26407881605466837        0.0000000000000000     
  -3.8355939780016772E-002  0.23025198305757999        0.0000000000000000     
  -3.8545194070048104E-002  0.23871569179586186        0.0000000000000000     
  -3.8707222123510160E-002  0.24720222254544202        0.0000000000000000     
  -3.8842023940402939E-002  0.25571157530632049        0.0000000000000000     
  -3.8949599520726436E-002  0.26424375007849715        0.0000000000000000     
  -4.5062088115614914E-002  0.23032501455378540        0.0000000000000000     
  -4.5289410835261765E-002  0.23879506442656889        0.0000000000000000     
  -4.5481715132528529E-002  0.24730250485505939        0.0000000000000000     
  -4.5639001007415164E-002  0.25584733583925717        0.0000000000000000     
  -4.5761268459921685E-002  0.26442955737916191        0.0000000000000000     
  -5.1888482078174640E-002  0.23040584507822298        0.0000000000000000     
  -5.2156746917351601E-002  0.23888113316658954        0.0000000000000000     
  -5.2380552027433948E-002  0.24741129467578502        0.0000000000000000     
  -5.2559897408421687E-002  0.25599632960580937        0.0000000000000000     
  -5.2694783060314804E-002  0.26463623795666258        0.0000000000000000     
  -2.5691798625929491E-002  0.26393475530767546        0.0000000000000000     
  -2.5759377715584817E-002  0.27233703408604504        0.0000000000000000     
  -2.5834762577073223E-002  0.28063143980377103        0.0000000000000000     
  -2.5917953210394699E-002  0.28881797246085350        0.0000000000000000     
  -2.6008949615549247E-002  0.29689663205729244        0.0000000000000000     
  -3.2259776242729028E-002  0.26407881605466837        0.0000000000000000     
  -3.2344301859931916E-002  0.27252684292591600        0.0000000000000000     
  -3.2437341812514661E-002  0.28088021965671872        0.0000000000000000     
  -3.2538896100477263E-002  0.28913894624707648        0.0000000000000000     
  -3.2648964723819743E-002  0.29730302269698938        0.0000000000000000     
  -3.8949599520726436E-002  0.26424375007849715        0.0000000000000000     
  -3.9048722049442271E-002  0.27274757568265562        0.0000000000000000     
  -3.9158164711512101E-002  0.28117188093947920        0.0000000000000000     
  -3.9277927506935921E-002  0.28951666584896807        0.0000000000000000     
  -3.9408010435713743E-002  0.29778193041112200        0.0000000000000000     
  -4.5761268459921685E-002  0.26442955737916191        0.0000000000000000     
  -4.5872638284115884E-002  0.27299923235626372        0.0000000000000000     
  -4.5997231274065541E-002  0.28150642365205236        0.0000000000000000     
  -4.6135047429770669E-002  0.28995113126652788        0.0000000000000000     
  -4.6286086751231255E-002  0.29833335519969029        0.0000000000000000     
  -5.2694783060314804E-002  0.26463623795666258        0.0000000000000000     
  -5.2816050563952756E-002  0.27328181294674031        0.0000000000000000     
  -5.2954541500174979E-002  0.28188384779443815        0.0000000000000000     
  -5.3110255868981500E-002  0.29044234249975620        0.0000000000000000     
  -5.3283193670372278E-002  0.29895729706269436        0.0000000000000000     
  -2.8946486147168427E-002   5.7169924569905946E-002   0.0000000000000000     
  -3.0510590694561926E-002   6.2727798761052639E-002   0.0000000000000000     
  -3.2016447249943292E-002   6.8467189381386212E-002   0.0000000000000000     
  -3.3464055813312507E-002   7.4388096430906700E-002   0.0000000000000000     
  -3.4853416384669593E-002   8.0490519909614061E-002   0.0000000000000000     
  -3.2635271134584767E-002   5.7665102418340011E-002   0.0000000000000000     
  -3.4467428198627977E-002   6.3210232179157139E-002   0.0000000000000000     
  -3.6218624673823481E-002   6.8935727070717726E-002   0.0000000000000000     
  -3.7888860560171281E-002   7.4841587093021772E-002   0.0000000000000000     
  -3.9478135857671383E-002   8.0927812246069250E-002   0.0000000000000000     
  -3.6666832380011824E-002   5.8221053448612080E-002   0.0000000000000000     
  -3.8716193792802847E-002   6.3749959620271274E-002   0.0000000000000000     
  -4.0672631948446558E-002   6.9458730686243822E-002   0.0000000000000000     
  -4.2536146846942999E-002   7.5347366646529731E-002   0.0000000000000000     
  -4.4306738488292148E-002   8.1415867501128975E-002   0.0000000000000000     
  -4.1041169883449614E-002   5.8837777660722138E-002   0.0000000000000000     
  -4.3256887477086524E-002   6.4346981084395044E-002   0.0000000000000000     
  -4.5378469073812551E-002   7.0036200227964529E-002   0.0000000000000000     
  -4.7405914673627675E-002   7.5905435091430593E-002   0.0000000000000000     
  -4.9339224276531916E-002   8.1954685674793221E-002   0.0000000000000000     
  -4.5758283644898132E-002   5.9515275054670191E-002   0.0000000000000000     
  -4.8089509251479035E-002   6.5001296571528422E-002   0.0000000000000000     
  -5.0336136049921425E-002   7.0668135695879805E-002   0.0000000000000000     
  -5.2498164040225316E-002   7.6515792427724327E-002   0.0000000000000000     
  -5.4575593222390674E-002   8.2544266767062002E-002   0.0000000000000000     
  -3.4853416384669593E-002   8.0490519909614061E-002   0.0000000000000000     
  -3.6190991429060973E-002   8.6762798201406297E-002   0.0000000000000000     
  -3.7483243411533057E-002   9.3193269690181407E-002   0.0000000000000000     
  -3.8730172332085887E-002   9.9781934375939282E-002   0.0000000000000000     
  -3.9931778190719427E-002  0.10652879225868003        0.0000000000000000     
  -3.9478135857671383E-002   8.0927812246069250E-002   0.0000000000000000     
  -4.1000036130860576E-002   8.7183340605165652E-002   0.0000000000000000     
  -4.2468146944275691E-002   9.3597110245616358E-002   0.0000000000000000     
  -4.3882468297916713E-002  0.10016912116742141        0.0000000000000000     
  -4.5243000191783650E-002  0.10689937337058078        0.0000000000000000     
  -4.4306738488292148E-002   8.1415867501128975E-002   0.0000000000000000     
  -4.6000823143405901E-002   8.7653381414009954E-002   0.0000000000000000     
  -4.7634817083196147E-002   9.4049056549140961E-002   0.0000000000000000     
  -4.9208720307662886E-002  0.10060289290652207        0.0000000000000000     
  -5.0722532816806117E-002  0.10731489048615322        0.0000000000000000     
  -4.9339224276531916E-002   8.1954685674793221E-002   0.0000000000000000     
  -5.1193352466696956E-002   8.8172920627939189E-002   0.0000000000000000     
  -5.2983253828294441E-002   9.4549108600755188E-002   0.0000000000000000     
  -5.4708928361324419E-002  0.10108324959324125        0.0000000000000000     
  -5.6370376065786855E-002  0.10777534360539739        0.0000000000000000     
  -5.4575593222390674E-002   8.2544266767062002E-002   0.0000000000000000     
  -5.6577624100733713E-002   8.8741958246953370E-002   0.0000000000000000     
  -5.8513457179570579E-002   9.5097266400459041E-002   0.0000000000000000     
  -6.0383092458901284E-002  0.10161019122757899        0.0000000000000000     
  -6.2186529938725837E-002  0.10828073272831323        0.0000000000000000     
  -3.9931778190719427E-002  0.10652879225868003        0.0000000000000000     
  -4.1083844274234629E-002  0.11342202472811272        0.0000000000000000     
  -4.2182153869432436E-002  0.12044981317394643        0.0000000000000000     
  -4.3226706976312854E-002  0.12761215759618122        0.0000000000000000     
  -4.4217503594875890E-002  0.13490905799481703        0.0000000000000000     
  -4.5243000191783650E-002  0.10689937337058078        0.0000000000000000     
  -4.6546248529054729E-002  0.11377581719436629        0.0000000000000000     
  -4.7788719212908205E-002  0.12078640297804968        0.0000000000000000     
  -4.8970412243344072E-002  0.12793113072163104        0.0000000000000000     
  -5.0091327620362329E-002  0.13521000042511030        0.0000000000000000     
  -5.0722532816806117E-002  0.10731489048615322        0.0000000000000000     
  -5.2172765800802427E-002  0.11417289195437640        0.0000000000000000     
  -5.3555930449828371E-002  0.12116473997753362        0.0000000000000000     
  -5.4872026763883988E-002  0.12829043455562480        0.0000000000000000     
  -5.6121054742969245E-002  0.13554997568864996        0.0000000000000000     
  -5.6370376065786855E-002  0.10777534360539739        0.0000000000000000     
  -5.7963396089477724E-002  0.11461324900814318        0.0000000000000000     
  -5.9483787580192966E-002  0.12158482417239819        0.0000000000000000     
  -6.0931550537932595E-002  0.12869006909816250        0.0000000000000000     
  -6.2306684962696625E-002  0.13592898378543608        0.0000000000000000     
  -6.2186529938725837E-002  0.10828073272831323        0.0000000000000000     
  -6.3918139395080606E-002  0.11509688835566649        0.0000000000000000     
  -6.5572290604001979E-002  0.12204665556264346        0.0000000000000000     
  -6.7148983565489928E-002  0.12913003434924417        0.0000000000000000     
  -6.8648218279544468E-002  0.13634702471546858        0.0000000000000000     
  -4.4217503594875890E-002  0.13490905799481703        0.0000000000000000     
  -4.5155628216734647E-002  0.14232856927346882        0.0000000000000000     
  -4.6042165333502257E-002  0.14985874633575150        0.0000000000000000     
  -4.6877114945178711E-002  0.15749958918166510        0.0000000000000000     
  -4.7660477051764016E-002  0.16525109781120959        0.0000000000000000     
  -5.0091327620362329E-002  0.13521000042511030        0.0000000000000000     
  -5.1153397848616930E-002  0.14261114814670237        0.0000000000000000     
  -5.2158555432761815E-002  0.15012270994462223        0.0000000000000000     
  -5.3106800372796983E-002  0.15774468581886980        0.0000000000000000     
  -5.3998132668722443E-002  0.16547707576944515        0.0000000000000000     
  -5.6121054742969245E-002  0.13554997568864996        0.0000000000000000     
  -5.7305573775768677E-002  0.14293148540932660        0.0000000000000000     
  -5.8428143250966798E-002  0.15042308575037217        0.0000000000000000     
  -5.9488763168563628E-002  0.15802477671178661        0.0000000000000000     
  -6.0487433528559155E-002  0.16573655829357001        0.0000000000000000     
  -6.2306684962696625E-002  0.13592898378543608        0.0000000000000000     
  -6.3612155998189854E-002  0.14328958106134146        0.0000000000000000     
  -6.4850928788117213E-002  0.15075987375300129        0.0000000000000000     
  -6.6023003332478639E-002  0.15833986186041554        0.0000000000000000     
  -6.7128379631274146E-002  0.16602954538358417        0.0000000000000000     
  -6.8648218279544468E-002  0.13634702471546858        0.0000000000000000     
  -7.0073144515880523E-002  0.14368543510274698        0.0000000000000000     
  -7.1426912044213031E-002  0.15113307395250963        0.0000000000000000     
  -7.2709520864542007E-002  0.15868994126475652        0.0000000000000000     
  -7.3920970976867451E-002  0.16635603703948765        0.0000000000000000     
  -4.7660477051764016E-002  0.16525109781120959        0.0000000000000000     
  -4.8389970577513861E-002  0.17310225168828669        0.0000000000000000     
  -4.9063314446683937E-002  0.18104203027679816        0.0000000000000000     
  -4.9680508659274251E-002  0.18907043357674394        0.0000000000000000     
  -5.0241553215284784E-002  0.19718746158812406        0.0000000000000000     
  -5.3998132668722443E-002  0.16547707576944515        0.0000000000000000     
  -5.4829924503519853E-002  0.17330892460514641        0.0000000000000000     
  -5.5599548060170881E-002  0.18122927713477191        0.0000000000000000     
  -5.6307003338675526E-002  0.18923813335832154        0.0000000000000000     
  -5.6952290339033790E-002  0.19733549327579541        0.0000000000000000     
  -6.0487433528559155E-002  0.16573655829357001        0.0000000000000000     
  -6.1421495149088713E-002  0.17354770791999929        0.0000000000000000     
  -6.2288288848287680E-002  0.18144750301535167        0.0000000000000000     
  -6.3087814626156050E-002  0.18943594357962698        0.0000000000000000     
  -6.3820072482693793E-002  0.19751302961282538        0.0000000000000000     
  -6.7128379631274146E-002  0.16602954538358417        0.0000000000000000     
  -6.8164682514220476E-002  0.17381860163284543        0.0000000000000000     
  -6.9129536811034370E-002  0.18169670791853743        0.0000000000000000     
  -7.0022942521715800E-002  0.18966386424066028        0.0000000000000000     
  -7.0844899646264781E-002  0.19772007059921398        0.0000000000000000     
  -7.3920970976867451E-002  0.16635603703948765        0.0000000000000000     
  -7.5059486598915134E-002  0.17412160574368468        0.0000000000000000     
  -7.6123291948410915E-002  0.18197689184432927        0.0000000000000000     
  -7.7112387025354806E-002  0.18992189534142145        0.0000000000000000     
  -7.8026771829746766E-002  0.19795661623496119        0.0000000000000000     
  -5.0241553215284784E-002  0.19718746158812406        0.0000000000000000     
  -5.0744213565005893E-002  0.20538461583157822        0.0000000000000000     
  -5.1186255158727906E-002  0.21365339782774609        0.0000000000000000     
  -5.1567677996450817E-002  0.22199380757662765        0.0000000000000000     
  -5.1888482078174640E-002  0.23040584507822298        0.0000000000000000     
  -5.6952290339033790E-002  0.19733549327579541        0.0000000000000000     
  -5.7532774943480254E-002  0.20551440951127770        0.0000000000000000     
  -5.8045823034249468E-002  0.21376793468885250        0.0000000000000000     
  -5.8491434611341424E-002  0.22209606880852001        0.0000000000000000     
  -5.8869609674756143E-002  0.23049881187028004        0.0000000000000000     
  -6.3820072482693793E-002  0.19751302961282538        0.0000000000000000     
  -6.4482783306456015E-002  0.20567253759835269        0.0000000000000000     
  -6.5073667985997688E-002  0.21390824401961492        0.0000000000000000     
  -6.5592726521318867E-002  0.22222014887661207        0.0000000000000000     
  -6.6039958912419566E-002  0.23060825216934414        0.0000000000000000     
  -7.0844899646264781E-002  0.19772007059921398        0.0000000000000000     
  -7.1594238653933120E-002  0.20585900009280333        0.0000000000000000     
  -7.2269790013972574E-002  0.21407432582003333        0.0000000000000000     
  -7.2871553726383181E-002  0.22236604778090396        0.0000000000000000     
  -7.3399529791164889E-002  0.23073416597541521        0.0000000000000000     
  -7.8026771829746766E-002  0.19795661623496119        0.0000000000000000     
  -7.8867140985911632E-002  0.20607379699462955        0.0000000000000000     
  -7.9634189118174131E-002  0.21426618009010770        0.0000000000000000     
  -8.0327916226534304E-002  0.22253376552139559        0.0000000000000000     
  -8.0948322310992152E-002  0.23087655328849319        0.0000000000000000     
  -5.1888482078174640E-002  0.23040584507822298        0.0000000000000000     
  -5.2156746917351601E-002  0.23888113316658954        0.0000000000000000     
  -5.2380552027433948E-002  0.24741129467578502        0.0000000000000000     
  -5.2559897408421687E-002  0.25599632960580937        0.0000000000000000     
  -5.2694783060314804E-002  0.26463623795666258        0.0000000000000000     
  -5.8869609674756143E-002  0.23049881187028004        0.0000000000000000     
  -5.9186423260665907E-002  0.23897532636451690        0.0000000000000000     
  -5.9447950405243040E-002  0.24752477478161478        0.0000000000000000     
  -5.9654191108487555E-002  0.25614715712157360        0.0000000000000000     
  -5.9805145370399417E-002  0.26484247338439343        0.0000000000000000     
  -6.6039958912419566E-002  0.23060825216934414        0.0000000000000000     
  -6.6417660809552970E-002  0.23907907236894405        0.0000000000000000     
  -6.6728127862972386E-002  0.24763912794654480        0.0000000000000000     
  -6.6971360072677760E-002  0.25628841890214638        0.0000000000000000     
  -6.7147357438669161E-002  0.26502694523574877        0.0000000000000000     
  -7.3399529791164889E-002  0.23073416597541521        0.0000000000000000     
  -7.3850459564012802E-002  0.23919237117987091        0.0000000000000000     
  -7.4221084400621945E-002  0.24775435417057506        0.0000000000000000     
  -7.4511404300992373E-002  0.25642011494752764        0.0000000000000000     
  -7.4721419265123989E-002  0.26518965351072860        0.0000000000000000     
  -8.0948322310992152E-002  0.23087655328849319        0.0000000000000000     
  -8.1484819524045404E-002  0.23931522279729753        0.0000000000000000     
  -8.1926820018191779E-002  0.24787045345370565        0.0000000000000000     
  -8.2274323793431303E-002  0.25654224525771741        0.0000000000000000     
  -8.2527330849763991E-002  0.26533059820933297        0.0000000000000000     
  -5.2694783060314804E-002  0.26463623795666258        0.0000000000000000     
  -5.2816050563952756E-002  0.27328181294674031        0.0000000000000000     
  -5.2954541500174979E-002  0.28188384779443815        0.0000000000000000     
  -5.3110255868981500E-002  0.29044234249975620        0.0000000000000000     
  -5.3283193670372278E-002  0.29895729706269436        0.0000000000000000     
  -5.9805145370399417E-002  0.26484247338439343        0.0000000000000000     
  -5.9937720267590526E-002  0.27356660085873180        0.0000000000000000     
  -6.0088822876672769E-002  0.28227541683324636        0.0000000000000000     
  -6.0258453197646132E-002  0.29096892130793717        0.0000000000000000     
  -6.0446611230510622E-002  0.29964711428280405        0.0000000000000000     
  -6.7147357438669161E-002  0.26502694523574877        0.0000000000000000     
  -6.7296408773666855E-002  0.27382487949688467        0.0000000000000000     
  -6.7458802890391259E-002  0.28265239423508676        0.0000000000000000     
  -6.7634539788842318E-002  0.29150948945035510        0.0000000000000000     
  -6.7823619469020061E-002  0.30039616514268958        0.0000000000000000     
  -7.4721419265123989E-002  0.26518965351072860        0.0000000000000000     
  -7.4892116082181756E-002  0.27405664886119890        0.0000000000000000     
  -7.5064481541330413E-002  0.28301477999995933        0.0000000000000000     
  -7.5238515642570045E-002  0.29206404692701005        0.0000000000000000     
  -7.5414218385900622E-002  0.30120444964235082        0.0000000000000000     
  -8.2527330849763991E-002  0.26533059820933297        0.0000000000000000     
  -8.2724842193135181E-002  0.27426190895167440        0.0000000000000000     
  -8.2905858829490309E-002  0.28336257412786403        0.0000000000000000     
  -8.3070380758829332E-002  0.29263259373790185        0.0000000000000000     
  -8.3218407981152293E-002  0.30207196778178780        0.0000000000000000     
  -4.5758283644898132E-002   5.9515275054670191E-002   0.0000000000000000     
  -4.8089509251479035E-002   6.5001296571528422E-002   0.0000000000000000     
  -5.0336136049921425E-002   7.0668135695879805E-002   0.0000000000000000     
  -5.2498164040225316E-002   7.6515792427724327E-002   0.0000000000000000     
  -5.4575593222390674E-002   8.2544266767062002E-002   0.0000000000000000     
  -5.0627203641202434E-002   6.0250657107761882E-002   0.0000000000000000     
  -5.3078478756705579E-002   6.5711854579933754E-002   0.0000000000000000     
  -5.5453635740418603E-002   7.1354604682285785E-002   0.0000000000000000     
  -5.7752674592341527E-002   7.7178907414818004E-002   0.0000000000000000     
  -5.9975595312474338E-002   8.3184762777530424E-002   0.0000000000000000     
  -5.5456959849207586E-002   6.1041035297302815E-002   0.0000000000000000     
  -5.8088215633491341E-002   6.6477603607873262E-002   0.0000000000000000     
  -6.0638971008949480E-002   7.2095674779478564E-002   0.0000000000000000     
  -6.3109225975581953E-002   7.7895248812118678E-002   0.0000000000000000     
  -6.5498980533388790E-002   8.3876325705793647E-002   0.0000000000000000     
  -6.0247552268913589E-002   6.1886409623293004E-002   0.0000000000000000     
  -6.3118719881836358E-002   6.7298543655347001E-002   0.0000000000000000     
  -6.5892141855514036E-002   7.2891345987458098E-002   0.0000000000000000     
  -6.8567818189946589E-002   7.8664816619626321E-002   0.0000000000000000     
  -7.1145748885134044E-002   8.4618955551851657E-002   0.0000000000000000     
  -6.4998980900320441E-002   6.2786780085732435E-002   0.0000000000000000     
  -6.8169991501740607E-002   6.8174674722354930E-002   0.0000000000000000     
  -7.1213148280112271E-002   7.3741618306224443E-002   0.0000000000000000     
  -7.4128451235435447E-002   7.9487610837340947E-002   0.0000000000000000     
  -7.6915900367710108E-002   8.5412652315704482E-002   0.0000000000000000     
  -5.4575593222390674E-002   8.2544266767062002E-002   0.0000000000000000     
  -5.6577624100733713E-002   8.8741958246953370E-002   0.0000000000000000     
  -5.8513457179570579E-002   9.5097266400459041E-002   0.0000000000000000     
  -6.0383092458901284E-002  0.10161019122757899        0.0000000000000000     
  -6.2186529938725837E-002  0.10828073272831323        0.0000000000000000     
  -5.9975595312474338E-002   8.3184762777530424E-002   0.0000000000000000     
  -6.2126278372873413E-002   8.9360078204557727E-002   0.0000000000000000     
  -6.4208604245595172E-002   9.5692761130034651E-002   0.0000000000000000     
  -6.6222572930639587E-002  0.10218281155396124        0.0000000000000000     
  -6.8168184428006651E-002  0.10883022947633739        0.0000000000000000     
  -6.5498980533388790E-002   8.3876325705793647E-002   0.0000000000000000     
  -6.7811955610473304E-002   9.0026864434257475E-002   0.0000000000000000     
  -7.0051872134938811E-002   9.6334823971264236E-002   0.0000000000000000     
  -7.2218730106785325E-002  0.10280020431681390        0.0000000000000000     
  -7.4312529526012833E-002  0.10942300547090646        0.0000000000000000     
  -7.1145748885134044E-002   8.4618955551851657E-002   0.0000000000000000     
  -7.3634655813533373E-002   9.0742316936052642E-002   0.0000000000000000     
  -7.6043260847601532E-002   9.7023454924147753E-002   0.0000000000000000     
  -7.8371563987338549E-002  0.10346236951613702        0.0000000000000000     
  -8.0619565232744383E-002  0.11005906071202046        0.0000000000000000     
  -7.6915900367710108E-002   8.5412652315704482E-002   0.0000000000000000     
  -7.9594378982053626E-002   9.1506435709943185E-002   0.0000000000000000     
  -8.2182770383583320E-002   9.7758653988685246E-002   0.0000000000000000     
  -8.4681074572299231E-002  0.10416930715193062        0.0000000000000000     
  -8.7089291548201317E-002  0.11073839519967935        0.0000000000000000     
  -6.2186529938725837E-002  0.10828073272831323        0.0000000000000000     
  -6.3918139395080606E-002  0.11509688835566649        0.0000000000000000     
  -6.5572290604001979E-002  0.12204665556264346        0.0000000000000000     
  -6.7148983565489928E-002  0.12913003434924417        0.0000000000000000     
  -6.8648218279544468E-002  0.13634702471546858        0.0000000000000000     
  -6.8168184428006651E-002  0.10883022947633739        0.0000000000000000     
  -7.0038455529169250E-002  0.11562313029106479        0.0000000000000000     
  -7.1826403025600255E-002  0.12254962939204496        0.0000000000000000     
  -7.3532026917299653E-002  0.12960972677927793        0.0000000000000000     
  -7.5155327204267444E-002  0.13680342245276370        0.0000000000000000     
  -7.4312529526012833E-002  0.10942300547090646        0.0000000000000000     
  -7.6325804303301784E-002  0.11619129510845642        0.0000000000000000     
  -7.8251088349332670E-002  0.12309314090437826        0.0000000000000000     
  -8.0088381664105493E-002  0.13012854285867193        0.0000000000000000     
  -8.1837684247620224E-002  0.13729750097133750        0.0000000000000000     
  -8.0619565232744383E-002  0.11005906071202046        0.0000000000000000     
  -8.2780185717478236E-002  0.11680138280784140        0.0000000000000000     
  -8.4846346575199266E-002  0.12367719009964336        0.0000000000000000     
  -8.6818047805907447E-002  0.13068648258742627        0.0000000000000000     
  -8.8695289409602820E-002  0.13782926027119011        0.0000000000000000     
  -8.7089291548201317E-002  0.11073839519967935        0.0000000000000000     
  -8.9401599771698564E-002  0.11745339338921977        0.0000000000000000     
  -9.1612177703199973E-002  0.12430177697784027        0.0000000000000000     
  -9.3721025342705516E-002  0.13128354596554082        0.0000000000000000     
  -9.5728142690215207E-002  0.13839870035232144        0.0000000000000000     
  -6.8648218279544468E-002  0.13634702471546858        0.0000000000000000     
  -7.0073144515880523E-002  0.14368543510274698        0.0000000000000000     
  -7.1426912044213031E-002  0.15113307395250963        0.0000000000000000     
  -7.2709520864542007E-002  0.15868994126475652        0.0000000000000000     
  -7.3920970976867451E-002  0.16635603703948765        0.0000000000000000     
  -7.5155327204267444E-002  0.13680342245276370        0.0000000000000000     
  -7.6699667182429807E-002  0.14411835599242165        0.0000000000000000     
  -7.8168410147712933E-002  0.15154216697817122        0.0000000000000000     
  -7.9561556100116781E-002  0.15907485541001237        0.0000000000000000     
  -8.0879105039641380E-002  0.16671642128794517        0.0000000000000000     
  -8.1837684247620224E-002  0.13729750097133750        0.0000000000000000     
  -8.3502851851426876E-002  0.14458765218924388        0.0000000000000000     
  -8.5087740227075451E-002  0.15198663345925997        0.0000000000000000     
  -8.6592349374565919E-002  0.15949444478138586        0.0000000000000000     
  -8.8016679293898309E-002  0.16711108615562145        0.0000000000000000     
  -8.8695289409602820E-002  0.13782926027119011        0.0000000000000000     
  -9.0482698522871746E-002  0.14509332369321373        0.0000000000000000     
  -9.2184902282300640E-002  0.15246647339577604        0.0000000000000000     
  -9.3801900687889461E-002  0.15994870937887692        0.0000000000000000     
  -9.5333693739638264E-002  0.16754003164251649        0.0000000000000000     
  -9.5728142690215207E-002  0.13839870035232144        0.0000000000000000     
  -9.7639207196764388E-002  0.14563537050433123        0.0000000000000000     
  -9.9459896313388474E-002  0.15298168678771931        0.0000000000000000     
 -0.10119021004008739       0.16043764920248560        0.0000000000000000     
 -0.10283014837686122       0.16800325774863020        0.0000000000000000     
  -7.3920970976867451E-002  0.16635603703948765        0.0000000000000000     
  -7.5059486598915134E-002  0.17412160574368468        0.0000000000000000     
  -7.6123291948410915E-002  0.18197689184432927        0.0000000000000000     
  -7.7112387025354806E-002  0.18992189534142145        0.0000000000000000     
  -7.8026771829746766E-002  0.19795661623496119        0.0000000000000000     
  -8.0879105039641380E-002  0.16671642128794517        0.0000000000000000     
  -8.2120045511127490E-002  0.17445759448975401        0.0000000000000000     
  -8.3283366059415886E-002  0.18228910489322331        0.0000000000000000     
  -8.4369066684506569E-002  0.19021095249835304        0.0000000000000000     
  -8.5377147386399510E-002  0.19822313730514321        0.0000000000000000     
  -8.8016679293898309E-002  0.16711108615562145        0.0000000000000000     
  -8.9360497358812338E-002  0.17482744210829024        0.0000000000000000     
  -9.0623570943047779E-002  0.18263439716571561        0.0000000000000000     
  -9.1805900046604605E-002  0.19053195132789766        0.0000000000000000     
  -9.2907484669482815E-002  0.19852010459483627        0.0000000000000000     
  -9.5333693739638264E-002  0.16754003164251649        0.0000000000000000     
  -9.6780842141969761E-002  0.17523114859929334        0.0000000000000000     
  -9.8143906599306621E-002  0.18301276866180627        0.0000000000000000     
  -9.9422887111648955E-002  0.19088489183005525        0.0000000000000000     
 -0.10061778367899665       0.19884751810404031        0.0000000000000000     
 -0.10283014837686122       0.16800325774863020        0.0000000000000000     
 -0.10438107986059963       0.17566871396276335        0.0000000000000000     
 -0.10584437302819241       0.18342421938149520        0.0000000000000000     
 -0.10722002787963955       0.19126977400482592        0.0000000000000000     
 -0.10850804441494105       0.19920537783275535        0.0000000000000000     
  -7.8026771829746766E-002  0.19795661623496119        0.0000000000000000     
  -7.8867140985911632E-002  0.20607379699462955        0.0000000000000000     
  -7.9634189118174131E-002  0.21426618009010770        0.0000000000000000     
  -8.0327916226534304E-002  0.22253376552139559        0.0000000000000000     
  -8.0948322310992152E-002  0.23087655328849319        0.0000000000000000     
  -8.5377147386399510E-002  0.19822313730514321        0.0000000000000000     
  -8.6310335881490466E-002  0.20631757238898207        0.0000000000000000     
  -8.7171359886175123E-002  0.21448617082525787        0.0000000000000000     
  -8.7960219400453482E-002  0.22272893261397050        0.0000000000000000     
  -8.8676914424325529E-002  0.23104585775512010        0.0000000000000000     
  -9.2907484669482815E-002  0.19852010459483627        0.0000000000000000     
  -9.3932668919768633E-002  0.20659097036101157        0.0000000000000000     
  -9.4885796905548325E-002  0.21473666202090363        0.0000000000000000     
  -9.5766868626821836E-002  0.22295717957451242        0.0000000000000000     
  -9.6575884083589206E-002  0.23125252302183794        0.0000000000000000     
 -0.10061778367899665       0.19884751810404031        0.0000000000000000     
 -0.10173414010074613       0.20689399091071803        0.0000000000000000     
 -0.10277750017629374       0.21501765367704498        0.0000000000000000     
 -0.10374786390563941       0.22321850640302121        0.0000000000000000     
 -0.10464523128878317       0.23149654908864670        0.0000000000000000     
 -0.10850804441494105       0.19920537783275535        0.0000000000000000     
 -0.10971474942442296       0.20722663403810143        0.0000000000000000     
 -0.11084646969841132       0.21532914579368195        0.0000000000000000     
 -0.11190320523690617       0.22351291309949686        0.0000000000000000     
 -0.11288495603990747       0.23177793595554624        0.0000000000000000     
  -8.0948322310992152E-002  0.23087655328849319        0.0000000000000000     
  -8.1484819524045404E-002  0.23931522279729753        0.0000000000000000     
  -8.1926820018191779E-002  0.24787045345370565        0.0000000000000000     
  -8.2274323793431303E-002  0.25654224525771741        0.0000000000000000     
  -8.2527330849763991E-002  0.26533059820933297        0.0000000000000000     
  -8.8676914424325529E-002  0.23104585775512010        0.0000000000000000     
  -8.9307104373000060E-002  0.23946256210988676        0.0000000000000000     
  -8.9836448661685803E-002  0.24800466153945069        0.0000000000000000     
  -9.0264947290382785E-002  0.25667215604381183        0.0000000000000000     
  -9.0592600259090966E-002  0.26546504562297013        0.0000000000000000     
  -9.6575884083589206E-002  0.23125252302183794        0.0000000000000000     
  -9.7303677794226037E-002  0.23964932400630160        0.0000000000000000     
  -9.7941084277107904E-002  0.24817421417132457        0.0000000000000000     
  -9.8488103532234833E-002  0.25682719351690692        0.0000000000000000     
  -9.8944735559606853E-002  0.26560826204304855        0.0000000000000000     
 -0.10464523128878317       0.23149654908864670        0.0000000000000000     
 -0.10547453978772334       0.23987550848654182        0.0000000000000000     
 -0.10624072686445812       0.24837911134932714        0.0000000000000000     
 -0.10694379251898757       0.25700735767700267        0.0000000000000000     
 -0.10758373675131161       0.26576024746956828        0.0000000000000000     
 -0.11288495603990747       0.23177793595554624        0.0000000000000000     
 -0.11381969035349199       0.24014111555060763        0.0000000000000000     
 -0.11473537642373646       0.24861935307345862        0.0000000000000000     
 -0.11563201425064089       0.25721264852409914        0.0000000000000000     
 -0.11650960383420528       0.26592100190252921        0.0000000000000000     
  -8.2527330849763991E-002  0.26533059820933297        0.0000000000000000     
  -8.2724842193135181E-002  0.27426190895167440        0.0000000000000000     
  -8.2905858829490309E-002  0.28336257412786403        0.0000000000000000     
  -8.3070380758829332E-002  0.29263259373790185        0.0000000000000000     
  -8.3218407981152293E-002  0.30207196778178780        0.0000000000000000     
  -9.0592600259090966E-002  0.26546504562297013        0.0000000000000000     
  -9.0849748298277549E-002  0.27444634788287636        0.0000000000000000     
  -9.1066732138409615E-002  0.28367908042948098        0.0000000000000000     
  -9.1243551779487217E-002  0.29316324326278403        0.0000000000000000     
  -9.1380207221510315E-002  0.30289883638278570        0.0000000000000000     
  -9.8944735559606853E-002  0.26560826204304855        0.0000000000000000     
  -9.9321995589359183E-002  0.27461565376936969        0.0000000000000000     
  -9.9630898851627153E-002  0.28394760271549024        0.0000000000000000     
  -9.9871445346410737E-002  0.29360410888141014        0.0000000000000000     
 -0.10004363507370995       0.30358517226712955        0.0000000000000000     
 -0.10758373675131161       0.26576024746956828        0.0000000000000000     
 -0.10814158406638011       0.27476982661115451        0.0000000000000000     
 -0.10859835896914288       0.28416814098589177        0.0000000000000000     
 -0.10895406145959992       0.29395519059378000        0.0000000000000000     
 -0.10920869153775116       0.30413097543481937        0.0000000000000000     
 -0.11650960383420528       0.26592100190252921        0.0000000000000000     
 -0.11730851372934034       0.27490886640823076        0.0000000000000000     
 -0.11796911249095680       0.28434069524068561        0.0000000000000000     
 -0.11849140011905469       0.29421648839989378        0.0000000000000000     
 -0.11887537661363398       0.30453624588585526        0.0000000000000000     
 </DataArray>
 <DataArray  type="Float64" Name="stress" NumberOfComponents="3" format="ascii">
   6238052494.9228230        89908178.291581154        418355758.97790974     
   5983576035.9890490        59917787.168651342        307025576.52979153     
   5730372948.1862402        34171966.482271910        222678528.82632983     
   5478443231.5143957        12670716.232440948        165314615.86753234     
   5227786885.9735270       -4585963.5808069706        134933837.65338373     
   5608464990.0596437        6624517.4256985188        406736749.57793289     
   5417636846.6104326       -3897204.8329367638        340859255.02705306     
   5227585326.9672546       -11830181.071450949        292466098.67403156     
   5038310431.1301088       -17174411.289868593        261557280.51886377     
   4849812159.0990000       -19929895.488165140        248132800.56156582     
   5118895358.8842258       -34653781.333862543        395551422.61196929     
   4964576112.2144432       -33848660.339720249        374547077.41256529     
   4810536742.0257635       -32110617.741915703        361528273.86422259     
   4656777248.3181686       -29439653.540474415        356495011.96693987     
   4503297631.0916739       -25835767.735369682        359447291.72071779     
   4769343601.3965902       -33926717.987085581        384799778.08002090     
   4624393832.8010874       -29936579.351721287        408089043.68632966     
   4479227193.3617554       -26669343.529146671        429865054.39691037     
   4333843683.0785828       -24125010.519370079        450127810.21174866     
   4188243301.9515638       -22303580.322398901        468877311.13084787     
   4559809717.5967026        8805707.4660158157        374481815.98207676     
   4397090008.3703613        7839038.1310718060        441485153.84835202     
   4233656680.9752374        4493641.5668821335        497476440.27209324     
   4069509735.4113407       -1230482.2265653610        542455675.25328898     
   3904649171.6786623       -9333333.2492723465        576422858.79195201     
   5227786885.9735270       -4585963.5808069706        134933837.65338373     
   5057194420.6282253        3330657.8865993023        106904259.75894850     
   4886089553.7488680        9539274.2404987812        87039339.885526001     
   4714472285.3354568        14039885.480885506        75339078.033099547     
   4542342615.3879948        16832491.607761145        71803474.201685801     
   4849812159.0990000       -19929895.488165140        248132800.56156582     
   4698346112.2108898       -10884589.131917715        229689601.26364529     
   4546559127.0189295       -2909077.1218397617        217533907.78359988     
   4394451203.5231190        3996640.5420796871        211665720.12143084     
   4242022341.7234731        9832563.8598563671        212085038.27712539     
   4503297631.0916739       -25835767.735369682        359447291.72071779     
   4365594710.6518097       -17270764.092964888        350813844.78788495     
   4227762315.1382990       -9137344.0293848515        346590751.46979380     
   4089800444.5511508       -1435507.5445888042        346778011.76644188     
   3951709098.8903503        5834745.3613712788        351375625.67783701     
   4188243301.9515638       -22303580.322398901        468877311.13084787     
   4058940215.9509916       -15827866.996526957        470276990.33167601     
   3929699118.1069784       -9145526.4821238518        474209870.94411439     
   3800520008.4195309       -2256558.7791728973        480675952.96815950     
   3671402886.8886371        4839036.1123058796        489675236.40380907     
   3904649171.6786623       -9333333.2492723465        576422858.79195201     
   3778382628.1084332       -6555897.8426127434        588079037.89501476     
   3652369535.9249706       -2933624.4800677299        600391266.20654750     
   3526609895.1282701        1533486.8383529186        613359543.72655690     
   3401103705.7183352        6845436.1126706600        626983870.45504069     
   4542342615.3879948        16832491.607761145        71803474.201685801     
   4345427276.7026758        11521900.331454515        56684688.210828505     
   4148584231.7831364        6452288.2744338512        47231046.605862044     
   3951813480.6294065        1623655.4367694855        43442549.386785798     
   3755115023.2414856       -2963998.1815326214        45319196.553586304     
   4242022341.7234731        9832563.8598563671        212085038.27712539     
   4059588773.1689053        6262283.2033975124        200246371.37188929     
   3877209247.1284719        2872144.2607073784        193480773.11524206     
   3694883763.6021543       -337852.96826744080        191788243.50715801     
   3512612322.5899634       -3367708.4834768772        195168782.54765257     
   3951709098.8903503        5834745.3613712788        351375625.67783701     
   3782065655.5028033        3497281.8356711864        342795784.73127335     
   3612458003.3776970        1279122.5181152821        338696936.69597244     
   3442886142.5150485       -819732.59125351906        339079081.57193166     
   3273350072.9148359       -2799283.4924991131        343942219.35915464     
   3671402886.8886371        4839036.1123058796        489675236.40380907     
   3512857923.7043486        3226896.2282240391        484332928.28895903     
   3354330500.5308342        1673223.0467197895        482879537.34805995     
   3195820617.3680854        178016.56777977943        485315063.58110589     
   3037328274.2161202       -1258723.2085726261        491639506.98810410     
   3401103705.7183352        6845436.1126706600        626983870.45504069     
   3251965577.7735500        5451126.3810768127        624857802.04495227     
   3102826738.5878668        4054445.8464826345        626028575.07149673     
   2953687188.1612797        2655394.5088759661        630496189.53467417     
   2804546926.4937792        1253972.3682461977        638260645.43448520     
   3755115023.2414856       -2963998.1815326214        45319196.553586304     
   3582185080.9144011       -994647.32059049606        34451846.587773688     
   3408804679.9606137       -526825.21530246735        27492428.395561233     
   3234973820.3801746       -1560531.8655252457        24440941.976923957     
   3060692502.1730537       -4095767.2713634968        25297387.331903495     
   3512612322.5899634       -3367708.4834768772        195168782.54765257     
   3349764265.5351958       -880302.38921618462        184932102.90422237     
   3186657932.8381090        746184.89733564854        178423236.64283159     
   3023293324.4987235        1511753.3762098551        175642183.76348221     
   2859670440.5170221        1416403.0473616123        176588944.26616585     
   3273350072.9148359       -2799283.4924991131        343942219.35915464     
   3120069277.1565256        51790.642368912697        334560423.51987237     
   2966722388.7402544        2682555.9173678160        328726322.67106849     
   2813309407.6660500        5093012.3325845003        326439916.81275123     
   2659830333.9339056        7283159.8879950047        327701205.94491273     
   3037328274.2161202       -1258723.2085726261        491639506.98810410     
   2893100115.7783728        1801631.7740840912        483336808.43472576     
   2748998047.6670518        5282287.8448030949        478401686.48027253     
   2605022069.8821535        9183245.0036090612        476834141.12474549     
   2461172182.4236822        13504503.250492692        478634172.36815149     
   2804546926.4937792        1253972.3682461977        638260645.43448520     
   2668856781.4007359        4369221.0059404373        631261257.64877760     
   2533484909.6184878        8545380.6796128750        627449328.07043874     
   2398431311.1470242        13782451.389243007        626824856.69947326     
   2263695985.9863534        20080433.134838939        629387843.53587282     
   3060692502.1730537       -4095767.2713634968        25297387.331903495     
   2892161165.7526131       -4981665.5931007862        14988280.588013902     
   2724030403.9246774       -4532315.2731649876        7383290.4529481400     
   2556300216.6891675       -2747716.3118002415        2482416.9267023685     
   2388970604.0461740        372131.29127633572        285660.00928811682     
   2859670440.5170221        1416403.0473616123        176588944.26616585     
   2698371484.8682275        1890465.2504239082        166949360.12575486     
   2537246563.5641870        2944641.9359898567        159855192.15668648     
   2376295676.6048975        4578933.1040582657        155306440.35895628     
   2215518823.9903498        6793338.7545999289        153303104.73254693     
   2659830333.9339056        7283159.8879950047        327701205.94491273     
   2505310329.2353439        8981153.6693994999        318466847.45230675     
   2350737818.6338296        10504127.774265885        311619204.69356036     
   2196112802.1293111        11852082.202468872        307158277.66864425     
   2041435279.7218261        13025016.954120159        305084066.37758070     
   2461172182.4236822        13504503.250492692        478634172.36815149     
   2312977698.8539715        16290399.663841724        469540742.56767416     
   2164504169.1335516        18146142.241518736        462675328.06355160     
   2015751593.2624292        19071730.983503938        458037928.85578263     
   1866719971.2406142        19067165.889830709        455628544.94436252     
   2263695985.9863534        20080433.134838939        629387843.53587282     
   2121373593.7240839        23818203.233719349        620171045.47184217     
   1978545615.0633819        25870685.337808847        613023562.26667356     
   1835212050.0042565        26237879.447159529        607945393.92036605     
   1691372898.5466993        24919785.561743617        604936540.43292952     
   2388970604.0461740        372131.29127633572        285660.00928811682     
   2246982998.5216775        6982420.3652892113       -6125106.0729867062     
   2101883503.6808133        3219745.0514283180       -10680455.699254917     
   1953672119.5235777       -10915894.650351644       -13380388.869513955     
   1802348846.0499756       -35424498.740007758       -14224905.583761258     
   2215518823.9903498        6793338.7545999289        153303104.73254693     
   2077205163.2855818        12924418.939975739        143281871.47450390     
   1936856622.2768896        12272564.778944254        134341919.82684183     
   1794473200.9642575        4837776.2714321613        126483249.78956327     
   1650054899.3477001       -9379946.5824975967        119705861.36268361     
   2041435279.7218261        13025016.954120159        305084066.37758070     
   1904583749.9921503        18013344.097475052        292708876.45827055     
   1766774348.9709823        19808766.935874820        280640833.30372727     
   1628007076.6583064        18411285.469239175        268879936.91393763     
   1488281933.0541420        13820899.697648048        257426187.28891164     
   1866719971.2406142        19067165.889830709        455628544.94436252     
   1729118758.6413696        22249195.837776184        442155908.87831485     
   1591636683.7630739        25828351.522193551        428216284.73138177     
   1454273746.6057174        29804632.943075359        413809672.50359553     
   1317029947.1692884        34178040.100381553        398936072.19493788     
   1691372898.5466993        24919785.561743617        604936540.43292952     
   1550810189.2332501        25631974.160862386        591622968.73462951     
   1411443626.6531794        30331318.537926435        577068274.10982561     
   1273273210.8064773        39017818.692868471        561272456.55854321     
   1136298941.6931498        51691474.625742972        544235516.08076334     
   1802348846.0499756       -35424498.740007758       -14224905.583761258     
   1771494720.2520959       -16362827.420123935       -8556031.7289738841     
   1748651075.7091382        29400448.082866311       -41639304.730863772     
   1733817912.4211476        101865327.76906401       -113474724.58941042     
   1726995230.3880827        201031811.63834757       -224062291.30459848     
   1650054899.3477001       -9379946.5824975967        119705861.36268361     
   1527516250.4630108       -13865007.415268481        135341428.21390444     
   1409101778.2789049       -4602812.5794275403        124636446.96716176     
   1294811482.7953792        18406637.925024271        87590917.622458145     
   1184645364.0124576        55163344.098134100        24204840.179780766     
   1488281933.0541420        13820899.697648048        257426187.28891164     
   1309520471.8217561       -3572380.0660772324        278494425.15651345     
   1130996882.7356005       -20172752.675697744        285633713.68483675     
   952711165.79568362       -35980218.131194174        278844052.87388402     
   774663321.00201464       -50994776.432524860        258125442.72366932     
   1317029947.1692884        34178040.100381553        398936072.19493788     
   1117507384.3283315        14515054.627456486        420902959.09883016     
   914336389.07926285       -17309372.205837131        441352495.42214662     
   707516961.42207384       -61295240.399533302        460284681.16488951     
   497049101.35676605       -117442549.95362550        477699516.32703966     
   1136298941.6931498        51691474.625742972        544235516.08076334     
   951476987.98274052        40397296.665363550        562567030.04088020     
   759120297.30986714        3987328.8300927281        591792792.17910945     
   559228869.67452264       -57538428.880084842        631912802.49544728     
   351802705.07670480       -144179976.46515653        682927060.98989761     
   1726995230.3880827        201031811.63834757       -224062291.30459848     
   1456483191.5112848        184516269.97922778       -96556494.902358189     
   1153845142.7145677        60914028.587010264        60118723.836921625     
   819081083.99791241       -169774912.53828394        245963364.91325122     
   452191015.36134887       -507550553.39667243        460977428.32662547     
   1184645364.0124576        55163344.098134100        24204840.179780766     
   977573724.34131038        11787983.995213687        155584754.35412368     
   732711703.56766713       -157555313.11600360        312793972.91353786     
   450059301.69155866       -452866547.23545569        495832495.85807329     
   129616518.71295506       -874145718.36319113        704700323.18766725     
   774663321.00201464       -50994776.432524860        258125442.72366932     
   621488886.38804853       -124092913.22381312        386771041.62379313     
   424859699.48904723       -342040224.29856002        537905826.95705462     
   184775760.30502963       -704836709.65669334        711529798.72344220     
  -98762931.164027691       -1212482369.2982867        907642956.92297244     
   497049101.35676605       -117442549.95362550        477699516.32703966     
   388228677.65154684       -223126421.67779860        597002366.90664577     
   230289130.47874504       -492540704.96058112        735454285.96743345     
   23230459.838359237       -925685399.80196679        893055273.50939298     
  -232947334.26959214       -1522560506.2019434        1069805329.5325501     
   351802705.07670480       -144179976.46515653        682927060.98989761     
   277793098.13177121       -285312541.36679959        786278730.20267963     
   148999996.53672600       -609056755.10215390        905439349.94469476     
  -34576599.708449543       -1115412617.6712840        1040408920.2159264     
  -272936690.60375822       -1804380129.0741804        1191187441.0163939     
   4559809717.5967026        8805707.4660158157        374481815.98207676     
   4397090008.3703613        7839038.1310718060        441485153.84835202     
   4233656680.9752374        4493641.5668821335        497476440.27209324     
   4069509735.4113407       -1230482.2265653610        542455675.25328898     
   3904649171.6786623       -9333333.2492723465        576422858.79195201     
   4364629129.9948826        66936032.742742538        645023922.17000842     
   4179584808.6851678        52591998.007025480        673885681.60123968     
   3994238969.7213926        37242904.424408197        699673798.27260017     
   3808591613.1035428        20888751.994888544        722388272.18409276     
   3622642738.8316202        3529540.7184672356        742029103.33570814     
   4050823913.2129230        89478969.265423775        912756412.63112462     
   3866136147.4846106        68561919.428368568        903957377.56113040     
   3681558964.6169310        48013479.126757383        900023108.41393673     
   3497092364.6098852        27833648.360591173        900953605.18953574     
   3312736347.4634724        8022427.1298685074        906748867.88792622     
   3618394067.2508149        76434517.034060717        1177679287.3654187     
   3456744024.7686586        55748802.395089865        1131700241.7280278     
   3295616665.6618433        36805365.673918128        1098524370.6960976     
   3135011989.9303627        19604206.870531082        1078151674.2696271     
   2974929997.5742235        4145325.9849460125        1070582152.4486175     
   3067339592.1085649        27802676.048658371        1439792546.3728952     
   2951408440.5373263        14152646.907200456        1357114274.1019268     
   2836412072.8561316        3618564.0658880472        1295177585.1190801     
   2722350489.0649772       -3799572.4752829075        1253982479.4243667     
   2609223689.1638656       -8101762.7163189650        1233528957.0177736     
   3904649171.6786623       -9333333.2492723465        576422858.79195201     
   3778382628.1084332       -6555897.8426127434        588079037.89501476     
   3652369535.9249706       -2933624.4800677299        600391266.20654750     
   3526609895.1282701        1533486.8383529186        613359543.72655690     
   3401103705.7183352        6845436.1126706600        626983870.45504069     
   3622642738.8316202        3529540.7184672356        742029103.33570814     
   3499734332.3929563        4886551.5110621452        744968112.85563362     
   3376998266.7198148        6818031.5220675468        750162045.87152863     
   3254434541.8121948        9323980.7514837980        757610902.38340652     
   3132043157.6701069        12404399.199326396        767314682.39125049     
   3312736347.4634724        8022427.1298685074        906748867.88792622     
   3197754290.4063692        9329476.9833996296        900876078.76660264     
   3082863463.4935513        10940627.317873836        898857087.42875397     
   2968063866.7250123        12855878.133288741        900691893.87437797     
   2853355500.1007609        15075229.429650307        906380498.10347342     
   2974929997.5742235        4145325.9849460125        1070582152.4486175     
   2872442502.1486769        6772878.5744076967        1055802935.6279289     
   2769965126.2461729        9434162.9073439837        1046476390.8782127     
   2667497869.8667116        12129178.983746767        1042602518.1994679     
   2565040733.0102959        14857926.803640127        1044181317.5916961     
   2609223689.1638656       -8101762.7163189650        1233528957.0177736     
   2523798967.6198769       -2783243.7159167528        1209748683.4396088     
   2438303254.9776888        2298638.2904840708        1193019956.2199118     
   2352736551.2373013        7143883.3028854132        1183342775.3586898     
   2267098856.3987131        11752491.321291208        1180717140.8559320     
   3401103705.7183352        6845436.1126706600        626983870.45504069     
   3251965577.7735500        5451126.3810768127        624857802.04495227     
   3102826738.5878668        4054445.8464826345        626028575.07149673     
   2953687188.1612797        2655394.5088759661        630496189.53467417     
   2804546926.4937792        1253972.3682461977        638260645.43448520     
   3132043157.6701069        12404399.199326396        767314682.39125049     
   2992048452.7893419        10577993.280847430        762131807.89122641     
   2852128113.8608370        8999473.8698923588        760785208.81616712     
   2712282140.8845720        7668840.9664047956        763274885.16608489     
   2572510533.8605618        6586094.5704323053        769600836.94097435     
   2853355500.1007609        15075229.429650307        906380498.10347342     
   2724045458.2506986        13279099.314296007        898228407.57218778     
   2594884859.5460420        11981113.016952515        894452026.45421088     
   2465873703.9867878        11181270.537620425        895051354.74954176     
   2337011991.5729365        10879571.876299262        900026392.45818579     
   2565040733.0102959        14857926.803640127        1044181317.5916961     
   2447956594.1576147        13554444.481406212        1033147601.0878332     
   2331096975.6434860        12999363.287685990        1027029027.9856168     
   2214461877.4679193        13192683.222502708        1025825598.2850477     
   2098051299.6309137        14134404.285845518        1029537311.9861237     
   2267098856.3987131        11752491.321291208        1180717140.8559320     
   2163781860.5100894        11404028.782184482        1166889388.4381723     
   2060764462.1531737        12054224.682100177        1158516213.4103925     
   1958046661.3279743        13703079.021076202        1155597615.7725997     
   1855628458.0344799        16350591.799068332        1158133595.5247889     
   2804546926.4937792        1253972.3682461977        638260645.43448520     
   2668856781.4007359        4369221.0059404373        631261257.64877760     
   2533484909.6184878        8545380.6796128750        627449328.07043874     
   2398431311.1470242        13782451.389243007        626824856.69947326     
   2263695985.9863534        20080433.134838939        629387843.53587282     
   2572510533.8605618        6586094.5704323053        769600836.94097435     
   2445424793.3499022        9835732.3091518879        761840945.56623697     
   2318611911.6214972        13994899.322060585        757481355.87034428     
   2192071888.6753635        19063595.609198213        756522067.85328484     
   2065804724.5114911        25041821.170534611        758963081.51508021     
   2337011991.5729365        10879571.876299262        900026392.45818579     
   2219138779.8488536        14446035.977278948        891453013.87780809     
   2101493012.3785033        18770647.590713739        886492780.44774663     
   1984074689.1618915        23853406.716603279        885145692.16799676     
   1866883810.1990194        29694313.354957581        887411749.03855133     
   2098051299.6309137        14134404.285845518        1029537311.9861237     
   1989998740.8976021        18200132.010345221        1020097462.5834978     
   1882128211.8895061        22872625.485559225        1014483601.8026526     
   1774439712.6066208        28151884.711472034        1012695729.6435832     
   1666933243.0489492        34037909.688095927        1014733846.1062995     
   1855628458.0344799        16350591.799068332        1158133595.5247889     
   1758004676.4961517        21098020.408378243        1147774291.6832991     
   1660517510.1545024        26300833.006606162        1141453819.9350557     
   1563166959.0095396        31959029.593798697        1139172180.2800629     
   1465953023.0612648        38072610.169943392        1140929372.7183244     
   2263695985.9863534        20080433.134838939        629387843.53587282     
   2121373593.7240839        23818203.233719349        620171045.47184217     
   1978545615.0633819        25870685.337808847        613023562.26667356     
   1835212050.0042565        26237879.447159529        607945393.92036605     
   1691372898.5466993        24919785.561743617        604936540.43292952     
   2065804724.5114911        25041821.170534611        758963081.51508021     
   1929481669.8052881        27902590.164012790        749232400.33944762     
   1792819367.6980221        29632534.487269759        742249664.21855748     
   1655817818.1896830        30231654.140305102        738014873.15240824     
   1518477021.2802978        29699949.123159289        736528027.14099324     
   1866883810.1990194        29694313.354957581        887411749.03855133     
   1738499036.4656699        32259764.268070936        877361246.91492200     
   1609941354.3286159        34248853.835510790        870737320.04190433     
   1481210763.7878721        35661582.057306170        867539968.41950583     
   1352307264.8434260        36497948.933440566        867769192.04771602     
   1666933243.0489492        34037909.688095927        1014733846.1062995     
   1548425693.7052288        36889725.545873284        1004557585.1982625     
   1429911574.9551704        39719643.382529795        998486529.73671043     
   1311390886.7987924        42527663.198116541        996520679.72165287     
   1192863629.2360799        45313784.992579579        998660035.15307581     
   1465953023.0612648        38072610.169943392        1140929372.7183244     
   1359261641.5239604        41792473.997427344        1130821415.1894705     
   1252730029.5776951        46044903.128369689        1125497293.3029807     
   1146358187.2224565        50829897.562730968        1124957007.0588477     
   1040146114.4582597        56147457.300576329        1129200556.4570825     
   1691372898.5466993        24919785.561743617        604936540.43292952     
   1550810189.2332501        25631974.160862386        591622968.73462951     
   1411443626.6531794        30331318.537926435        577068274.10982561     
   1273273210.8064773        39017818.692868471        561272456.55854321     
   1136298941.6931498        51691474.625742972        544235516.08076334     
   1518477021.2802978        29699949.123159289        736528027.14099324     
   1376189062.5862522        27647698.315504849        727346784.61729896     
   1234216353.1030796        26646278.210754752        718717497.66735446     
   1092558892.8307936        26695688.808960557        710640166.29116738     
   951216681.76939237        27795930.110119522        703114790.48872483     
   1352307264.8434260        36497948.933440566        867769192.04771602     
   1213417138.1980507        33218183.147746086        861692564.92237663     
   1073961363.2410579        28052922.990008235        857960971.87104619     
   933939939.97245896        21002168.460244596        856574412.89371121     
   793352868.39225471        12065919.558455318        857532887.99037623     
   1192863629.2360799        45313784.992579579        998660035.15307581     
   1062494416.0686488        42343428.657650709        994660309.64986336     
   930678657.06710935        34551252.875679433        994798696.72090316     
   797416352.23148310        21937257.646755993        999075196.36619067     
   662707501.56174350        4501442.9707957208        1007489808.5857159     
   1040146114.4582597        56147457.300576329        1129200556.4570825     
   923420896.19805491        55023434.845187664        1126250018.7997613     
   804368234.58124197        46141267.867783278        1129230672.2169299     
   682988129.60784900        29500956.368437022        1138142516.7085950     
   559280581.27786064        5102500.3471113145        1152985552.2747383     
   1136298941.6931498        51691474.625742972        544235516.08076334     
   951476987.98274052        40397296.665363550        562567030.04088020     
   759120297.30986714        3987328.8300927281        591792792.17910945     
   559228869.67452264       -57538428.880084842        631912802.49544728     
   351802705.07670480       -144179976.46515653        682927060.98989761     
   951216681.76939237        27795930.110119522        703114790.48872483     
   791957254.68930137        10882765.165758252        721118577.53233063     
   624049671.95446539       -34857585.294397056        749188287.72514451     
   447493933.56487316       -109425121.27041897        787323921.06716585     
   262290039.52053756       -212819842.76224950        835525477.55837679     
   793352868.39225471        12065919.558455318        857532887.99037623     
   657289325.00275862       -11176225.251743108        873909959.64314198     
   511464207.26622629       -66956951.218724698        899524629.41620338     
   355877515.18265939       -155276258.34248906        934376897.30955935     
   190529248.75205636       -276134146.62304330        978466763.32321620     
   662707501.56174350        4501442.9707957208        1007489808.5857159     
   547473198.92310274       -25779674.587202519        1020941176.3732991     
   421363903.24514830       -92310768.942907393        1042801817.2522895     
   284379614.52787143       -195091840.09634811        1073071731.2226611     
   136520332.77127558       -334122888.04752356        1111750918.2844255     
   559280581.27786064        5102500.3471113145        1152985552.2747383     
   462508876.45034337       -32927582.840576410        1162212227.7228270     
   353748759.89122349       -110919038.46695079        1179019851.2333934     
   233000231.60050729       -228871866.53197664        1203408422.8064470     
   100263291.57817852       -386786067.03570545        1235377942.4419911     
   351802705.07670480       -144179976.46515653        682927060.98989761     
   277793098.13177121       -285312541.36679959        786278730.20267963     
   148999996.53672600       -609056755.10215390        905439349.94469476     
  -34576599.708449543       -1115412617.6712840        1040408920.2159264     
  -272936690.60375822       -1804380129.0741804        1191187441.0163939     
   262290039.52053756       -212819842.76224950        835525477.55837679     
   223599233.17511055       -352468506.61203659        884932825.80481541     
   140672273.47282842       -639571014.98467958        945357092.97121286     
   13509160.413674474       -1074127367.8802218        1016798279.0575987     
  -157890106.00233483       -1656137565.2986233        1099256384.0639181     
   190529248.75205636       -276134146.62304330        978466763.32321620     
   173465724.12254077       -418406365.08605623        986235022.11211586     
   122713387.42942026       -672974623.76107335        1000228168.2117181     
   38272238.672707558       -1039838922.6480805        1020446201.6220245     
  -79857722.147607327       -1518999261.7470753        1046889122.3430549     
   136520332.77127558       -334122888.04752356        1111750918.2844255     
   127392570.97406432       -483126116.78885633        1090185319.1245778     
   95123338.406517684       -709267581.43130815        1070052575.6662019     
   39712635.068639815       -1012547281.9748526        1051352687.9092696     
  -38839539.039572895       -1392965218.4195347        1034085655.8537674     
   100263291.57817852       -386786067.03570545        1235377942.4419911     
   85379773.729686856       -546627761.72040653        1196783716.8422260     
   57902126.404110491       -748449887.99539590        1154830315.3346603     
   17830349.601475120       -992252445.86058426        1109517737.9192827     
  -34835556.678232551       -1278035435.3160026        1060845984.5960952     
   3067339592.1085649        27802676.048658371        1439792546.3728952     
   2951408440.5373263        14152646.907200456        1357114274.1019268     
   2836412072.8561316        3618564.0658880472        1295177585.1190801     
   2722350489.0649772       -3799572.4752829075        1253982479.4243667     
   2609223689.1638656       -8101762.7163189650        1233528957.0177736     
   2512855773.1711535       -25815660.315712929        1366423636.1700692     
   2444418667.6643858       -27713420.294128418        1320937074.4320920     
   2376745619.8687000       -27064321.235610723        1288530748.8794963     
   2309836629.7840958       -23868363.140156984        1269204659.5122833     
   2243691697.4105740       -18125546.007757068        1262958806.3304527     
   2072747363.2348132       -45121373.979759455        1292194337.5243387     
   2029914740.6418221       -41833733.740351796        1283700305.7772338     
   1987675449.5809455       -36568321.727211356        1280625163.1127679     
   1946029490.0521972       -29325137.940327525        1282968909.5309370     
   1904976862.0555642       -20104182.379715681        1290731545.0317454     
   1747014362.2995455       -30114464.943487763        1217104650.4357014     
   1707896659.4696321       -28208293.431460977        1245403968.1373501     
   1669201561.9928746       -24893437.408904552        1271460827.8188894     
   1630929069.8692756       -20169896.875812531        1295275229.4803216     
   1593079183.0988412       -14037671.832184017        1316847173.1216505     
   1535656770.3653591        19205066.793111622        1141154574.9041650     
   1478364424.1478207        13162900.632546604        1206048061.5124435     
   1421323957.1044798        7960331.7193068266        1261037742.9978678     
   1364535369.2353377        3597360.0534013510        1306123619.3604448     
   1307998660.5403969        73985.634824573994        1341305690.6001701     
   2609223689.1638656       -8101762.7163189650        1233528957.0177736     
   2523798967.6198769       -2783243.7159167528        1209748683.4396088     
   2438303254.9776888        2298638.2904840708        1193019956.2199118     
   2352736551.2373013        7143883.3028854132        1183342775.3586898     
   2267098856.3987131        11752491.321291208        1180717140.8559320     
   2243691697.4105740       -18125546.007757068        1262958806.3304527     
   2174916736.4160976       -12012359.087279439        1247783855.6923623     
   2106142143.0123210       -5897946.8644700050        1238181481.9061763     
   2037367917.1992428        217690.66066634655        1234151684.9718971     
   1968594058.9768641        6334553.4881405830        1235694464.8895264     
   1904976862.0555642       -20104182.379715681        1290731545.0317454     
   1848626034.4489863       -14464015.687645078        1284245169.1374471     
   1792346933.1220090       -8584761.3969074488        1281852400.5884867     
   1736139558.0746281       -2466419.5075162649        1283553239.3848650     
   1680003909.3068478        3891009.9805446863        1289347685.5265901     
   1593079183.0988412       -14037671.832184017        1316847173.1216505     
   1544926861.7185447       -10138213.517011404        1319132623.7748559     
   1496917625.3067548       -5761805.3068241477        1324032712.2668366     
   1449051473.8634560       -908447.20166283846        1331547438.5975971     
   1401328407.3886561        4421860.7984889150        1341676802.7671320     
   1307998660.5403969        73985.634824573994        1341305690.6001701     
   1263819218.2247770        965047.42463439703        1352446219.6045971     
   1219854219.5665517        2570921.4057577848        1364722416.9412365     
   1176103664.5657268        4891607.5782158971        1378134282.6100848     
   1132567553.2222989        7927105.9419933558        1392681816.6111517     
   2267098856.3987131        11752491.321291208        1180717140.8559320     
   2163781860.5100894        11404028.782184482        1166889388.4381723     
   2060764462.1531737        12054224.682100177        1158516213.4103925     
   1958046661.3279743        13703079.021076202        1155597615.7725997     
   1855628458.0344799        16350591.799068332        1158133595.5247889     
   1968594058.9768641        6334553.4881405830        1235694464.8895264     
   1879215250.1656780        6668890.5835810900        1225492315.1444907     
   1790099123.9470496        7878836.3208848238        1220399701.2302959     
   1701245680.3209832        9964390.7000607252        1220416623.1469414     
   1612654919.2874761        12925553.721095383        1225543080.8944290     
   1680003909.3068478        3891009.9805446863        1289347685.5265901     
   1603577454.5469761        4612396.8027055264        1282728071.0252728     
   1527376767.4405107        6086342.4695479274        1280872950.7956514     
   1451401847.9874539        8312846.9810936451        1283782324.8377273     
   1375652696.1878054        11291910.337328911        1291456193.1515017     
   1401328407.3886561        4421860.7984889150        1341676802.7671320     
   1336868473.6539760        5234547.4395263791        1338596656.0805206     
   1272597392.6335523        6676743.1280871034        1339935962.1064625     
   1208515164.3273830        8748447.8641591668        1345694720.8449605     
   1144621788.7354717        11449661.647763550        1355872932.2960117     
   1132567553.2222989        7927105.9419933558        1392681816.6111517     
   1079088307.4866855        8535342.4940751195        1393098070.3102326     
   1025760999.5261751        9650038.2964963913        1397588735.1627257     
   972585629.34076965        11271193.349265873        1406153811.1686332     
   919562196.93046975        13398807.652387738        1418793298.3279493     
   1855628458.0344799        16350591.799068332        1158133595.5247889     
   1758004676.4961517        21098020.408378243        1147774291.6832991     
   1660517510.1545024        26300833.006606162        1141453819.9350557     
   1563166959.0095396        31959029.593798697        1139172180.2800629     
   1465953023.0612648        38072610.169943392        1140929372.7183244     
   1612654919.2874761        12925553.721095383        1225543080.8944290     
   1525624972.8047009        16964348.987610817        1217552063.4060905     
   1438734137.9361241        21466849.634779930        1213834848.4847960     
   1351982414.6817467        26433055.662617683        1214391436.1305571     
   1265369803.0415649        31862967.071106970        1219221826.3433683     
   1375652696.1878054        11291910.337328911        1291456193.1515017     
   1299887928.9714489        14823475.524319708        1285836374.5034101     
   1224264769.7868035        18827067.483680964        1284725328.8961654     
   1148783218.6338651        23302686.215400279        1288123056.3297749     
   1073443275.5126398        28250331.719499707        1296029556.8042378     
   1144621788.7354717        11449661.647763550        1355872932.2960117     
   1080793544.9963901        14675400.018484890        1352627224.9752593     
   1017109405.7065340        18381486.553292394        1354125261.1691658     
   953569370.86589885        22567921.252172351        1360367040.8777208     
   890173440.47448730        27234704.115125835        1371352564.1009309     
   919562196.93046975        13398807.652387738        1418793298.3279493     
   868341820.87952316        16520122.470100939        1417924614.8216460     
   817268045.69532132        20130106.843629926        1422034645.3037920     
   766340871.37784100        24228760.772897631        1431123389.7743933     
   715560297.92710626        28816084.257983446        1445190848.2334497     
   1465953023.0612648        38072610.169943392        1140929372.7183244     
   1359261641.5239604        41792473.997427344        1130821415.1894705     
   1252730029.5776951        46044903.128369689        1125497293.3029807     
   1146358187.2224565        50829897.562730968        1124957007.0588477     
   1040146114.4582597        56147457.300576329        1129200556.4570825     
   1265369803.0415649        31862967.071106970        1219221826.3433683     
   1170991471.5474725        35229003.093592644        1212250787.1669016     
   1076649307.9359972        38715598.724812031        1210049141.8747721     
   982343312.20713234        42322753.964728057        1212616890.4669785     
   888073484.36088765        46050468.813377500        1219954032.9435210     
   1073443275.5126398        28250331.719499707        1296029556.8042378     
   991336731.89596474        31250161.287248611        1292051233.9870036     
   909142754.45348990        33958544.768998176        1292827863.2960789     
   826861343.18520963        36375482.164728940        1298359444.7314603     
   744492498.09112489        38500973.474451452        1308645978.2931569     
   890173440.47448730        27234704.115125835        1371352564.1009309     
   820297422.56944323        29855948.578402072        1370222755.6497703     
   750210369.13018143        31773741.260957330        1373833457.5668981     
   679912280.15669250        32988082.162749797        1382184669.8523057     
   609403155.64898503        33498971.283813953        1395276392.5059996     
   715560297.92710626        28816084.257983446        1445190848.2334497     
   657873543.56790555        31046364.967054099        1446765352.1552107     
   599852151.96606374        32161188.200657070        1453065924.6872306     
   541496123.12158704        32160553.958810031        1464092565.8295052     
   482805457.03446275        31044462.241468400        1479845275.5820436     
   1040146114.4582597        56147457.300576329        1129200556.4570825     
   923420896.19805491        55023434.845187664        1126250018.7997613     
   804368234.58124197        46141267.867783278        1129230672.2169299     
   682988129.60784900        29500956.368437022        1138142516.7085950     
   559280581.27786064        5102500.3471113145        1152985552.2747383     
   888073484.36088765        46050468.813377500        1219954032.9435210     
   786459729.49371123        44155483.013827711        1217251463.9647956     
   682555176.49650145        34624503.447502702        1220419821.1394839     
   576359825.36925983        17457530.114403367        1229459104.4675894     
   467873676.11199528       -7345436.9854389131        1244369313.9491105     
   744492498.09112489        38500973.474451452        1308645978.2931569     
   657818021.12819564        35783368.684124500        1306234130.7573540     
   568889391.26179457        25551920.882224709        1309632944.4538834     
   477706608.49192685        7806630.0687730312        1318842419.3827567     
   384269672.81858873       -17452503.756248176        1333862555.5439682     
   609403155.64898503        33498971.283813953        1395276392.5059996     
   537495771.10151231        29907091.856076807        1393198019.1774380     
   463370878.87712747        18923520.171962425        1396870042.1601324     
   387028478.97583562        548256.23148865998        1406292461.4540884     
   308468571.39763975       -25218699.965328455        1421465277.0593162     
   482805457.03446275        31044462.241468400        1479845275.5820436     
   425492979.41364926        26526652.529651910        1478143129.2250445     
   365999639.34249675        14739301.316707700        1482131114.2582288     
   304325436.82098913       -4317591.3974197656        1491809230.6815996     
   240470371.84914923       -30644025.612657905        1507177478.4951527     
   559280581.27786064        5102500.3471113145        1152985552.2747383     
   462508876.45034337       -32927582.840576410        1162212227.7228270     
   353748759.89122349       -110919038.46695079        1179019851.2333934     
   233000231.60050729       -228871866.53197664        1203408422.8064470     
   100263291.57817852       -386786067.03570545        1235377942.4419911     
   467873676.11199528       -7345436.9854389131        1244369313.9491105     
   390323979.63413376       -41726521.990660161        1242807675.3977673     
   302630540.35936189       -109920082.98558816        1247609172.5492575     
   204793358.28768909       -211926119.97018433        1258773805.4035861     
   96812433.419103742       -347744632.94448620        1276301573.9607415     
   384269672.81858873       -17452503.756248176        1333862555.5439682     
   322462520.80567116       -49228429.744428098        1323664716.7503424     
   252356294.93054479       -108667935.27330551        1318612201.2999041     
   173950995.19320595       -195771020.34288478        1318705009.1926529     
   87246621.593655288       -310537684.95317572        1323943140.4285853     
   308468571.39763975       -25218699.965328455        1421465277.0593162     
   258924499.96495718       -55433306.101867318        1404783351.7805521     
   202926023.60476118       -107162595.33012612        1392028937.4853258     
   140473142.31705511       -180406567.65008226        1383202034.1736455     
   71565856.101829708       -275165223.06176674        1378302641.8455052     
   240470371.84914923       -30644025.612657905        1507177478.4951527     
   199709917.11199325       -60341151.062984839        1486163580.4884002     
   154339726.38202646       -105404063.15600878        1467859381.1055424     
   104359799.65923378       -165832761.89179003        1452264880.3465662     
   49770136.943621904       -241627247.27029911        1439380078.2114873     
   100263291.57817852       -386786067.03570545        1235377942.4419911     
   85379773.729686856       -546627761.72040653        1196783716.8422260     
   57902126.404110491       -748449887.99539590        1154830315.3346603     
   17830349.601475120       -992252445.86058426        1109517737.9192827     
  -34835556.678232551       -1278035435.3160026        1060845984.5960952     
   96812433.419103742       -347744632.94448620        1276301573.9607415     
   79850515.954061210       -488912618.65068638        1221983172.3850617     
   51501456.701530039       -668037743.64850140        1165115860.3247993     
   11765255.661522031       -885120007.93792248        1105699637.7799568     
  -39358087.165952921       -1140159411.5188863        1043734504.7505521     
   87246621.593655288       -310537684.95317572        1323943140.4285853     
   70521348.578449428       -432337448.46094525        1255308715.1814928     
   43615921.465342551       -588071058.96170831        1184935644.8730505     
   6530340.2543568611       -777738516.45540428        1112823929.5032656     
  -40735395.054514229       -1001339820.9420488        1038973569.0721503     
   71565856.101829708       -275165223.06176674        1378302641.8455052     
   57392271.602840170       -376902251.15121174        1296760345.2315297     
   34245520.695551187       -508549833.93498003        1214289668.9794323     
   2125603.3799652755       -670107971.41307747        1130890613.0892260     
  -38967480.343905300       -861576663.58545363        1046563177.5609447     
   49770136.943621904       -241627247.27029911        1439380078.2114873     
   40463285.027247459       -322607026.72145325        1346338062.5351496     
   23390254.392149568       -429474068.56835490        1253177932.6439340     
  -1448954.9616402090       -562228372.81089640        1159899688.5378418     
  -34054343.034127802       -720869939.44909441        1066503330.2168845     
   1535656770.3653591        19205066.793111622        1141154574.9041650     
   1478364424.1478207        13162900.632546604        1206048061.5124435     
   1421323957.1044798        7960331.7193068266        1261037742.9978678     
   1364535369.2353377        3597360.0534013510        1306123619.3604448     
   1307998660.5403969        73985.634824573994        1341305690.6001701     
   1323468818.0588787        65921667.771288335        1311816124.7604523     
   1247845862.8371894        51593935.281769454        1340706880.2128701     
   1172411816.9652495        37895900.624748588        1367313026.0916259     
   1097166680.4430616        24827563.800230801        1391634562.3967237     
   1022110453.2706244        12388924.808215797        1413671489.1281598     
   996796706.98261058        78293021.118525445        1481442721.0036821     
   924612272.89731586        62210461.342221230        1474257280.5050485     
   852553778.33732390        46547699.983587444        1472406425.9819446     
   780621223.30263054        31304737.042617083        1475890157.4343719     
   708814607.79324031        16481572.519325256        1484708474.8623281     
   555640437.13655353        56319126.834827557        1650034363.6338475     
   508663654.32819921        45012478.813900083        1606699262.3889725     
   461749841.22069436        33915729.795805544        1576317942.6688204     
   414898997.81404603        23028879.780565724        1558890404.4733856     
   368111124.10824519        12351928.768150494        1554416647.8026724     
   8.5207110597998259       -15.079805993655473        1817591052.6509533     
   7.1298398503853102       -12.303193857472031        1738032825.8646486     
   5.6153697534357683       -9.9385731558462851        1679047576.1522529     
   3.9773005630719305       -7.9859518608810536        1640635303.5137687     
   2.2156382040416678       -6.4453077948039086        1622796007.9491949     
   1307998660.5403969        73985.634824573994        1341305690.6001701     
   1263819218.2247770        965047.42463439703        1352446219.6045971     
   1219854219.5665517        2570921.4057577848        1364722416.9412365     
   1176103664.5657268        4891607.5782158971        1378134282.6100848     
   1132567553.2222989        7927105.9419933558        1392681816.6111517     
   1022110453.2706244        12388924.808215797        1413671489.1281598     
   982251460.19748127        11039898.176374972        1416222770.6325669     
   942553299.83858144        10226980.592009366        1421478749.7808952     
   903015972.19392550        9950172.0551251769        1429439426.5731452     
   863639477.26350915        10209472.565704644        1440104801.0093153     
   708814607.79324031        16481572.519325256        1484708474.8623281     
   677759004.85317361        14237339.733017057        1478607962.7663696     
   646810623.68419528        12350512.850336134        1476781177.6260407     
   615969464.28630531        10821091.871285528        1479228119.4413416     
   585235526.65950429        9649076.7958614230        1485948788.2122731     
   368111124.10824519        12351928.768150494        1554416647.8026724     
   350341852.19185191        10557372.094552398        1539601796.0060015     
   332626191.10339528        8941518.1807421297        1530629700.4766710     
   314964140.84286791        7504367.0266972929        1527500361.2146766     
   297355701.41028053        6245918.6324508488        1530213778.2200258     
   2.2156382040416678       -6.4453077948039086        1622796007.9491949     
   2.2135171443035642       -4.7390145150585106        1599204270.3514616     
   2.0961780388385218       -3.4167820816256320        1583024318.3327801     
   1.8636179367103423       -2.4786192901251831        1574256151.8931484     
   1.5158359915264723       -1.9245293088103694        1572899771.0325646     
   1132567553.2222989        7927105.9419933558        1392681816.6111517     
   1079088307.4866855        8535342.4940751195        1393098070.3102326     
   1025760999.5261751        9650038.2964963913        1397588735.1627257     
   972585629.34076965        11271193.349265873        1406153811.1686332     
   919562196.93046975        13398807.652387738        1418793298.3279493     
   863639477.26350915        10209472.565704644        1440104801.0093153     
   821204251.62508702        9967912.6910130084        1437630944.0424871     
   778882979.31227481        10106197.235021889        1439774182.8647263     
   736675660.32508171        10624326.197762072        1446534517.4760332     
   694582294.66350234        11522299.579214811        1457911947.8764040     
   585235526.65950429        9649076.7958614230        1485948788.2122731     
   555394848.64871216        9022878.7535104156        1480540505.3884616     
   525630139.51404899        8649910.2982567847        1480292002.9893763     
   495941399.25550985        8530171.4300798178        1485203281.0150108     
   466328627.87309784        8663662.1489990354        1495274339.4653721     
   297355701.41028053        6245918.6324508488        1530213778.2200258     
   281660098.55756867        5700240.6815876812        1521826754.3481603     
   266002480.13149559        5281177.4861865491        1519142195.5366738     
   250382846.13205883        4988729.0462404191        1522160101.7855666     
   234801196.55926409        4822895.3617670089        1530880473.0948403     
   1.5158359915264723       -1.9245293088103694        1572899771.0325646     
   1.3516491039975211       -1.5247778772199028        1561489690.9215751     
   1.1646184932185637       -1.2011708020173431        1556324760.5066235     
  0.95472755159517919      -0.95376552351893040        1557404979.7877069     
  0.72199059917434760      -0.78251361434534195        1564730348.7648239     
   919562196.93046975        13398807.652387738        1418793298.3279493     
   868341820.87952316        16520122.470100939        1417924614.8216460     
   817268045.69532132        20130106.843629926        1422034645.3037920     
   766340871.37784100        24228760.772897631        1431123389.7743933     
   715560297.92710626        28816084.257983446        1445190848.2334497     
   694582294.66350234        11522299.579214811        1457911947.8764040     
   656089098.12935781        13839911.393460333        1456056191.8560483     
   617705852.24403691        16524025.370457590        1459197329.8609629     
   579432557.00753427        19574641.510178566        1467335361.8911474     
   541269212.41985476        22991759.812647015        1480470287.9466083     
   466328627.87309784        8663662.1489990354        1495274339.4653721     
   440614553.81808710        10193153.848474830        1492388752.3433981     
   414973780.19398582        11966980.317652285        1494518239.2835143     
   389406307.00079465        13985141.556529820        1501662800.2857168     
   363912134.23851329        16247637.565103516        1513822435.3500044     
   234801196.55926409        4822895.3617670089        1530880473.0948403     
   221918187.94571915        5579849.8351667821        1526922296.2836921     
   209071829.54517192        6458971.6852262542        1527997373.5714405     
   196262121.35762134        7460260.9119408950        1534105704.9580960     
   183489063.38306668        8583717.5153085291        1545247290.4436619     
  0.72199059917434760      -0.78251361434534195        1564730348.7648239     
  0.51225301473139773      -0.64646738054305408        1559656823.6769245     
  0.29758951713122228      -0.52683946948607085        1559634732.7247498     
   7.8021860949983646E-002 -0.42356152925685964        1564664075.9082935     
 -0.14647001560337441      -0.33669349359837059        1574744853.2275574     
   715560297.92710626        28816084.257983446        1445190848.2334497     
   657873543.56790555        31046364.967054099        1446765352.1552107     
   599852151.96606374        32161188.200657070        1453065924.6872306     
   541496123.12158704        32160553.958810031        1464092565.8295052     
   482805457.03446275        31044462.241468400        1479845275.5820436     
   541269212.41985476        22991759.812647015        1480470287.9466083     
   496107568.70114070        24095496.991887659        1480851353.0068381     
   450694947.04750240        24362641.054716632        1486401021.5332959     
   405031347.45892763        23793192.001088068        1497119293.5259869     
   359116769.93542945        22387149.831051037        1513006168.9849107     
   363912134.23851329        16247637.565103516        1513822435.3500044     
   332539986.46305734        16604146.805323958        1513107664.0743728     
   301000520.06038952        16402927.288170785        1518004031.1209428     
   269293735.03051001        15643979.013645306        1528511536.4897175     
   237419631.37341189        14327301.981725045        1544630180.1806962     
   183489063.38306668        8583717.5153085291        1545247290.4436619     
   167170796.85365734        8572314.4073694423        1543534285.3578262     
   150768871.00474501        8282046.9010887444        1547874953.4501736     
   134283285.83633253        7712914.9964712411        1558269294.7206936     
   117714041.34841968        6864918.6935233250        1574717309.1693883     
 -0.14647001560337441      -0.33669349359837059        1574744853.2275574     
 -0.12706273762090831      -0.20198773972094561        1572131216.8571942     
 -0.11944044654420571      -0.10656388775061813        1576013788.5209835     
 -0.12360424039603823       -5.0427679431464714E-002   1586392568.2189140     
 -0.13955887727508279       -3.3594281203018175E-002   1603267555.9509995     
   482805457.03446275        31044462.241468400        1479845275.5820436     
   425492979.41364926        26526652.529651910        1478143129.2250445     
   365999639.34249675        14739301.316707700        1482131114.2582288     
   304325436.82098913       -4317591.3974197656        1491809230.6815996     
   240470371.84914923       -30644025.612657905        1507177478.4951527     
   359116769.93542945        22387149.831051037        1513006168.9849107     
   316795921.01078522        19197845.335583374        1509697358.1145799     
   272839425.24847704        10556384.714567631        1511923859.8011849     
   227247282.64851737       -3537232.0319540650        1519685674.0447347     
   180019493.21089959       -23083004.903998755        1532982800.8452263     
   237419631.37341189        14327301.981725045        1544630180.1806962     
   209648071.62137601        12333800.845512964        1540350789.6784966     
   180786080.64437386        6705528.9594175369        1541451892.8999999     
   150833658.44239986       -2557513.6765883416        1547933489.8451972     
   119790805.01545544       -15455327.062491298        1559795580.5140908     
   117714041.34841968        6864918.6935233250        1574717309.1693883     
   104049431.24543951        5934519.0595102087        1570103423.9167981     
   89839605.530180141        3186734.0512327664        1570715213.5546596     
   75084564.202633932       -1378436.3313339874        1576552678.0829759     
   59784307.262812950       -7760992.0881499983        1587615817.5017445     
 -0.13955887727508279       -3.3594281203018175E-002   1603267555.9509995     
 -0.11703687469715736       -2.2471173273789793E-002   1598955260.8294821     
  -9.4106682153886873E-002  -9.9915954630870572E-003   1599713821.7651718     
  -7.0768802905708389E-002   3.8497135882040040E-003   1605543238.7580709     
  -4.7023923216854127E-002   1.9046302996300182E-002   1616443511.8081846     
   240470371.84914923       -30644025.612657905        1507177478.4951527     
   199709917.11199325       -60341151.062984839        1486163580.4884002     
   154339726.38202646       -105404063.15600878        1467859381.1055424     
   104359799.65923378       -165832761.89179003        1452264880.3465662     
   49770136.943621904       -241627247.27029911        1439380078.2114873     
   180019493.21089959       -23083004.903998755        1532982800.8452263     
   148692877.82930773       -45582731.288203970        1507429129.3393490     
   113908960.45310259       -79606797.654457659        1484761620.4678388     
   75667741.082272694       -125155204.00279321        1464980274.2306786     
   33969219.716818422       -182227950.33320716        1448085090.6278939     
   119790805.01545544       -15455327.062491298        1559795580.5140908     
   98402211.876485959       -30606399.514455669        1531046641.8403182     
   74708750.741090477       -53440365.287841335        1505360329.8113766     
   48710421.609276861       -83957224.382620528        1482736644.4272673     
   20407224.481031902       -122156976.79883677        1463175585.6879890     
   59784307.262812950       -7760992.0881499983        1587615817.5017445     
   48837919.253526427       -15412155.741739523        1557016117.9913073     
   36739097.246000141       -26904766.056130983        1529655509.1361687     
   23487841.240257595       -42238823.031241350        1505533990.9363322     
   9084151.2362735420       -61414326.667157933        1484651563.3917983     
  -4.7023923216854127E-002   1.9046302996300182E-002   1616443511.8081846     
  -3.9584086924033618E-002   2.9901356116409931E-002   1585337557.7923100     
  -3.2179295858006898E-002   4.0640979592654461E-002   1557647158.4422038     
  -2.4791821526107413E-002   5.1322533677113050E-002   1533372313.7578716     
  -1.7452156935721656E-002   6.1844028067135466E-002   1512513023.7393112     
   49770136.943621904       -241627247.27029911        1439380078.2114873     
   40463285.027247459       -322607026.72145325        1346338062.5351496     
   23390254.392149568       -429474068.56835490        1253177932.6439340     
  -1448954.9616402090       -562228372.81089640        1159899688.5378418     
  -34054343.034127802       -720869939.44909441        1066503330.2168845     
   33969219.716818422       -182227950.33320716        1448085090.6278939     
   29823976.539565518       -242112316.19097146        1347567985.7013879     
   19854099.323643416       -321412128.84430534        1246271290.8829250     
   4059588.0690582395       -420127388.29318148        1144195006.1724815     
  -17559557.224193484       -538258094.53760719        1041339131.5700772     
   20407224.481031902       -122156976.79883677        1463175585.6879890     
   19533659.536917694       -161512908.21496946        1357448526.9713745     
   14777005.234168515       -213812470.82655963        1250280402.6857009     
   6137261.5727923214       -279055664.63356912        1141671212.8309615     
  -6385571.4472117871       -357242489.63600564        1031620957.4071405     
   9084151.2362735420       -61414326.667157933        1484651563.3917983     
   9592334.0192945004       -80808802.793485031        1375979686.3451200     
   8158972.1237302572       -106675094.51509631        1265205268.0522692     
   4784065.5495642424       -139013201.83204544        1152328308.5132563     
  -532385.70319028199       -177823124.74429220        1037348807.7280732     
  -1.7452156935721656E-002   6.1844028067135466E-002   1512513023.7393112     
  -1.3280768426385529E-002   7.3567068188200774E-002   1403161463.8225980     
  -7.6755909320743651E-003   9.0070098815239960E-002   1291045886.9826267     
  -6.2418019470993069E-004  0.11139182525095219        1176166293.2193806     
   7.8726402686290567E-003  0.13753366577475079        1058522682.5328791     
   8.5207110597998259       -15.079805993655473        1817591052.6509533     
   7.1298398503853102       -12.303193857472031        1738032825.8646486     
   5.6153697534357683       -9.9385731558462851        1679047576.1522529     
   3.9773005630719305       -7.9859518608810536        1640635303.5137687     
   2.2156382040416678       -6.4453077948039086        1622796007.9491949     
  -555640421.58981454       -56319158.357514486        1650034370.3282766     
  -508663640.73839819       -45012502.528054208        1606699267.8775764     
  -461749830.07371950       -33915747.321053937        1576317947.0656075     
  -414898989.59578258       -23028892.736524016        1558890407.8923652     
  -368111119.30458409       -12351938.774457708        1554416650.3578570     
  -996796695.31684041       -78293054.720179737        1481442735.3040404     
  -924612262.03793514       -62210484.782305062        1474257292.1152775     
  -852553769.00891018       -46547715.677367657        1472406435.1300664     
  -780621216.22976708       -31304747.405368507        1475890164.3484046     
  -708814603.70050812       -16481579.966314793        1484708479.7702911     
  -1323468812.6603653       -65921704.167792976        1311816147.5782299     
  -1247845856.7687697       -51593959.065941513        1340706898.5777459     
  -1172411811.1902020       -37895915.007510483        1367313040.3456256     
  -1097166675.9246540       -24827571.992482662        1391634572.8818772     
  -1022110450.9721358       -12388930.020884573        1413671496.1864989     
  -1535656773.6203866       -19205106.700351834        1141154607.1508639     
  -1478364424.9309058       -13162925.378973365        1206048087.2649834     
  -1421323956.6175919       -7960345.3114792705        1261037762.7122889     
  -1364535368.6804435       -3597366.4978694320        1306123633.4927881     
  -1307998661.1194651       -73988.938164949417        1341305699.6064749     
   2.2156382040416678       -6.4453077948039086        1622796007.9491949     
   2.2135171443035642       -4.7390145150585106        1599204270.3514616     
   2.0961780388385218       -3.4167820816256320        1583024318.3327801     
   1.8636179367103423       -2.4786192901251831        1574256151.8931484     
   1.5158359915264723       -1.9245293088103694        1572899771.0325646     
  -368111119.30458409       -12351938.774457708        1554416650.3578570     
  -350341847.46228832       -10557379.206973150        1539601797.9571273     
  -332626186.65957069       -8941523.1047474593        1530629701.8897004     
  -314964136.89642906       -7504370.4677763134        1527500362.1555808     
  -297355698.17286086       -6245921.2960490435        1530213778.7547619     
  -708814603.70050812       -16481579.966314793        1484708479.7702911     
  -677759000.71592462       -14237344.748281896        1478607966.4881473     
  -646810619.69527125       -12350516.076685101        1476781180.2935617     
  -615969460.63855267       -10821093.951536328        1479228121.1865370     
  -585235523.54576731       -9649078.3728333414        1485948789.1670725     
  -1022110450.9721358       -12388930.020884573        1413671496.1864989     
  -982251457.54739010       -11039901.362940609        1416222775.9445212     
  -942553297.01093435       -10226982.332628131        1421478753.5443606     
  -903015969.36276412       -9950172.9299360514        1429439428.9860168     
  -863639474.60288489       -10209473.154878497        1440104802.2694869     
  -1307998661.1194651       -73988.938164949417        1341305699.6064749     
  -1263819217.9566836       -965049.05094271898        1352446226.3262525     
  -1219854218.6065469       -2570921.8725368381        1364722421.6421006     
  -1176103663.0690582       -4891607.4029573798        1378134285.5540187     
  -1132567551.3442130       -7927105.6421900988        1392681818.0620091     
   1.5158359915264723       -1.9245293088103694        1572899771.0325646     
   1.3516491039975211       -1.5247778772199028        1561489690.9215751     
   1.1646184932185637       -1.2011708020173431        1556324760.5066235     
  0.95472755159517919      -0.95376552351893040        1557404979.7877069     
  0.72199059917434760      -0.78251361434534195        1564730348.7648239     
  -297355698.17286086       -6245921.2960490435        1530213778.7547619     
  -281660095.70293385       -5700242.8356636912        1521826754.7362337     
  -266002477.68918705       -5281179.2292104959        1519142195.8031485     
  -250382844.13162601       -4988730.4767104834        1522160101.9555068     
  -234801195.03024694       -4822896.5781494230        1530880473.1933100     
  -585235523.54576731       -9649078.3728333414        1485948789.1670725     
  -555394845.90056217       -9022880.0894647837        1480540506.0687814     
  -525630137.14487118       -8649911.4378104210        1480292003.4453437     
  -495941397.27869457       -8530172.4178699553        1485203281.2967556     
  -466328626.30203271       -8663663.0296480358        1495274339.6230221     
  -863639474.60288489       -10209473.154878497        1440104802.2694869     
  -821204249.24123788       -9967913.2861858904        1437630944.9192152     
  -778882977.20243561       -10106197.826977819        1439774183.4332075     
  -736675658.48647666       -10624326.777243465        1446534517.8114574     
  -694582293.09337056       -11522300.137019783        1457911948.0539663     
  -1132567551.3442130       -7927105.6421900988        1392681818.0620091     
  -1079088305.7249541       -8535342.4258075953        1393098071.2875381     
  -1025760997.8618820       -9650038.3967122436        1397588735.7667363     
  -972585627.75497460       -11271193.554834902        1406153811.4996011     
  -919562195.40425396       -13398807.900245130        1418793298.4861331     
  0.72199059917434760      -0.78251361434534195        1564730348.7648239     
  0.51225301473139773      -0.64646738054305408        1559656823.6769245     
  0.29758951713122228      -0.52683946948607085        1559634732.7247498     
   7.8021860949983646E-002 -0.42356152925685964        1564664075.9082935     
 -0.14647001560337441      -0.33669349359837059        1574744853.2275574     
  -234801195.03024694       -4822896.5781494230        1530880473.1933100     
  -221918186.86019701       -5579850.8800238445        1526922296.3613927     
  -209071828.90717813       -6458972.5720000565        1527997373.6331122     
  -196262121.17117706       -7460261.6540365964        1534105705.0084658     
  -183489063.65221199       -8583718.1261914000        1545247290.4874554     
  -466328626.30203271       -8663663.0296480358        1495274339.6230221     
  -440614552.70100820       -10193154.654073671        1492388752.4662914     
  -414973779.52912688       -11966981.042308688        1494518239.3811092     
  -389406306.78637588       -13985142.194311723        1501662800.3674757     
  -363912134.47277045       -16247638.110134259        1513822435.4253941     
  -694582293.09337056       -11522300.137019783        1457911948.0539663     
  -656089097.01018882       -13839911.968645155        1456056191.9916213     
  -617705851.56825590       -16524025.937761277        1459197329.9687400     
  -579432556.76757395       -19574642.044383258        1467335361.9853237     
  -541269212.60814321       -22991760.288508087        1480470288.0413666     
  -919562195.40425396       -13398807.900245130        1418793298.4861331     
  -868341819.78773355       -16520122.823715836        1417924614.9373803     
  -817268045.02457619       -20130107.258395314        1422034645.3960068     
  -766340871.11477280       -24228761.204256058        1431123389.8620105     
  -715560298.05833936       -28816084.661348850        1445190848.3353887     
 -0.14647001560337441      -0.33669349359837059        1574744853.2275574     
 -0.12706273762090831      -0.20198773972094561        1572131216.8571942     
 -0.11944044654420571      -0.10656388775061813        1576013788.5209835     
 -0.12360424039603823       -5.0427679431464714E-002   1586392568.2189140     
 -0.13955887727508279       -3.3594281203018175E-002   1603267555.9509995     
  -183489063.65221199       -8583718.1261914000        1545247290.4874554     
  -167170797.09249154       -8572314.7792620361        1543534285.3797257     
  -150768871.23428765       -8282047.1040567681        1547874953.4506559     
  -134283286.07761982       -7712915.1006359607        1558269294.7002375     
  -117714041.62246871       -6864918.7689401433        1574717309.1284804     
  -363912134.47277045       -16247638.110134259        1513822435.4253941     
  -332539986.67413890       -16604147.141381934        1513107664.1089370     
  -301000520.26677358       -16402927.476847097        1518004031.1156437     
  -269293735.25067377       -15643979.116532251        1528511536.4455128     
  -237419631.62583789       -14327302.060430467        1544630180.0985465     
  -541269212.60814321       -22991760.288508087        1480470288.0413666     
  -496107568.87201732       -24095497.288377762        1480851353.0448236     
  -450694947.21689391       -24362641.224924803        1486401021.5159483     
  -405031347.64277643       -23793192.098158240        1497119293.4547436     
  -359116770.14966333       -22387149.908070982        1513006168.8612065     
  -715560298.05833936       -28816084.661348850        1445190848.3353887     
  -657873543.68612468       -31046365.220255703        1446765352.1873927     
  -599852152.08465099       -32161188.348296881        1453065924.6515694     
  -541496123.25391936       -32160554.045477182        1464092565.7279229     
  -482805457.19393504       -31044462.311818779        1479845275.4164555     
 -0.13955887727508279       -3.3594281203018175E-002   1603267555.9509995     
 -0.11703687469715736       -2.2471173273789793E-002   1598955260.8294821     
  -9.4106682153886873E-002  -9.9915954630870572E-003   1599713821.7651718     
  -7.0768802905708389E-002   3.8497135882040040E-003   1605543238.7580709     
  -4.7023923216854127E-002   1.9046302996300182E-002   1616443511.8081846     
  -117714041.62246871       -6864918.7689401433        1574717309.1284804     
  -104049431.47597460       -5934519.1136735715        1570103423.8822687     
  -89839605.716193438       -3186734.0807869174        1570715213.5255673     
  -75084564.343124181        1378436.3297271915        1576552678.0583711     
  -59784307.356768087        7760992.1178638116        1587615817.4806795     
  -237419631.62583789       -14327302.060430467        1544630180.0985465     
  -209648071.83453107       -12333800.904786557        1540350789.6093450     
  -180786080.81705263       -6705528.9952347800        1541451892.8419416     
  -150833658.57340318        2557513.6682207212        1547933489.7963419     
  -119790805.10358572        15455327.085569270        1559795580.4725440     
  -359116770.14966333       -22387149.908070982        1513006168.8612065     
  -316795921.19269645       -19197845.395779744        1509697358.0107059     
  -272839425.39667600       -10556384.753308162        1511923859.7143049     
  -227247282.76160091        3537232.0193453729        1519685673.9719977     
  -180019493.28748336        23083004.922139071        1532982800.7837844     
  -482805457.19393504       -31044462.311818779        1479845275.4164555     
  -425492979.55046874       -26526652.586641669        1478143129.0863554     
  -365999639.45506537       -14739301.355012998        1482131114.1426468     
  -304325436.90772325        4317591.3830822855        1491809230.5853305     
  -240470371.90845114        30644025.627607808        1507177478.4144094     
  -4.7023923216854127E-002   1.9046302996300182E-002   1616443511.8081846     
  -3.9584086924033618E-002   2.9901356116409931E-002   1585337557.7923100     
  -3.2179295858006898E-002   4.0640979592654461E-002   1557647158.4422038     
  -2.4791821526107413E-002   5.1322533677113050E-002   1533372313.7578716     
  -1.7452156935721656E-002   6.1844028067135466E-002   1512513023.7393112     
  -59784307.356768087        7760992.1178638116        1587615817.4806795     
  -48837919.332561895        15412155.794523522        1557016117.9719372     
  -36739097.310356632        26904766.131177723        1529655509.1182189     
  -23487841.290122040        42238823.127929166        1505533990.9195173     
  -9084151.2718819864        61414326.784699500        1484651563.3758340     
  -119790805.10358572        15455327.085569270        1559795580.4725440     
  -98402211.950486690        30606399.561629951        1531046641.8019969     
  -74708750.801329300        53440365.357888356        1505360329.7757175     
  -48710421.656107821        83957224.474358901        1482736644.3937025     
  -20407224.514833599        122156976.91100511        1463175585.6559608     
  -180019493.28748336        23083004.922139071        1532982800.7837844     
  -148692877.89335060        45582731.331257150        1507429129.2824848     
  -113908960.50510722        79606797.720741183        1484761620.4146996     
  -75667741.122762173        125155204.09056486        1464980274.1804299     
  -33969219.746311188        182227950.44074288        1448085090.5796726     
  -240470371.90845114        30644025.627607808        1507177478.4144094     
  -199709917.16114458        60341151.103425309        1486163580.4134064     
  -154339726.42168331        105404063.21976122        1467859381.0351653     
  -104359799.69006807        165832761.97660866        1452264880.2796915     
  -49770136.966306239        241627247.37394547        1439380078.1469824     
  -1.7452156935721656E-002   6.1844028067135466E-002   1512513023.7393112     
  -1.3280768426385529E-002   7.3567068188200774E-002   1403161463.8225980     
  -7.6755909320743651E-003   9.0070098815239960E-002   1291045886.9826267     
  -6.2418019470993069E-004  0.11139182525095219        1176166293.2193806     
   7.8726402686290567E-003  0.13753366577475079        1058522682.5328791     
  -9084151.2718819864        61414326.784699500        1484651563.3758340     
  -9592334.0468948558        80808802.933741108        1375979686.3332217     
  -8158972.1406534761        106675094.68696113        1265205268.0443547     
  -4784065.5531486124        139013202.04439190        1152328308.5092208     
   532385.71562068164        177823125.00604159        1037348807.7278490     
  -20407224.514833599        122156976.91100511        1463175585.6559608     
  -19533659.563291371        161512908.34906709        1357448526.9472334     
  -14777005.250667542        213812470.99073464        1250280402.6692638     
  -6137261.5769651234        279055664.83599764        1141671212.8220448     
   6385571.4578173310        357242489.88485748        1031620957.4055853     
  -33969219.746311188        182227950.44074288        1448085090.5796726     
  -29823976.562458053        242112316.31958869        1347567985.6646154     
  -19854099.337714449        321412129.00140828        1246271290.8573384     
  -4059588.0720708966        420127388.48622000        1144195006.1578228     
   17559557.234465659        538258094.77401543        1041339131.5660592     
  -49770136.966306239        241627247.37394547        1439380078.1469824     
  -40463285.044413403        322607026.84524703        1346338062.4853919     
  -23390254.401795745        429474068.71896666        1253177932.6085815     
   1448954.9615288079        562228372.99504268        1159899688.5165467     
   34054343.045575976        720869939.67352533        1066503330.2092905     
  -1535656773.6203866       -19205106.700351834        1141154607.1508639     
  -1478364424.9309058       -13162925.378973365        1206048087.2649834     
  -1421323956.6175919       -7960345.3114792705        1261037762.7122889     
  -1364535368.6804435       -3597366.4978694320        1306123633.4927881     
  -1307998661.1194651       -73988.938164949417        1341305699.6064749     
  -1747014370.0087245        30114436.643938065        1217104684.7851524     
  -1707896664.4374278        28208277.411848307        1245403995.2544267     
  -1669201565.2370591        24893430.276651740        1271460848.1196318     
  -1630929072.4076262        20169895.238343000        1295275243.3807714     
  -1593079185.9491272        14037672.296925008        1316847181.0378430     
  -2072747373.7506163        45121357.782161832        1292194372.7299759     
  -2029914748.2610869        41833726.907527924        1283700333.2271736     
  -1987675455.1372583        36568321.480564833        1280625183.1830533     
  -1946029494.3791258        29325141.501270413        1282968922.5976052     
  -1904976865.9866962        20104186.969642758        1290731551.4708369     
  -2512855784.8460574        25815656.714320898        1366423670.9853246     
  -2444418676.4018898        27713423.108062506        1320937101.1832244     
  -2376745626.3181844        27064328.300255656        1288530767.9025455     
  -2309836634.5949445        23868372.290900350        1269204671.1432896     
  -2243691701.2321730        18125555.079988241        1262958810.9054492     
  -3067339603.2950492       -27802666.559585333        1439792579.5512116     
  -2951408448.8598294       -14152633.986542344        1357114299.1225843     
  -2836412078.7798386       -3618549.2642636299        1295177602.2781196     
  -2722350493.0550833        3799587.6072314978        1253982489.0178216     
  -2609223691.6855583        8101776.6279612780        1233528959.3416865     
  -1307998661.1194651       -73988.938164949417        1341305699.6064749     
  -1263819217.9566836       -965049.05094271898        1352446226.3262525     
  -1219854218.6065469       -2570921.8725368381        1364722421.6421006     
  -1176103663.0690582       -4891607.4029573798        1378134285.5540187     
  -1132567551.3442130       -7927105.6421900988        1392681818.0620091     
  -1593079185.9491272        14037672.296925008        1316847181.0378430     
  -1544926863.3767943        10138214.823104620        1319132629.6329026     
  -1496917625.8839982        5761807.0841637850        1324032716.2610192     
  -1449051473.4707525        908449.08005887270        1331547440.9221873     
  -1401328406.1370361       -4421859.1891540885        1341676803.6164100     
  -1904976865.9866962        20104186.969642758        1290731551.4708369     
  -1848626037.0420012        14464020.223627329        1284245173.7964675     
  -1792346934.4437394        8584765.6561644077        1281852403.5921364     
  -1736139558.1919146        2466423.2672481537        1283553240.8578444     
  -1680003908.2865255       -3891006.9431179762        1289347685.5935910     
  -2243691701.2321730        18125555.079988241        1262958810.9054492     
  -2174916738.9523053        12012367.150618911        1247783858.8169425     
  -2106142144.2857683        5897953.8434821367        1238181483.6354582     
  -2037367917.2325611       -217684.84141778946        1234151685.3609939     
  -1968594057.7926819       -6334548.9040818214        1235694463.9935544     
  -2609223691.6855583        8101776.6279612780        1233528959.3416865     
  -2523798969.1077065        2783255.6040830612        1209748684.6943300     
  -2438303255.4100814       -2298628.3538789749        1193019956.3909807     
  -2352736550.5926790       -7143875.2459169626        1183342774.4316349     
  -2267098854.6555023       -11752485.072045088        1180717138.8162956     
  -1132567551.3442130       -7927105.6421900988        1392681818.0620091     
  -1079088305.7249541       -8535342.4258075953        1393098071.2875381     
  -1025760997.8618820       -9650038.3967122436        1397588735.7667363     
  -972585627.75497460       -11271193.554834902        1406153811.4996011     
  -919562195.40425396       -13398807.900245130        1418793298.4861331     
  -1401328406.1370361       -4421859.1891540885        1341676803.6164100     
  -1336868472.4103737       -5234546.4542278647        1338596656.6205664     
  -1272597391.3494947       -6676742.6052530408        1339935962.4109359     
  -1208515162.9544003       -8748447.6422194242        1345694720.9875171     
  -1144621787.2250886       -11449661.565135598        1355872932.3503036     
  -1680003908.2865255       -3891006.9431179762        1289347685.5935910     
  -1603577453.5023298       -4612394.8046050668        1282728070.9818377     
  -1527376766.2935252       -6086341.2507261634        1280872950.6888371     
  -1451401846.6601086       -8312846.2814755440        1283782324.7145948     
  -1375652694.6020837       -11291909.896859229        1291456193.0591028     
  -1968594057.7926819       -6334548.9040818214        1235694463.9935544     
  -1879215249.0008326       -6668887.4769532681        1225492314.3713486     
  -1790099122.6939740       -7878834.3331246376        1220399700.6004410     
  -1701245678.8721149       -9964389.4726277590        1220416622.6808310     
  -1612654917.5352471       -12925552.895430744        1225543080.6125185     
  -2267098854.6555023       -11752485.072045088        1180717138.8162956     
  -2163781858.9058728       -11404024.471249580        1166889386.7890966     
  -2060764460.5508382       -12054221.852449536        1158516212.1457434     
  -1958046659.5904088       -13703077.215659857        1155597614.8862295     
  -1855628456.0245781       -16350590.560865879        1158133595.0105567     
  -919562195.40425396       -13398807.900245130        1418793298.4861331     
  -868341819.78773355       -16520122.823715836        1417924614.9373803     
  -817268045.02457619       -20130107.258395314        1422034645.3960068     
  -766340871.11477280       -24228761.204256058        1431123389.8620105     
  -715560298.05833936       -28816084.661348850        1445190848.3353887     
  -1144621787.2250886       -11449661.565135598        1355872932.3503036     
  -1080793543.9095242       -14675400.140050352        1352627225.0349419     
  -1017109405.0234832       -18381486.813372672        1354125261.2464142     
  -953569370.56696486       -22567921.585103035        1360367040.9847240     
  -890173440.53997493       -27234704.455260813        1371352564.2498670     
  -1375652694.6020837       -11291909.896859229        1291456193.0591028     
  -1299887927.8175998       -14823475.392262042        1285836374.4716082     
  -1224264769.0387993       -18827067.573275566        1284725328.9304025     
  -1148783218.2656851       -23302686.439908326        1288123056.4354901     
  -1073443275.4982576       -28250331.992163479        1296029556.9868751     
  -1612654917.5352471       -12925552.895430744        1225543080.6125185     
  -1525624971.5119607       -16964348.580353498        1217552063.2473657     
  -1438734137.0705259       -21466849.538106978        1213834848.4479661     
  -1351982414.2109346       -26433055.768679261        1214391436.2143133     
  -1265369802.9331889       -31862967.272062421        1219221826.5464146     
  -1855628456.0245781       -16350590.560865879        1158133595.0105567     
  -1758004674.9926121       -21098019.704342127        1147774291.3622289     
  -1660517509.1186559       -26300832.707851052        1141453819.7991068     
  -1563166958.4027054       -31959029.571381032        1139172180.3211942     
  -1465953022.8447723       -38072610.294963717        1140929372.9284897     
  -715560298.05833936       -28816084.661348850        1445190848.3353887     
  -657873543.68612468       -31046365.220255703        1446765352.1873927     
  -599852152.08465099       -32161188.348296881        1453065924.6515694     
  -541496123.25391936       -32160554.045477182        1464092565.7279229     
  -482805457.19393504       -31044462.311818779        1479845275.4164555     
  -890173440.53997493       -27234704.455260813        1371352564.2498670     
  -820297422.62899888       -29855948.800210655        1370222755.7191641     
  -750210369.19400764       -31773741.398432195        1373833457.5567281     
  -679912280.23499346       -32988082.249912918        1382184669.7625537     
  -609403155.75195456       -33498971.354651213        1395276392.3366473     
  -1073443275.4982576       -28250331.992163479        1296029556.9868751     
  -991336731.88827646       -31250161.475096703        1292051234.0840285     
  -909142754.45951045       -33958544.895418018        1292827863.3055341     
  -826861343.21195304       -36375482.253100961        1298359444.6513960     
  -744492498.14560890       -38500973.548157454        1308645978.1216102     
  -1265369802.9331889       -31862967.272062421        1219221826.5464146     
  -1170991471.4639504       -35229003.244916558        1212250787.2819867     
  -1076649307.8811555       -38715598.839246511        1210049141.8980017     
  -982343312.18480849       -42322754.055071175        1212616890.3944540     
  -888073484.37490320       -46050468.892367303        1219954032.7713559     
  -1465953022.8447723       -38072610.294963717        1140929372.9284897     
  -1359261641.3560140       -41792474.109626710        1130821415.3130398     
  -1252730029.4589448       -46044903.229918301        1125497293.3341186     
  -1146358187.1535525       -50829897.655792952        1124957006.9917269     
  -1040146114.4398321       -56147457.387254238        1129200556.2858655     
  -482805457.19393504       -31044462.311818779        1479845275.4164555     
  -425492979.55046874       -26526652.586641669        1478143129.0863554     
  -365999639.45506537       -14739301.355012998        1482131114.1426468     
  -304325436.90772325        4317591.3830822855        1491809230.5853305     
  -240470371.90845114        30644025.627607808        1507177478.4144094     
  -609403155.75195456       -33498971.354651213        1395276392.3366473     
  -537495771.19046414       -29907091.912682593        1393198019.0341530     
  -463370878.95090550       -18923520.210490644        1396870042.0398700     
  -387028479.03327686       -548256.24806270003        1406292461.3537979     
  -308468571.43758589        25218699.974572644        1421465276.9759409     
  -744492498.14560890       -38500973.548157454        1308645978.1216102     
  -657818021.17518008       -35783368.742129683        1306234130.6105421     
  -568889391.30055094       -25551920.922102362        1309632944.3295040     
  -477706608.52172464       -7806630.0880824029        1318842419.2785032     
  -384269672.83869612        17452503.759941489        1333862555.4575412     
  -888073484.37490320       -46050468.892367303        1219954032.7713559     
  -786459729.50461841       -44155483.075001866        1217251463.8155303     
  -682555176.50399899       -34624503.489851952        1220419821.0115597     
  -576359825.37305975       -17457530.136971712        1229459104.3594413     
  -467873676.11178446        7345436.9836986065        1244369313.8591788     
  -1040146114.4398321       -56147457.387254238        1129200556.2858655     
  -923420896.17878151       -55023434.911291450        1126250018.6491075     
  -804368234.56125879       -46141267.913760066        1129230672.0860255     
  -682988129.58727932       -29500956.394703448        1138142516.5966167     
  -559280581.25683558       -5102500.3540998399        1152985552.1808851     
  -240470371.90845114        30644025.627607808        1507177478.4144094     
  -199709917.16114458        60341151.103425309        1486163580.4134064     
  -154339726.42168331        105404063.21976122        1467859381.0351653     
  -104359799.69006807        165832761.97660866        1452264880.2796915     
  -49770136.966306239        241627247.37394547        1439380078.1469824     
  -308468571.43758589        25218699.974572644        1421465276.9759409     
  -258924499.99832445        55433306.134543806        1404783351.7023728     
  -202926023.63213360        107162595.38428783        1392028937.4111912     
  -140473142.33900511        180406567.72382551        1383202034.1024077     
  -71565856.118937567        275165223.15314883        1378302641.7760260     
  -384269672.83869612        17452503.759941489        1333862555.4575412     
  -322462520.82282287        49228429.769443452        1323664716.6686323     
  -252356294.94522768        108667935.31802134        1318612201.2217622     
  -173950995.20591539        195771020.40565038        1318705009.1169186     
  -87246621.604890168        310537685.03232592        1323943140.3540974     
  -467873676.11178446        7345436.9836986065        1244369313.8591788     
  -390323979.63462216        41726522.008171171        1242807675.3122001     
  -302630540.36096317        109920083.02096908        1247609172.4668782     
  -204793358.29081064        211926120.02207971        1258773805.3232136     
  -96812433.424160972        347744633.01150918        1276301573.8812213     
  -559280581.25683558       -5102500.3540998399        1152985552.1808851     
  -462508876.43373287        32927582.850692123        1162212227.6330655     
  -353748759.87935001        110919038.49309810        1179019851.1465411     
  -233000231.59367537        228871866.57313907        1203408422.7213099     
  -100263291.57673681        386786067.09072095        1235377942.3573716     
  -49770136.966306239        241627247.37394547        1439380078.1469824     
  -40463285.044413403        322607026.84524703        1346338062.4853919     
  -23390254.401795745        429474068.71896666        1253177932.6085815     
   1448954.9615288079        562228372.99504268        1159899688.5165467     
   34054343.045575976        720869939.67352533        1066503330.2092905     
  -71565856.118937567        275165223.15314883        1378302641.7760260     
  -57392271.615782559        376902251.26143277        1296760345.1789436     
  -34245520.702837080        508549834.06901830        1214289668.9433644     
  -2125603.3801002502        670107971.57591236        1130890613.0692916     
   38967480.352432013        861576663.78211629        1046563177.5567243     
  -87246621.604890168        310537685.03232592        1323943140.3540974     
  -70521348.586956412        432337448.55765045        1255308715.1254416     
  -43615921.470159501        588071059.07917142        1184935644.8350253     
  -6530340.2544854581        777738516.59695828        1112823929.4828391     
   40735395.060048103        1001339821.1109351        1038973569.0688965     
  -96812433.424160972        347744633.01150918        1276301573.8812213     
  -79850515.957928807        488912618.73391521        1221983172.3249075     
  -51501456.703756154        668037743.74945605        1165115860.2835624     
  -11765255.661642194        885120008.05814445        1105699637.7572012     
   39358087.168420315        1140159411.6599808        1043734504.7457827     
  -100263291.57673681        386786067.09072095        1235377942.3573716     
  -85379773.728688061        546627761.79027724        1196783716.7773318     
  -57902126.403639615        748449888.07982969        1154830315.2889917     
  -17830349.601536393        992252445.95956337        1109517737.8923440     
   34835556.677552521        1278035435.4292548        1060845984.5874047     
  -3067339603.2950492       -27802666.559585333        1439792579.5512116     
  -2951408448.8598294       -14152633.986542344        1357114299.1225843     
  -2836412078.7798386       -3618549.2642636299        1295177602.2781196     
  -2722350493.0550833        3799587.6072314978        1253982489.0178216     
  -2609223691.6855583        8101776.6279612780        1233528959.3416865     
  -3618394078.2301054       -76434499.911146402        1177679319.8944190     
  -3456744033.2024150       -55748785.110829830        1131700266.1428173     
  -3295616671.7391014       -36805348.858423233        1098524387.2103412     
  -3135011993.8401623       -19604191.153934836        1078151683.0970016     
  -2974929999.5055995       -4145311.9973661900        1070582153.8027915     
  -4050823922.6528502       -89478944.109015703        912756443.12868607     
  -3866136154.9327860       -68561897.451455116        903957400.31010199     
  -3681558969.9862375       -48013460.038945675        900023123.54561818     
  -3497092367.8132091       -27833631.871496201        900953612.83523178     
  -3312736348.4136968       -8022412.9491074085        906748868.17894924     
  -4364629136.5632896       -66935999.153191328        645023949.25399816     
  -4179584814.0509377       -52591971.008408070        673885701.62443721     
  -3994238973.5212550       -37242882.805828810        699673811.28394270     
  -3808591614.9742289       -20888734.545449257        722388278.23251641     
  -3622642738.4098639       -3529526.2272744179        742029102.47015500     
  -4559809719.9614105       -8805665.0436735153        374481838.27036595     
  -4397090010.5568724       -7839005.7817029953        441485170.08582366     
  -4233656682.3441429       -4493617.1590766907        497476450.42531896     
  -4069509735.3232107        1230500.8242156506        542455679.28884804     
  -3904649169.4940867        9333348.1681487560        576422856.67641354     
  -2609223691.6855583        8101776.6279612780        1233528959.3416865     
  -2523798969.1077065        2783255.6040830612        1209748684.6943300     
  -2438303255.4100814       -2298628.3538789749        1193019956.3909807     
  -2352736550.5926790       -7143875.2459169626        1183342774.4316349     
  -2267098854.6555023       -11752485.072045088        1180717138.8162956     
  -2974929999.5055995       -4145311.9973661900        1070582153.8027915     
  -2872442503.1981225       -6772866.8599457741        1055802936.0746464     
  -2769965126.3665109       -9434153.3087469339        1046476390.3726802     
  -2667497869.0107651       -12129171.343768477        1042602516.6968892     
  -2565040731.1308827       -14857920.964993834        1044181315.0472751     
  -3312736348.4136968       -8022412.9491074085        906748868.17894924     
  -3197754290.7132516       -9329465.3513859510        900876078.34176850     
  -3082863463.0843120       -10940617.992026210        898857086.21293557     
  -2968063865.5268722       -12855870.871003151        900691891.79244769     
  -2853355498.0409441       -15075223.988346934        906380495.08031094     
  -3622642738.4098639       -3529526.2272744179        742029102.47015500     
  -3499734331.6531014       -4886539.8702468872        744968111.49569213     
  -3376998265.5634828       -6818022.4037182331        750162043.91174543     
  -3254434540.1410069       -9323973.8276543617        757610899.71831942     
  -3132043155.3856835       -12404394.142099857        767314678.91541159     
  -3904649169.4940867        9333348.1681487560        576422856.67641354     
  -3778382626.0176578        6555909.5834901333        588079035.53641880     
  -3652369533.8040233        2933633.4561839104        600391263.46911287     
  -3526609892.8531675       -1533480.2137129307        613359540.47449708     
  -3401103703.1651053       -6845431.4262609482        626983866.55256879     
  -2267098854.6555023       -11752485.072045088        1180717138.8162956     
  -2163781858.9058728       -11404024.471249580        1166889386.7890966     
  -2060764460.5508382       -12054221.852449536        1158516212.1457434     
  -1958046659.5904088       -13703077.215659857        1155597614.8862295     
  -1855628456.0245781       -16350590.560865879        1158133595.0105567     
  -2565040731.1308827       -14857920.964993834        1044181315.0472751     
  -2447956592.4347553       -13554440.517261982        1033147599.1019512     
  -2331096973.9391923       -12999360.738072634        1027029026.5361793     
  -2214461875.6441889       -13192681.627416611        1025825597.3499610     
  -2098051297.5497448       -14134403.185294032        1029537311.5432997     
  -2853355498.0409441       -15075223.988346934        906380495.08031094     
  -2724045456.4105773       -13279095.697361112        898228405.27657604     
  -2594884857.7867355       -11981110.761448503        894452024.84810114     
  -2465873702.1694117       -11181269.180605888        895051353.79489410     
  -2337011989.5586085       -10879570.954834819        900026392.11695039     
  -3132043155.3856835       -12404394.142099857        767314678.91541159     
  -2992048450.8333311       -10577990.011536002        762131805.31297290     
  -2852128112.0934591       -8999471.9225771427        760785207.08150911     
  -2712282139.1660728       -7668839.8752303123        763274884.22102499     
  -2572510532.0511656       -6586093.8694816828        769600836.73151171     
  -3401103703.1651053       -6845431.4262609482        626983866.55256879     
  -3251965575.7030196       -5451123.4597909451        624857799.21114218     
  -3102826736.8593793       -4054444.2214733362        626028573.23640430     
  -2953687186.6341772       -2655393.7112812996        630496188.62835014     
  -2804546925.0274205       -1253971.9292410612        638260645.38698351     
  -1855628456.0245781       -16350590.560865879        1158133595.0105567     
  -1758004674.9926121       -21098019.704342127        1147774291.3622289     
  -1660517509.1186559       -26300832.707851052        1141453819.7991068     
  -1563166958.4027054       -31959029.571381032        1139172180.3211942     
  -1465953022.8447723       -38072610.294963717        1140929372.9284897     
  -2098051297.5497448       -14134403.185294032        1029537311.5432997     
  -1989998739.3147902       -18200131.370956540        1020097462.3303061     
  -1882128210.7715440       -22872625.195645094        1014483601.7364429     
  -1774439711.9200056       -28151884.659348726        1012695729.7617159     
  -1666933242.7601688       -34037909.762078345        1014733846.4061227     
  -2337011989.5586085       -10879570.954834819        900026392.11695039     
  -2219138778.3094506       -14446035.439314008        891453013.71664441     
  -2101493011.2856972       -18770647.341806173        886492780.46939373     
  -1984074688.4873493       -23853406.662319899        885145692.37520039     
  -1866883809.9144092       -29694313.400856256        887411749.43406832     
  -2572510532.0511656       -6586093.8694816828        769600836.73151171     
  -2445424791.9765911       -9835731.9094128609        761840945.52124155     
  -2318611910.6611214       -13994899.146358252        757481355.99795759     
  -2192071888.1047564       -19063595.580314875        756522068.16165316     
  -2065804724.3074927       -25041821.211288691        758963082.01233637     
  -2804546925.0274205       -1253971.9292410612        638260645.38698351     
  -2668856780.3162174       -4369220.7812610865        631261257.74410641     
  -2533484908.8978100       -8545380.6092735529        627449328.32213545     
  -2398431310.7722111       -13782451.413313508        626824857.12106848     
  -2263695985.9394164       -20080433.193366528        629387844.14091194     
  -1465953022.8447723       -38072610.294963717        1140929372.9284897     
  -1359261641.3560140       -41792474.109626710        1130821415.3130398     
  -1252730029.4589448       -46044903.229918301        1125497293.3341186     
  -1146358187.1535525       -50829897.655792952        1124957006.9917269     
  -1040146114.4398321       -56147457.387254238        1129200556.2858655     
  -1666933242.7601688       -34037909.762078345        1014733846.4061227     
  -1548425693.4695299       -36889725.596762240        1004557585.3853179     
  -1429911574.7758703       -39719643.421396077        998486529.81097722     
  -1311390886.6792123       -42527663.236016929        996520679.68309748     
  -1192863629.1795416       -45313785.040612757        998660035.00168180     
  -1866883809.9144092       -29694313.400856256        887411749.43406832     
  -1738499036.2220647       -32259764.275583386        877361247.16838145     
  -1609941354.1320333       -34248853.824671745        870737320.15909004     
  -1481210763.6442986       -35661582.048088908        867539968.40619349     
  -1352307264.7588651       -36497948.945845425        867769191.90969181     
  -2065804724.3074927       -25041821.211288691        758963082.01233637     
  -1929481669.6136489       -27902590.146135807        749232400.66223431     
  -1792819367.5274179       -29632534.439703941        742249664.37846196     
  -1655817818.0487990       -30231654.091975212        738014873.16101360     
  -1518477021.1777973       -29699949.102969050        736528027.00989866     
  -2263695985.9394164       -20080433.193366528        629387844.14091194     
  -2121373593.6442566       -23818203.208375692        620171045.86686981     
  -1978545614.9620278       -25870685.266493678        613023562.46908474     
  -1835212049.8927207       -26237879.367686868        607945393.94756615     
  -1691372898.4363399       -24919785.511962473        604936540.30229819     
  -1040146114.4398321       -56147457.387254238        1129200556.2858655     
  -923420896.17878151       -55023434.911291450        1126250018.6491075     
  -804368234.56125879       -46141267.913760066        1129230672.0860255     
  -682988129.58727932       -29500956.394703448        1138142516.5966167     
  -559280581.25683558       -5102500.3540998399        1152985552.1808851     
  -1192863629.1795416       -45313785.040612757        998660035.00168180     
  -1062494416.0175669       -42343428.701761901        994660309.51643324     
  -930678657.02032483       -34551252.912006259        994798696.60524654     
  -797416352.18779075       -21937257.671286315        999075196.26811469     
  -662707501.51998496       -4501442.9796677232        1007489808.5050499     
  -1352307264.7588651       -36497948.945845425        867769191.90969181     
  -1213417138.1234529       -33218183.172392488        861692564.80124271     
  -1073961363.1739457       -28052923.018611372        857960971.76723659     
  -933939939.91034114       -21002168.484507263        856574412.80767477     
  -793352868.33263648       -12065919.570076227        857532887.92255354     
  -1518477021.1777973       -29699949.102969050        736528027.00989866     
  -1376189062.4964185       -27647698.323142052        727346784.50353503     
  -1234216353.0221252       -26646278.233587861        718717497.57199705     
  -1092558892.7549195       -26695688.834323347        710640166.21528876     
  -951216681.69479454       -27795930.125345111        703114790.43342006     
  -1691372898.4363399       -24919785.511962473        604936540.30229819     
  -1550810189.1364679       -25631974.153996706        591622968.62331080     
  -1411443626.5648656       -30331318.556937516        577068274.01953506     
  -1273273210.7215233       -39017818.720738351        561272456.49096513     
  -1136298941.6064527       -51691474.645450652        544235516.03761840     
  -559280581.25683558       -5102500.3540998399        1152985552.1808851     
  -462508876.43373287        32927582.850692123        1162212227.6330655     
  -353748759.87935001        110919038.49309810        1179019851.1465411     
  -233000231.59367537        228871866.57313907        1203408422.7213099     
  -100263291.57673681        386786067.09072095        1235377942.3573716     
  -662707501.51998496       -4501442.9796677232        1007489808.5050499     
  -547473198.88937223        25779674.593520582        1020941176.2953919     
  -421363903.21972871        92310768.963486254        1042801817.1759752     
  -284379614.51104528        195091840.13024455        1073071731.1467985     
  -136520332.76332825        334122888.09377605        1111750918.2078578     
  -793352868.33263648       -12065919.570076227        857532887.92255354     
  -657289324.95468211        11176225.253434539        873909959.57677770     
  -511464207.22993088        66956951.232919008        899524629.35018253     
  -355877515.15839374        155276258.36836261        934376897.24277139     
  -190529248.74007097        276134146.65976238        978466763.25454235     
  -951216681.69479454       -27795930.125345111        703114790.43342006     
  -791957254.62964272       -10882765.169530004        721118577.47722530     
  -624049671.90995216        34857585.301403612        749188287.66915846     
  -447493933.53571522        109425121.28750572        787323921.00922596     
  -262290039.50693631        212819842.78873026        835525477.49741805     
  -1136298941.6064527       -51691474.645450652        544235516.03761840     
  -951476987.91427541       -40397296.675422907        562567029.99672830     
  -759120297.25979114       -3987328.8310438395        591792792.13291180     
  -559228869.64302206        57538428.887619853        631912802.44616938     
  -351802705.06394792        144179976.48063427        682927060.93649161     
  -100263291.57673681        386786067.09072095        1235377942.3573716     
  -85379773.728688061        546627761.79027724        1196783716.7773318     
  -57902126.403639615        748449888.07982969        1154830315.2889917     
  -17830349.601536393        992252445.95956337        1109517737.8923440     
   34835556.677552521        1278035435.4292548        1060845984.5874047     
  -136520332.76332825        334122888.09377605        1111750918.2078578     
  -127392570.96794856        483126116.84823334        1090185319.0666568     
  -95123338.402827680        709267581.50183213        1070052575.6267227     
  -39712635.067969680        1012547282.0545565        1051352687.8880615     
   38839539.036633313        1392965218.5064228        1034085655.8506634     
  -190529248.74007097        276134146.65976238        978466763.25454235     
  -173465724.11286569        418406365.13450903        986235022.06035721     
  -122713387.42320156        672974623.81745791        1000228168.1770071     
  -38272238.671078503        1039838922.7086000        1020446201.6045045     
   79857722.143495440        1518999261.8079119        1046889122.3428243     
  -262290039.50693631        212819842.78873026        835525477.49741805     
  -223599233.16343674        352468506.64909351        884932825.75842118     
  -140672273.46475774        639571015.02673292        945357092.93982482     
  -13509160.410910785        1074127367.9216068        1016798279.0416366     
   157890105.99811399        1656137565.3337348        1099256384.0638483     
  -351802705.06394792        144179976.48063427        682927060.93649161     
  -277793098.11967731        285312541.39196384        786278730.16085660     
  -148999996.52749658        609056755.12965465        905439349.91519654     
   34576599.712565541        1115412617.6936166        1040408920.1995031     
   272936690.60052419        1804380129.0838950        1191187441.0137703     
  -4559809719.9614105       -8805665.0436735153        374481838.27036595     
  -4397090010.5568724       -7839005.7817029953        441485170.08582366     
  -4233656682.3441429       -4493617.1590766907        497476450.42531896     
  -4069509735.3232107        1230500.8242156506        542455679.28884804     
  -3904649169.4940867        9333348.1681487560        576422856.67641354     
  -4769343602.6443272        33926752.134013414        384799794.40766978     
  -4624393833.8244076        29936604.743714094        408089055.69659150     
  -4479227193.5539236        26669362.188618422        429865061.85460925     
  -4333843681.8328896        24125024.468701601        450127812.88171756     
  -4188243298.6612864        22303591.583998203        468877308.77792054     
  -5118895355.8510685        34653808.154556513        395551433.49966073     
  -4964576109.4870243        33848679.550611734        374547085.67813909     
  -4810536739.0300560        32110631.256407976        361528279.07076675     
  -4656777244.4801664        29439663.271928549        356495013.67754656     
  -4503297625.8373623        25835775.597188473        359447289.49847746     
  -5608464979.5816393       -6624496.9820525646        406736755.54634362     
  -5417636837.5447197        3897218.6389818192        340859260.03046638     
  -5227585318.7725353        11830190.044285297        292466102.07379520     
  -5038310423.2650633        17174417.233859777        261557281.67633259     
  -4849812151.0222969        19929900.207731962        248132798.83808291     
  -6238052473.8360205       -89908163.275804996        418355760.54772580     
  -5983576017.9975176       -59917777.991182327        307025578.75357550     
  -5730372932.7813578       -34171961.447725773        222678530.86369368     
  -5478443218.1875677       -12670713.645490646        165314616.87808201     
  -5227786874.2161264        4585965.4155809879        134933836.79673308     
  -3904649169.4940867        9333348.1681487560        576422856.67641354     
  -3778382626.0176578        6555909.5834901333        588079035.53641880     
  -3652369533.8040233        2933633.4561839104        600391263.46911287     
  -3526609892.8531675       -1533480.2137129307        613359540.47449708     
  -3401103703.1651053       -6845431.4262609482        626983866.55256879     
  -4188243298.6612864        22303591.583998203        468877308.77792054     
  -4058940213.0246301        15827875.904560804        470276988.09771252     
  -3929699115.4545202        9145533.3366391659        474209868.56686032     
  -3800520005.9509616        2256563.8802134991        480675950.18536627     
  -3671402884.5139446       -4839032.4646894932        489675232.95323092     
  -4503297625.8373623        25835775.597188473        359447289.49847746     
  -4365594706.3928518        17270770.317257166        350813843.00700074     
  -4227762311.8186436        9137348.8029861450        346590749.74155223     
  -4089800442.1147389        1435511.0543680191        346778009.70213032     
  -3951709097.2811437       -5834742.9286074638        351375622.88873601     
  -4849812151.0222969        19929900.207731962        248132798.83808291     
  -4698346106.1223211        10884592.821577311        229689600.26428849     
  -4546559122.8963900        2909079.8552410603        217533906.99318942     
  -4394451201.3445206       -3996638.6912939548        211665719.02478451     
  -4242022341.4667196       -9832562.8180446625        212085036.35908353     
  -5227786874.2161264        4585965.4155809879        134933836.79673308     
  -5057194412.2130289       -3330656.5824611187        106904259.86956516     
  -4886089548.6877499       -9539273.5065641403        87039340.321768060     
  -4714472283.6402931       -14039885.356742859        75339078.153338626     
  -4542342617.0706596       -16832492.132997513        71803473.364265934     
  -3401103703.1651053       -6845431.4262609482        626983866.55256879     
  -3251965575.7030196       -5451123.4597909451        624857799.21114218     
  -3102826736.8593793       -4054444.2214733362        626028573.23640430     
  -2953687186.6341772       -2655393.7112812996        630496188.62835014     
  -2804546925.0274205       -1253971.9292410612        638260645.38698351     
  -3671402884.5139446       -4839032.4646894932        489675232.95323092     
  -3512857921.8531365       -3226893.8775928020        484332925.84112656     
  -3354330499.1050115       -1673221.6660971642        482879535.83351380     
  -3195820616.2695589       -178015.83019125462        485315062.93039441     
  -3037328273.3467808        1258723.6301407814        491639507.13176662     
  -3951709097.2811437       -5834742.9286074638        351375622.88873601     
  -3782065654.4564633       -3497280.2313563824        342795782.82934600     
  -3612458002.8386889       -1279121.5571339130        338696935.61225712     
  -3442886142.4278259        819733.09405040741        339079081.23745805     
  -3273350073.2238727        2799283.7222115993        343942219.70496678     
  -4242022341.4667196       -9832562.8180446625        212085036.35908353     
  -4059588773.5130005       -6262282.5210769176        200246370.17580360     
  -3877209248.0604239       -2872143.8945913315        193480772.57262754     
  -3694883765.1089878        337853.06142830849        191788243.54955941     
  -3512612324.6586952        3367708.3469691277        195168783.10659081     
  -4542342617.0706596       -16832492.132997513        71803473.364265934     
  -4345427279.0227480       -11521900.746780634        56684687.880495310     
  -4148584234.7702065       -6452288.6784632206        47231046.714631453     
  -3951813484.3130460       -1623655.9280841351        43442549.866680443     
  -3755115027.6512589        2963997.5043842793        45319197.336636849     
  -2804546925.0274205       -1253971.9292410612        638260645.38698351     
  -2668856780.3162174       -4369220.7812610865        631261257.74410641     
  -2533484908.8978100       -8545380.6092735529        627449328.32213545     
  -2398431310.7722111       -13782451.413313508        626824857.12106848     
  -2263695985.9394164       -20080433.193366528        629387844.14091194     
  -3037328273.3467808        1258723.6301407814        491639507.13176662     
  -2893100115.1610413       -1801631.5112882853        483336808.56412339     
  -2748998047.2916288       -5282287.7071440220        478401686.66892970     
  -2605022069.7385392       -9183244.9574075937        476834141.44618082     
  -2461172182.5017724       -13504503.262082696        478634172.89587712     
  -3273350073.2238727        2799283.7222115993        343942219.70496678     
  -3120069277.4163494       -51790.464462280273        334560423.68512094     
  -2966722388.9486713       -2682555.7839577198        328726322.78926450     
  -2813309407.8208442       -5093012.2362980843        326439917.01738572     
  -2659830334.0328627       -7283159.8214356899        327701206.36949939     
  -3512612324.6586952        3367708.3469691277        195168783.10659081     
  -3349764267.0821338        880302.35922479630        184932103.10710117     
  -3186657933.8689365       -746184.83974337578        178423236.68312961     
  -3023293325.0191112       -1511753.2499489784        175642183.83468571     
  -2859670440.5326638       -1416402.8714070320        176588944.56176656     
  -3755115027.6512589        2963997.5043842793        45319197.336636849     
  -3582185084.1584044        994646.95975303650        34451846.830054246     
  -3408804682.0524344        526825.12549448013        27492428.350536991     
  -3234973821.3333678        1560532.0015584230        24440941.898084458     
  -3060692502.0011811        4095767.5880331993        25297387.472685754     
  -2263695985.9394164       -20080433.193366528        629387844.14091194     
  -2121373593.6442566       -23818203.208375692        620171045.86686981     
  -1978545614.9620278       -25870685.266493678        613023562.46908474     
  -1835212049.8927207       -26237879.367686868        607945393.94756615     
  -1691372898.4363399       -24919785.511962473        604936540.30229819     
  -2461172182.5017724       -13504503.262082696        478634172.89587712     
  -2312977698.8759632       -16290399.641452432        469540742.90986902     
  -2164504169.1040092       -18146142.200330019        462675328.23217773     
  -2015751593.1858773       -19071730.938627839        458037928.86281008     
  -1866719971.1215935       -19067165.856405973        455628544.80175865     
  -2659830334.0328627       -7283159.8214356899        327701206.36949939     
  -2505310329.2705207       -8981153.6234010458        318466847.72378802     
  -2350737818.6029329       -10504127.741236091        311619204.81845623     
  -2196112802.0300889       -11852082.174875498        307158277.65351468     
  -2041435279.5520146       -13025016.924402952        305084066.22894508     
  -2859670440.5326638       -1416402.8714070320        176588944.56176656     
  -2698371484.8279071       -1890465.1542302370        166949360.30862549     
  -2537246563.4587951       -2944641.8892167807        159855192.22792310     
  -2376295676.4253712       -4578933.0764824152        155306440.31967127     
  -2215518823.7276001       -6793338.7159411907        153303104.58385146     
  -3060692502.0011811        4095767.5880331993        25297387.472685754     
  -2892161165.5481014        4981665.7661917210        14988280.664387424     
  -2724030403.6716185        4532315.3556706905        7383290.4605804961     
  -2556300216.3716774        2747716.3566892147        2482416.8612880283     
  -2388970603.6483574       -372131.23103082180        285659.86648183718     
  -1691372898.4363399       -24919785.511962473        604936540.30229819     
  -1550810189.1364679       -25631974.153996706        591622968.62331080     
  -1411443626.5648656       -30331318.556937516        577068274.01953506     
  -1273273210.7215233       -39017818.720738351        561272456.49096513     
  -1136298941.6064527       -51691474.645450652        544235516.03761840     
  -1866719971.1215935       -19067165.856405973        455628544.80175865     
  -1729118758.5346789       -22249195.833673358        442155908.77204186     
  -1591636683.6651211       -25828351.535451889        428216284.65757900     
  -1454273746.5129077       -29804632.961711347        413809672.45837224     
  -1317029947.0780244       -34178040.112427533        398936072.17441875     
  -2041435279.5520146       -13025016.924402952        305084066.22894508     
  -1904583749.8493798       -18013344.088323593        292708876.36123985     
  -1766774348.8531592       -19808766.940302014        280640833.24883205     
  -1628007076.5633709       -18411285.480394959        268879936.89173043     
  -1488281932.9799955       -13820899.708527505        257426187.28991982     
  -2215518823.7276001       -6793338.7159411907        153303104.58385146     
  -2077205163.0805442       -12924418.917899728        143281871.39090347     
  -1936856622.1289883       -12272564.771518707        134341919.79330271     
  -1794473200.8729281       -4837776.2767933607        126483249.79103114     
  -1650054899.3123665        9379946.5662673712        119705861.38410445     
  -2388970603.6483574       -372131.23103082180        285659.86648183718     
  -2246982998.2281890       -6982420.3223996162       -6125106.1389621366     
  -2101883503.4925838       -3219745.0290024281       -10680455.709037477     
  -1953672119.4415784        10915894.649067879       -13380388.843714882     
  -1802348846.0751483        35424498.711899042       -14224905.543014366     
  -1136298941.6064527       -51691474.645450652        544235516.03761840     
  -951476987.91427541       -40397296.675422907        562567029.99672830     
  -759120297.25979114       -3987328.8310438395        591792792.13291180     
  -559228869.64302206        57538428.887619853        631912802.44616938     
  -351802705.06394792        144179976.48063427        682927060.93649161     
  -1317029947.0780244       -34178040.112427533        398936072.17441875     
  -1117507384.2557087       -14515054.632854521        420902959.07074112     
  -914336389.02545142        17309372.206537068        441352495.38789433     
  -707516961.38725710        61295240.405707747        460284681.12587523     
  -497049101.34112960        117442549.96466467        477699516.28469086     
  -1488281932.9799955       -13820899.708527505        257426187.28991982     
  -1309520471.7596769        3572380.0609299541        278494425.14336371     
  -1130996882.6857519        20172752.675712645        285633713.66140807     
  -952711165.75825858        35980218.135732412        278844052.84403479     
  -774663320.97717798        50994776.441065013        258125442.69124976     
  -1650054899.3123665        9379946.5662673712        119705861.38410445     
  -1527516250.4261417        13865007.406003773        135341428.21460325     
  -1409101778.2407014        4602812.5764867663        124636446.95345670     
  -1294811482.7560260       -18406637.922262669        87590917.600639224     
  -1184645363.9721086       -55163344.090200961        24204840.156179294     
  -1802348846.0751483        35424498.711899042       -14224905.543014366     
  -1771494720.2551527        16362827.402273655       -8556031.7155512869     
  -1748651075.6902833       -29400448.091115475       -41639304.735984035     
  -1733817912.3805435       -101865327.76825953       -113474724.60430652     
  -1726995230.3259361       -201031811.62918931       -224062291.32052675     
  -351802705.06394792        144179976.48063427        682927060.93649161     
  -277793098.11967731        285312541.39196384        786278730.16085660     
  -148999996.52749658        609056755.12965465        905439349.91519654     
   34576599.712565541        1115412617.6936166        1040408920.1995031     
   272936690.60052419        1804380129.0838950        1191187441.0137703     
  -497049101.34112960        117442549.96466467        477699516.28469086     
  -388228677.63699758        223126421.69636866        597002366.87513828     
  -230289130.46697995        492540704.98102212        735454285.94618249     
  -23230459.831075847        925685399.81867468        893055273.49783301     
   232947334.27073312        1522560506.2092800        1069805329.5300868     
  -774663320.97717798        50994776.441065013        258125442.69124976     
  -621488886.36854863        124092913.23646432        386771041.60211051     
  -424859699.47602189        342040224.31154788        537905826.94420362     
  -184775760.29961044        704836709.66624463        711529798.71752775     
   98762931.160702825        1212482369.3005931        907642956.92209363     
  -1184645363.9721086       -55163344.090200961        24204840.156179294     
  -977573724.31432068       -11787983.987679720        155584754.34178114     
  -732711703.55461919        157555313.12120742        312793972.90924972     
  -450059301.69304454        452866547.23636138        495832495.85858089     
  -129616518.72956389        874145718.35783541        704700323.18978477     
  -1726995230.3259361       -201031811.62918931       -224062291.32052675     
  -1456483191.4742961       -184516269.97605813       -96556494.905840024     
  -1153845142.7027805       -60914028.590008914        60118723.841333486     
  -819081084.01136518        169774912.52902389        245963364.92100719     
  -452191015.40007544        507550553.38100433        460977428.33318430     
 </DataArray>
 <DataArray  type="Float64" Name="VM" NumberOfComponents="1" format="ascii">
   6235831548.1770954     
   5977544964.1286783     
   5726367165.8288174     
   5479605072.9091759     
   5235300623.4711733     
   5649254322.9411650     
   5451648642.9034510     
   5257969269.7383499     
   5067211620.7402620     
   4878774547.8644867     
   5181801081.0910091     
   5023650315.8485250     
   4867121554.1650467     
   4712197048.4193344     
   4558981274.2877722     
   4832578006.9601946     
   4692969534.8778620     
   4553899147.6948118     
   4415334896.3033762     
   4277245612.0279140     
   4601358467.0402660     
   4459228684.3347054     
   4318251147.7931242     
   4177163264.5777631     
   4034799325.0414371     
   5235300623.4711733     
   5058919675.0984201     
   4883654360.9118290     
   4709276306.0398312     
   4535655194.2484312     
   4878774547.8644867     
   4720591718.2303181     
   4563594816.8582125     
   4407727469.1914415     
   4253008401.3326674     
   4558981274.2877722     
   4416256749.1509314     
   4274700416.4175692     
   4134380926.4097538     
   3995419392.3959289     
   4277245612.0279140     
   4147646550.3739738     
   4019102259.4553785     
   3891745320.3582940     
   3765740569.1860418     
   4034799325.0414371     
   3916439686.6469007     
   3798938737.5157189     
   3682417885.5449958     
   3567015217.2858543     
   4535655194.2484312     
   4340788275.5269012     
   4146168980.4106960     
   3951718335.5839047     
   3757417898.7555060     
   4253008401.3326674     
   4071261936.6218438     
   3890234995.4264073     
   3709954535.9970474     
   3530518189.3926902     
   3995419392.3959289     
   3826660783.7753758     
   3659150247.0827618     
   3493023300.6582799     
   3328495203.7575502     
   3765740569.1860418     
   3610066582.9430737     
   3456217774.6975708     
   3304435303.3284650     
   3155046116.9089303     
   3567015217.2858543     
   3424751783.2363958     
   3284920896.4086885     
   3147857713.8970141     
   3013983769.9517341     
   3757417898.7555060     
   3583179418.2320147     
   3409400675.8934755     
   3236031274.9523616     
   3063055847.6403036     
   3530518189.3926902     
   3365482114.5162606     
   3201236644.7689877     
   3037809221.7283568     
   2875276952.6341510     
   3328495203.7575502     
   3173399240.1687508     
   3019548561.4426470     
   2867071083.9451556     
   2716163235.3872213     
   3155046116.9089303     
   3010923884.1032314     
   2868641087.7889667     
   2728445373.2997622     
   2590672883.3031521     
   3013983769.9517341     
   2882121980.5613189     
   2752825311.5090590     
   2626468094.2721066     
   2503528293.7593532     
   3063055847.6403036     
   2894771623.3087683     
   2726329379.7569265     
   2557678795.8566389     
   2388784611.3803682     
   2875276952.6341510     
   2712881739.6309676     
   2550846635.9190907     
   2389201013.2242479     
   2228009103.3881283     
   2716163235.3872213     
   2560941883.1001959     
   2406804056.0973067     
   2253899293.3787351     
   2102443051.7621422     
   2590672883.3031521     
   2444147583.1426678     
   2299638136.2587166     
   2157445382.2421422     
   2017970778.1299698     
   2503528293.7593532     
   2367298523.7375669     
   2234170847.5170255     
   2104597925.5519783     
   1979156204.4383616     
   2388784611.3803682     
   2243525021.2029071     
   2100356949.9482472     
   1959289945.5712807     
   1820486365.2912130     
   2228009103.3881283     
   2085591222.0064461     
   1944720351.8778632     
   1805400302.0435114     
   1667703529.0503690     
   2102443051.7621422     
   1962266872.2477727     
   1822954798.6920965     
   1684536011.9250600     
   1547064788.5307131     
   2017970778.1299698     
   1881058412.0598540     
   1744411833.4287524     
   1608157854.8661714     
   1472471557.2509577     
   1979156204.4383616     
   1848234867.6056709     
   1717354224.6193891     
   1586867047.9032063     
   1457287623.0934134     
   1820486365.2912130     
   1779794248.0585277     
   1735636868.9490244     
   1696618610.0167587     
   1681177285.8244550     
   1667703529.0503690     
   1552297994.7715428     
   1427822667.7570865     
   1294626958.1247432     
   1158808118.7251863     
   1547064788.5307131     
   1397215862.8426168     
   1243839243.7452457     
   1084663041.9440372     
   917656658.85347307     
   1472471557.2509577     
   1328266036.2455745     
   1198546332.5573390     
   1087791681.6090598     
   1001906063.1176648     
   1457287623.0934134     
   1348313128.3021100     
   1274326798.3360815     
   1243449283.2013059     
   1262712962.8494418     
   1681177285.8244550     
   1383695835.5723736     
   1129436390.0210326     
   1010084498.0131282     
   1152863672.3369937     
   1158808118.7251863     
   1008407440.9854550     
   985217208.32950544     
   1161467984.2763002     
   1544034500.9812591     
   917656658.85347307     
   963091568.53365076     
   1144921142.3586533     
   1476481483.5303397     
   1957438763.1316397     
   1001906063.1176648     
   1164631469.6569524     
   1425389497.8475480     
   1808751054.1262150     
   2334786686.9789343     
   1262712962.8494418     
   1446558962.2066488     
   1715622870.4436221     
   2110480001.5900033     
   2663565862.7412152     
   4601358467.0402660     
   4459228684.3347054     
   4318251147.7931242     
   4177163264.5777631     
   4034799325.0414371     
   4473308003.8198462     
   4314423265.1559744     
   4156345172.4972291     
   3998972885.2636614     
   3842211365.3993015     
   4307445892.8425512     
   4139813589.2792916     
   3976121481.6281505     
   3816837051.2172542     
   3662552499.2063661     
   4121023315.8779211     
   3949900524.5141177     
   3789645741.2889543     
   3640667270.7806139     
   3503759702.8045025     
   3942470373.1130843     
   3767561452.4072723     
   3614891109.4570613     
   3484101974.1332898     
   3375505039.7326441     
   4034799325.0414371     
   3916439686.6469007     
   3798938737.5157189     
   3682417885.5449958     
   3567015217.2858543     
   3842211365.3993015     
   3727733240.3406262     
   3615158168.5382009     
   3504712495.5926385     
   3396661973.5307674     
   3662552499.2063661     
   3553958257.1808414     
   3448807121.6735644     
   3347409294.7041626     
   3250142566.9832006     
   3503759702.8045025     
   3402304603.1178589     
   3306357816.6613398     
   3216270740.5458736     
   3132489011.0827312     
   3375505039.7326441     
   3281321220.8305974     
   3195248522.0345478     
   3117613351.7825756     
   3048853913.5608473     
   3567015217.2858543     
   3424751783.2363958     
   3284920896.4086885     
   3147857713.8970141     
   3013983769.9517341     
   3396661973.5307674     
   3265478624.5128012     
   3137742901.8055973     
   3013884339.7623277     
   2894437315.0003695     
   3250142566.9832006     
   3131272894.4355993     
   3017053969.6011968     
   2907995413.8109374     
   2804721063.7184067     
   3132489011.0827312     
   3026826128.9669714     
   2927156502.4491119     
   2834035150.4316659     
   2748127646.6534252     
   3048853913.5608473     
   2956737846.9654994     
   2872026114.9868965     
   2795267569.1108899     
   2727105419.2900338     
   3013983769.9517341     
   2882121980.5613189     
   2752825311.5090590     
   2626468094.2721066     
   2503528293.7593532     
   2894437315.0003695     
   2774410116.9320102     
   2658014734.1810541     
   2545727937.3910637     
   2438138555.8342805     
   2804721063.7184067     
   2697553202.6982756     
   2595146851.8939109     
   2498047858.9808550     
   2406906711.3551507     
   2748127646.6534252     
   2654431105.3976049     
   2566595309.7946873     
   2485182673.8866830     
   2410838117.3765454     
   2727105419.2900338     
   2646902458.4317508     
   2573536013.1034541     
   2507527625.2079000     
   2449451904.4242201     
   2503528293.7593532     
   2367298523.7375669     
   2234170847.5170255     
   2104597925.5519783     
   1979156204.4383616     
   2438138555.8342805     
   2313847035.0362711     
   2194255518.9968653     
   2080044794.5489376     
   1972048798.8764639     
   2406906711.3551507     
   2297090397.8403554     
   2193740172.3494129     
   2097691956.9886439     
   2009920572.8912566     
   2410838117.3765454     
   2317168489.3089881     
   2231670951.2453704     
   2155213368.9033837     
   2088753075.0377800     
   2449451904.4242201     
   2372509880.5580339     
   2305212202.5854659     
   2248340789.5298877     
   2202711194.6292424     
   1979156204.4383616     
   1848234867.6056709     
   1717354224.6193891     
   1586867047.9032063     
   1457287623.0934134     
   1972048798.8764639     
   1855724199.9974191     
   1743782464.2002149     
   1637149754.8285482     
   1536963585.3893964     
   2009920572.8912566     
   1913300633.8682432     
   1825470708.7672920     
   1747635349.0008602     
   1681091844.6845384     
   2088753075.0377800     
   2013391439.4374175     
   1950403491.3735199     
   1900872088.8294966     
   1865831047.7646885     
   2202711194.6292424     
   2147147236.4372525     
   2106539445.7389445     
   2081657861.8061812     
   2073184537.3740952     
   1457287623.0934134     
   1348313128.3021100     
   1274326798.3360815     
   1243449283.2013059     
   1262712962.8494418     
   1536963585.3893964     
   1476052862.0599337     
   1447845012.5551169     
   1456306501.3053579     
   1504731652.5617979     
   1681091844.6845384     
   1652469676.2772050     
   1651592755.3080690     
   1680832951.2122047     
   1742800824.4939437     
   1865831047.7646885     
   1855119358.1324780     
   1867423929.6764393     
   1904957100.4521151     
   1970751325.3474512     
   2073184537.3740952     
   2069405656.8629243     
   2084932161.8058131     
   2122398203.2995160     
   2185614928.4641247     
   1262712962.8494418     
   1446558962.2066488     
   1715622870.4436221     
   2110480001.5900033     
   2663565862.7412152     
   1504731652.5617979     
   1613183396.7616117     
   1788829164.6075974     
   2066416918.1569510     
   2476151646.9600711     
   1742800824.4939437     
   1787655437.5517876     
   1884649988.9552515     
   2060693588.0790606     
   2341017448.7663221     
   1970751325.3474512     
   1968933335.6133676     
   2003650267.8406477     
   2093577664.0573201     
   2257378548.9955745     
   2185614928.4641247     
   2156301547.7784476     
   2146570730.8989708     
   2166948056.1283422     
   2228508385.2634888     
   3942470373.1130843     
   3767561452.4072723     
   3614891109.4570613     
   3484101974.1332898     
   3375505039.7326441     
   3461404668.1358132     
   3358320729.5060382     
   3270307584.6813431     
   3197450293.2349920     
   3140118460.3448935     
   3066128079.0140953     
   3025042520.9386616     
   2990799109.8606281     
   2963610296.8455153     
   2943739592.6610484     
   2747654937.6123619     
   2760249388.9001317     
   2770964383.1030173     
   2779648518.6353273     
   2786165984.7725892     
   2497162279.7862873     
   2555372937.2753010     
   2603758728.3649268     
   2641010737.7703934     
   2666095758.8292465     
   3375505039.7326441     
   3281321220.8305974     
   3195248522.0345478     
   3117613351.7825756     
   3048853913.5608473     
   3140118460.3448935     
   3070411477.2316670     
   3007918146.0279765     
   2952933406.9719567     
   2905813993.1729479     
   2943739592.6610484     
   2896933368.6355071     
   2856117089.3793626     
   2821523604.6889100     
   2793410769.2541060     
   2786165984.7725892     
   2760959475.8247547     
   2740184007.0932841     
   2723990295.4390521     
   2712532821.6092076     
   2666095758.8292465     
   2661456862.8774290     
   2659382748.5362086     
   2659934777.9122167     
   2663171426.2506113     
   3048853913.5608473     
   2956737846.9654994     
   2872026114.9868965     
   2795267569.1108899     
   2727105419.2900338     
   2905813993.1729479     
   2832747145.9883475     
   2767406609.7902951     
   2710283099.4967060     
   2661925248.8063750     
   2793410769.2541060     
   2738660165.8475327     
   2691751705.3834825     
   2653085433.7908554     
   2623088141.3622556     
   2712532821.6092076     
   2675027072.3678508     
   2645248011.8845077     
   2623489213.0464530     
   2610049583.3227220     
   2663171426.2506113     
   2641488356.9015598     
   2627192976.6236863     
   2620475771.2131009     
   2621521770.8823099     
   2727105419.2900338     
   2646902458.4317508     
   2573536013.1034541     
   2507527625.2079000     
   2449451904.4242201     
   2661925248.8063750     
   2597929405.0517097     
   2541597287.9433255     
   2493402857.5542893     
   2453846599.9832006     
   2623088141.3622556     
   2575031077.9485860     
   2535288323.1882291     
   2504248228.2056975     
   2482303618.5569315     
   2610049583.3227220     
   2577066201.3022017     
   2552864882.4741530     
   2537731119.5972409     
   2531942028.9908991     
   2621521770.8823099     
   2602205979.3681383     
   2591993091.0342526     
   2591069343.8477640     
   2599609013.7360868     
   2449451904.4242201     
   2372509880.5580339     
   2305212202.5854659     
   2248340789.5298877     
   2202711194.6292424     
   2453846599.9832006     
   2395801569.3881001     
   2347689563.0695944     
   2310093784.5393233     
   2283585445.4109564     
   2482303618.5569315     
   2441502576.1950250     
   2410608267.2540770     
   2390011949.6950607     
   2380073656.0577426     
   2531942028.9908991     
   2506355856.9711742     
   2490430341.4901581     
   2484399988.8978343     
   2488467127.1355648     
   2599609013.7360868     
   2587030507.4658194     
   2583750516.7400188     
   2589891631.1792235     
   2605552254.5488739     
   2202711194.6292424     
   2147147236.4372525     
   2106539445.7389445     
   2081657861.8061812     
   2073184537.3740952     
   2283585445.4109564     
   2242954632.4306474     
   2216240264.6441188     
   2203892616.1054225     
   2206300395.9893188     
   2380073656.0577426     
   2351426985.1910281     
   2335629930.2397146     
   2332931899.9889545     
   2343553325.7194300     
   2488467127.1355648     
   2469154382.4995074     
   2461714810.2261724     
   2466283563.3348570     
   2482993882.4682612     
   2605552254.5488739     
   2593295657.2345624     
   2592087252.3109794     
   2602005170.6751609     
   2623144275.7359090     
   2073184537.3740952     
   2069405656.8629243     
   2084932161.8058131     
   2122398203.2995160     
   2185614928.4641247     
   2206300395.9893188     
   2191824246.5848756     
   2192377427.5884070     
   2209929533.0966139     
   2247398964.1837096     
   2343553325.7194300     
   2319168964.5818038     
   2306323886.5176539     
   2306423315.1706605     
   2321554502.4635925     
   2482993882.4682612     
   2450452322.6316247     
   2426446488.3102226     
   2411921456.6072598     
   2408253417.7397075     
   2623144275.7359090     
   2584883439.4788523     
   2552456128.9148860     
   2526443665.4264860     
   2507654609.9886012     
   2185614928.4641247     
   2156301547.7784476     
   2146570730.8989708     
   2166948056.1283422     
   2228508385.2634888     
   2247398964.1837096     
   2182700208.2756324     
   2134435908.5838239     
   2112274740.6143715     
   2127153778.7427251     
   2321554502.4635925     
   2224809623.5600262     
   2141400622.8609970     
   2079694697.9517765     
   2049865621.9167583     
   2408253417.7397075     
   2282924141.3203740     
   2168111953.6860366     
   2070558941.8391433     
   1999035465.9024298     
   2507654609.9886012     
   2357253666.2591019     
   2215040717.4336557     
   2085998576.5777161     
   1977005937.2118616     
   2497162279.7862873     
   2555372937.2753010     
   2603758728.3649268     
   2641010737.7703934     
   2666095758.8292465     
   2613666914.9818549     
   2624477999.3018203     
   2634424168.5986028     
   2643310693.5454783     
   2650962401.1126995     
   2739654878.5241103     
   2705838322.5905337     
   2682027640.7330070     
   2668457908.4447618     
   2665348978.4785695     
   2906622637.8208699     
   2825299308.7111044     
   2766412366.0231509     
   2730116248.0793557     
   2716568576.7804708     
   3148160050.5740495     
   3010361159.6200824     
   2908195710.2210755     
   2841663702.3770332     
   2810765136.0879531     
   2666095758.8292465     
   2661456862.8774290     
   2659382748.5362086     
   2659934777.9122167     
   2663171426.2506113     
   2650962401.1126995     
   2640294805.9794774     
   2634516530.2385588     
   2633712761.5582337     
   2637966184.4190717     
   2665348978.4785695     
   2647405335.0330343     
   2636887562.0569272     
   2633859810.7791162     
   2638385519.0960255     
   2716568576.7804708     
   2688916743.4124084     
   2671371892.9726157     
   2663957052.8747506     
   2666695480.6104274     
   2810765136.0879531     
   2769903047.9298463     
   2741878548.9694633     
   2726691639.2068009     
   2724342318.6418557     
   2663171426.2506113     
   2641488356.9015598     
   2627192976.6236863     
   2620475771.2131009     
   2621521770.8823099     
   2637966184.4190717     
   2620427118.5618434     
   2611079925.7403741     
   2610050488.6025033     
   2617459815.4409914     
   2638385519.0960255     
   2622886607.1857944     
   2616411369.2804060     
   2619023964.7583365     
   2630785697.3391719     
   2666695480.6104274     
   2650590384.0957165     
   2644382618.8247347     
   2648090159.2055068     
   2661730172.1498284     
   2724342318.6418557     
   2704579480.1711907     
   2695633558.2749372     
   2697504552.9530888     
   2710192464.2056441     
   2621521770.8823099     
   2602205979.3681383     
   2591993091.0342526     
   2591069343.8477640     
   2599609013.7360868     
   2617459815.4409914     
   2604201054.9061413     
   2599884058.6759067     
   2604611729.7778697     
   2618479152.1196218     
   2630785697.3391719     
   2621340572.6555257     
   2620712644.7704587     
   2628946642.8734841     
   2646083598.8337331     
   2661730172.1498284     
   2653773849.3258343     
   2654567814.1876593     
   2664122979.7243104     
   2682449340.4668026     
   2710192464.2056441     
   2701404860.9799271     
   2701366598.3283730     
   2710077676.2509708     
   2727538094.7477241     
   2599609013.7360868     
   2587030507.4658194     
   2583750516.7400188     
   2589891631.1792235     
   2605552254.5488739     
   2618479152.1196218     
   2610270396.6016817     
   2611685920.0139084     
   2622799660.0839906     
   2643669691.9528761     
   2646083598.8337331     
   2640799387.8323898     
   2645551321.5498753     
   2660374705.9038901     
   2685296808.6905470     
   2682449340.4668026     
   2678447458.7883768     
   2685014298.7438936     
   2702159388.1471214     
   2729890004.5073867     
   2727538094.7477241     
   2723011143.7617450     
   2729735955.1474552     
   2747712528.9048357     
   2776940865.0339088     
   2605552254.5488739     
   2593295657.2345624     
   2592087252.3109794     
   2602005170.6751609     
   2623144275.7359090     
   2643669691.9528761     
   2632908041.1276269     
   2632377986.6877546     
   2642118716.0192747     
   2662180316.3868771     
   2685296808.6905470     
   2675735477.3602600     
   2675768696.8699551     
   2685411953.4054127     
   2704686094.3823628     
   2729890004.5073867     
   2721381690.3756571     
   2721990790.0912924     
   2731720727.2104607     
   2750576363.9415550     
   2776940865.0339088     
   2769471750.7862091     
   2770785616.8674607     
   2780882463.2776675     
   2799762290.0168381     
   2623144275.7359090     
   2584883439.4788523     
   2552456128.9148860     
   2526443665.4264860     
   2507654609.9886012     
   2662180316.3868771     
   2616867005.5518260     
   2577194526.9833574     
   2543493907.0805807     
   2516227804.5023293     
   2704686094.3823628     
   2654419511.4704022     
   2609743071.7828612     
   2570804345.4682636     
   2537810089.4864607     
   2750576363.9415550     
   2697456755.8300953     
   2650018870.5764713     
   2608299386.4241824     
   2572349690.9246836     
   2799762290.0168381     
   2745885197.2434421     
   2697924018.6871858     
   2655878754.3480792     
   2619749404.2261186     
   2507654609.9886012     
   2357253666.2591019     
   2215040717.4336557     
   2085998576.5777161     
   1977005937.2118616     
   2516227804.5023293     
   2348307267.6989903     
   2183954596.9628253     
   2026271374.5282183     
   1879824486.8577795     
   2537810089.4864607     
   2357461013.8165832     
   2176854817.5257206     
   1997463852.5319242     
   1821567230.0981274     
   2572349690.9246836     
   2384818129.7977824     
   2194208197.6558218     
   2000898347.6527903     
   1805492820.0698047     
   2619749404.2261186     
   2430346946.5634589     
   2236157071.1567359     
   2037179778.0059211     
   1833415067.1110475     
   3148160050.5740495     
   3010361159.6200824     
   2908195710.2210755     
   2841663702.3770332     
   2810765136.0879531     
   2906622643.9982109     
   2825299313.9795709     
   2766412370.4991145     
   2730116251.8465862     
   2716568579.8942266     
   2739654892.4921193     
   2705838334.5159268     
   2682027650.6933846     
   2668457916.4951978     
   2665348984.6604590     
   2613666938.3765197     
   2624478019.4343834     
   2634424185.2707539     
   2643310706.6284695     
   2650962410.5432615     
   2497162314.0200510     
   2555372967.1584344     
   2603758753.0755715     
   2641010756.7956543     
   2666095771.8962507     
   2810765136.0879531     
   2769903047.9298463     
   2741878548.9694633     
   2726691639.2068009     
   2724342318.6418557     
   2716568579.8942266     
   2688916745.7215433     
   2671371894.5655470     
   2663957053.8385162     
   2666695481.0314898     
   2665348984.6604590     
   2647405339.6059561     
   2636887565.1890354     
   2633859812.6392317     
   2638385519.8551521     
   2650962410.5432615     
   2640294812.9675150     
   2634516535.0196252     
   2633712764.3749356     
   2637966185.5228376     
   2666095771.8962507     
   2661456872.6116576     
   2659382755.2267799     
   2659934781.8660860     
   2663171427.7937078     
   2724342318.6418557     
   2704579480.1711907     
   2695633558.2749372     
   2697504552.9530888     
   2710192464.2056441     
   2666695481.0314898     
   2650590384.3540592     
   2644382618.9565649     
   2648090159.2463660     
   2661730172.1347895     
   2638385519.8551521     
   2622886607.6238141     
   2616411369.4715819     
   2619023964.7762341     
   2630785697.2569366     
   2637966185.5228376     
   2620427119.1713018     
   2611079925.9694929     
   2610050488.5655813     
   2617459815.2529378     
   2663171427.7937078     
   2641488357.7447028     
   2627192976.9216871     
   2620475771.1234765     
   2621521770.5654807     
   2710192464.2056441     
   2701404860.9799271     
   2701366598.3283730     
   2710077676.2509708     
   2727538094.7477241     
   2661730172.1347895     
   2653773849.3288312     
   2654567814.2119207     
   2664122979.7725945     
   2682449340.5415268     
   2630785697.2569366     
   2621340572.6152554     
   2620712644.7796040     
   2628946642.9385552     
   2646083598.9604902     
   2617459815.2529378     
   2604201054.7851634     
   2599884058.6351795     
   2604611729.8291483     
   2618479152.2734389     
   2621521770.5654807     
   2602205979.1397138     
   2591993090.9149747     
   2591069343.8566122     
   2599609013.8904505     
   2727538094.7477241     
   2723011143.7617450     
   2729735955.1474552     
   2747712528.9048357     
   2776940865.0339088     
   2682449340.5415268     
   2678447458.8303461     
   2685014298.7521906     
   2702159388.1210876     
   2729890004.4466305     
   2646083598.9604902     
   2640799387.8986735     
   2645551321.5540314     
   2660374705.8447332     
   2685296808.5673704     
   2618479152.2734389     
   2610270396.6725807     
   2611685919.9996324     
   2622799659.9829340     
   2643669691.7640991     
   2599609013.8904505     
   2587030507.5200090     
   2583750516.6913462     
   2589891631.0258098     
   2605552254.2896528     
   2776940865.0339088     
   2769471750.7862091     
   2770785616.8674607     
   2780882463.2776675     
   2799762290.0168381     
   2729890004.4466305     
   2721381690.3235369     
   2721990790.0465074     
   2731720727.1717343     
   2750576363.9076610     
   2685296808.5673704     
   2675735477.2549944     
   2675768696.7799468     
   2685411953.3281064     
   2704686094.3152809     
   2643669691.7640991     
   2632908040.9669867     
   2632377986.5512652     
   2642118715.9030075     
   2662180316.2870169     
   2605552254.2896528     
   2593295657.0150661     
   2592087252.1258016     
   2602005170.5189328     
   2623144275.6033740     
   2799762290.0168381     
   2745885197.2434421     
   2697924018.6871858     
   2655878754.3480792     
   2619749404.2261186     
   2750576363.9076610     
   2697456755.7989893     
   2650018870.5478892     
   2608299386.3979187     
   2572349690.9006062     
   2704686094.3152809     
   2654419511.4086800     
   2609743071.7259326     
   2570804345.4157043     
   2537810089.4379988     
   2662180316.2870169     
   2616867005.4597273     
   2577194526.8981285     
   2543493907.0015807     
   2516227804.4290552     
   2623144275.6033740     
   2584883439.3563781     
   2552456128.8012462     
   2526443665.3207669     
   2507654609.8900838     
   2619749404.2261186     
   2430346946.5634589     
   2236157071.1567359     
   2037179778.0059211     
   1833415067.1110475     
   2572349690.9006062     
   2384818129.7828007     
   2194208197.6512799     
   2000898347.6609578     
   1805492820.0945508     
   2537810089.4379988     
   2357461013.7857461     
   2176854817.5150032     
   1997463852.5455308     
   1821567230.1428504     
   2516227804.4290552     
   2348307267.6512332     
   2183954596.9440207     
   2026271374.5439222     
   1879824486.9163153     
   2507654609.8900838     
   2357253666.1933188     
   2215040717.4046869     
   2085998576.5917761     
   1977005937.2775826     
   2497162314.0200510     
   2555372967.1584344     
   2603758753.0755715     
   2641010756.7956543     
   2666095771.8962507     
   2747654978.8958101     
   2760249423.5846372     
   2770964410.8046527     
   2779648539.0738349     
   2786165997.7691917     
   3066128124.9984107     
   3025042558.6629081     
   2990799139.2839117     
   2963610317.8825045     
   2943739605.2048807     
   3461404716.5518074     
   3358320768.5154395     
   3270307614.5066853     
   3197450313.9523883     
   3140118471.9002872     
   3942470421.7516742     
   3767561490.9616795     
   3614891138.3380308     
   3484101993.5399690     
   3375505049.6427813     
   2666095771.8962507     
   2661456872.6116576     
   2659382755.2267799     
   2659934781.8660860     
   2663171427.7937078     
   2786165997.7691917     
   2760959485.5224891     
   2740184013.6882935     
   2723990299.1392608     
   2712532822.6369162     
   2943739605.2048807     
   2896933377.9627900     
   2856117095.6042399     
   2821523607.9313760     
   2793410769.6431026     
   3140118471.9002872     
   3070411485.7299032     
   3007918151.5134544     
   2952933409.4898596     
   2905813992.7717423     
   3375505049.6427813     
   3281321227.9452634     
   3195248526.3401470     
   3117613353.2628770     
   3048853912.1976781     
   2663171427.7937078     
   2641488357.7447028     
   2627192976.9216871     
   2620475771.1234765     
   2621521770.5654807     
   2712532822.6369162     
   2675027072.8025684     
   2645248011.8555164     
   2623489212.6860232     
   2610049582.7660322     
   2793410769.6431026     
   2738660165.7573166     
   2691751704.9245048     
   2653085433.0772247     
   2623088140.5111814     
   2905813992.7717423     
   2832747145.2366896     
   2767406608.7854791     
   2710283098.3409753     
   2661925247.6058106     
   3048853912.1976781     
   2956737845.4029350     
   2872026113.3134384     
   2795267567.4221835     
   2727105417.6871357     
   2621521770.5654807     
   2602205979.1397138     
   2591993090.9149747     
   2591069343.8566122     
   2599609013.8904505     
   2610049582.7660322     
   2577066200.9186544     
   2552864882.2774591     
   2537731119.5987334     
   2531942029.1994381     
   2623088140.5111814     
   2575031077.3543692     
   2535288322.8608837     
   2504248228.1522398     
   2482303618.7810106     
   2661925247.6058106     
   2597929404.1905289     
   2541597287.4307647     
   2493402857.3962479     
   2453846600.1814718     
   2727105417.6871357     
   2646902457.2496443     
   2573536012.3528252     
   2507527624.8962326     
   2449451904.5545464     
   2599609013.8904505     
   2587030507.5200090     
   2583750516.6913462     
   2589891631.0258098     
   2605552254.2896528     
   2531942029.1994381     
   2506355857.0704684     
   2490430341.4731946     
   2484399988.7581744     
   2488467126.8675022     
   2482303618.7810106     
   2441502576.3102584     
   2410608267.2494593     
   2390011949.5596843     
   2380073655.7810426     
   2453846600.1814718     
   2395801569.4878311     
   2347689563.0564623     
   2310093784.3982720     
   2283585445.1265731     
   2449451904.5545464     
   2372509880.6098213     
   2305212202.5421634     
   2248340789.3731623     
   2202711194.3392010     
   2605552254.2896528     
   2593295657.0150661     
   2592087252.1258016     
   2602005170.5189328     
   2623144275.6033740     
   2488467126.8675022     
   2469154382.2703147     
   2461714810.0317216     
   2466283563.1710086     
   2482993882.3309026     
   2380073655.7810426     
   2351426984.9519186     
   2335629930.0352964     
   2332931899.8162861     
   2343553325.5755596     
   2283585445.1265731     
   2242954632.1818252     
   2216240264.4291768     
   2203892615.9226351     
   2206300395.8369169     
   2202711194.3392010     
   2147147236.1796212     
   2106539445.5132444     
   2081657861.6119697     
   2073184537.2109363     
   2623144275.6033740     
   2584883439.3563781     
   2552456128.8012462     
   2526443665.3207669     
   2507654609.8900838     
   2482993882.3309026     
   2450452322.5035386     
   2426446488.1901822     
   2411921456.4944611     
   2408253417.6336985     
   2343553325.5755596     
   2319168964.4467325     
   2306323886.3901296     
   2306423315.0499487     
   2321554502.3494029     
   2206300395.8369169     
   2191824246.4413047     
   2192377427.4522462     
   2209929532.9670935     
   2247398964.0606537     
   2073184537.2109363     
   2069405656.7091365     
   2084932161.6597483     
   2122398203.1602764     
   2185614928.3314400     
   2507654609.8900838     
   2357253666.1933188     
   2215040717.4046869     
   2085998576.5917761     
   1977005937.2775826     
   2408253417.6336985     
   2282924141.2517395     
   2168111953.6589031     
   2070558941.8592849     
   1999035465.9769742     
   2321554502.3494029     
   2224809623.4865699     
   2141400622.8320875     
   2079694697.9721696     
   2049865621.9913905     
   2247398964.0606537     
   2182700208.1953402     
   2134435908.5495112     
   2112274740.6293743     
   2127153778.8094106     
   2185614928.3314400     
   2156301547.6893249     
   2146570730.8557472     
   2166948056.1327076     
   2228508385.3153262     
   3942470421.7516742     
   3767561490.9616795     
   3614891138.3380308     
   3484101993.5399690     
   3375505049.6427813     
   4121023360.5037150     
   3949900560.1400728     
   3789645768.0540376     
   3640667288.6615224     
   3503759711.6061964     
   4307445932.3157797     
   4139813620.9736471     
   3976121505.4491248     
   3816837066.9884238     
   3662552506.6630459     
   4473308037.7797050     
   4314423292.4521427     
   4156345192.8967938     
   3998972898.5364370     
   3842211371.3185840     
   4601358495.7616167     
   4459228707.2040148     
   4318251164.5829830     
   4177163275.1287460     
   4034799329.2714372     
   3375505049.6427813     
   3281321227.9452634     
   3195248526.3401470     
   3117613353.2628770     
   3048853912.1976781     
   3503759711.6061964     
   3402304609.3404279     
   3306357820.2752905     
   3216270741.5157313     
   3132489009.3665600     
   3662552506.6630459     
   3553958262.3360434     
   3448807124.4963360     
   3347409295.1552911     
   3250142565.0136523     
   3842211371.3185840     
   3727733244.2803311     
   3615158170.4807715     
   3504712495.5109601     
   3396661971.3860335     
   4034799329.2714372     
   3916439689.2487559     
   3798938738.4997277     
   3682417884.9110107     
   3567015215.0212107     
   3048853912.1976781     
   2956737845.4029350     
   2872026113.3134384     
   2795267567.4221835     
   2727105417.6871357     
   3132489009.3665600     
   3026826127.1291909     
   2927156500.5738845     
   2834035148.6112323     
   2748127644.9866719     
   3250142565.0136523     
   3131272892.4210863     
   3017053967.6240830     
   2907995411.9620023     
   2804721062.0957136     
   3396661971.3860335     
   3265478622.4057121     
   3137742899.8193069     
   3013884337.9881825     
   2894437313.5370955     
   3567015215.0212107     
   3424751781.1031613     
   3284920894.4933667     
   3147857712.2936850     
   3013983768.7614646     
   2727105417.6871357     
   2646902457.2496443     
   2573536012.3528252     
   2507527624.8962326     
   2449451904.5545464     
   2748127644.9866719     
   2654431104.1597967     
   2566595309.0050530     
   2485182673.5627561     
   2410838117.5329709     
   2804721062.0957136     
   2697553201.4946294     
   2595146851.1340957     
   2498047858.6896176     
   2406906711.5563922     
   2894437313.5370955     
   2774410115.8616643     
   2658014733.5306473     
   2545727937.1889977     
   2438138556.1100059     
   3013983768.7614646     
   2882121979.7241979     
   2752825311.0511780     
   2626468094.2218056     
   2503528294.1474314     
   2449451904.5545464     
   2372509880.6098213     
   2305212202.5421634     
   2248340789.3731623     
   2202711194.3392010     
   2410838117.5329709     
   2317168489.3804488     
   2231670951.2200069     
   2155213368.7675381     
   2088753074.7762809     
   2406906711.5563922     
   2297090397.9453845     
   2193740172.3500276     
   2097691956.8750658     
   2009920572.6524098     
   2438138556.1100059     
   2313847035.1984181     
   2194255519.0396867     
   2080044794.4655046     
   1972048798.6588943     
   2503528294.1474314     
   2367298523.9879956     
   2234170847.6252227     
   2104597925.5126452     
   1979156204.2456048     
   2202711194.3392010     
   2147147236.1796212     
   2106539445.5132444     
   2081657861.6119697     
   2073184537.2109363     
   2088753074.7762809     
   2013391439.2025342     
   1950403491.1666155     
   1900872088.6519151     
   1865831047.6176820     
   2009920572.6524098     
   1913300633.6505280     
   1825470708.5739801     
   1747635348.8353381     
   1681091844.5501680     
   1972048798.6588943     
   1855724199.7949817     
   1743782464.0178964     
   1637149754.6716721     
   1536963585.2635660     
   1979156204.2456048     
   1848234867.4210198     
   1717354224.4490912     
   1586867047.7538826     
   1457287622.9720275     
   2073184537.2109363     
   2069405656.7091365     
   2084932161.6597483     
   2122398203.1602764     
   2185614928.3314400     
   1865831047.6176820     
   1855119357.9946837     
   1867423929.5455685     
   1904957100.3265417     
   1970751325.2260895     
   1681091844.5501680     
   1652469676.1529768     
   1651592755.1909935     
   1680832951.0996928     
   1742800824.3838415     
   1536963585.2635660     
   1476052861.9463961     
   1447845012.4501638     
   1456306501.2052395     
   1504731652.4629736     
   1457287622.9720275     
   1348313128.1963077     
   1274326798.2416871     
   1243449283.1133249     
   1262712962.7624302     
   2185614928.3314400     
   2156301547.6893249     
   2146570730.8557472     
   2166948056.1327076     
   2228508385.3153262     
   1970751325.2260895     
   1968933335.5325007     
   2003650267.8032060     
   2093577664.0644989     
   2257378549.0450339     
   1742800824.3838415     
   1787655437.4777434     
   1884649988.9204400     
   2060693588.0836921     
   2341017448.8056436     
   1504731652.4629736     
   1613183396.6930327     
   1788829164.5724452     
   2066416918.1542990     
   2476151646.9834847     
   1262712962.7624302     
   1446558962.1423144     
   1715622870.4054356     
   2110480001.5763144     
   2663565862.7445426     
   4601358495.7616167     
   4459228707.2040148     
   4318251164.5829830     
   4177163275.1287460     
   4034799329.2714372     
   4832578029.1860933     
   4692969551.6950951     
   4553899159.2823296     
   4415334902.8160086     
   4277245613.5960851     
   5181801094.0047741     
   5023650324.6146870     
   4867121559.1223545     
   4712197049.8720226     
   4558981272.4845695     
   5649254323.9581499     
   5451648641.6993837     
   5257969266.6297646     
   5067211616.0611744     
   4878774541.9213209     
   6235831534.8448143     
   5977544951.0531998     
   5726367153.1857910     
   5479605060.9792624     
   5235300612.5769377     
   4034799329.2714372     
   3916439689.2487559     
   3798938738.4997277     
   3682417884.9110107     
   3567015215.0212107     
   4277245613.5960851     
   4147646551.1374798     
   4019102259.3840528     
   3891745319.4094439     
   3765740567.2997165     
   4558981272.4845695     
   4416256747.6088848     
   4274700415.0812378     
   4134380925.2169337     
   3995419391.2691646     
   4878774541.9213209     
   4720591713.8621883     
   4563594814.0000601     
   4407727467.7833328     
   4253008401.3070846     
   5235300612.5769377     
   5058919667.3468637     
   4883654356.2421722     
   4709276304.4128637     
   4535655195.6296272     
   3567015215.0212107     
   3424751781.1031613     
   3284920894.4933667     
   3147857712.2936850     
   3013983768.7614646     
   3765740567.2997165     
   3610066581.2988868     
   3456217773.3486118     
   3304435302.3360028     
   3155046116.3421001     
   3995419391.2691646     
   3826660783.0219212     
   3659150246.7238178     
   3493023300.7228012     
   3328495204.2819448     
   4253008401.3070846     
   4071261937.1273308     
   3890234996.4561090     
   3709954537.5508037     
   3530518191.4765735     
   4535655195.6296272     
   4340788277.6266499     
   4146168983.1993961     
   3951718339.0372419     
   3757417902.8537493     
   3013983768.7614646     
   2882121979.7241979     
   2752825311.0511780     
   2626468094.2218056     
   2503528294.1474314     
   3155046116.3421001     
   3010923883.6986570     
   2868641087.5896392     
   2728445373.3533125     
   2590672883.6641865     
   3328495204.2819448     
   3173399240.5639262     
   3019548561.7513475     
   2867071084.2138772     
   2716163235.6700816     
   3530518191.4765735     
   3365482116.0746875     
   3201236645.8303900     
   3037809222.3212452     
   2875276952.7915816     
   3757417902.8537493     
   3583179421.3020878     
   3409400677.9390931     
   3236031275.9717464     
   3063055847.6305733     
   2503528294.1474314     
   2367298523.9879956     
   2234170847.6252227     
   2104597925.5126452     
   1979156204.2456048     
   2590672883.6641865     
   2444147583.3710661     
   2299638136.3518658     
   2157445382.1960001     
   2017970777.9389825     
   2716163235.6700816     
   2560941883.2581654     
   2406804056.1316953     
   2253899293.2894301     
   2102443051.5473223     
   2875276952.7915816     
   2712881739.6724105     
   2550846635.8509221     
   2389201013.0518632     
   2228009103.1156616     
   3063055847.6305733     
   2894771623.1922169     
   2726329379.5452881     
   2557678795.5614390     
   2388784611.0126162     
   1979156204.2456048     
   1848234867.4210198     
   1717354224.4490912     
   1586867047.7538826     
   1457287622.9720275     
   2017970777.9389825     
   1881058411.8893089     
   1744411833.2799001     
   1608157854.7401114     
   1472471557.1486020     
   2102443051.5473223     
   1962266872.0707898     
   1822954798.5510941     
   1684536011.8179264     
   1547064788.4550829     
   2228009103.1156616     
   2085591221.7964950     
   1944720351.7277267     
   1805400301.9505157     
   1667703529.0118022     
   2388784611.0126162     
   2243525020.9313083     
   2100356949.7713611     
   1959289945.4881124     
   1820486365.3009632     
   1457287622.9720275     
   1348313128.1963077     
   1274326798.2416871     
   1243449283.1133249     
   1262712962.7624302     
   1472471557.1486020     
   1328266036.1559572     
   1198546332.4783370     
   1087791681.5382643     
   1001906063.0524487     
   1547064788.4550829     
   1397215862.7740662     
   1243839243.6833818     
   1084663041.8896670     
   917656658.80853796     
   1667703529.0118022     
   1552297994.7306392     
   1427822667.7142730     
   1294626958.0825775     
   1158808118.6870961     
   1820486365.3009632     
   1779794248.0523429     
   1735636868.9265409     
   1696618609.9798348     
   1681177285.7743080     
   1262712962.7624302     
   1446558962.1423144     
   1715622870.4054356     
   2110480001.5763144     
   2663565862.7445426     
   1001906063.0524487     
   1164631469.6089082     
   1425389497.8194349     
   1808751054.1157930     
   2334786686.9797082     
   917656658.80853796     
   963091568.49940026     
   1144921142.3400512     
   1476481483.5249746     
   1957438763.1326497     
   1158808118.6870961     
   1008407440.9572991     
   985217208.31744134     
   1161467984.2783442     
   1544034500.9869971     
   1681177285.7743080     
   1383695835.5378799     
   1129436390.0086432     
   1010084498.0255226     
   1152863672.3586054     
 </DataArray>
 <DataArray  type="Float64" Name="strain" NumberOfComponents="3" format="ascii">
  0.10351800069058914       -2.9691792836421094E-002   1.8128749555709422E-002
   9.9426678330640894E-002  -2.8919250393801055E-002   1.3304441649624299E-002
   9.5335355970692648E-002  -2.8082331966226670E-002   9.6494029158076255E-003
   9.1244033610744402E-002  -2.7181037553697968E-002   7.1636333542597352E-003
   8.7152711250796155E-002  -2.6215367156214420E-002   5.8471329649799619E-003
   9.3441293913865575E-002  -2.7931916326536577E-002   1.7625259148377093E-002
   9.0313433467671900E-002  -2.7153137646934444E-002   1.4770567717838967E-002
   8.7185573021478169E-002  -2.6335096319360457E-002   1.2673530942541367E-002
   8.4057712575284493E-002  -2.5477792343815024E-002   1.1334148822484097E-002
   8.0929852129090818E-002  -2.4581225720297750E-002   1.0752421357667852E-002
   8.5488191554739745E-002  -2.6172039816652171E-002   1.7140561646518671E-002
   8.2912178505272660E-002  -2.5387024900067556E-002   1.6230373354544497E-002
   8.0336165455805630E-002  -2.4587860672494077E-002   1.5666225200782979E-002
   7.7760152406338517E-002  -2.3774547133932081E-002   1.5448117185234062E-002
   7.5184139356871404E-002  -2.2947084284381192E-002   1.5576049307897771E-002
   7.9658693613211928E-002  -2.4412163306767709E-002   1.6674657050134239E-002
   7.7222913443443397E-002  -2.3620912153200793E-002   1.7683858559740952E-002
   7.4787133273674991E-002  -2.2840625025627892E-002   1.8627485690532783E-002
   7.2351353103906557E-002  -2.2071301924049082E-002   1.9505538442509109E-002
   6.9915572934138054E-002  -2.1312942848464467E-002   2.0318016815670074E-002
   7.5952800089281625E-002  -2.2652286796883248E-002   1.6227545359223328E-002
   7.3245638282184000E-002  -2.1854799406333947E-002   1.9131023333428587E-002
   7.0538476475086209E-002  -2.1093389378761485E-002   2.1557312411790708E-002
   6.7831314667988502E-002  -2.0368056714166125E-002   2.3506412594309190E-002
   6.5124152860890738E-002  -1.9678801412547853E-002   2.4978323880984588E-002
   8.7152711250796155E-002  -2.6215367156214420E-002   5.8471329649799619E-003
   8.4269920387704089E-002  -2.5230461138364468E-002   4.6325179228877689E-003
   8.1387129524611967E-002  -2.4271459864736028E-002   3.7717047283727934E-003
   7.8504338661519846E-002  -2.3338363335329189E-002   3.2646933814343138E-003
   7.5621547798427780E-002  -2.2431171550143958E-002   3.1114838820730517E-003
   8.0929852129090818E-002  -2.4581225720297750E-002   1.0752421357667852E-002
   7.8360191482507752E-002  -2.3673140379919744E-002   9.9532160547579629E-003
   7.5790530835924685E-002  -2.2781280253791975E-002   9.4264693372893282E-003
   7.3220870189341591E-002  -2.1905645341914269E-002   9.1721812052620033E-003
   7.0651209542758608E-002  -2.1046235644286426E-002   9.1903516586754330E-003
   7.5184139356871404E-002  -2.2947084284381192E-002   1.5576049307897771E-002
   7.2846265664661652E-002  -2.2115819621475130E-002   1.5201933274141682E-002
   7.0508391972451900E-002  -2.1291100642847907E-002   1.5018932563691065E-002
   6.8170518280242121E-002  -2.0472927348498902E-002   1.5027047176545814E-002
   6.5832644588032313E-002  -1.9661299738428895E-002   1.5226277112706271E-002
   6.9915572934138054E-002  -2.1312942848464467E-002   2.0318016815670074E-002
   6.7728142934165819E-002  -2.0558498863030406E-002   2.0378669581039295E-002
   6.5540712934193598E-002  -1.9800921031903625E-002   2.0549094407578291E-002
   6.3353282934221378E-002  -1.9040209355083867E-002   2.0829291295286913E-002
   6.1165852934249088E-002  -1.8276363832571418E-002   2.1219260244165060E-002
   6.5124152860890738E-002  -1.9678801412547853E-002   2.4978323880984588E-002
   6.3005823291020280E-002  -1.9001178104585709E-002   2.5483424975450641E-002
   6.0887493721149849E-002  -1.8310741420959314E-002   2.6016954868950393E-002
   5.8769164151279404E-002  -1.7607491361668802E-002   2.6578913561484133E-002
   5.6650834581408904E-002  -1.6891427926713831E-002   2.7169301053051764E-002
   7.5621547798427780E-002  -2.2431171550143958E-002   3.1114838820730517E-003
   7.2366178443387330E-002  -2.1535104711322473E-002   2.4563364891359019E-003
   6.9110809088346770E-002  -2.0635383021008452E-002   2.0466786862540221E-003
   6.5855439733306265E-002  -1.9732006479200877E-002   1.8825104734273845E-003
   6.2600070378265760E-002  -1.8824975085899642E-002   1.9638318506554064E-003
   7.0651209542758608E-002  -2.1046235644286426E-002   9.1903516586754330E-003
   6.7628501470131441E-002  -2.0193572479121236E-002   8.6773427594485364E-003
   6.4605793397504330E-002  -1.9338177164630571E-002   8.3841668349938225E-003
   6.1583085324877246E-002  -1.8480049700815231E-002   8.3108238853101812E-003
   5.8560377252250106E-002  -1.7619190087674430E-002   8.4573139103982786E-003
   6.5832644588032313E-002  -1.9661299738428895E-002   1.5226277112706271E-002
   6.3016941182535036E-002  -1.8852040246919499E-002   1.4854484005021845E-002
   6.0201237777037703E-002  -1.8040971308253231E-002   1.4676867256825474E-002
   5.7385534371540411E-002  -1.7228092922429470E-002   1.4693426868117039E-002
   5.4569830966043092E-002  -1.6413405089449162E-002   1.4904162838896701E-002
   6.1165852934249088E-002  -1.8276363832571418E-002   2.1219260244165060E-002
   5.8531497580598030E-002  -1.7510508014718013E-002   2.0987760225854891E-002
   5.5897142226946972E-002  -1.6743765451875510E-002   2.0924779951749264E-002
   5.3262786873295859E-002  -1.5976136144044098E-002   2.1030319421847923E-002
   5.0628431519644863E-002  -1.5207620091223478E-002   2.1304378636151179E-002
   5.6650834581408904E-002  -1.6891427926713831E-002   2.7169301053051764E-002
   5.4172170664320451E-002  -1.6168975782516470E-002   2.7077171421947932E-002
   5.1693506747232026E-002  -1.5446559595497955E-002   2.7127904919764856E-002
   4.9214842830143615E-002  -1.4724179365658466E-002   2.7321501546502550E-002
   4.6736178913055093E-002  -1.4001835092998127E-002   2.7657961302161027E-002
   6.2600070378265760E-002  -1.8824975085899642E-002   1.9638318506554064E-003
   5.9708057918509638E-002  -1.7927502859915179E-002   1.4929133521368598E-003
   5.6816045458753406E-002  -1.7052803820058110E-002   1.1913385638076535E-003
   5.3924032998997201E-002  -1.6200877966326292E-002   1.0591074856667049E-003
   5.1032020539241052E-002  -1.5371725298721328E-002   1.0962201177158182E-003
   5.8560377252250106E-002  -1.7619190087674430E-002   8.4573139103982786E-003
   5.5833805937532677E-002  -1.6763493034162913E-002   8.0137244591829693E-003
   5.3107234622815136E-002  -1.5920853249234951E-002   7.7316735878560361E-003
   5.0380663308097678E-002  -1.5091270732890120E-002   7.6111612964175623E-003
   4.7654091993380221E-002  -1.4274745485129081E-002   7.6521875848671872E-003
   5.4569830966043092E-002  -1.6413405089449162E-002   1.4904162838896701E-002
   5.2000895666063585E-002  -1.5599483208409815E-002   1.4497618352527802E-002
   4.9431960366084063E-002  -1.4788902678411806E-002   1.4244807315746302E-002
   4.6863025066104576E-002  -1.3981663499453841E-002   1.4145729728552554E-002
   4.4294089766125117E-002  -1.3177765671536279E-002   1.4200385590946218E-002
   5.0628431519644863E-002  -1.5207620091223478E-002   2.1304378636151179E-002
   4.8209327104102466E-002  -1.4435473382657132E-002   2.0944595032171449E-002
   4.5790222688560187E-002  -1.3656952107588542E-002   2.0730739747478476E-002
   4.3371118273017845E-002  -1.2872056266017283E-002   2.0662812782072305E-002
   4.0952013857475572E-002  -1.2080785857943532E-002   2.0740814135953231E-002
   4.6736178913055093E-002  -1.4001835092998127E-002   2.7657961302161027E-002
   4.4459100251649231E-002  -1.3271463556904672E-002   2.7354654498113695E-002
   4.2182021590243396E-002  -1.2525001536765556E-002   2.7189470883052347E-002
   3.9904942928837520E-002  -1.1762449032581071E-002   2.7162410456977176E-002
   3.7627864267431699E-002  -1.0983806044351119E-002   2.7273473219887823E-002
   5.1032020539241052E-002  -1.5371725298721328E-002   1.0962201177158182E-003
   4.8227594423842390E-002  -1.4543833588648081E-002   6.4949215881393574E-004
   4.5423168308443784E-002  -1.3695690607509470E-002   3.1994258629441941E-004
   4.2618742193045123E-002  -1.2827296355309173E-002   1.0757140015710265E-004
   3.9814316077646517E-002  -1.1938650832042930E-002   1.2378600402485063E-005
   4.7654091993380221E-002  -1.4274745485129081E-002   7.6521875848671872E-003
   4.4963405754885000E-002  -1.3460349670167404E-002   7.2344722721160437E-003
   4.2272719516389834E-002  -1.2637155452221105E-002   6.9270583267897479E-003
   3.9582033277894668E-002  -1.1805162831290184E-002   6.7299457488881054E-003
   3.6891347039399502E-002  -1.0964371807375084E-002   6.6431345384103668E-003
   4.4294089766125117E-002  -1.3177765671536279E-002   1.4200385590946218E-002
   4.1710266385575401E-002  -1.2376865751686728E-002   1.3800230056266627E-002
   3.9126443005025824E-002  -1.1578620296931380E-002   1.3503498870054281E-002
   3.6542619624476178E-002  -1.0783029307272075E-002   1.3310192032307919E-002
   3.3958796243926503E-002  -9.9900927827071273E-003   1.3220309543028497E-002
   4.0952013857475572E-002  -1.2080785857943532E-002   2.0740814135953231E-002
   3.8468176315913649E-002  -1.1293381833205829E-002   2.0346765511265880E-002
   3.5984338774351601E-002  -1.0520085141642446E-002   2.0049264216087236E-002
   3.3500501232789637E-002  -9.7608957832537487E-003   1.9848310250417247E-002
   3.1016663691227749E-002  -9.0158137580392261E-003   1.9743903614255709E-002
   3.7627864267431699E-002  -1.0983806044351119E-002   2.7273473219887823E-002
   3.5237135545899467E-002  -1.0209897914725097E-002   2.6874078637113163E-002
   3.2846406824367319E-002  -9.4615499863534291E-003   2.6564354364889187E-002
   3.0455678102835143E-002  -8.7387622592352901E-003   2.6344300403215865E-002
   2.8064949381302939E-002  -8.0415347333711029E-003   2.6213916752093613E-002
   3.9814316077646517E-002  -1.1938650832042930E-002   1.2378600402485063E-005
   3.7414804540201518E-002  -1.1118541319853570E-002  -2.6542126316275727E-004
   3.5015293002756409E-002  -1.0455755100880260E-002  -4.6281974696771311E-004
   3.2615781465311383E-002  -9.9502921751237483E-003  -5.7981685101227143E-004
   3.0216269927866302E-002  -9.6021525425833421E-003  -6.1641257529632121E-004
   3.6891347039399502E-002  -1.0964371807375084E-002   6.6431345384103668E-003
   3.4555463960059818E-002  -1.0170618834094980E-002   6.2088810972285025E-003
   3.2219580880720106E-002  -9.4797403650687118E-003   5.8214831924964794E-003
   2.9883697801380463E-002  -8.8917364002974175E-003   5.4809408242144086E-003
   2.7547814722040820E-002  -8.4066069397801257E-003   5.1872539923829564E-003
   3.3958796243926503E-002  -9.9900927827071273E-003   1.3220309543028497E-002
   3.1652995779381798E-002  -9.2226963483361679E-003   1.2684051313191724E-002
   2.9347195314836996E-002  -8.5037256292569974E-003   1.2161102776494848E-002
   2.7041394850292243E-002  -7.8331806254708786E-003   1.1651463932937298E-002
   2.4735594385747461E-002  -7.2110613369765764E-003   1.1155134782519505E-002
   3.1016663691227749E-002  -9.0158137580392261E-003   1.9743903614255709E-002
   2.8707399998167279E-002  -8.2747738625772449E-003   1.9160089384726978E-002
   2.6398136305106932E-002  -7.5277108934454773E-003   1.8556039005026545E-002
   2.4088872612046584E-002  -6.7746248506439996E-003   1.7931752475155806E-002
   2.1779608918986233E-002  -6.0155157341734156E-003   1.7287229795113976E-002
   2.8064949381302939E-002  -8.0415347333711029E-003   2.6213916752093613E-002
   2.5718676616416525E-002  -7.3268513768185439E-003   2.5636995311833943E-002
   2.3372403851530027E-002  -6.5516961576337907E-003   2.5006291878092446E-002
   2.1026131086643612E-002  -5.7160690758179117E-003   2.4321806450870204E-002
   1.8679858321757115E-002  -4.8199701313700327E-003   2.3583539030166412E-002
   3.0216269927866302E-002  -9.6021525425833421E-003  -6.1641257529632121E-004
   2.9606726141302220E-002  -9.1301873915958787E-003  -3.7076137492220163E-004
   2.8997182354737971E-002  -8.2532479104979184E-003  -1.8043698716707635E-003
   2.8387638568173806E-002  -6.9713340992880041E-003  -4.9172380655411185E-003
   2.7778094781609641E-002  -5.2844459579679537E-003  -9.7093659565326007E-003
   2.7547814722040820E-002  -8.4066069397801257E-003   5.1872539923829564E-003
   2.5527929211459854E-002  -7.8686647092361950E-003   5.8647952226025257E-003
   2.3508043700878889E-002  -7.1222224343849838E-003   5.4009127019103431E-003
   2.1488158190297868E-002  -6.1672801152264922E-003   3.7956064303065196E-003
   1.9468272679716958E-002  -5.0038377517600541E-003   1.0488764077905000E-003
   2.4735594385747461E-002  -7.2110613369765764E-003   1.1155134782519505E-002
   2.1843203097359654E-002  -6.6071420268767334E-003   1.2068091756782251E-002
   1.8950811808971832E-002  -5.9911969582729652E-003   1.2377460926342926E-002
   1.6058420520584031E-002  -5.3632261311649873E-003   1.2083242291201640E-002
   1.3166029232196202E-002  -4.7232295455521545E-003   1.1185435851359005E-002
   2.1779608918986233E-002  -6.0155157341734156E-003   1.7287229795113976E-002
   1.8552547799001576E-002  -5.3456193445173827E-003   1.8239128227615975E-002
   1.5325486679016901E-002  -4.8601714821602665E-003   1.9125274801626353E-002
   1.2098425559032231E-002  -4.5591721471025907E-003   1.9945669517145211E-002
   8.8713644390475618E-003  -4.4426213393442548E-003   2.0700312374171720E-002
   1.8679858321757115E-002  -4.8199701313700327E-003   2.3583539030166412E-002
   1.5655963316385524E-002  -4.0840966621576436E-003   2.4377904635104808E-002
   1.2632068311013989E-002  -3.7291460060477899E-003   2.5644354327761409E-002
   9.6081733056424673E-003  -3.7551181630406938E-003   2.7382888108136050E-002
   6.5842783002708627E-003  -4.1620131331361332E-003   2.9593505976228895E-002
   2.7778094781609641E-002  -5.2844459579679537E-003  -9.7093659565326007E-003
   2.3352138508625275E-002  -4.2071447912359616E-003  -4.1841147791021882E-003
   1.8926182235641076E-002  -4.7539919037893341E-003   2.6051446995999372E-003
   1.4500225962656627E-002  -6.9249872956276270E-003   1.0658412479574220E-002
   1.0074269689672510E-002  -1.0720130966751285E-002   1.9975688560820437E-002
   1.9468272679716958E-002  -5.0038377517600541E-003   1.0488764077905000E-003
   1.6233955485712437E-002  -4.6914022217863227E-003   6.7420060220120259E-003
   1.2999638291707805E-002  -6.2894804031050633E-003   1.3554405492919974E-002
   9.7653210977032556E-003  -9.7980722957153876E-003   2.1486074820516510E-002
   6.5310039036985401E-003  -1.5217177899617962E-002   3.0537014004798912E-002
   1.3166029232196202E-002  -4.7232295455521545E-003   1.1185435851359005E-002
   1.0978612672586541E-002  -5.1756596523371279E-003   1.6760078470364370E-002
   8.7911961129769206E-003  -7.8249689024212365E-003   2.3309252501472366E-002
   6.6037795533672936E-003  -1.2671157295803370E-002   3.0832957944682493E-002
   4.4163629937576387E-003  -1.9714224832484639E-002   3.9331194799995473E-002
   8.8713644390475618E-003  -4.4426213393442548E-003   2.0700312374171720E-002
   7.5861100692481073E-003  -5.6599170828877110E-003   2.5870102565954650E-002
   6.3008556994486563E-003  -9.3604574017367437E-003   3.1869685725255448E-002
   5.0156013296491549E-003  -1.5544242295891242E-002   3.8699061852073696E-002
   3.7303469598498479E-003  -2.4211271765351094E-002   4.6358230946410506E-002
   6.5842783002708627E-003  -4.1620131331361332E-003   2.9593505976228895E-002
   6.0564476756968522E-003  -6.1441745134388492E-003   3.4072078308782783E-002
   5.5286170511228694E-003  -1.0895945901052861E-002   3.9235705164270107E-002
   5.0007864265489282E-003  -1.8417327295979155E-002   4.5084386542690147E-002
   4.4729558019749316E-003  -2.8708318698217550E-002   5.1618122444043735E-002
   7.5952800089281625E-002  -2.2652286796883248E-002   1.6227545359223328E-002
   7.3245638282184000E-002  -2.1854799406333947E-002   1.9131023333428587E-002
   7.0538476475086209E-002  -2.1093389378761485E-002   2.1557312411790708E-002
   6.7831314667988502E-002  -2.0368056714166125E-002   2.3506412594309190E-002
   6.5124152860890738E-002  -1.9678801412547853E-002   2.4978323880984588E-002
   7.2409138669534329E-002  -2.0707545104262037E-002   2.7951036627367032E-002
   6.9396786821384338E-002  -2.0021390743308748E-002   2.9201712869387053E-002
   6.6384434973234499E-002  -1.9350479774866827E-002   3.0319197925146008E-002
   6.3372083125084605E-002  -1.8694812198936237E-002   3.1303491794644020E-002
   6.0359731276934669E-002  -1.8054388015516981E-002   3.2154594477880688E-002
   6.7066337040554924E-002  -1.8762803411640883E-002   3.9552777880682066E-002
   6.4092792860934999E-002  -1.8187982080283577E-002   3.9171486360982319E-002
   6.1119248681315061E-002  -1.7607570170972031E-002   3.9001001364603924E-002
   5.8145704501695129E-002  -1.7021567683706239E-002   3.9041322891546548E-002
   5.5172160322075198E-002  -1.6429974618486221E-002   3.9292450941810136E-002
   5.9924395202343279E-002  -1.6818061719019728E-002   5.1032769119168139E-002
   5.7333656400835528E-002  -1.6354573417258461E-002   4.9040343808214537E-002
   5.4742917599327798E-002  -1.5864660567077249E-002   4.7602722730164228E-002
   5.2152178797820060E-002  -1.5348323168476296E-002   4.6719905885017177E-002
   4.9561439996312323E-002  -1.4805561221455349E-002   4.6391893272773425E-002
   5.0983313154899457E-002  -1.4873320026398518E-002   6.2391010342825459E-002
   4.9119377441086104E-002  -1.4521164754233290E-002   5.8808285211083500E-002
   4.7255441727272751E-002  -1.4121750963182522E-002   5.6124362021826801E-002
   4.5391506013459371E-002  -1.3675078653246270E-002   5.4339240775055891E-002
   4.3527570299646018E-002  -1.3181147824424644E-002   5.3452921470770187E-002
   6.5124152860890738E-002  -1.9678801412547853E-002   2.4978323880984588E-002
   6.3005823291020280E-002  -1.9001178104585709E-002   2.5483424975450641E-002
   6.0887493721149849E-002  -1.8310741420959314E-002   2.6016954868950393E-002
   5.8769164151279404E-002  -1.7607491361668802E-002   2.6578913561484133E-002
   5.6650834581408904E-002  -1.6891427926713831E-002   2.7169301053051764E-002
   6.0359731276934669E-002  -1.8054388015516981E-002   3.2154594477880688E-002
   5.8304472782327296E-002  -1.7417229136780413E-002   3.2281951557077457E-002
   5.6249214287719909E-002  -1.6771357474897948E-002   3.2507021987766241E-002
   5.4193955793112501E-002  -1.6116773029869580E-002   3.2829805769947616E-002
   5.2138697298505149E-002  -1.5453475801695093E-002   3.3250302903620854E-002
   5.5172160322075198E-002  -1.6429974618486221E-002   3.9292450941810136E-002
   5.3249257455189158E-002  -1.5833280168975186E-002   3.9037963413219447E-002
   5.1326354588303154E-002  -1.5231973528836526E-002   3.8950473788579340E-002
   4.9403451721417094E-002  -1.4626054698070250E-002   3.9029982067889712E-002
   4.7480548854531096E-002  -1.4015523676676300E-002   3.9276488251150515E-002
   4.9561439996312323E-002  -1.4805561221455349E-002   4.6391893272773425E-002
   4.7840177309605915E-002  -1.4249331201169925E-002   4.5751460543876916E-002
   4.6118914622899500E-002  -1.3692589582775132E-002   4.5347310271389218E-002
   4.4397651936193126E-002  -1.3135336366271113E-002   4.5179442455310276E-002
   4.2676389249486732E-002  -1.2577571551657479E-002   4.5247857095640165E-002
   4.3527570299646018E-002  -1.3181147824424644E-002   5.3452921470770187E-002
   4.2077232345577531E-002  -1.2665382233364664E-002   5.2422442949049713E-002
   4.0626894391509058E-002  -1.2153205636713710E-002   5.1697531436196181E-002
   3.9176556437440592E-002  -1.1644618034471747E-002   5.1278186932209896E-002
   3.7726218483372098E-002  -1.1139619426638714E-002   5.1164409437090386E-002
   5.6650834581408904E-002  -1.6891427926713831E-002   2.7169301053051764E-002
   5.4172170664320451E-002  -1.6168975782516470E-002   2.7077171421947932E-002
   5.1693506747232026E-002  -1.5446559595497955E-002   2.7127904919764856E-002
   4.9214842830143615E-002  -1.4724179365658466E-002   2.7321501546502550E-002
   4.6736178913055093E-002  -1.4001835092998127E-002   2.7657961302161027E-002
   5.2138697298505149E-002  -1.5453475801695093E-002   3.3250302903620854E-002
   4.9814584246751462E-002  -1.4783942375932585E-002   3.3025711675286479E-002
   4.7490471194997816E-002  -1.4110649338139311E-002   3.2967359048700573E-002
   4.5166358143244177E-002  -1.3433596688316115E-002   3.3075245023863678E-002
   4.2842245091490538E-002  -1.2752784426462271E-002   3.3349369600775558E-002
   4.7480548854531096E-002  -1.4015523676676300E-002   3.9276488251150515E-002
   4.5334362140940165E-002  -1.3398908969348561E-002   3.8923230994794805E-002
   4.3188175427349269E-002  -1.2774739080781000E-002   3.8759587813015806E-002
   4.1041988713758359E-002  -1.2143014010973598E-002   3.8785558705813475E-002
   3.8895802000167443E-002  -1.1503733759926360E-002   3.9001143673188049E-002
   4.2676389249486732E-002  -1.2577571551657479E-002   4.5247857095640165E-002
   4.0731504346886542E-002  -1.2013875562764634E-002   4.4769729380472773E-002
   3.8786619444286331E-002  -1.1438828823422661E-002   4.4504591212710061E-002
   3.6841734541686148E-002  -1.0852431333631219E-002   4.4452442592352065E-002
   3.4896849639086000E-002  -1.0254683093390476E-002   4.4613283519398694E-002
   3.7726218483372098E-002  -1.1139619426638714E-002   5.1164409437090386E-002
   3.6006010864590571E-002  -1.0628842156180707E-002   5.0565206832320797E-002
   3.4285803245809057E-002  -1.0102918566064198E-002   5.0202369247783679E-002
   3.2565595627027523E-002  -9.5618486562886011E-003   5.0075896683479323E-002
   3.0845388008245989E-002  -9.0056324268545929E-003   5.0185789139407522E-002
   4.6736178913055093E-002  -1.4001835092998127E-002   2.7657961302161027E-002
   4.4459100251649231E-002  -1.3271463556904672E-002   2.7354654498113695E-002
   4.2182021590243396E-002  -1.2525001536765556E-002   2.7189470883052347E-002
   3.9904942928837520E-002  -1.1762449032581071E-002   2.7162410456977176E-002
   3.7627864267431699E-002  -1.0983806044351119E-002   2.7273473219887823E-002
   4.2842245091490538E-002  -1.2752784426462271E-002   3.3349369600775558E-002
   4.0707901227619275E-002  -1.2063195094930312E-002   3.3013107641203604E-002
   3.8573557363747984E-002  -1.1359811236073145E-002   3.2824192087714921E-002
   3.6439213499876735E-002  -1.0642632849890182E-002   3.2782622940309009E-002
   3.4304869636005514E-002  -9.9116599363818780E-003   3.2888400198986811E-002
   3.8895802000167443E-002  -1.1503733759926360E-002   3.9001143673188049E-002
   3.6913416150927830E-002  -1.0854926632956285E-002   3.8629630601371687E-002
   3.4931030301688155E-002  -1.0194620935380622E-002   3.8414687152735688E-002
   3.2948644452448508E-002  -9.5228166671994033E-003   3.8356313327279859E-002
   3.0966258603208868E-002  -8.8395138284124708E-003   3.8454509125003894E-002
   3.4896849639086000E-002  -1.0254683093390476E-002   4.4613283519398694E-002
   3.3075645021574979E-002  -9.6466581709822585E-003   4.4204223378618235E-002
   3.1254440404063971E-002  -9.0294306346882097E-003   4.3960956078114947E-002
   2.9433235786552985E-002  -8.4030004845085694E-003   4.3883481617888603E-002
   2.7612031169042005E-002  -7.7673677204431468E-003   4.3971799997939646E-002
   3.0845388008245989E-002  -9.0056324268545929E-003   5.0185789139407522E-002
   2.9194587839560637E-002  -8.4383897090077875E-003   4.9736885972942957E-002
   2.7543787670875342E-002  -7.8642403339957423E-003   4.9462998863852414E-002
   2.5892987502190004E-002  -7.2831843018177217E-003   4.9364127812136060E-002
   2.4242187333504694E-002  -6.6952216124739339E-003   4.9440272817794062E-002
   3.7627864267431699E-002  -1.0983806044351119E-002   2.7273473219887823E-002
   3.5237135545899467E-002  -1.0209897914725097E-002   2.6874078637113163E-002
   3.2846406824367319E-002  -9.4615499863534291E-003   2.6564354364889187E-002
   3.0455678102835143E-002  -8.7387622592352901E-003   2.6344300403215865E-002
   2.8064949381302939E-002  -8.0415347333711029E-003   2.6213916752093613E-002
   3.4304869636005514E-002  -9.9116599363818780E-003   3.2888400198986811E-002
   3.2018514879268073E-002  -9.1823651796262284E-003   3.2466737348042729E-002
   2.9732160122530688E-002  -8.4702212637022822E-003   3.2164152116137490E-002
   2.7445805365793191E-002  -7.7752281886099978E-003   3.1980644503271025E-002
   2.5159450609055833E-002  -7.0973859543488338E-003   3.1916214509443042E-002
   3.0966258603208868E-002  -8.8395138284124708E-003   3.8454509125003894E-002
   2.8813685119754143E-002  -8.1548324445271658E-003   3.8018987366313289E-002
   2.6661111636299376E-002  -7.4788925410512325E-003   3.7731950535149189E-002
   2.4508538152844671E-002  -6.8116941179842579E-003   3.7593398631511919E-002
   2.2355964669389897E-002  -6.1532371753264536E-003   3.7603331655401029E-002
   2.7612031169042005E-002  -7.7673677204431468E-003   4.3971799997939646E-002
   2.5622646267357781E-002  -7.1272997094282559E-003   4.3530828691924706E-002
   2.3633261365673525E-002  -6.4875638184003562E-003   4.3267749621924118E-002
   2.1643876463989291E-002  -5.8481600473586862E-003   4.3182562787938292E-002
   1.9654491562305101E-002  -5.2090883963040735E-003   4.3275268189966618E-002
   2.4242187333504694E-002  -6.6952216124739339E-003   4.9440272817794062E-002
   2.2445398322078869E-002  -6.0997669743293459E-003   4.9002261324877061E-002
   2.0648609310653071E-002  -5.4962350957489803E-003   4.8771549376462497E-002
   1.8851820299227287E-002  -4.8846259767334338E-003   4.8748136972550066E-002
   1.7055031287801448E-002  -4.2649396172816934E-003   4.8932024113140238E-002
   2.8064949381302939E-002  -8.0415347333711029E-003   2.6213916752093613E-002
   2.5718676616416525E-002  -7.3268513768185439E-003   2.5636995311833943E-002
   2.3372403851530027E-002  -6.5516961576337907E-003   2.5006291878092446E-002
   2.1026131086643612E-002  -5.7160690758179117E-003   2.4321806450870204E-002
   1.8679858321757115E-002  -4.8199701313700327E-003   2.3583539030166412E-002
   2.5159450609055833E-002  -7.0973859543488338E-003   3.1916214509443042E-002
   2.2798245884860013E-002  -6.4201503410061811E-003   3.1518360666749623E-002
   2.0437041160664221E-002  -5.7269771286694859E-003   3.1144424898918693E-002
   1.8075836436468422E-002  -5.0178663173379573E-003   3.0794407205950586E-002
   1.5714631712272609E-002  -4.2928179070116368E-003   3.0468307587844745E-002
   2.2355964669389897E-002  -6.1532371753264536E-003   3.7603331655401029E-002
   2.0057528054228779E-002  -5.5134493051944844E-003   3.7340011146636320E-002
   1.7759091439067592E-002  -4.9022580997051535E-003   3.7178308781078667E-002
   1.5460654823906426E-002  -4.3196635588582180E-003   3.7118224558727486E-002
   1.3162218208745302E-002  -3.7656656826536850E-003   3.7159758479582972E-002
   1.9654491562305101E-002  -5.2090883963040735E-003   4.3275268189966618E-002
   1.7496523124522559E-002  -4.6067482693823991E-003   4.3101946751494077E-002
   1.5338554686740093E-002  -4.0775390707408904E-003   4.3107943524572472E-002
   1.3180586248957606E-002  -3.6214608003781491E-003   4.3293258509201599E-002
   1.1022617811175080E-002  -3.2385134582954556E-003   4.3657891705381022E-002
   1.7055031287801448E-002  -4.2649396172816934E-003   4.8932024113140238E-002
   1.5115231095741644E-002  -3.7000472335704804E-003   4.8804167481322991E-002
   1.3175430903681784E-002  -3.2528200417764885E-003   4.8933329129400294E-002
   1.1235630711621966E-002  -2.9232580418986284E-003   4.9319509057372451E-002
   9.2958305195621205E-003  -2.7113612339374482E-003   4.9962707265238659E-002
   1.8679858321757115E-002  -4.8199701313700327E-003   2.3583539030166412E-002
   1.5655963316385524E-002  -4.0840966621576436E-003   2.4377904635104808E-002
   1.2632068311013989E-002  -3.7291460060477899E-003   2.5644354327761409E-002
   9.6081733056424673E-003  -3.7551181630406938E-003   2.7382888108136050E-002
   6.5842783002708627E-003  -4.1620131331361332E-003   2.9593505976228895E-002
   1.5714631712272609E-002  -4.2928179070116368E-003   3.0468307587844745E-002
   1.3144873752326230E-002  -3.7784068540172022E-003   3.1248471693067659E-002
   1.0575115792379741E-002  -3.7012081146789444E-003   3.2464825801422931E-002
   8.0053578324333144E-003  -4.0612216889980152E-003   3.4117369912910520E-002
   5.4355998724868737E-003  -4.8584475769735125E-003   3.6206104027529662E-002
   1.3162218208745302E-002  -3.7656656826536850E-003   3.7159758479582972E-002
   1.1010703209638026E-002  -3.4727170458761780E-003   3.7869431584536151E-002
   8.8591882105307287E-003  -3.6732702233098768E-003   3.8979400608035480E-002
   6.7076732114234351E-003  -4.3673252149547814E-003   4.0489665550080906E-002
   4.5561582123161554E-003  -5.5548820208110028E-003   4.2400226410672703E-002
   1.1022617811175080E-002  -3.2385134582954556E-003   4.3657891705381022E-002
   9.2534516883210592E-003  -3.1670272377355563E-003   4.4240784309509631E-002
   7.4842855654670085E-003  -3.6453323319408648E-003   4.5188078747599211E-002
   5.7151194426129310E-003  -4.6734287409118253E-003   4.6499775019648651E-002
   3.9459533197588777E-003  -6.2513164646484376E-003   4.8175873125658436E-002
   9.2958305195621205E-003  -2.7113612339374482E-003   4.9962707265238659E-002
   7.8731191883752716E-003  -2.8613374295946570E-003   5.0362529867989170E-002
   6.4504078571884782E-003  -3.6173944405719638E-003   5.1090860220113721E-002
   5.0276965260016709E-003  -4.9795322668688136E-003   5.2147698321612701E-002
   3.6049851948148359E-003  -6.9477509084859834E-003   5.3533044172486277E-002
   6.5842783002708627E-003  -4.1620131331361332E-003   2.9593505976228895E-002
   6.0564476756968522E-003  -6.1441745134388492E-003   3.4072078308782783E-002
   5.5286170511228694E-003  -1.0895945901052861E-002   3.9235705164270107E-002
   5.0007864265489282E-003  -1.8417327295979155E-002   4.5084386542690147E-002
   4.4729558019749316E-003  -2.8708318698217550E-002   5.1618122444043735E-002
   5.4355998724868737E-003  -4.8584475769735125E-003   3.6206104027529662E-002
   5.4889964193120255E-003  -6.9924712760761620E-003   3.8347089118208666E-002
   5.5423929661372051E-003  -1.1362878283775468E-002   4.0965474028752558E-002
   5.5957895129623500E-003  -1.7969668600072070E-002   4.4061258759162614E-002
   5.6491860597875365E-003  -2.6812842224965383E-002   4.7634443309436447E-002
   4.5561582123161554E-003  -5.5548820208110028E-003   4.2400226410672703E-002
   4.9831272274726279E-003  -7.8407680387136414E-003   4.2736850958191686E-002
   5.4100962426290380E-003  -1.1829810666498325E-002   4.3343220622507783E-002
   5.8370652577855280E-003  -1.7522009904164880E-002   4.4219335403621066E-002
   6.2640342729419207E-003  -2.4917365751713216E-002   4.5365195301532379E-002
   3.9459533197588777E-003  -6.2513164646484376E-003   4.8175873125658436E-002
   4.5388401001786871E-003  -8.6890648013512595E-003   4.7241363828731703E-002
   5.1317268805985018E-003  -1.2296743049221057E-002   4.6368944945535416E-002
   5.7246136610182600E-003  -1.7074351208257409E-002   4.5558616476068348E-002
   6.3175004414381258E-003  -2.3021889278461050E-002   4.4810378420329922E-002
   3.6049851948148359E-003  -6.9477509084859834E-003   5.3533044172486277E-002
   4.1561350374301476E-003  -9.5373615639885445E-003   5.1860627729829800E-002
   4.7072848800454870E-003  -1.2763675431943816E-002   5.0042646997835283E-002
   5.2584347226608402E-003  -1.6626692512350445E-002   4.8079101976502253E-002
   5.8095845652761380E-003  -2.1126412805208883E-002   4.5969992665830794E-002
   5.0983313154899457E-002  -1.4873320026398518E-002   6.2391010342825459E-002
   4.9119377441086104E-002  -1.4521164754233290E-002   5.8808285211083500E-002
   4.7255441727272751E-002  -1.4121750963182522E-002   5.6124362021826801E-002
   4.5391506013459371E-002  -1.3675078653246270E-002   5.4339240775055891E-002
   4.3527570299646018E-002  -1.3181147824424644E-002   5.3452921470770187E-002
   4.2010007854431125E-002  -1.2994539871117650E-002   5.9211690900702996E-002
   4.0878878229210408E-002  -1.2683983676557403E-002   5.7240606558723983E-002
   3.9747748603989719E-002  -1.2334800119937012E-002   5.5836332451444842E-002
   3.8616618978769043E-002  -1.1946989201256426E-002   5.4998868578865615E-002
   3.7485489353548354E-002  -1.1520550920515488E-002   5.4728214940986286E-002
   3.4771396257145690E-002  -1.1115759715836726E-002   5.5995087959388012E-002
   3.4041081012732129E-002  -1.0846802598881641E-002   5.5627013250346802E-002
   3.3310765768318484E-002  -1.0547849276691584E-002   5.5493757068219948E-002
   3.2580450523904923E-002  -1.0218899749266444E-002   5.5595319413007271E-002
   3.1850135279491314E-002  -9.8599540166064148E-003   5.5931700284708966E-002
   2.9267478363043199E-002  -9.2369795605558580E-003   5.2741201518880398E-002
   2.8605985791651176E-002  -9.0096215212058448E-003   5.3967505285951838E-002
   2.7944493220259100E-002  -8.7608984334461154E-003   5.5096635872151870E-002
   2.7283000648866990E-002  -8.4908102972765867E-003   5.6128593277480605E-002
   2.6621508077474938E-002  -8.1993571126972725E-003   5.7063377501938191E-002
   2.5498254172123758E-002  -7.3581994052749344E-003   4.9450031579180487E-002
   2.4573592565967611E-002  -7.1724404435299927E-003   5.2262082665539222E-002
   2.3648930959811465E-002  -6.9739475902006187E-003   5.4644968863240939E-002
   2.2724269353655291E-002  -6.7627208452866669E-003   5.6598690172285943E-002
   2.1799607747499158E-002  -6.5387602087882413E-003   5.8123246592674038E-002
   4.3527570299646018E-002  -1.3181147824424644E-002   5.3452921470770187E-002
   4.2077232345577531E-002  -1.2665382233364664E-002   5.2422442949049713E-002
   4.0626894391509058E-002  -1.2153205636713710E-002   5.1697531436196181E-002
   3.9176556437440592E-002  -1.1644618034471747E-002   5.1278186932209896E-002
   3.7726218483372098E-002  -1.1139619426638714E-002   5.1164409437090386E-002
   3.7485489353548354E-002  -1.1520550920515488E-002   5.4728214940986286E-002
   3.6308674069038024E-002  -1.1074789666868479E-002   5.4070633746669039E-002
   3.5131858784527702E-002  -1.0629009829469439E-002   5.3654530882600970E-002
   3.3955043500017379E-002  -1.0183211408318441E-002   5.3479906348782205E-002
   3.2778228215507035E-002  -9.7373944034153115E-003   5.3546760145212813E-002
   3.1850135279491314E-002  -9.8599540166064148E-003   5.5931700284708966E-002
   3.0882753985921330E-002  -9.4841971003723491E-003   5.5650623995956043E-002
   2.9915372692351356E-002  -9.1048140222251689E-003   5.5546937358834425E-002
   2.8947991398781382E-002  -8.7218047821650789E-003   5.5620640373344153E-002
   2.7980610105211405E-002  -8.3351693801918258E-003   5.5871733039485574E-002
   2.6621508077474938E-002  -8.1993571126972725E-003   5.7063377501938191E-002
   2.5799472096227471E-002  -7.8936045338762473E-003   5.7162413696910420E-002
   2.4977436114980035E-002  -7.5806182149808429E-003   5.7374750864896254E-002
   2.4155400133732581E-002  -7.2603981560116614E-003   5.7700389005895879E-002
   2.3333364152485159E-002  -6.9329443569684651E-003   5.8139328119909059E-002
   2.1799607747499158E-002  -6.5387602087882413E-003   5.8123246592674038E-002
   2.1058828399956445E-002  -6.3030119673799789E-003   5.8606002849532546E-002
   2.0318049052413738E-002  -6.0564224077367945E-003   5.9137971400786915E-002
   1.9577269704871034E-002  -5.7989915298583689E-003   5.9719152246437007E-002
   1.8836490357328345E-002  -5.5307193337449378E-003   6.0349545386483239E-002
   3.7726218483372098E-002  -1.1139619426638714E-002   5.1164409437090386E-002
   3.6006010864590571E-002  -1.0628842156180707E-002   5.0565206832320797E-002
   3.4285803245809057E-002  -1.0102918566064198E-002   5.0202369247783679E-002
   3.2565595627027523E-002  -9.5618486562886011E-003   5.0075896683479323E-002
   3.0845388008245989E-002  -9.0056324268545929E-003   5.0185789139407522E-002
   3.2778228215507035E-002  -9.7373944034153115E-003   5.3546760145212813E-002
   3.1286909716510061E-002  -9.2849280744353724E-003   5.3104666989594596E-002
   2.9795591217513066E-002  -8.8191816810538337E-003   5.2883987053312820E-002
   2.8304272718516082E-002  -8.3401552232705706E-003   5.2884720336367458E-002
   2.6812954219519125E-002  -7.8478487010857911E-003   5.3106866838758593E-002
   2.7980610105211405E-002  -8.3351693801918258E-003   5.5871733039485574E-002
   2.6703228925102740E-002  -7.9410139926897882E-003   5.5584883077761826E-002
   2.5425847744994106E-002  -7.5354447960434209E-003   5.5504494534478234E-002
   2.4148466564885430E-002  -7.1184617902523752E-003   5.5630567409634846E-002
   2.2871085384776779E-002  -6.6900649753168784E-003   5.5963101703231738E-002
   2.3333364152485159E-002  -6.9329443569684651E-003   5.8139328119909059E-002
   2.2254968490368635E-002  -6.5970999109444400E-003   5.8005855096822559E-002
   2.1176572828252103E-002  -6.2517079110329769E-003   5.8063891691280047E-002
   2.0098177166135586E-002  -5.8967683572342623E-003   5.8313437903281619E-002
   1.9019781504019045E-002  -5.5322812495479656E-003   5.8754493732827179E-002
   1.8836490357328345E-002  -5.5307193337449378E-003   6.0349545386483239E-002
   1.7942128412307717E-002  -5.2531858291988420E-003   6.0367583046776752E-002
   1.7047766467287104E-002  -4.9679710260226023E-003   6.0562178523718119E-002
   1.6153404522266497E-002  -4.6750749242160834E-003   6.0933331817307437E-002
   1.5259042577245890E-002  -4.3744975237792194E-003   6.1481042927544471E-002
   3.0845388008245989E-002  -9.0056324268545929E-003   5.0185789139407522E-002
   2.9194587839560637E-002  -8.4383897090077875E-003   4.9736885972942957E-002
   2.7543787670875342E-002  -7.8642403339957423E-003   4.9462998863852414E-002
   2.5892987502190004E-002  -7.2831843018177217E-003   4.9364127812136060E-002
   2.4242187333504694E-002  -6.6952216124739339E-003   4.9440272817794062E-002
   2.6812954219519125E-002  -7.8478487010857911E-003   5.3106866838758593E-002
   2.5342261135140293E-002  -7.3453857142299905E-003   5.2760589414263925E-002
   2.3871568050761502E-002  -6.8358898624342884E-003   5.2599510101007829E-002
   2.2400874966382690E-002  -6.3193611456984385E-003   5.2623628898990804E-002
   2.0930181882003879E-002  -5.7957995640227078E-003   5.2832945808212628E-002
   2.2871085384776779E-002  -6.6900649753168784E-003   5.5963101703231738E-002
   2.1590681438569216E-002  -6.2523817194519160E-003   5.5719576228481102E-002
   2.0310277492361653E-002  -5.8075393908726680E-003   5.5671430918833836E-002
   1.9029873546154086E-002  -5.3555379895793218E-003   5.5818665774290246E-002
   1.7749469599946499E-002  -4.8963775155715372E-003   5.6161280794850305E-002
   1.9019781504019045E-002  -5.5322812495479656E-003   5.8754493732827179E-002
   1.7939848749847411E-002  -5.1593777246738692E-003   5.8613846415594570E-002
   1.6859915995675774E-002  -4.7791889193111309E-003   5.8678761317330526E-002
   1.5779983241504120E-002  -4.3917148334599553E-003   5.8949238438034568E-002
   1.4700050487332493E-002  -3.9969554671203389E-003   5.9425277777707008E-002
   1.5259042577245890E-002  -4.3744975237792194E-003   6.1481042927544471E-002
   1.4389763068974881E-002  -4.0663737298959335E-003   6.1443399975604662E-002
   1.3520483560703872E-002  -3.7508384477494411E-003   6.1621501296497655E-002
   1.2651204052432863E-002  -3.4278916773409114E-003   6.2015346890223713E-002
   1.1781924544161854E-002  -3.0975334186691406E-003   6.2624936756782823E-002
   2.4242187333504694E-002  -6.6952216124739339E-003   4.9440272817794062E-002
   2.2445398322078869E-002  -6.0997669743293459E-003   4.9002261324877061E-002
   2.0648609310653071E-002  -5.4962350957489803E-003   4.8771549376462497E-002
   1.8851820299227287E-002  -4.8846259767334338E-003   4.8748136972550066E-002
   1.7055031287801448E-002  -4.2649396172816934E-003   4.8932024113140238E-002
   2.0930181882003879E-002  -5.7957995640227078E-003   5.2832945808212628E-002
   1.9340379510323247E-002  -5.2678073061774855E-003   5.2530867443899065E-002
   1.7750577138642559E-002  -4.7379865609331190E-003   5.2435462814573452E-002
   1.6160774766961900E-002  -4.2063373282901946E-003   5.2546731920235734E-002
   1.4570972395281240E-002  -3.6728596082481468E-003   5.2864674760885910E-002
   1.7749469599946499E-002  -4.8963775155715372E-003   5.6161280794850305E-002
   1.6366028058496504E-002  -4.4358476380256806E-003   5.5988886806103491E-002
   1.4982586517046509E-002  -3.9797380261174797E-003   5.6022540742830085E-002
   1.3599144975596517E-002  -3.5280486798472330E-003   5.6262242605029947E-002
   1.2215703434146491E-002  -3.0807795992147669E-003   5.6707992392703466E-002
   1.4700050487332493E-002  -3.9969554671203389E-003   5.9425277777707008E-002
   1.3522343966598710E-002  -3.6038879698738480E-003   5.9376319411490047E-002
   1.2344637445864904E-002  -3.2214894913016184E-003   5.9532783161232249E-002
   1.1166930925131126E-002  -2.8497600314042991E-003   5.9894669026933245E-002
   9.9892244043973469E-003  -2.4886995901813591E-003   6.0461977008593314E-002
   1.1781924544161854E-002  -3.0975334186691406E-003   6.2624936756782823E-002
   1.0809327234629823E-002  -2.7719283017219598E-003   6.2693165260059136E-002
   9.8367299250977785E-003  -2.4632409564860347E-003   6.2966190069779993E-002
   8.8641326155657341E-003  -2.1714713829611015E-003   6.3444011185945226E-002
   7.8915353060337035E-003  -1.8966195811478403E-003   6.4126628608555225E-002
   1.7055031287801448E-002  -4.2649396172816934E-003   4.8932024113140238E-002
   1.5115231095741644E-002  -3.7000472335704804E-003   4.8804167481322991E-002
   1.3175430903681784E-002  -3.2528200417764885E-003   4.8933329129400294E-002
   1.1235630711621966E-002  -2.9232580418986284E-003   4.9319509057372451E-002
   9.2958305195621205E-003  -2.7113612339374482E-003   4.9962707265238659E-002
   1.4570972395281240E-002  -3.6728596082481468E-003   5.2864674760885910E-002
   1.2886884743159382E-002  -3.1963739305714278E-003   5.2747563438474476E-002
   1.1202797091037511E-002  -2.8357008250241289E-003   5.2884858916044303E-002
   9.5187094389156471E-003  -2.5908402916062431E-003   5.3276561193595542E-002
   7.8346217867937828E-003  -2.4617923303172917E-003   5.3922670271128126E-002
   1.2215703434146491E-002  -3.0807795992147669E-003   5.6707992392703466E-002
   1.0784716842049305E-002  -2.6927006275722365E-003   5.6603478999485340E-002
   9.3537302499521191E-003  -2.4185816082718942E-003   5.6750760926334951E-002
   7.9227436578549158E-003  -2.2584225413134172E-003   5.7149838173252789E-002
   6.4917570657577195E-003  -2.2122234266970797E-003   5.7800710740238626E-002
   9.9892244043973469E-003  -2.4886995901813591E-003   6.0461977008593314E-002
   8.8087273924114876E-003  -2.1890273245729480E-003   6.0371914164355646E-002
   7.6282303804256456E-003  -2.0014623915195970E-003   6.0531035160272403E-002
   6.4477333684398166E-003  -1.9260047910210337E-003   6.0939339996343836E-002
   5.2672363564539720E-003  -1.9626545230770065E-003   6.1596828672570367E-002
   7.8915353060337035E-003  -1.8966195811478403E-003   6.4126628608555225E-002
   6.9589163942458954E-003  -1.6853540215740481E-003   6.4052868933085261E-002
   6.0262974824580734E-003  -1.5843431747673553E-003   6.4225681617856578E-002
   5.0936785706702514E-003  -1.5935870407286085E-003   6.4645066662869316E-002
   4.1610596588824433E-003  -1.7130856194567112E-003   6.5311024068123280E-002
   9.2958305195621205E-003  -2.7113612339374482E-003   4.9962707265238659E-002
   7.8731191883752716E-003  -2.8613374295946570E-003   5.0362529867989170E-002
   6.4504078571884782E-003  -3.6173944405719638E-003   5.1090860220113721E-002
   5.0276965260016709E-003  -4.9795322668688136E-003   5.2147698321612701E-002
   3.6049851948148359E-003  -6.9477509084859834E-003   5.3533044172486277E-002
   7.8346217867937828E-003  -2.4617923303172917E-003   5.3922670271128126E-002
   6.7140322705221966E-003  -2.6470619313483379E-003   5.3854999267236581E-002
   5.5934427542506382E-003  -3.3451540848899453E-003   5.4063064143801159E-002
   4.4728532379790728E-003  -4.5560687909415171E-003   5.4546864900822070E-002
   3.3522637217074935E-003  -6.2798060495036223E-003   5.5306401538298799E-002
   6.4917570657577195E-003  -2.2122234266970797E-003   5.7800710740238626E-002
   5.6205174954833265E-003  -2.4327864331021576E-003   5.7358804392514839E-002
   4.7492779252089404E-003  -3.0729137292078157E-003   5.7139862056329177E-002
   3.8780383549345231E-003  -4.1326053150141095E-003   5.7143883731681624E-002
   3.0067987846601335E-003  -5.6118611905212057E-003   5.7370869418572029E-002
   5.2672363564539720E-003  -1.9626545230770065E-003   6.1596828672570367E-002
   4.5925748632586229E-003  -2.2185109348559079E-003   6.0873945243823932E-002
   3.9179133700633171E-003  -2.8006733735259082E-003   6.0321253957697454E-002
   3.2432518768679966E-003  -3.7091418390866465E-003   5.9938754814191308E-002
   2.5685903836726622E-003  -4.9439163315385948E-003   5.9726447813305224E-002
   4.1610596588824433E-003  -1.7130856194567112E-003   6.5311024068123280E-002
   3.6302043738481449E-003  -2.0042354366097137E-003   6.4400421821164011E-002
   3.0993490888138187E-003  -2.5284330178436121E-003   6.3607239847906838E-002
   2.5684938037795133E-003  -3.2856783631593361E-003   6.2931478148351205E-002
   2.0376385187451940E-003  -4.2759714725564280E-003   6.2373136722497780E-002
   3.6049851948148359E-003  -6.9477509084859834E-003   5.3533044172486277E-002
   4.1561350374301476E-003  -9.5373615639885445E-003   5.1860627729829800E-002
   4.7072848800454870E-003  -1.2763675431943816E-002   5.0042646997835283E-002
   5.2584347226608402E-003  -1.6626692512350445E-002   4.8079101976502253E-002
   5.8095845652761380E-003  -2.1126412805208883E-002   4.5969992665830794E-002
   3.3522637217074935E-003  -6.2798060495036223E-003   5.5306401538298799E-002
   3.7754050258211186E-003  -8.5477962239484118E-003   5.2952604136686010E-002
   4.1985463299346742E-003  -1.1391469677649341E-002   5.0488353947407971E-002
   4.6216876340483132E-003  -1.4810826410606319E-002   4.7913650970464794E-002
   5.0448289381618827E-003  -1.8805866422818340E-002   4.5228495205857255E-002
   3.0067987846601335E-003  -5.6118611905212057E-003   5.7370869418572029E-002
   3.3370430519455499E-003  -7.5582308839080015E-003   5.4396710991198027E-002
   3.6672873192309177E-003  -1.0019263923355184E-002   5.1347211277832192E-002
   3.9975315865163029E-003  -1.2994960308861856E-002   4.8222370278474848E-002
   4.3277758538016742E-003  -1.6485320040428242E-002   4.5022187993126517E-002
   2.5685903836726622E-003  -4.9439163315385948E-003   5.9726447813305224E-002
   2.8410491158033947E-003  -6.5686655438677299E-003   5.6192948293366289E-002
   3.1135078479340873E-003  -8.6470581690607576E-003   5.2619218989108735E-002
   3.3859665800648085E-003  -1.1179094207117784E-002   4.9005259900533130E-002
   3.6584253121955124E-003  -1.4164773658038032E-002   4.5351071027640938E-002
   2.0376385187451940E-003  -4.2759714725564280E-003   6.2373136722497780E-002
   2.2874232173947240E-003  -5.5791002038271253E-003   5.8341316043189817E-002
   2.5372079160442679E-003  -7.2748524147666638E-003   5.4304377081237143E-002
   2.7869926146938118E-003  -9.3632281053734057E-003   5.0262319836639813E-002
   3.0367773133433418E-003  -1.1844227275647601E-002   4.6215144309398326E-002
   2.5498254172123758E-002  -7.3581994052749344E-003   4.9450031579180487E-002
   2.4573592565967611E-002  -7.1724404435299927E-003   5.2262082665539222E-002
   2.3648930959811465E-002  -6.9739475902006187E-003   5.4644968863240939E-002
   2.2724269353655291E-002  -6.7627208452866669E-003   5.6598690172285943E-002
   2.1799607747499158E-002  -6.5387602087882413E-003   5.8123246592674038E-002
   2.1728205295458200E-002  -5.5186496274395869E-003   5.6845365406286263E-002
   2.0539461370877643E-002  -5.3793303928231229E-003   5.8097298142557707E-002
   1.9350717446297086E-002  -5.2304607410804393E-003   5.9250231130637127E-002
   1.8161973521716536E-002  -5.0720406722114600E-003   6.0304164370524702E-002
   1.6973229597135993E-002  -4.9040701862161917E-003   6.1259097862220252E-002
   1.6221813344117549E-002  -3.6790998496042948E-003   6.4195851243492891E-002
   1.5099152241577492E-002  -3.5862203421162253E-003   6.3884482155218775E-002
   1.3976491139037463E-002  -3.4869738919601628E-003   6.3804278459217600E-002
   1.2853830036497423E-002  -3.3813604991362010E-003   6.3955240155489451E-002
   1.1731168933957380E-002  -3.2693801636441144E-003   6.4337367244034216E-002
   8.9790783181017547E-003  -1.8395500717689750E-003   7.1501489090800063E-002
   8.2526651780671523E-003  -1.7931102914093278E-003   6.9623634703522147E-002
   7.5262520380325448E-003  -1.7434870428400459E-003   6.8307110848982222E-002
   6.7998388979979389E-003  -1.6906803260608016E-003   6.7551917527180039E-002
   6.0734257579633339E-003  -1.6346901410720510E-003   6.7358054738115805E-002
   2.1741088096494110E-010  -2.9393365519325698E-010   7.8762278948207975E-002
   1.8034663346044866E-010  -2.4070243020979376E-010   7.5314755787468102E-002
   1.4328236166982755E-010  -1.9371973469795023E-010   7.2758728299930964E-002
   1.0621810202227078E-010  -1.5298570049671056E-010   7.1094196485596645E-002
   6.9153842374714003E-011  -1.1849998760027347E-010   7.0321160344465117E-002
   2.1799607747499158E-002  -6.5387602087882413E-003   5.8123246592674038E-002
   2.1058828399956445E-002  -6.3030119673799789E-003   5.8606002849532546E-002
   2.0318049052413738E-002  -6.0564224077367945E-003   5.9137971400786915E-002
   1.9577269704871034E-002  -5.7989915298583689E-003   5.9719152246437007E-002
   1.8836490357328345E-002  -5.5307193337449378E-003   6.0349545386483239E-002
   1.6973229597135993E-002  -4.9040701862161917E-003   6.1259097862220252E-002
   1.6315658179076147E-002  -4.7272589980478230E-003   6.1369653394077905E-002
   1.5658086761016311E-002  -4.5423168226594174E-003   6.1597412490505460E-002
   1.5000515342956466E-002  -4.3492436600508742E-003   6.1942375151502957E-002
   1.4342943924896628E-002  -4.1480395102224676E-003   6.2404541377070327E-002
   1.1731168933957380E-002  -3.2693801636441144E-003   6.4337367244034216E-002
   1.1224796715554475E-002  -3.1515060287155838E-003   6.4073011719876019E-002
   1.0718424497151572E-002  -3.0282112375820402E-003   6.3993851030461762E-002
   1.0212052278748662E-002  -2.8994957902434351E-003   6.4099885175791474E-002
   9.7056800603457644E-003  -2.7653596866998309E-003   6.4391114155865167E-002
   6.0734257579633339E-003  -1.6346901410720510E-003   6.7358054738115805E-002
   5.7862440093914367E-003  -1.5757530593833863E-003   6.6716077826926734E-002
   5.4990622608195438E-003  -1.5141056525046076E-003   6.6327287020655740E-002
   5.2118805122476457E-003  -1.4497479204360515E-003   6.6191682319302655E-002
   4.9246987636757545E-003  -1.3826798631772219E-003   6.6309263722867787E-002
   6.9153842374714003E-011  -1.1849998760027347E-010   7.0321160344465117E-002
   6.0587024980351956E-011  -9.0051160972492994E-011   6.9298851715230009E-002
   5.2020211055436860E-011  -6.7427258221286479E-011   6.8597720461087142E-002
   4.3453395395798289E-011  -5.0628411185638100E-011   6.8217766582036432E-002
   3.4886579736159717E-011  -3.9654668437805185E-011   6.8158990078077797E-002
   1.8836490357328345E-002  -5.5307193337449378E-003   6.0349545386483239E-002
   1.7942128412307717E-002  -5.2531858291988420E-003   6.0367583046776752E-002
   1.7047766467287104E-002  -4.9679710260226023E-003   6.0562178523718119E-002
   1.6153404522266497E-002  -4.6750749242160834E-003   6.0933331817307437E-002
   1.5259042577245890E-002  -4.3744975237792194E-003   6.1481042927544471E-002
   1.4342943924896628E-002  -4.1480395102224676E-003   6.2404541377070327E-002
   1.3636897963629720E-002  -3.9398893799418855E-003   6.2297340908507776E-002
   1.2930852002362804E-002  -3.7259782759776761E-003   6.2390214590804807E-002
   1.2224806041095885E-002  -3.5063061983293745E-003   6.2683162423961436E-002
   1.1518760079828966E-002  -3.2808731469972652E-003   6.3176184407977509E-002
   9.7056800603457644E-003  -2.7653596866998309E-003   6.4391114155865167E-002
   9.2114664170443172E-003  -2.6265929306850538E-003   6.4156755233500007E-002
   8.7172527737428666E-003  -2.4839855259326318E-003   6.4145986796206311E-002
   8.2230391304414317E-003  -2.3375374724428858E-003   6.4358808843983803E-002
   7.7288254871399689E-003  -2.1872487702155052E-003   6.4795221376832787E-002
   4.9246987636757545E-003  -1.3826798631772219E-003   6.6309263722867787E-002
   4.6658337725515395E-003  -1.3132964814280487E-003   6.5945826021753612E-002
   4.4069687814273272E-003  -1.2419927758877021E-003   6.5829495139922534E-002
   4.1481037903031114E-003  -1.1687687465562870E-003   6.5960271077374552E-002
   3.8892387991788999E-003  -1.0936243934335371E-003   6.6338153834109750E-002
   3.4886579736159717E-011  -3.9654668437805185E-011   6.8158990078077797E-002
   3.0151374452724866E-011  -3.2171210140319317E-011   6.7664553273268258E-002
   2.5416162230396111E-011  -2.5842605833048538E-011   6.7440739621953683E-002
   2.0680953477514308E-011  -2.0669729816624738E-011   6.7487549124133961E-002
   1.5945744724632505E-011  -1.6651846568294104E-011   6.7804981779809037E-002
   1.5259042577245890E-002  -4.3744975237792194E-003   6.1481042927544471E-002
   1.4389763068974881E-002  -4.0663737298959335E-003   6.1443399975604662E-002
   1.3520483560703872E-002  -3.7508384477494411E-003   6.1621501296497655E-002
   1.2651204052432863E-002  -3.4278916773409114E-003   6.2015346890223713E-002
   1.1781924544161854E-002  -3.0975334186691406E-003   6.2624936756782823E-002
   1.1518760079828966E-002  -3.2808731469972652E-003   6.3176184407977509E-002
   1.0865618745188661E-002  -3.0497803007557833E-003   6.3095768313762096E-002
   1.0212477410548329E-002  -2.8131288383792252E-003   6.3231884293975055E-002
   9.5593360759080107E-003  -2.5709187598680280E-003   6.3584532348616385E-002
   8.9061947412676784E-003  -2.3231500652218240E-003   6.4153712477686364E-002
   7.7288254871399689E-003  -2.1872487702155052E-003   6.4795221376832787E-002
   7.2926101277257446E-003  -2.0331868716158552E-003   6.4670179268213918E-002
   6.8563947683115030E-003  -1.8754192290090579E-003   6.4762457035618948E-002
   6.4201794088972614E-003  -1.7139458423951429E-003   6.5072054679047725E-002
   5.9839640494830371E-003  -1.5487667117741744E-003   6.5598972198500194E-002
   3.8892387991788999E-003  -1.0936243934335371E-003   6.6338153834109750E-002
   3.6707372165861521E-003  -1.0165934424758161E-003   6.6166632838959988E-002
   3.4522356339934009E-003  -9.3770961963875535E-004   6.6213219521429084E-002
   3.2337340514006514E-003  -8.5697292492242522E-004   6.6477913881517497E-002
   3.0152324688079019E-003  -7.7438335832685778E-004   6.6960715919225353E-002
   1.5945744724632505E-011  -1.6651846568294104E-011   6.7804981779809037E-002
   1.1769887148238567E-011  -1.3335721416041224E-011   6.7585129026000057E-002
   7.5940226329507254E-012  -1.0268605410423959E-011   6.7584171751405825E-002
   3.4181719954506917E-012  -7.4494681256975781E-012   6.7802109956026049E-002
  -7.5769945873105371E-013  -4.8792081486226380E-012   6.8238943639860827E-002
   1.1781924544161854E-002  -3.0975334186691406E-003   6.2624936756782823E-002
   1.0809327234629823E-002  -2.7719283017219598E-003   6.2693165260059136E-002
   9.8367299250977785E-003  -2.4632409564860347E-003   6.2966190069779993E-002
   8.8641326155657341E-003  -2.1714713829611015E-003   6.3444011185945226E-002
   7.8915353060337035E-003  -1.8966195811478403E-003   6.4126628608555225E-002
   8.9061947412676784E-003  -2.3231500652218240E-003   6.4153712477686364E-002
   8.1479819933929082E-003  -2.0789462269742431E-003   6.4170225296962979E-002
   7.3897692455181241E-003  -1.8474307176589017E-003   6.4410710933109488E-002
   6.6315564976433539E-003  -1.6286035372765038E-003   6.4875169386126100E-002
   5.8733437497685698E-003  -1.4224646858262968E-003   6.5563600656012799E-002
   5.9839640494830371E-003  -1.5487667117741744E-003   6.5598972198500194E-002
   5.4593123736910026E-003  -1.3859641522265542E-003   6.5567998776556155E-002
   4.9346606978989717E-003  -1.2316204788324348E-003   6.5780174681907527E-002
   4.4100090221069407E-003  -1.0857356915917951E-003   6.6235499914554422E-002
   3.8853573463149063E-003  -9.4830979050497533E-004   6.6933974474496838E-002
   3.0152324688079019E-003  -7.7438335832685778E-004   6.6960715919225353E-002
   2.7433183755241081E-003  -6.9298207747879592E-004   6.6886485698839135E-002
   2.4714042822403066E-003  -6.1581024000557927E-004   6.7074581316174192E-002
   2.1994901889565190E-003  -5.4286784590714190E-004   6.7525002771230053E-002
   1.9275760956727114E-003  -4.7415489518337628E-004   6.8237750064006827E-002
  -7.5769945873105371E-013  -4.8792081486226380E-012   6.8238943639860827E-002
  -1.1077735950770773E-012  -2.7311486405778851E-012   6.8125686063811752E-002
  -1.4578546703170048E-012  -1.1788625631226068E-012   6.8293930835909289E-002
  -1.8079322761099803E-012  -2.2244012187755402E-013   6.8743677956152938E-002
  -2.1580098819029558E-012   1.3788969965844444E-013   6.9474927424543309E-002
   7.8915353060337035E-003  -1.8966195811478403E-003   6.4126628608555225E-002
   6.9589163942458954E-003  -1.6853540215740481E-003   6.4052868933085261E-002
   6.0262974824580734E-003  -1.5843431747673553E-003   6.4225681617856578E-002
   5.0936785706702514E-003  -1.5935870407286085E-003   6.4645066662869316E-002
   4.1610596588824433E-003  -1.7130856194567112E-003   6.5311024068123280E-002
   5.8733437497685698E-003  -1.4224646858262968E-003   6.5563600656012799E-002
   5.1839427901685040E-003  -1.2640155161275368E-003   6.5420218851631795E-002
   4.4945418305684451E-003  -1.1882573809995911E-003   6.5516700591384675E-002
   3.8051408709683932E-003  -1.1951902804418213E-003   6.5853045875271840E-002
   3.1157399113683204E-003  -1.2848142144544772E-003   6.6429254703293139E-002
   3.8853573463149063E-003  -9.4830979050497533E-004   6.6933974474496838E-002
   3.4324655227953686E-003  -8.4267701068166390E-004   6.6748534219401523E-002
   2.9795736992758101E-003  -7.9217158723157710E-004   6.6796248692333332E-002
   2.5266818757562724E-003  -7.9679352015513821E-004   6.7077117893291877E-002
   2.0737900522367139E-003  -8.5654280945213213E-004   6.7591141822277268E-002
   1.9275760956727114E-003  -4.7415489518337628E-004   6.8237750064006827E-002
   1.7044845921264408E-003  -4.2133850523536076E-004   6.8037815036394583E-002
   1.4813930885801720E-003  -3.9608579346368800E-004   6.8064325920701912E-002
   1.2583015850339023E-003  -3.9839675986873616E-004   6.8317282716928954E-002
   1.0352100814876326E-003  -4.2827140444989809E-004   6.8796685425075596E-002
  -2.1580098819029558E-012   1.3788969965844444E-013   6.9474927424543309E-002
  -1.8382587119170068E-012   2.1066481892262345E-013   6.9288061302610893E-002
  -1.5184867252493461E-012   3.0400681971798349E-013   6.9320932276490776E-002
  -1.1987286163694932E-012   4.1800590766527534E-013   6.9573540346183071E-002
  -8.7896356859573643E-013   5.5255799935594041E-013   7.0045885511688000E-002
   4.1610596588824433E-003  -1.7130856194567112E-003   6.5311024068123280E-002
   3.6302043738481449E-003  -2.0042354366097137E-003   6.4400421821164011E-002
   3.0993490888138187E-003  -2.5284330178436121E-003   6.3607239847906838E-002
   2.5684938037795133E-003  -3.2856783631593361E-003   6.2931478148351205E-002
   2.0376385187451940E-003  -4.2759714725564280E-003   6.2373136722497780E-002
   3.1157399113683204E-003  -1.2848142144544772E-003   6.6429254703293139E-002
   2.7061282869294823E-003  -1.5031765772832717E-003   6.5321928938038454E-002
   2.2965166624906649E-003  -1.8963247631731406E-003   6.4339670220273010E-002
   1.8869050380518441E-003  -2.4642587721245834E-003   6.3482478549996071E-002
   1.4772934136130095E-003  -3.2069786041375448E-003   6.2750353927208735E-002
   2.0737900522367139E-003  -8.5654280945213213E-004   6.7591141822277268E-002
   1.7930688621803775E-003  -1.0021177179566909E-003   6.6345354479747126E-002
   1.5123476721240481E-003  -1.2642165085028079E-003   6.5232280958492983E-002
   1.2316264820677169E-003  -1.6428391810900597E-003   6.4251921258514921E-002
   9.5090529201138224E-004  -2.1379857357191057E-003   6.3404275379812858E-002
   1.0352100814876326E-003  -4.2827140444989809E-004   6.8796685425075596E-002
   8.9102609960080466E-004  -5.0105885862995747E-004   6.7470698446289987E-002
   7.4684211771399063E-004  -6.3210825383218372E-004   6.6285072062567313E-002
   6.0265813582716663E-004  -8.2141959005531048E-004   6.5239806273907727E-002
   4.5847415394034870E-004  -1.0689928673006666E-003   6.4334901080311258E-002
  -8.7896356859573643E-013   5.5255799935594041E-013   7.0045885511688000E-002
  -8.0924156264927660E-013   6.9627636989366692E-013   6.8697960837666772E-002
  -7.3952649559672068E-013   8.3824613916760882E-013   6.7498043532495500E-002
  -6.6980969382068878E-013   9.7933466891575449E-013   6.6446133596174434E-002
  -6.0008942259770492E-013   1.1179945857975326E-012   6.5542231028703490E-002
   2.0376385187451940E-003  -4.2759714725564280E-003   6.2373136722497780E-002
   2.2874232173947240E-003  -5.5791002038271253E-003   5.8341316043189817E-002
   2.5372079160442679E-003  -7.2748524147666638E-003   5.4304377081237143E-002
   2.7869926146938118E-003  -9.3632281053734057E-003   5.0262319836639813E-002
   3.0367773133433418E-003  -1.1844227275647601E-002   4.6215144309398326E-002
   1.4772934136130095E-003  -3.2069786041375448E-003   6.2750353927208735E-002
   1.7076278566142827E-003  -4.1843251525473524E-003   5.8394612713726812E-002
   1.9379622996155837E-003  -5.4561393106899725E-003   5.4005089271593421E-002
   2.1682967426168778E-003  -7.0224210785649818E-003   4.9581783600807533E-002
   2.3986311856181441E-003  -8.8831704561724845E-003   4.5124695701370010E-002
   9.5090529201138224E-004  -2.1379857357191057E-003   6.3404275379812858E-002
   1.1331255333568088E-003  -2.7895501012674129E-003   5.8822769502092892E-002
   1.3153457747022736E-003  -3.6374262066135032E-003   5.4178817449713701E-002
   1.4975660160477175E-003  -4.6816140517567800E-003   4.9472419222674993E-002
   1.6797862573931649E-003  -5.9221136366973681E-003   4.4703574820976089E-002
   4.5847415394034870E-004  -1.0689928673006666E-003   6.4334901080311258E-002
   5.6391624762233347E-004  -1.3947750499878897E-003   5.9625786408288535E-002
   6.6935834130431911E-004  -1.8187131025369230E-003   5.4825561615598331E-002
   7.7480043498629782E-004  -2.3408070249485782E-003   4.9934226702241104E-002
   8.8024252866828953E-004  -2.9610568172222518E-003   4.4951781668216506E-002
  -6.0008942259770492E-013   1.1179945857975326E-012   6.5542231028703490E-002
  -5.8918148138076276E-013   1.2925216452686072E-012   6.0803663432312582E-002
  -5.7827700961077255E-013   1.5395462682477046E-012   5.5945321769247158E-002
  -5.6736212949992648E-013   1.8596513218227528E-012   5.0967206039506496E-002
  -5.5645765772993627E-013   2.2528645615693677E-012   4.5869316243091429E-002
   2.1741088096494110E-010  -2.9393365519325698E-010   7.8762278948207975E-002
   1.8034663346044866E-010  -2.4070243020979376E-010   7.5314755787468102E-002
   1.4328236166982755E-010  -1.9371973469795023E-010   7.2758728299930964E-002
   1.0621810202227078E-010  -1.5298570049671056E-010   7.1094196485596645E-002
   6.9153842374714003E-011  -1.1849998760027347E-010   7.0321160344465117E-002
  -8.9790779013760036E-003   1.8395494686571645E-003   7.1501489380891986E-002
  -8.2526648329996986E-003   1.7931098282244207E-003   6.9623634941361645E-002
  -7.5262517646233883E-003   1.7434866950176986E-003   6.8307111039509663E-002
  -6.7998386962470894E-003   1.6906800690368456E-003   6.7551917675335832E-002
  -6.0734256278707800E-003   1.6346899502819590E-003   6.7358054848840471E-002
  -1.6221812981679774E-002   3.6790992312478732E-003   6.4195851863175085E-002
  -1.5099151943387392E-002   3.5862198971512577E-003   6.3884482658328690E-002
  -1.3976490905094998E-002   3.4869735837550903E-003   6.3804278855636207E-002
  -1.2853829866802609E-002   3.3813602910593606E-003   6.3955240455097540E-002
  -1.1731168828510228E-002   3.2693800190639610E-003   6.4337367456712619E-002
  -2.1728205023500455E-002   5.5186489938386096E-003   5.6845366395056628E-002
  -2.0539461150816455E-002   5.3793299660781571E-003   5.8097298938368985E-002
  -1.9350717278132482E-002   5.2304604724925027E-003   5.9250231748310442E-002
  -1.8161973405448485E-002   5.0720405130818911E-003   6.0304164824881344E-002
  -1.6973229532764506E-002   4.9040700878459353E-003   6.1259098168081623E-002
  -2.5498254026838016E-002   7.3581987564294016E-003   4.9450032976537439E-002
  -2.4573592455286897E-002   7.1724400350049733E-003   5.2262083781482616E-002
  -2.3648930883735798E-002   6.9739473612299707E-003   5.4644969717532521E-002
  -2.2724269312184710E-002   6.7627207351043939E-003   5.6598690784687489E-002
  -2.1799607740633595E-002   6.5387601566279097E-003   5.8123246982947241E-002
   6.9153842374714003E-011  -1.1849998760027347E-010   7.0321160344465117E-002
   6.0587024980351956E-011  -9.0051160972492994E-011   6.9298851715230009E-002
   5.2020211055436860E-011  -6.7427258221286479E-011   6.8597720461087142E-002
   4.3453395395798289E-011  -5.0628411185638100E-011   6.8217766582036432E-002
   3.4886579736159717E-011  -3.9654668437805185E-011   6.8158990078077797E-002
  -6.0734256278707800E-003   1.6346899502819590E-003   6.7358054848840471E-002
  -5.7862438950032728E-003   1.5757529171952223E-003   6.6716077911475519E-002
  -5.4990621621357743E-003   1.5141055482187291E-003   6.6327287081887024E-002
  -5.2118804292682697E-003   1.4497478433525401E-003   6.6191682360075166E-002
  -4.9246986964007686E-003   1.3826798025968201E-003   6.6309263746039682E-002
  -1.1731168828510228E-002   3.2693800190639610E-003   6.4337367456712619E-002
  -1.1224796621524001E-002   3.1515059244415916E-003   6.4073011881153052E-002
  -1.0718424414537762E-002   3.0282111638649384E-003   6.3993851146054340E-002
  -1.0212052207551529E-002   2.8994957373338244E-003   6.4099885251416605E-002
  -9.7056800005652887E-003   2.7653596448482809E-003   6.4391114197239807E-002
  -1.6973229532764506E-002   4.9040700878459353E-003   6.1259098168081623E-002
  -1.6315658118975132E-002   4.7272589316879401E-003   6.1369653624262582E-002
  -1.5658086705185766E-002   4.5423167795108702E-003   6.1597412653588965E-002
  -1.5000515291396389E-002   4.3492436313148867E-003   6.1942375256060729E-002
  -1.4342943877607024E-002   4.1480394870997833E-003   6.2404541431677771E-002
  -2.1799607740633595E-002   6.5387601566279097E-003   5.8123246982947241E-002
  -2.1058828387356680E-002   6.3030119389343719E-003   5.8606003140804275E-002
  -2.0318049034079765E-002   6.0564223951571211E-003   5.9137971604491024E-002
  -1.9577269680802849E-002   5.7989915252960010E-003   5.9719152374007475E-002
  -1.8836490327525934E-002   5.5307193293512302E-003   6.0349545449353725E-002
   3.4886579736159717E-011  -3.9654668437805185E-011   6.8158990078077797E-002
   3.0151374452724866E-011  -3.2171210140319317E-011   6.7664553273268258E-002
   2.5416162230396111E-011  -2.5842605833048538E-011   6.7440739621953683E-002
   2.0680953477514308E-011  -2.0669729816624738E-011   6.7487549124133961E-002
   1.5945744724632505E-011  -1.6651846568294104E-011   6.7804981779809037E-002
  -4.9246986964007686E-003   1.3826798025968201E-003   6.6309263746039682E-002
  -4.6658337142039125E-003   1.3132964312536077E-003   6.5945826038570132E-002
  -4.4069687320070650E-003   1.2419927346257603E-003   6.5829495151469769E-002
  -4.1481037498102141E-003   1.1687687127129552E-003   6.5960271084738634E-002
  -3.8892387676133684E-003   1.0936243655154110E-003   6.6338153838376768E-002
  -9.7056800005652887E-003   2.7653596448482809E-003   6.4391114197239807E-002
  -9.2114663645620452E-003   2.6265928946783978E-003   6.4156755262980522E-002
  -8.7172527285588001E-003   2.4839854950941820E-003   6.4145986815964895E-002
  -8.2230390925555601E-003   2.3375374460956402E-003   6.4358808856192745E-002
  -7.7288254565523046E-003   2.1872487476826963E-003   6.4795221383664295E-002
  -1.4342943877607024E-002   4.1480394870997833E-003   6.2404541431677771E-002
  -1.3636897920923034E-002   3.9398893581030908E-003   6.2297340946499330E-002
  -1.2930851964239039E-002   3.7259782555625481E-003   6.2390214615438998E-002
  -1.2224806007555060E-002   3.5063061794783253E-003   6.2683162438496490E-002
  -1.1518760050871078E-002   3.2808731298498567E-003   6.3176184415671868E-002
  -1.8836490327525934E-002   5.5307193293512302E-003   6.0349545449353725E-002
  -1.7942128383286866E-002   5.2531858215279781E-003   6.0367583089126653E-002
  -1.7047766439047804E-002   4.9679710160308727E-003   6.0562178549891904E-002
  -1.6153404494808735E-002   4.6750749128609582E-003   6.0933331831649382E-002
  -1.5259042550569674E-002   4.3744975120171836E-003   6.1481042934399099E-002
   1.5945744724632505E-011  -1.6651846568294104E-011   6.7804981779809037E-002
   1.1769887148238567E-011  -1.3335721416041224E-011   6.7585129026000057E-002
   7.5940226329507254E-012  -1.0268605410423959E-011   6.7584171751405825E-002
   3.4181719954506917E-012  -7.4494681256975781E-012   6.7802109956026049E-002
  -7.5769945873105371E-013  -4.8792081486226380E-012   6.8238943639860827E-002
  -3.8892387676133684E-003   1.0936243655154110E-003   6.6338153838376768E-002
  -3.6707371932698310E-003   1.0165934196339210E-003   6.6166632842327017E-002
  -3.4522356189263022E-003   9.3770960166922324E-004   6.6213219524101530E-002
  -3.2337340445827683E-003   8.5697291162194211E-004   6.6477913883700182E-002
  -3.0152324702392430E-003   7.7438334949120335E-004   6.6960715921123071E-002
  -7.7288254565523046E-003   2.1872487476826963E-003   6.4795221383664295E-002
  -7.2926101050797693E-003   2.0331868526038133E-003   6.4670179273539297E-002
  -6.8563947536072374E-003   1.8754192136071560E-003   6.4762457039848065E-002
  -6.4201794021347064E-003   1.7139458306933506E-003   6.5072054682590613E-002
  -5.9839640506621702E-003   1.5487667038616149E-003   6.5598972201767081E-002
  -1.1518760050871078E-002   3.2808731298498567E-003   6.3176184415671868E-002
  -1.0865618723659922E-002   3.0497802855735251E-003   6.3095768319636925E-002
  -1.0212477396448793E-002   2.8131288255452587E-003   6.3231884298645402E-002
  -9.5593360692376502E-003   2.5709187497648155E-003   6.3584532352697357E-002
  -8.9061947420265141E-003   2.3231500582322484E-003   6.4153712481792552E-002
  -1.5259042550569674E-002   4.3744975120171836E-003   6.1481042934399099E-002
  -1.4389763049010313E-002   4.0663737185434035E-003   6.1443399980619817E-002
  -1.3520483547450959E-002   3.7508384374829590E-003   6.1621501300493625E-002
  -1.2651204045891599E-002   3.4278916688362630E-003   6.2015346894020454E-002
  -1.1781924544332245E-002   3.0975334126025489E-003   6.2624936761200178E-002
  -7.5769945873105371E-013  -4.8792081486226380E-012   6.8238943639860827E-002
  -1.1077735950770773E-012  -2.7311486405778851E-012   6.8125686063811752E-002
  -1.4578546703170048E-012  -1.1788625631226068E-012   6.8293930835909289E-002
  -1.8079322761099803E-012  -2.2244012187755402E-013   6.8743677956152938E-002
  -2.1580098819029558E-012   1.3788969965844444E-013   6.9474927424543309E-002
  -3.0152324702392430E-003   7.7438334949120335E-004   6.6960715921123071E-002
  -2.7433183776452152E-003   6.9298207247475707E-004   6.6886485699788112E-002
  -2.4714042850511771E-003   6.1581023777049215E-004   6.7074581316195092E-002
  -2.1994901924571502E-003   5.4286784537749960E-004   6.7525002770343623E-002
  -1.9275760998631111E-003   4.7415489529667454E-004   6.8237750062234148E-002
  -5.9839640506621702E-003   1.5487667038616149E-003   6.5598972201767081E-002
  -5.4593123755287392E-003   1.3859641476809959E-003   6.5567998778053943E-002
  -4.9346607003953246E-003   1.2316204767197497E-003   6.5780174681677892E-002
  -4.4100090252619023E-003   1.0857356909778314E-003   6.6235499912638884E-002
  -3.8853573501284790E-003   9.4830979045534836E-004   6.6933974470937019E-002
  -8.9061947420265141E-003   2.3231500582322484E-003   6.4153712481792552E-002
  -8.1479819947583992E-003   2.0789462228871236E-003   6.4170225298609024E-002
  -7.3897692474902740E-003   1.8474307156690559E-003   6.4410710932357756E-002
  -6.6315565002221495E-003   1.6286035365779116E-003   6.4875169383038889E-002
  -5.8733437529540338E-003   1.4224646856138001E-003   6.5563600650652282E-002
  -1.1781924544332245E-002   3.0975334126025489E-003   6.2624936761200178E-002
  -1.0809327235334135E-002   2.7719282980930293E-003   6.2693165261453687E-002
  -9.8367299263360311E-003   2.4632409546183065E-003   6.2966190068234673E-002
  -8.8641326173379380E-003   2.1714713821783110E-003   6.3444011181543331E-002
  -7.8915353083398240E-003   1.8966195807726960E-003   6.4126628601379743E-002
  -2.1580098819029558E-012   1.3788969965844444E-013   6.9474927424543309E-002
  -1.8382587119170068E-012   2.1066481892262345E-013   6.9288061302610893E-002
  -1.5184867252493461E-012   3.0400681971798349E-013   6.9320932276490776E-002
  -1.1987286163694932E-012   4.1800590766527534E-013   6.9573540346183071E-002
  -8.7896356859573643E-013   5.5255799935594041E-013   7.0045885511688000E-002
  -1.9275760998631111E-003   4.7415489529667454E-004   6.8237750062234148E-002
  -1.7044845956978756E-003   4.2133850548531360E-004   6.8037815034898308E-002
  -1.4813930915326227E-003   3.9608579390118526E-004   6.8064325919441254E-002
  -1.2583015873673725E-003   3.9839676054440748E-004   6.8317282715862751E-002
  -1.0352100832021205E-003   4.2827140541490394E-004   6.8796685424162785E-002
  -3.8853573501284790E-003   9.4830979045534836E-004   6.6933974470937019E-002
  -3.4324655260515851E-003   8.4267701075954604E-004   6.6748534216404948E-002
  -2.9795737019747033E-003   7.9217158749801675E-004   6.6796248689817470E-002
  -2.5266818778978233E-003   7.9679352067069456E-004   6.7077117891174820E-002
  -2.0737900538209415E-003   8.5654281027741641E-004   6.7591141820476902E-002
  -5.8733437529540338E-003   1.4224646856138001E-003   6.5563600650652282E-002
  -5.1839427928993759E-003   1.2640155160338201E-003   6.5420218847130590E-002
  -4.4945418328447258E-003   1.1882573810949107E-003   6.5516700587619880E-002
  -3.8051408727900757E-003   1.1951902807970944E-003   6.5853045872119903E-002
  -3.1157399127354182E-003   1.2848142151397346E-003   6.6429254700630658E-002
  -7.8915353083398240E-003   1.8966195807726960E-003   6.4126628601379743E-002
  -6.9589163962412715E-003   1.6853540213083162E-003   6.4052868927075401E-002
  -6.0262974841426911E-003   1.5843431746917769E-003   6.4225681612848029E-002
  -5.0936785720441316E-003   1.5935870409233208E-003   6.4645066658697653E-002
  -4.1610596599455582E-003   1.7130856200023858E-003   6.5311024064624412E-002
  -8.7896356859573643E-013   5.5255799935594041E-013   7.0045885511688000E-002
  -8.0924156264927660E-013   6.9627636989366692E-013   6.8697960837666772E-002
  -7.3952649559672068E-013   8.3824613916760882E-013   6.7498043532495500E-002
  -6.6980969382068878E-013   9.7933466891575449E-013   6.6446133596174434E-002
  -6.0008942259770492E-013   1.1179945857975326E-012   6.5542231028703490E-002
  -1.0352100832021205E-003   4.2827140541490394E-004   6.8796685424162785E-002
  -8.9102610118198255E-004   5.0105885990486820E-004   6.7470698445450616E-002
  -7.4684211916183248E-004   6.3210825540474525E-004   6.6285072061789491E-002
  -6.0265813714167980E-004   8.2141959191609631E-004   6.5239806273179088E-002
  -4.5847415512153059E-004   1.0689928694377349E-003   6.4334901079619478E-002
  -2.0737900538209415E-003   8.5654281027741641E-004   6.7591141820476902E-002
  -1.7930688636495946E-003   1.0021177191129327E-003   6.6345354478086538E-002
  -1.5123476734782634E-003   1.2642165099714525E-003   6.5232280956947761E-002
  -1.2316264833069249E-003   1.6428391828531876E-003   6.4251921257060446E-002
  -9.5090529313558540E-004   2.1379857377575862E-003   6.3404275378424968E-002
  -3.1157399127354182E-003   1.2848142151397346E-003   6.6429254700630658E-002
  -2.7061282882121290E-003   1.5031765783210388E-003   6.5321928935574342E-002
  -2.2965166636888263E-003   1.8963247645378892E-003   6.4339670217970310E-002
  -1.8869050391655271E-003   2.4642587737898920E-003   6.3482478547818633E-002
  -1.4772934146422344E-003   3.2069786060772709E-003   6.2750353925119143E-002
  -4.1610596599455582E-003   1.7130856200023858E-003   6.5311024064624412E-002
  -3.6302043748695362E-003   2.0042354375294780E-003   6.4400421817914277E-002
  -3.0993490897935280E-003   2.5284330191044369E-003   6.3607239844857166E-002
  -2.5684938047175112E-003   3.2856783647271515E-003   6.2931478145453301E-002
  -2.0376385196414978E-003   4.2759714743972888E-003   6.2373136719702571E-002
  -6.0008942259770492E-013   1.1179945857975326E-012   6.5542231028703490E-002
  -5.8918148138076276E-013   1.2925216452686072E-012   6.0803663432312582E-002
  -5.7827700961077255E-013   1.5395462682477046E-012   5.5945321769247158E-002
  -5.6736212949992648E-013   1.8596513218227528E-012   5.0967206039506496E-002
  -5.5645765772993627E-013   2.2528645615693677E-012   4.5869316243091429E-002
  -4.5847415512153059E-004   1.0689928694377349E-003   6.4334901079619478E-002
  -5.6391624878361982E-004   1.3947750524634928E-003   5.9625786407772940E-002
  -6.6935834244569690E-004   1.8187131054859529E-003   5.4825561615255369E-002
  -7.7480043610776966E-004   2.3408070285056079E-003   4.9934226702066237E-002
  -8.8024252976986322E-004   2.9610568215225896E-003   4.4951781668206792E-002
  -9.5090529313558540E-004   2.1379857377575862E-003   6.3404275378424968E-002
  -1.1331255344668584E-003   2.7895501036342418E-003   5.8822769501046784E-002
  -1.3153457757981322E-003   3.6374262094322485E-003   5.4178817449001437E-002
  -1.4975660171294069E-003   4.6816140551514535E-003   4.9472419222288608E-002
  -1.6797862584606651E-003   5.9221136407918706E-003   4.4703574820908698E-002
  -1.4772934146422344E-003   3.2069786060772709E-003   6.2750353925119143E-002
  -1.7076278576389110E-003   4.1843251548054350E-003   5.8394612712133330E-002
  -1.9379623006356157E-003   5.4561393133787106E-003   5.4005089270484669E-002
  -2.1682967436322817E-003   7.0224210817973545E-003   4.9581783600172326E-002
  -2.3986311866289831E-003   8.8831704600612627E-003   4.5124695701195899E-002
  -2.0376385196414978E-003   4.2759714743972888E-003   6.2373136719702571E-002
  -2.2874232182997917E-003   5.5791002059761841E-003   5.8341316041033653E-002
  -2.5372079169580959E-003   7.2748524173250895E-003   5.4304377079705202E-002
  -2.7869926156164002E-003   9.3632281084430682E-003   5.0262319835717023E-002
  -3.0367773142746940E-003   1.1844227279330877E-002   4.6215144309069256E-002
  -2.5498254026838016E-002   7.3581987564294016E-003   4.9450032976537439E-002
  -2.4573592455286897E-002   7.1724400350049733E-003   5.2262083781482616E-002
  -2.3648930883735798E-002   6.9739473612299707E-003   5.4644969717532521E-002
  -2.2724269312184710E-002   6.7627207351043939E-003   5.6598690784687489E-002
  -2.1799607740633595E-002   6.5387601566279097E-003   5.8123246982947241E-002
  -2.9267478350031764E-002   9.2369791274425905E-003   5.2741203007356602E-002
  -2.8605985794349705E-002   9.0096212790512775E-003   5.3967506461025161E-002
  -2.7944493238667580E-002   8.7608983307961574E-003   5.5096636751850711E-002
  -2.7283000682985486E-002   8.4908102826771817E-003   5.6128593879833426E-002
  -2.6621508127303409E-002   8.1993571346943850E-003   5.7063377844973201E-002
  -3.4771396351421083E-002   1.1115759498455779E-002   5.5995089484965621E-002
  -3.4041081105555759E-002   1.0846802523097568E-002   5.5627014439844191E-002
  -3.3310765859690464E-002   1.0547849300362372E-002   5.5493757937932306E-002
  -3.2580450613825120E-002   1.0218899830250136E-002   5.5595319979229563E-002
  -3.1850135367959817E-002   9.8599541127608603E-003   5.5931700563736267E-002
  -4.2010008031005894E-002   1.2994539869468968E-002   5.9211692409364067E-002
  -4.0878878388905138E-002   1.2683983767143824E-002   5.7240607717939727E-002
  -3.9747748746804354E-002   1.2334800269928517E-002   5.5836333275776973E-002
  -3.8616619104703577E-002   1.1946989377823063E-002   5.4998869082875886E-002
  -3.7485489462602828E-002   1.1520551090827336E-002   5.4728215139236133E-002
  -5.0983313388786228E-002   1.4873320240482157E-002   6.2391011780552508E-002
  -4.9119377644397777E-002   1.4521165011190107E-002   5.8808286295311984E-002
  -4.7255441900009326E-002   1.4121751239494801E-002   5.6124362765385183E-002
  -4.5391506155620875E-002   1.3675078925395941E-002   5.4339241190772269E-002
  -4.3527570411232439E-002   1.3181148068893811E-002   5.3452921571473078E-002
  -2.1799607740633595E-002   6.5387601566279097E-003   5.8123246982947241E-002
  -2.1058828387356680E-002   6.3030119389343719E-003   5.8606003140804275E-002
  -2.0318049034079765E-002   6.0564223951571211E-003   5.9137971604491024E-002
  -1.9577269680802849E-002   5.7989915252960010E-003   5.9719152374007475E-002
  -1.8836490327525934E-002   5.5307193293512302E-003   6.0349545449353725E-002
  -2.6621508127303409E-002   8.1993571346943850E-003   5.7063377844973201E-002
  -2.5799472130395431E-002   7.8936045639357161E-003   5.7162413950759119E-002
  -2.4977436133487456E-002   7.5806182474893874E-003   5.7374751037977498E-002
  -2.4155400136579502E-002   7.2603981853547432E-003   5.7700389106628121E-002
  -2.3333364139671499E-002   6.9329443775326127E-003   5.8139328156711106E-002
  -3.1850135367959817E-002   9.8599541127608603E-003   5.5931700563736267E-002
  -3.0882754051818159E-002   9.4841971889371296E-003   5.5650624197846929E-002
  -2.9915372735676481E-002   9.1048140998214386E-003   5.5546937488992580E-002
  -2.8947991419534819E-002   8.7218048454137092E-003   5.5620640437173255E-002
  -2.7980610103393169E-002   8.3351694257139952E-003   5.5871733042388946E-002
  -3.7485489462602828E-002   1.1520551090827336E-002   5.4728215139236133E-002
  -3.6308674151624851E-002   1.1074789813938508E-002   5.4070633882067509E-002
  -3.5131858840646880E-002   1.0629009952153542E-002   5.3654530957536521E-002
  -3.3955043529668931E-002   1.0183211505472509E-002   5.3479906365643072E-002
  -3.2778228218690954E-002   9.7373944738953777E-003   5.3546760106387356E-002
  -4.3527570411232439E-002   1.3181148068893811E-002   5.3452921571473078E-002
  -4.2077232429815523E-002   1.2665382438939915E-002   5.2422443003420971E-002
  -4.0626894448398627E-002   1.2153205804485756E-002   5.1697531443609168E-002
  -3.9176556466981732E-002   1.1644618165531445E-002   5.1278186892037517E-002
  -3.7726218485564816E-002   1.1139619522076760E-002   5.1164409348706141E-002
  -1.8836490327525934E-002   5.5307193293512302E-003   6.0349545449353725E-002
  -1.7942128383286866E-002   5.2531858215279781E-003   6.0367583089126653E-002
  -1.7047766439047804E-002   4.9679710160308727E-003   6.0562178549891904E-002
  -1.6153404494808735E-002   4.6750749128609582E-003   6.0933331831649382E-002
  -1.5259042550569674E-002   4.3744975120171836E-003   6.1481042934399099E-002
  -2.3333364139671499E-002   6.9329443775326127E-003   5.8139328156711106E-002
  -2.2254968474568419E-002   6.5970999211480696E-003   5.8005855120224548E-002
  -2.1176572809465315E-002   6.2517079133265901E-003   5.8063891704473888E-002
  -2.0098177144362239E-002   5.8967683540683442E-003   5.8313437909459080E-002
  -1.9019781479259132E-002   5.5322812433731827E-003   5.8754493735179825E-002
  -2.7980610103393169E-002   8.3351694257139952E-003   5.5871733042388946E-002
  -2.6703228917682471E-002   7.9410140207682306E-003   5.5584883075879638E-002
  -2.5425847731971790E-002   7.5354448106221897E-003   5.5504494529849603E-002
  -2.4148466546261099E-002   7.1184617952759505E-003   5.5630567404299114E-002
  -2.2871085360550433E-002   6.6900649747294316E-003   5.5963101699227788E-002
  -3.2778228218690954E-002   9.7373944738953777E-003   5.3546760106387356E-002
  -3.1286909712629110E-002   9.2849281203882736E-003   5.3104666956091770E-002
  -2.9795591206567277E-002   8.8191817079177927E-003   5.2883987026019111E-002
  -2.8304272700505444E-002   8.3401552364834458E-003   5.2884720316169344E-002
  -2.6812954194443628E-002   7.8478487060857222E-003   5.3106866826542476E-002
  -3.7726218485564816E-002   1.1139619522076760E-002   5.1164409348706141E-002
  -3.6006010859408299E-002   1.0628842220008539E-002   5.0565206760860848E-002
  -3.4285803233251727E-002   1.0102918605213368E-002   5.0202369192982210E-002
  -3.2565595607095182E-002   9.5618486776910469E-003   5.0075896645069951E-002
  -3.0845387980938638E-002   9.0056324374417906E-003   5.0185789117124124E-002
  -1.5259042550569674E-002   4.3744975120171836E-003   6.1481042934399099E-002
  -1.4389763049010313E-002   4.0663737185434035E-003   6.1443399980619817E-002
  -1.3520483547450959E-002   3.7508384374829590E-003   6.1621501300493625E-002
  -1.2651204045891599E-002   3.4278916688362630E-003   6.2015346894020454E-002
  -1.1781924544332245E-002   3.0975334126025489E-003   6.2624936761200178E-002
  -1.9019781479259132E-002   5.5322812433731827E-003   5.8754493735179825E-002
  -1.7939848731125151E-002   5.1593777172134481E-003   5.8613846418180821E-002
  -1.6859915982991192E-002   4.7791889115612052E-003   5.8678761320677952E-002
  -1.5779983234857232E-002   4.3917148264164402E-003   5.8949238442671373E-002
  -1.4700050486723279E-002   3.9969554617788616E-003   5.9425277784160901E-002
  -2.2871085360550433E-002   6.6900649747294316E-003   5.5963101699227788E-002
  -2.1590681419998686E-002   6.2523817158836315E-003   5.5719576227103024E-002
  -2.0310277479446942E-002   5.8075393856394028E-003   5.5671430920317448E-002
  -1.9029873538895209E-002   5.3555379839966191E-003   5.5818665778871235E-002
  -1.7749469598343476E-002   4.8963775109552299E-003   5.6161280802764585E-002
  -2.6812954194443628E-002   7.8478487060857222E-003   5.3106866826542476E-002
  -2.5342261115630912E-002   7.3453857145539120E-003   5.2760589407385844E-002
  -2.3871568036818232E-002   6.8358898597175137E-003   5.2599510099411863E-002
  -2.2400874958005516E-002   6.3193611415766860E-003   5.2623628902620241E-002
  -2.0930181879192836E-002   5.7957995601315704E-003   5.2832945817011298E-002
  -3.0845387980938638E-002   9.0056324374417906E-003   5.0185789117124124E-002
  -2.9194587818021825E-002   8.4383897132240260E-003   4.9736885959029919E-002
  -2.7543787655105012E-002   7.8642403337957634E-003   4.9462998857961293E-002
  -2.5892987492188185E-002   7.2831842991571763E-003   4.9364127813918413E-002
  -2.4242187329271386E-002   6.6952216093077999E-003   4.9440272826901221E-002
  -1.1781924544332245E-002   3.0975334126025489E-003   6.2624936761200178E-002
  -1.0809327235334135E-002   2.7719282980930293E-003   6.2693165261453687E-002
  -9.8367299263360311E-003   2.4632409546183065E-003   6.2966190068234673E-002
  -8.8641326173379380E-003   2.1714713821783110E-003   6.3444011181543331E-002
  -7.8915353083398240E-003   1.8966195807726960E-003   6.4126628601379743E-002
  -1.4700050486723279E-002   3.9969554617788616E-003   5.9425277784160901E-002
  -1.3522343966482261E-002   3.6038879664748169E-003   5.9376319414497114E-002
  -1.2344637446241299E-002   3.2214894893295015E-003   5.9532783160791553E-002
  -1.1166930926000327E-002   2.8497600303430855E-003   5.9894669023043995E-002
  -9.9892244057593199E-003   2.4886995895155861E-003   6.0461977001254719E-002
  -1.7749469598343476E-002   4.8963775109552299E-003   5.6161280802764585E-002
  -1.6366028057429125E-002   4.4358476348564380E-003   5.5988886810307906E-002
  -1.4982586516514752E-002   3.9797380240405855E-003   5.6022540743239813E-002
  -1.3599144975600379E-002   3.5280486785080820E-003   5.6262242601560500E-002
  -1.2215703434686028E-002   3.0807795982587538E-003   5.6707992385269773E-002
  -2.0930181879192836E-002   5.7957995601315704E-003   5.2832945817011298E-002
  -1.9340379508174591E-002   5.2678073032378092E-003   5.2530867448886090E-002
  -1.7750577137156359E-002   4.7379865587516695E-003   5.2435462815580071E-002
  -1.6160774766138121E-002   4.2063373266728564E-003   5.2546731917093012E-002
  -1.4570972395119883E-002   3.6728596070017272E-003   5.2864674753425427E-002
  -2.4242187329271386E-002   6.6952216093077999E-003   4.9440272826901221E-002
  -2.2445398318718765E-002   6.0997669716196246E-003   4.9002261330231722E-002
  -2.0648609308166158E-002   5.4962350934627535E-003   4.8771549377811807E-002
  -1.8851820297613578E-002   4.8846259748378806E-003   4.8748136969641503E-002
  -1.7055031287060929E-002   4.2649396157449226E-003   4.8932024105720839E-002
  -7.8915353083398240E-003   1.8966195807726960E-003   6.4126628601379743E-002
  -6.9589163962412715E-003   1.6853540213083162E-003   6.4052868927075401E-002
  -6.0262974841426911E-003   1.5843431746917769E-003   6.4225681612848029E-002
  -5.0936785720441316E-003   1.5935870409233208E-003   6.4645066658697653E-002
  -4.1610596599455582E-003   1.7130856200023858E-003   6.5311024064624412E-002
  -9.9892244057593199E-003   2.4886995895155861E-003   6.0461977001254719E-002
  -8.8087273936109899E-003   2.1890273240742775E-003   6.0371914158146633E-002
  -7.6282303814626390E-003   2.0014623912463503E-003   6.0531035155061030E-002
  -6.4477333693143003E-003   1.9260047910320058E-003   6.0939339991997910E-002
  -5.2672363571659615E-003   1.9626545234308068E-003   6.1596828668957437E-002
  -1.2215703434686028E-002   3.0807795982587538E-003   5.6707992385269773E-002
  -1.0784716842542352E-002   2.6927006268404052E-003   5.6603478993123485E-002
  -9.3537302503986699E-003   2.4185816078010486E-003   5.6750760920945179E-002
  -7.9227436582549986E-003   2.2584225411405832E-003   5.7149838168735138E-002
  -6.4917570661113099E-003   2.2122234268591723E-003   5.7800710736493455E-002
  -1.4570972395119883E-002   3.6728596070017272E-003   5.2864674753425427E-002
  -1.2886884743035298E-002   3.1963739296063942E-003   5.2747563432006310E-002
  -1.1202797090950723E-002   2.8357008243557955E-003   5.2884858910500918E-002
  -9.5187094388661381E-003   2.5908402912491035E-003   5.3276561188909125E-002
  -7.8346217867815669E-003   2.4617923302872324E-003   5.3922670267231076E-002
  -1.7055031287060929E-002   4.2649396157449226E-003   4.8932024105720839E-002
  -1.5115231095089901E-002   3.7000472323723832E-003   4.8804167474794657E-002
  -1.3175430903118845E-002   3.2528200409102925E-003   4.8933329123727776E-002
  -1.1235630711147804E-002   2.9232580413580053E-003   4.9319509052520055E-002
  -9.2958305191767621E-003   2.7113612337158477E-003   4.9962707261171690E-002
  -4.1610596599455582E-003   1.7130856200023858E-003   6.5311024064624412E-002
  -3.6302043748695362E-003   2.0042354375294780E-003   6.4400421817914277E-002
  -3.0993490897935280E-003   2.5284330191044369E-003   6.3607239844857166E-002
  -2.5684938047175112E-003   3.2856783647271515E-003   6.2931478145453301E-002
  -2.0376385196414978E-003   4.2759714743972888E-003   6.2373136719702571E-002
  -5.2672363571659615E-003   1.9626545234308068E-003   6.1596828668957437E-002
  -4.5925748639781272E-003   2.2185109355673527E-003   6.0873945240436156E-002
  -3.9179133707903328E-003   2.8006733745654655E-003   6.0321253954484955E-002
  -3.2432518776025461E-003   3.7091418404254506E-003   5.9938754811104333E-002
  -2.5685903844147040E-003   4.9439163331471692E-003   5.9726447810294458E-002
  -6.4917570661113099E-003   2.2122234268591723E-003   5.7800710736493455E-002
  -5.6205174958942651E-003   2.4327864336048388E-003   5.7358804388974061E-002
  -4.7492779256772351E-003   3.0729137300264942E-003   5.7139862052943025E-002
  -3.8780383554601751E-003   4.1326053161237497E-003   5.7143883728399805E-002
  -3.0067987852431324E-003   5.6118611918965500E-003   5.7370869415344222E-002
  -7.8346217867815669E-003   2.4617923302872324E-003   5.3922670267231076E-002
  -6.7140322706178918E-003   2.6470619316426303E-003   5.3854999263528672E-002
  -5.5934427544542314E-003   3.3451540854876338E-003   5.4063064140231390E-002
  -4.4728532382905762E-003   4.5560687918220488E-003   5.4546864897339259E-002
  -3.3522637221268959E-003   6.2798060506459585E-003   5.5306401534852924E-002
  -9.2958305191767621E-003   2.7113612337158477E-003   4.9962707261171690E-002
  -7.8731191881490081E-003   2.8613374296801997E-003   5.0362529864099503E-002
  -6.4504078571213236E-003   3.6173944409483849E-003   5.1090860216350120E-002
  -5.0276965260936182E-003   4.9795322675206949E-003   5.2147698317923430E-002
  -3.6049851950658851E-003   6.9477509093957002E-003   5.3533044168819433E-002
  -2.0376385196414978E-003   4.2759714743972888E-003   6.2373136719702571E-002
  -2.2874232182997917E-003   5.5791002059761841E-003   5.8341316041033653E-002
  -2.5372079169580959E-003   7.2748524173250895E-003   5.4304377079705202E-002
  -2.7869926156164002E-003   9.3632281084430682E-003   5.0262319835717023E-002
  -3.0367773142746940E-003   1.1844227279330877E-002   4.6215144309069256E-002
  -2.5685903844147040E-003   4.9439163331471692E-003   5.9726447810294458E-002
  -2.8410491165702066E-003   6.5686655457694587E-003   5.6192948291087563E-002
  -3.1135078487257092E-003   8.6470581713311567E-003   5.2619218987545791E-002
  -3.3859665808812327E-003   1.1179094209832374E-002   4.9005259899669307E-002
  -3.6584253130367145E-003   1.4164773661273111E-002   4.5351071027458056E-002
  -3.0067987852431324E-003   5.6118611918965500E-003   5.7370869415344222E-002
  -3.3370430525708587E-003   7.5582308855622893E-003   5.4396710988769137E-002
  -3.6672873198985156E-003   1.0019263925336988E-002   5.1347211276184426E-002
  -3.9975315872262159E-003   1.2994960311221732E-002   4.8222370277589695E-002
  -4.3277758545538746E-003   1.6485320043215346E-002   4.5022187992985518E-002
  -3.3522637221268959E-003   6.2798060506459585E-003   5.5306401534852924E-002
  -3.7754050263017233E-003   8.5477962253548978E-003   5.2952604134079331E-002
  -4.1985463304765498E-003   1.1391469679343048E-002   5.0488353945621040E-002
  -4.6216876346514262E-003   1.4810826412610620E-002   4.7913650969478715E-002
  -5.0448289388262324E-003   1.8805866425157580E-002   4.5228495205650587E-002
  -3.6049851950658851E-003   6.9477509093957002E-003   5.3533044168819433E-002
  -4.1561350377628536E-003   9.5373615651480614E-003   5.1860627727017716E-002
  -4.7072848804598083E-003   1.2763675433348692E-002   5.0042646995856310E-002
  -5.2584347231567560E-003   1.6626692514000403E-002   4.8079101975334909E-002
  -5.8095845658537315E-003   2.1126412807099815E-002   4.5969992665454207E-002
  -5.0983313388786228E-002   1.4873320240482157E-002   6.2391011780552508E-002
  -4.9119377644397777E-002   1.4521165011190107E-002   5.8808286295311984E-002
  -4.7255441900009326E-002   1.4121751239494801E-002   5.6124362765385183E-002
  -4.5391506155620875E-002   1.3675078925395941E-002   5.4339241190772269E-002
  -4.3527570411232439E-002   1.3181148068893811E-002   5.3452921571473078E-002
  -5.9924395470946024E-002   1.6818062059298089E-002   5.1032770528758153E-002
  -5.7333656627819432E-002   1.6354573747498241E-002   4.9040344866188745E-002
  -5.4742917784692910E-002   1.5864660877721787E-002   4.7602723445781453E-002
  -5.2152178941566367E-002   1.5348323449968566E-002   4.6719906267536734E-002
  -4.9561440098439824E-002   1.4805561464238559E-002   4.6391893331454298E-002
  -6.7066337323669095E-002   1.8762803878113993E-002   3.9552779202243066E-002
  -6.4092793094955830E-002   1.8187982483806348E-002   3.9171487346771089E-002
  -6.1119248866242565E-002   1.7607570515948759E-002   3.9001002020310122E-002
  -5.8145704637529334E-002   1.7021567974541105E-002   3.9041323222860046E-002
  -5.5172160408816076E-002   1.6429974859583363E-002   3.9292450954421132E-002
  -7.2409138946955526E-002   2.0707545696929924E-002   2.7951037801006585E-002
  -6.9396787045806915E-002   2.0021391220114551E-002   2.9201713737058946E-002
  -6.6384435144658444E-002   1.9350480154175793E-002   3.0319198488970852E-002
  -6.3372083243509902E-002   1.8694812499113658E-002   3.1303492056742377E-002
  -6.0359731342361368E-002   1.8054388254928083E-002   3.2154594440373385E-002
  -7.5952800340805149E-002   2.2652287515745828E-002   1.6227546325049191E-002
  -7.3245638480372688E-002   2.1854799956422644E-002   1.9131024037052358E-002
  -7.0538476619940338E-002   2.1093389792402772E-002   2.1557312851763821E-002
  -6.7831314759507919E-002   2.0368057023686312E-002   2.3506412769183416E-002
  -6.5124152899075527E-002   1.9678801650272915E-002   2.4978323789311252E-002
  -4.3527570411232439E-002   1.3181148068893811E-002   5.3452921571473078E-002
  -4.2077232429815523E-002   1.2665382438939915E-002   5.2422443003420971E-002
  -4.0626894448398627E-002   1.2153205804485756E-002   5.1697531443609168E-002
  -3.9176556466981732E-002   1.1644618165531445E-002   5.1278186892037517E-002
  -3.7726218485564816E-002   1.1139619522076760E-002   5.1164409348706141E-002
  -4.9561440098439824E-002   1.4805561464238559E-002   4.6391893331454298E-002
  -4.7840177385668980E-002   1.4249331401658183E-002   4.5751460563234675E-002
  -4.6118914672898116E-002   1.3692589743353439E-002   4.5347310249482811E-002
  -4.4397651960127238E-002   1.3135336489324349E-002   4.5179442390198533E-002
  -4.2676389247356408E-002   1.2577571639571183E-002   4.5247856985381918E-002
  -5.5172160408816076E-002   1.6429974859583363E-002   3.9292450954421132E-002
  -5.3249257518463933E-002   1.5833280364376492E-002   3.9037963394809971E-002
  -5.1326354628111734E-002   1.5231973682221123E-002   3.8950473735893873E-002
  -4.9403451737759521E-002   1.4626054813117642E-002   3.9029981977672733E-002
  -4.7480548847407336E-002   1.4015523757065607E-002   3.9276488120146807E-002
  -6.0359731342361368E-002   1.8054388254928083E-002   3.2154594440373385E-002
  -5.8304472828200456E-002   1.7417229327094726E-002   3.2281951498146659E-002
  -5.6249214314039460E-002   1.6771357621088778E-002   3.2507021902842305E-002
  -5.4193955799878513E-002   1.6116773136910796E-002   3.2829805654460510E-002
  -5.2138697285717558E-002   1.5453475874560085E-002   3.3250302753001171E-002
  -6.5124152899075527E-002   1.9678801650272915E-002   2.4978323789311252E-002
  -6.3005823314878417E-002   1.9001178289813125E-002   2.5483424873244814E-002
  -6.0887493730681308E-002   1.8310741559956517E-002   2.6016954750328225E-002
  -5.8769164146484226E-002   1.7607491460703957E-002   2.6578913420561540E-002
  -5.6650834562287117E-002   1.6891427992054509E-002   2.7169300883944647E-002
  -3.7726218485564816E-002   1.1139619522076760E-002   5.1164409348706141E-002
  -3.6006010859408299E-002   1.0628842220008539E-002   5.0565206760860848E-002
  -3.4285803233251727E-002   1.0102918605213368E-002   5.0202369192982210E-002
  -3.2565595607095182E-002   9.5618486776910469E-003   5.0075896645069951E-002
  -3.0845387980938638E-002   9.0056324374417906E-003   5.0185789117124124E-002
  -4.2676389247356408E-002   1.2577571639571183E-002   4.5247856985381918E-002
  -4.0731504337992948E-002   1.2013875620219411E-002   4.4769729294417887E-002
  -3.8786619428629508E-002   1.1438828857394751E-002   4.4504591149901102E-002
  -3.6841734519266062E-002   1.0852431351097334E-002   4.4452442551831645E-002
  -3.4896849609902608E-002   1.0254683101327156E-002   4.4613283500209655E-002
  -4.7480548847407336E-002   1.4015523757065607E-002   3.9276488120146807E-002
  -4.5334362128356148E-002   1.3398909020430200E-002   3.8923230895318295E-002
  -4.3188175409305016E-002   1.2774739109576203E-002   3.8759587743417714E-002
  -4.1041988690253828E-002   1.2143014024503625E-002   3.8785558664445413E-002
  -3.8895801971202640E-002   1.1503733765212465E-002   3.9001143658401183E-002
  -5.2138697285717558E-002   1.5453475874560085E-002   3.3250302753001171E-002
  -4.9814584230497845E-002   1.4783942420641058E-002   3.3025711563562161E-002
  -4.7490471175278097E-002   1.4110649361757675E-002   3.2967358973532063E-002
  -4.5166358120058397E-002   1.3433596697909859E-002   3.3075244982911083E-002
  -4.2842245064838691E-002   1.2752784429097802E-002   3.3349369591698839E-002
  -5.6650834562287117E-002   1.6891427992054509E-002   2.7169300883944647E-002
  -5.4172170644418038E-002   1.6168975820851916E-002   2.7077171299149494E-002
  -5.1693506726548960E-002   1.5446559613939009E-002   2.7127904840244188E-002
  -4.9214842808679882E-002   1.4724179371316197E-002   2.7321501507228507E-002
  -4.6736178890810803E-002   1.4001835092983084E-002   2.7657961300102618E-002
  -3.0845387980938638E-002   9.0056324374417906E-003   5.0185789117124124E-002
  -2.9194587818021825E-002   8.4383897132240260E-003   4.9736885959029919E-002
  -2.7543787655105012E-002   7.8642403337957634E-003   4.9462998857961293E-002
  -2.5892987492188185E-002   7.2831842991571763E-003   4.9364127813918413E-002
  -2.4242187329271386E-002   6.6952216093077999E-003   4.9440272826901221E-002
  -3.4896849609902608E-002   1.0254683101327156E-002   4.4613283500209655E-002
  -3.3075644998391725E-002   9.6466581737246759E-003   4.4204223367646595E-002
  -3.1254440386880841E-002   9.0294306339303021E-003   4.3960956075245861E-002
  -2.9433235775370013E-002   8.4030004819442145E-003   4.3883481623007689E-002
  -2.7612031163859088E-002   7.7673677177662048E-003   4.3971800010931983E-002
  -3.8895801971202640E-002   1.1503733765212465E-002   3.9001143658401183E-002
  -3.6913416127960945E-002   1.0854926634225354E-002   3.8629630594387926E-002
  -3.4931030284719257E-002   1.0194620934065049E-002   3.8414687153673729E-002
  -3.2948644441477555E-002   9.5228166647314157E-003   3.8356313336258684E-002
  -3.0966258598235874E-002   8.8395138262244433E-003   3.8454509142142962E-002
  -4.2842245064838691E-002   1.2752784429097802E-002   3.3349369591698839E-002
  -4.0707901206729451E-002   1.2063195094726073E-002   3.3013107639253803E-002
  -3.8573557348620231E-002   1.1359811234199636E-002   3.2824192093244831E-002
  -3.6439213490511033E-002   1.0642632847518535E-002   3.2782622953671639E-002
  -3.4304869632401772E-002   9.9116599346826539E-003   3.2888400220534575E-002
  -4.6736178890810803E-002   1.4001835092983084E-002   2.7657961300102618E-002
  -4.4459100234697319E-002   1.3271463555226737E-002   2.7354654502244613E-002
  -4.2182021578583792E-002   1.2525001534334487E-002   2.7189470893959206E-002
  -3.9904942922470286E-002   1.1762449030305832E-002   2.7162410475246299E-002
  -3.7627864266356781E-002   1.0983806043140976E-002   2.7273473246106184E-002
  -2.4242187329271386E-002   6.6952216093077999E-003   4.9440272826901221E-002
  -2.2445398318718765E-002   6.0997669716196246E-003   4.9002261330231722E-002
  -2.0648609308166158E-002   5.4962350934627535E-003   4.8771549377811807E-002
  -1.8851820297613578E-002   4.8846259748378806E-003   4.8748136969641503E-002
  -1.7055031287060929E-002   4.2649396157449226E-003   4.8932024105720839E-002
  -2.7612031163859088E-002   7.7673677177662048E-003   4.3971800010931983E-002
  -2.5622646263175022E-002   7.1272997074016131E-003   4.3530828700030444E-002
  -2.3633261362490859E-002   6.4875638168560845E-003   4.3267749625142349E-002
  -2.1643876461806787E-002   5.8481600461291125E-003   4.3182562786267559E-002
  -1.9654491561122631E-002   5.2090883952208289E-003   4.3275268183406213E-002
  -3.0966258598235874E-002   8.8395138262244433E-003   3.8454509142142962E-002
  -2.8813685115656493E-002   8.1548324431839347E-003   3.8018987377296531E-002
  -2.6661111633077196E-002   7.4788925402489714E-003   3.7731950540227238E-002
  -2.4508538150497864E-002   6.8116941174200113E-003   3.7593398630935054E-002
  -2.2355964667918525E-002   6.1532371746969017E-003   3.7603331649419980E-002
  -3.4304869632401772E-002   9.9116599346826539E-003   3.2888400220534575E-002
  -3.2018514876163466E-002   9.1823651789659788E-003   3.2466737362030151E-002
  -2.9732160119925112E-002   8.4702212636420249E-003   3.2164152123066683E-002
  -2.7445805363686779E-002   7.7752281887110766E-003   3.1980644503643921E-002
  -2.5159450607448442E-002   7.0973859541728357E-003   3.1916214503762273E-002
  -3.7627864266356781E-002   1.0983806043140976E-002   2.7273473246106184E-002
  -3.5237135544695736E-002   1.0209897914748356E-002   2.6874078654231026E-002
  -3.2846406823034663E-002   9.4615499870352449E-003   2.6564354373660337E-002
  -3.0455678101373576E-002   8.7387622600021558E-003   2.6344300404394533E-002
  -2.8064949379712517E-002   8.0415347336489917E-003   2.6213916746432919E-002
  -1.7055031287060929E-002   4.2649396157449226E-003   4.8932024105720839E-002
  -1.5115231095089901E-002   3.7000472323723832E-003   4.8804167474794657E-002
  -1.3175430903118845E-002   3.2528200409102925E-003   4.8933329123727776E-002
  -1.1235630711147804E-002   2.9232580413580053E-003   4.9319509052520055E-002
  -9.2958305191767621E-003   2.7113612337158477E-003   4.9962707261171690E-002
  -1.9654491561122631E-002   5.2090883952208289E-003   4.3275268183406213E-002
  -1.7496523123450639E-002   4.6067482683918026E-003   4.3101946745712105E-002
  -1.5338554685778716E-002   4.0775390699015202E-003   4.3107943519560682E-002
  -1.3180586248106748E-002   3.6214607997508488E-003   4.3293258504951637E-002
  -1.1022617810434746E-002   3.2385134579387964E-003   4.3657891701885498E-002
  -2.2355964667918525E-002   6.1532371746969017E-003   3.7603331649419980E-002
  -2.0057528052862251E-002   5.5134493044107225E-003   3.7340011141387186E-002
  -1.7759091437806039E-002   4.9022580988928727E-003   3.7178308776580252E-002
  -1.5460654822749817E-002   4.3196635581432517E-003   3.7118224554999239E-002
  -1.3162218207693560E-002   3.7656656821619117E-003   3.7159758476643989E-002
  -2.5159450607448442E-002   7.0973859541728357E-003   3.1916214503762273E-002
  -2.2798245883324599E-002   6.4201503404297255E-003   3.1518360661819851E-002
  -2.0437041159200815E-002   5.7269771278841627E-003   3.1144424894786537E-002
  -1.8075836435077042E-002   5.0178663165358749E-003   3.0794407202662515E-002
  -1.5714631710953185E-002   4.2928179063848881E-003   3.0468307585448204E-002
  -2.8064949379712517E-002   8.0415347336489917E-003   2.6213916746432919E-002
  -2.5718676614837815E-002   7.3268513764490617E-003   2.5636995307010135E-002
  -2.3372403849963072E-002   6.5516961568753695E-003   2.5006291874179853E-002
  -2.1026131085088363E-002   5.7160690749286439E-003   2.4321806447941824E-002
  -1.8679858320213627E-002   4.8199701306080867E-003   2.3583539028296796E-002
  -9.2958305191767621E-003   2.7113612337158477E-003   4.9962707261171690E-002
  -7.8731191881490081E-003   2.8613374296801997E-003   5.0362529864099503E-002
  -6.4504078571213236E-003   3.6173944409483849E-003   5.1090860216350120E-002
  -5.0276965260936182E-003   4.9795322675206949E-003   5.2147698317923430E-002
  -3.6049851950658851E-003   6.9477509093957002E-003   5.3533044168819433E-002
  -1.1022617810434746E-002   3.2385134579387964E-003   4.3657891701885498E-002
  -9.2534516877904732E-003   3.1670272376722042E-003   4.4240784306133651E-002
  -7.4842855651462425E-003   3.6453323321567477E-003   4.5188078744292259E-002
  -5.7151194425019772E-003   4.6734287413926351E-003   4.6499775016361267E-002
  -3.9459533198576840E-003   6.2513164653795750E-003   4.8175873122340507E-002
  -1.3162218207693560E-002   3.7656656821619117E-003   3.7159758476643989E-002
  -1.1010703208845209E-002   3.4727170456639866E-003   3.7869431581660368E-002
  -8.8591882099967774E-003   3.6732702233649717E-003   3.8979400605174575E-002
  -6.7076732111483756E-003   4.3673252152646794E-003   4.0489665547186762E-002
  -4.5561582122999947E-003   5.5548820213630612E-003   4.2400226407696834E-002
  -1.5714631710953185E-002   4.2928179063848881E-003   3.0468307585448204E-002
  -1.3144873751313062E-002   3.7784068536560467E-003   3.1248471690679763E-002
  -1.0575115791672886E-002   3.7012081145731540E-003   3.2464825798996864E-002
  -8.0053578320327824E-003   4.0612216891370047E-003   3.4117369910399792E-002
  -5.4355998723925898E-003   4.8584475773468527E-003   3.6206104024888115E-002
  -1.8679858320213627E-002   4.8199701306080867E-003   2.3583539028296796E-002
  -1.5655963315194144E-002   4.0840966616476626E-003   2.4377904633191561E-002
  -1.2632068310174632E-002   3.7291460057815584E-003   2.5644354325759511E-002
  -9.6081733051551349E-003   3.7551181630087749E-003   2.7382888106000675E-002
  -6.5842783001356375E-003   4.1620131333303112E-003   2.9593505973914636E-002
  -3.6049851950658851E-003   6.9477509093957002E-003   5.3533044168819433E-002
  -4.1561350377628536E-003   9.5373615651480614E-003   5.1860627727017716E-002
  -4.7072848804598083E-003   1.2763675433348692E-002   5.0042646995856310E-002
  -5.2584347231567560E-003   1.6626692514000403E-002   4.8079101975334909E-002
  -5.8095845658537315E-003   2.1126412807099815E-002   4.5969992665454207E-002
  -3.9459533198576840E-003   6.2513164653795750E-003   4.8175873122340507E-002
  -4.5388401003736423E-003   8.6890648023102979E-003   4.7241363826221794E-002
  -5.1317268808896213E-003   1.2296743050378006E-002   4.6368944943824653E-002
  -5.7246136614056108E-003   1.7074351209582457E-002   4.5558616475149333E-002
  -6.3175004419215586E-003   2.3021889279923879E-002   4.4810378420195418E-002
  -4.5561582122999947E-003   5.5548820213630612E-003   4.2400226407696834E-002
  -4.9831272275536395E-003   7.8407680394728119E-003   4.2736850955948813E-002
  -5.4100962428073156E-003   1.1829810667406973E-002   4.3343220621003639E-002
  -5.8370652580609760E-003   1.7522009905165396E-002   4.4219335402861860E-002
  -6.2640342733146365E-003   2.4917365752747722E-002   4.5365195301522387E-002
  -5.4355998723925898E-003   4.8584475773468527E-003   3.6206104024888115E-002
  -5.4889964193027465E-003   6.9924712766354091E-003   3.8347089116198253E-002
  -5.5423929662129596E-003   1.1362878284436002E-002   4.0965474027392410E-002
  -5.5957895131232144E-003   1.7969668600748001E-002   4.4061258758470917E-002
  -5.6491860600334405E-003   2.6812842225571676E-002   4.7634443309433422E-002
  -6.5842783001356375E-003   4.1620131333303112E-003   2.9593505973914636E-002
  -6.0564476756211072E-003   6.1441745137977843E-003   3.4072078306970455E-002
  -5.5286170511065491E-003   1.0895945901465059E-002   3.9235705162991852E-002
  -5.0007864265919910E-003   1.8417327296330784E-002   4.5084386541978466E-002
  -4.4729558020774052E-003   2.8708318698395630E-002   5.1618122443930048E-002
  -7.5952800340805149E-002   2.2652287515745828E-002   1.6227546325049191E-002
  -7.3245638480372688E-002   2.1854799956422644E-002   1.9131024037052358E-002
  -7.0538476619940338E-002   2.1093389792402772E-002   2.1557312851763821E-002
  -6.7831314759507919E-002   2.0368057023686312E-002   2.3506412769183416E-002
  -6.5124152899075527E-002   1.9678801650272915E-002   2.4978323789311252E-002
  -7.9658693804742192E-002   2.4412163882121862E-002   1.6674657757665690E-002
  -7.7222913587458697E-002   2.3620912581517273E-002   1.7683859080185632E-002
  -7.4787133370175160E-002   2.2840625337579926E-002   1.8627486013699734E-002
  -7.2351353152891679E-002   2.2071302150309478E-002   1.9505538558207761E-002
  -6.9915572935608100E-002   2.1312943019706404E-002   2.0318016713709891E-002
  -8.5488191638290592E-002   2.6172040248497952E-002   1.7140562118318631E-002
  -8.2912178555870131E-002   2.5387025206611985E-002   1.6230373712719362E-002
  -8.0336165473449628E-002   2.4587860882757079E-002   1.5666225426399893E-002
  -7.7760152391029083E-002   2.3774547276932977E-002   1.5448117259360350E-002
  -7.5184139308608636E-002   2.2947084389139949E-002   1.5576049211600690E-002
  -9.3441293841450390E-002   2.7931916614873986E-002   1.7625259407008223E-002
  -9.0313433385606906E-002   2.7153137831706628E-002   1.4770567934653544E-002
  -8.7185572929763672E-002   2.6335096427934093E-002   1.2673531089864458E-002
  -8.4057712473920340E-002   2.5477792403556309E-002   1.1334148872641080E-002
  -8.0929852018076953E-002   2.4581225758573688E-002   1.0752421282983593E-002
 -0.10351800041422132        2.9691792981250020E-002   1.8128749623734786E-002
  -9.9426678076669384E-002   2.8919250456801215E-002   1.3304441745988271E-002
  -9.5335355739117333E-002   2.8082331973111357E-002   9.6494030040933931E-003
  -9.1244033401565339E-002   2.7181037530179662E-002   7.1636333980502204E-003
  -8.7152711064013344E-002   2.6215367128006983E-002   5.8471329278584339E-003
  -6.5124152899075527E-002   1.9678801650272915E-002   2.4978323789311252E-002
  -6.3005823314878417E-002   1.9001178289813125E-002   2.5483424873244814E-002
  -6.0887493730681308E-002   1.8310741559956517E-002   2.6016954750328225E-002
  -5.8769164146484226E-002   1.7607491460703957E-002   2.6578913420561540E-002
  -5.6650834562287117E-002   1.6891427992054509E-002   2.7169300883944647E-002
  -6.9915572935608100E-002   2.1312943019706404E-002   2.0318016713709891E-002
  -6.7728142929933316E-002   2.0558498996865834E-002   2.0378669484234210E-002
  -6.5540712924258532E-002   1.9800921132883252E-002   2.0549094304563947E-002
  -6.3353282918583761E-002   1.9040209427758366E-002   2.0829291174699206E-002
  -6.1165852912908963E-002   1.8276363881491564E-002   2.1219260094640008E-002
  -7.5184139308608636E-002   2.2947084389139949E-002   1.5576049211600690E-002
  -7.2846265624800483E-002   2.2115819703918543E-002   1.5201933196970031E-002
  -7.0508391940992329E-002   2.1291100705809654E-002   1.5018932488800596E-002
  -6.8170518257184148E-002   2.0472927394813160E-002   1.5027047087092314E-002
  -6.5832644573376023E-002   1.9661299770928925E-002   1.5226276991845228E-002
  -8.0929852018076953E-002   2.4581225758573688E-002   1.0752421282983593E-002
  -7.8360191399479903E-002   2.3673140410971225E-002   9.9532160114525012E-003
  -7.5790530780882714E-002   2.2781280278735973E-002   9.4264693030382089E-003
  -7.3220870162285540E-002   2.1905645361867704E-002   9.1721811577406623E-003
  -7.0651209543688448E-002   2.1046235660366189E-002   9.1903515755602863E-003
  -8.7152711064013344E-002   2.6215367128006983E-002   5.8471329278584339E-003
  -8.4269920253971509E-002   2.5230461118024128E-002   4.6325179276811568E-003
  -8.1387129443929673E-002   2.4271459851662680E-002   3.7717047472766163E-003
  -7.8504338633887838E-002   2.3338363328922418E-002   3.2646933866446737E-003
  -7.5621547823846003E-002   2.2431171549803341E-002   3.1114838457848570E-003
  -5.6650834562287117E-002   1.6891427992054509E-002   2.7169300883944647E-002
  -5.4172170644418038E-002   1.6168975820851916E-002   2.7077171299149494E-002
  -5.1693506726548960E-002   1.5446559613939009E-002   2.7127904840244188E-002
  -4.9214842808679882E-002   1.4724179371316197E-002   2.7321501507228507E-002
  -4.6736178890810803E-002   1.4001835092983084E-002   2.7657961300102618E-002
  -6.1165852912908963E-002   1.8276363881491564E-002   2.1219260094640008E-002
  -5.8531497561497642E-002   1.7510508044639134E-002   2.0987760119782151E-002
  -5.5897142210086376E-002   1.6743765467756772E-002   2.0924779886118933E-002
  -5.3262786858675033E-002   1.5976136150844610E-002   2.1030319393650423E-002
  -5.0628431507263719E-002   1.5207620093902918E-002   2.1304378642376554E-002
  -6.5832644573376023E-002   1.9661299770928925E-002   1.5226276991845228E-002
  -6.3016941173117610E-002   1.8852040268426379E-002   1.4854483922604994E-002
  -6.0201237772859149E-002   1.8040971321574548E-002   1.4676867209864476E-002
  -5.7385534372600688E-002   1.7228092930373303E-002   1.4693426853623182E-002
  -5.4569830972342269E-002   1.6413405094822892E-002   1.4904162853881894E-002
  -7.0651209543688448E-002   2.1046235660366189E-002   9.1903515755602863E-003
  -6.7628501479277958E-002   2.0193572492213721E-002   8.6773427076181561E-003
  -6.4605793414867441E-002   1.9338177175392261E-002   8.3841668114805271E-003
  -6.1583085350456937E-002   1.8480049709902080E-002   8.3108238871475743E-003
  -5.8560377286046433E-002   1.7619190095742962E-002   8.4573139346189354E-003
  -7.5621547823846003E-002   2.2431171549803341E-002   3.1114838457848570E-003
  -7.2366178479978560E-002   2.1535104716000730E-002   2.4563364748214633E-003
  -6.9110809136111118E-002   2.0635383029209975E-002   2.0466786909673629E-003
  -6.5855439792243675E-002   1.9732006489430493E-002   1.8825104942228194E-003
  -6.2600070448376233E-002   1.8824975096662699E-002   1.9638318845875968E-003
  -4.6736178890810803E-002   1.4001835092983084E-002   2.7657961300102618E-002
  -4.4459100234697319E-002   1.3271463555226737E-002   2.7354654502244613E-002
  -4.2182021578583792E-002   1.2525001534334487E-002   2.7189470893959206E-002
  -3.9904942922470286E-002   1.1762449030305832E-002   2.7162410475246299E-002
  -3.7627864266356781E-002   1.0983806043140976E-002   2.7273473246106184E-002
  -5.0628431507263719E-002   1.5207620093902918E-002   2.1304378642376554E-002
  -4.8209327095127583E-002   1.4435473383950403E-002   2.0944595037778679E-002
  -4.5790222682991426E-002   1.3656952108005743E-002   2.0730739755653621E-002
  -4.3371118270855283E-002   1.2872056266069236E-002   2.0662812796001170E-002
  -4.0952013858719133E-002   1.2080785858140819E-002   2.0740814158821341E-002
  -5.4569830972342269E-002   1.6413405094822892E-002   1.4904162853881894E-002
  -5.2000895671283513E-002   1.5599483212674042E-002   1.4497618359688574E-002
  -4.9431960370224737E-002   1.4788902681677395E-002   1.4244807320868129E-002
  -4.6863025069165912E-002   1.3981663501832586E-002   1.4145729737420048E-002
  -4.4294089768107198E-002   1.3177765673140385E-002   1.4200385609344973E-002
  -5.8560377286046433E-002   1.7619190095742962E-002   8.4573139346189354E-003
  -5.5833805963165020E-002   1.6763493041397751E-002   8.0137244679743848E-003
  -5.3107234640283559E-002   1.5920853255348959E-002   7.7316735896022833E-003
  -5.0380663317402111E-002   1.5091270737596408E-002   7.6111612995030482E-003
  -4.7654091994520691E-002   1.4274745488139867E-002   7.6521875976765519E-003
  -6.2600070448376233E-002   1.8824975096662699E-002   1.9638318845875968E-003
  -5.9708057970772166E-002   1.7927502870121237E-002   1.4929133626356839E-003
  -5.6816045493168044E-002   1.7052803829020413E-002   1.1913385618566030E-003
  -5.3924033015563921E-002   1.6200877973359479E-002   1.0591074822503266E-003
  -5.1032020537959855E-002   1.5371725303139794E-002   1.0962201238163827E-003
  -3.7627864266356781E-002   1.0983806043140976E-002   2.7273473246106184E-002
  -3.5237135544695736E-002   1.0209897914748356E-002   2.6874078654231026E-002
  -3.2846406823034663E-002   9.4615499870352449E-003   2.6564354373660337E-002
  -3.0455678101373576E-002   8.7387622600021558E-003   2.6344300404394533E-002
  -2.8064949379712517E-002   8.0415347336489917E-003   2.6213916746432919E-002
  -4.0952013858719133E-002   1.2080785858140819E-002   2.0740814158821341E-002
  -3.8468176316392128E-002   1.1293381833688942E-002   2.0346765526094324E-002
  -3.5984338774065164E-002   1.0520085142181210E-002   2.0049264223394370E-002
  -3.3500501231738151E-002   9.7608957836189218E-003   1.9848310250721771E-002
  -3.1016663689411195E-002   9.0158137580012010E-003   1.9743903608076208E-002
  -4.4294089768107198E-002   1.3177765673140385E-002   1.4200385609344973E-002
  -4.1710266386391671E-002   1.2376865752629251E-002   1.3800230068030814E-002
  -3.9126443004676034E-002   1.1578620297327397E-002   1.3503498875466438E-002
  -3.6542619622960439E-002   1.0783029307235854E-002   1.3310192031652304E-002
  -3.3958796241244892E-002   9.9900927823533547E-003   1.3220309536587621E-002
  -4.7654091994520691E-002   1.4274745488139867E-002   7.6521875976765519E-003
  -4.4963405754693972E-002   1.3460349671569033E-002   7.2344722800404375E-003
  -4.2272719514867163E-002   1.2637155452473695E-002   6.9270583298766675E-003
  -3.9582033275040437E-002   1.1805162830852148E-002   6.7299457471857553E-003
  -3.6891347035213629E-002   1.0964371806705647E-002   6.6431345319668961E-003
  -5.1032020537959855E-002   1.5371725303139794E-002   1.0962201238163827E-003
  -4.8227594421299314E-002   1.4543833590510369E-002   6.4949216212345506E-004
  -4.5423168304638661E-002   1.3695690607619271E-002   3.1994258662515485E-004
  -4.2618742187978065E-002   1.2827296354469872E-002   1.0757139732248122E-004
  -3.9814316071317468E-002   1.1938650831057940E-002   1.2378594214212946E-005
  -2.8064949379712517E-002   8.0415347336489917E-003   2.6213916746432919E-002
  -2.5718676614837815E-002   7.3268513764490617E-003   2.5636995307010135E-002
  -2.3372403849963072E-002   6.5516961568753695E-003   2.5006291874179853E-002
  -2.1026131085088363E-002   5.7160690749286439E-003   2.4321806447941824E-002
  -1.8679858320213627E-002   4.8199701306080867E-003   2.3583539028296796E-002
  -3.1016663689411195E-002   9.0158137580012010E-003   1.9743903608076208E-002
  -2.8707399996409616E-002   8.2747738621121725E-003   1.9160089380121814E-002
  -2.6398136303408093E-002   7.5277108927347403E-003   1.8556039001828423E-002
  -2.4088872610406570E-002   6.7746248498693484E-003   1.7931752473196130E-002
  -2.1779608917404936E-002   6.0155157335163301E-003   1.7287229794224812E-002
  -3.3958796241244892E-002   9.9900927823533547E-003   1.3220309536587621E-002
  -3.1652995777048047E-002   9.2226963477748392E-003   1.2684051308987060E-002
  -2.9347195312851144E-002   8.5037256285940971E-003   1.2161102774116056E-002
  -2.7041394848654206E-002   7.8331806248102716E-003   1.1651463931974984E-002
  -2.4735594384457285E-002   7.2110613364245180E-003   1.1155134782563192E-002
  -3.6891347035213629E-002   1.0964371806705647E-002   6.6431345319668961E-003
  -3.4555463956752908E-002   1.0170618833437728E-002   6.2088810936058170E-003
  -3.2219580878292207E-002   9.4797403644529613E-003   5.8214831910431176E-003
  -2.9883697799831504E-002   8.8917363997514185E-003   5.4809408242780158E-003
  -2.7547814721370776E-002   8.4066069393329557E-003   5.1872539933111930E-003
  -3.9814316071317468E-002   1.1938650831057940E-002   1.2378594214212946E-005
  -3.7414804535524482E-002   1.1118541319100950E-002  -2.6542126602169258E-004
  -3.5015292999731384E-002   1.0455755100312880E-002  -4.6281974739162401E-004
  -3.2615781463938315E-002   9.9502921746923573E-003  -5.7981684989431154E-004
  -3.0216269928145301E-002   9.6021525422407272E-003  -6.1641257353062251E-004
  -1.8679858320213627E-002   4.8199701306080867E-003   2.3583539028296796E-002
  -1.5655963315194144E-002   4.0840966616476626E-003   2.4377904633191561E-002
  -1.2632068310174632E-002   3.7291460057815584E-003   2.5644354325759511E-002
  -9.6081733051551349E-003   3.7551181630087749E-003   2.7382888106000675E-002
  -6.5842783001356375E-003   4.1620131333303112E-003   2.9593505973914636E-002
  -2.1779608917404936E-002   6.0155157335163301E-003   1.7287229794224812E-002
  -1.8552547797764204E-002   5.3456193440643007E-003   1.8239128226398782E-002
  -1.5325486678123543E-002   4.8601714819028752E-003   1.9125274800142089E-002
  -1.2098425558482825E-002   4.5591721470314150E-003   1.9945669515454595E-002
  -8.8713644388421498E-003   4.4426213394500591E-003   2.0700312372336604E-002
  -2.4735594384457285E-002   7.2110613364245180E-003   1.1155134782563192E-002
  -2.1843203096299266E-002   6.6071420264805503E-003   1.2068091756212429E-002
  -1.8950811808141094E-002   5.9911969580239699E-003   1.2377460925327682E-002
  -1.6058420519982974E-002   5.3632261310535001E-003   1.2083242289908175E-002
  -1.3166029231824958E-002   4.7232295455703066E-003   1.1185435849954156E-002
  -2.7547814721370776E-002   8.4066069393329557E-003   5.1872539933111930E-003
  -2.5527929210799050E-002   7.8686647088974382E-003   5.8647952226328071E-003
  -2.3508043700227459E-002   7.1222224341449536E-003   5.4009127013164571E-003
  -2.1488158189655784E-002   6.1672801150757517E-003   3.7956064293610328E-003
  -1.9468272679084138E-002   5.0038377516905264E-003   1.0488764067677694E-003
  -3.0216269928145301E-002   9.6021525422407272E-003  -6.1641257353062251E-004
  -2.9606726141263917E-002   9.1301873913136600E-003  -3.7076137434055578E-004
  -2.8997182354382478E-002   8.2532479102661593E-003  -1.8043698718926415E-003
  -2.8387638567501094E-002   6.9713340990983919E-003  -4.9172380661866161E-003
  -2.7778094780619655E-002   5.2844459578098579E-003  -9.7093659572228264E-003
  -6.5842783001356375E-003   4.1620131333303112E-003   2.9593505973914636E-002
  -6.0564476756211072E-003   6.1441745137977843E-003   3.4072078306970455E-002
  -5.5286170511065491E-003   1.0895945901465059E-002   3.9235705162991852E-002
  -5.0007864265919910E-003   1.8417327296330784E-002   4.5084386541978466E-002
  -4.4729558020774052E-003   2.8708318698395630E-002   5.1618122443930048E-002
  -8.8713644388421498E-003   4.4426213394500591E-003   2.0700312372336604E-002
  -7.5861100690984701E-003   5.6599170831244661E-003   2.5870102564589326E-002
  -6.3008556993547765E-003   9.3604574020186015E-003   3.1869685724334573E-002
  -5.0156013296113050E-003   1.5544242296133291E-002   3.8699061851572764E-002
  -3.7303469598675143E-003   2.4211271765467668E-002   4.6358230946303758E-002
  -1.3166029231824958E-002   4.7232295455703066E-003   1.1185435849954156E-002
  -1.0978612672324799E-002   5.1756596524504817E-003   1.6760078469424788E-002
  -8.7911961128247715E-003   7.8249689025725738E-003   2.3309252500915492E-002
  -6.6037795533247304E-003   1.2671157295935463E-002   3.0832957944426205E-002
  -4.4163629938245852E-003   1.9714224832539706E-002   3.9331194799957392E-002
  -1.9468272679084138E-002   5.0038377516905264E-003   1.0488764067677694E-003
  -1.6233955485300280E-002   4.6914022217769413E-003   6.7420060214771829E-003
  -1.2999638291516357E-002   6.2894804031265530E-003   1.3554405492734154E-002
  -9.7653210977325499E-003   9.7980722957379130E-003   2.1486074820538506E-002
  -6.5310039039485762E-003   1.5217177899611745E-002   3.0537014004890672E-002
  -2.7778094780619655E-002   5.2844459578098579E-003  -9.7093659572228264E-003
  -2.3352138508024645E-002   4.2071447911038451E-003  -4.1841147792530675E-003
  -1.8926182235429634E-002   4.7539919036804212E-003   2.6051446997911176E-003
  -1.4500225962834540E-002   6.9249872955405578E-003   1.0658412479910312E-002
  -1.0074269690239612E-002   1.0720130966683783E-002   1.9975688561104654E-002
 </DataArray>
 </PointData>
 </Piece>
 </UnstructuredGrid>
 </VTKFile>
