 <VTKFile type="UnstructuredGrid"  version="0.1"   >
 <UnstructuredGrid>
 <Piece  NumberOfPoints="          1600 "  NumberOfCells="         1024 ">
 <Points>
 <DataArray  type="Float64" NumberOfComponents="3"  format="ascii" >
   0.0000000000000000        0.0000000000000000        0.0000000000000000     
   3.1250000000000000E-002   0.0000000000000000        0.0000000000000000     
   6.2500000000000000E-002   0.0000000000000000        0.0000000000000000     
   9.3750000000000000E-002   0.0000000000000000        0.0000000000000000     
  0.12500000000000000        0.0000000000000000        0.0000000000000000     
   0.0000000000000000        3.1250000000000000E-002   0.0000000000000000     
   3.1250000000000000E-002   3.1250000000000000E-002   0.0000000000000000     
   6.2500000000000000E-002   3.1250000000000000E-002   0.0000000000000000     
   9.3750000000000000E-002   3.1250000000000000E-002   0.0000000000000000     
  0.12500000000000000        3.1250000000000000E-002   0.0000000000000000     
   0.0000000000000000        6.2500000000000000E-002   0.0000000000000000     
   3.1250000000000000E-002   6.2500000000000000E-002   0.0000000000000000     
   6.2500000000000000E-002   6.2500000000000000E-002   0.0000000000000000     
   9.3750000000000000E-002   6.2500000000000000E-002   0.0000000000000000     
  0.12500000000000000        6.2500000000000000E-002   0.0000000000000000     
   0.0000000000000000        9.3750000000000000E-002   0.0000000000000000     
   3.1250000000000000E-002   9.3750000000000000E-002   0.0000000000000000     
   6.2500000000000000E-002   9.3750000000000000E-002   0.0000000000000000     
   9.3750000000000000E-002   9.3750000000000000E-002   0.0000000000000000     
  0.12500000000000000        9.3750000000000000E-002   0.0000000000000000     
   0.0000000000000000       0.12500000000000000        0.0000000000000000     
   3.1250000000000000E-002  0.12500000000000000        0.0000000000000000     
   6.2500000000000000E-002  0.12500000000000000        0.0000000000000000     
   9.3750000000000000E-002  0.12500000000000000        0.0000000000000000     
  0.12500000000000000       0.12500000000000000        0.0000000000000000     
  0.12500000000000000        0.0000000000000000        0.0000000000000000     
  0.15625000000000000        0.0000000000000000        0.0000000000000000     
  0.18750000000000000        0.0000000000000000        0.0000000000000000     
  0.21875000000000000        0.0000000000000000        0.0000000000000000     
  0.25000000000000000        0.0000000000000000        0.0000000000000000     
  0.12500000000000000        3.1250000000000000E-002   0.0000000000000000     
  0.15625000000000000        3.1250000000000000E-002   0.0000000000000000     
  0.18750000000000000        3.1250000000000000E-002   0.0000000000000000     
  0.21875000000000000        3.1250000000000000E-002   0.0000000000000000     
  0.25000000000000000        3.1250000000000000E-002   0.0000000000000000     
  0.12500000000000000        6.2500000000000000E-002   0.0000000000000000     
  0.15625000000000000        6.2500000000000000E-002   0.0000000000000000     
  0.18750000000000000        6.2500000000000000E-002   0.0000000000000000     
  0.21875000000000000        6.2500000000000000E-002   0.0000000000000000     
  0.25000000000000000        6.2500000000000000E-002   0.0000000000000000     
  0.12500000000000000        9.3750000000000000E-002   0.0000000000000000     
  0.15625000000000000        9.3750000000000000E-002   0.0000000000000000     
  0.18750000000000000        9.3750000000000000E-002   0.0000000000000000     
  0.21875000000000000        9.3750000000000000E-002   0.0000000000000000     
  0.25000000000000000        9.3750000000000000E-002   0.0000000000000000     
  0.12500000000000000       0.12500000000000000        0.0000000000000000     
  0.15625000000000000       0.12500000000000000        0.0000000000000000     
  0.18750000000000000       0.12500000000000000        0.0000000000000000     
  0.21875000000000000       0.12500000000000000        0.0000000000000000     
  0.25000000000000000       0.12500000000000000        0.0000000000000000     
  0.25000000000000000        0.0000000000000000        0.0000000000000000     
  0.28125000000000000        0.0000000000000000        0.0000000000000000     
  0.31250000000000000        0.0000000000000000        0.0000000000000000     
  0.34375000000000000        0.0000000000000000        0.0000000000000000     
  0.37500000000000000        0.0000000000000000        0.0000000000000000     
  0.25000000000000000        3.1250000000000000E-002   0.0000000000000000     
  0.28125000000000000        3.1250000000000000E-002   0.0000000000000000     
  0.31250000000000000        3.1250000000000000E-002   0.0000000000000000     
  0.34375000000000000        3.1250000000000000E-002   0.0000000000000000     
  0.37500000000000000        3.1250000000000000E-002   0.0000000000000000     
  0.25000000000000000        6.2500000000000000E-002   0.0000000000000000     
  0.28125000000000000        6.2500000000000000E-002   0.0000000000000000     
  0.31250000000000000        6.2500000000000000E-002   0.0000000000000000     
  0.34375000000000000        6.2500000000000000E-002   0.0000000000000000     
  0.37500000000000000        6.2500000000000000E-002   0.0000000000000000     
  0.25000000000000000        9.3750000000000000E-002   0.0000000000000000     
  0.28125000000000000        9.3750000000000000E-002   0.0000000000000000     
  0.31250000000000000        9.3750000000000000E-002   0.0000000000000000     
  0.34375000000000000        9.3750000000000000E-002   0.0000000000000000     
  0.37500000000000000        9.3750000000000000E-002   0.0000000000000000     
  0.25000000000000000       0.12500000000000000        0.0000000000000000     
  0.28125000000000000       0.12500000000000000        0.0000000000000000     
  0.31250000000000000       0.12500000000000000        0.0000000000000000     
  0.34375000000000000       0.12500000000000000        0.0000000000000000     
  0.37500000000000000       0.12500000000000000        0.0000000000000000     
  0.37500000000000000        0.0000000000000000        0.0000000000000000     
  0.40625000000000000        0.0000000000000000        0.0000000000000000     
  0.43750000000000000        0.0000000000000000        0.0000000000000000     
  0.46875000000000000        0.0000000000000000        0.0000000000000000     
  0.50000000000000000        0.0000000000000000        0.0000000000000000     
  0.37500000000000000        3.1250000000000000E-002   0.0000000000000000     
  0.40625000000000000        3.1250000000000000E-002   0.0000000000000000     
  0.43750000000000000        3.1250000000000000E-002   0.0000000000000000     
  0.46875000000000000        3.1250000000000000E-002   0.0000000000000000     
  0.50000000000000000        3.1250000000000000E-002   0.0000000000000000     
  0.37500000000000000        6.2500000000000000E-002   0.0000000000000000     
  0.40625000000000000        6.2500000000000000E-002   0.0000000000000000     
  0.43750000000000000        6.2500000000000000E-002   0.0000000000000000     
  0.46875000000000000        6.2500000000000000E-002   0.0000000000000000     
  0.50000000000000000        6.2500000000000000E-002   0.0000000000000000     
  0.37500000000000000        9.3750000000000000E-002   0.0000000000000000     
  0.40625000000000000        9.3750000000000000E-002   0.0000000000000000     
  0.43750000000000000        9.3750000000000000E-002   0.0000000000000000     
  0.46875000000000000        9.3750000000000000E-002   0.0000000000000000     
  0.50000000000000000        9.3750000000000000E-002   0.0000000000000000     
  0.37500000000000000       0.12500000000000000        0.0000000000000000     
  0.40625000000000000       0.12500000000000000        0.0000000000000000     
  0.43750000000000000       0.12500000000000000        0.0000000000000000     
  0.46875000000000000       0.12500000000000000        0.0000000000000000     
  0.50000000000000000       0.12500000000000000        0.0000000000000000     
  0.50000000000000000        0.0000000000000000        0.0000000000000000     
  0.53125000000000000        0.0000000000000000        0.0000000000000000     
  0.56250000000000000        0.0000000000000000        0.0000000000000000     
  0.59375000000000000        0.0000000000000000        0.0000000000000000     
  0.62500000000000000        0.0000000000000000        0.0000000000000000     
  0.50000000000000000        3.1250000000000000E-002   0.0000000000000000     
  0.53125000000000000        3.1250000000000000E-002   0.0000000000000000     
  0.56250000000000000        3.1250000000000000E-002   0.0000000000000000     
  0.59375000000000000        3.1250000000000000E-002   0.0000000000000000     
  0.62500000000000000        3.1250000000000000E-002   0.0000000000000000     
  0.50000000000000000        6.2500000000000000E-002   0.0000000000000000     
  0.53125000000000000        6.2500000000000000E-002   0.0000000000000000     
  0.56250000000000000        6.2500000000000000E-002   0.0000000000000000     
  0.59375000000000000        6.2500000000000000E-002   0.0000000000000000     
  0.62500000000000000        6.2500000000000000E-002   0.0000000000000000     
  0.50000000000000000        9.3750000000000000E-002   0.0000000000000000     
  0.53125000000000000        9.3750000000000000E-002   0.0000000000000000     
  0.56250000000000000        9.3750000000000000E-002   0.0000000000000000     
  0.59375000000000000        9.3750000000000000E-002   0.0000000000000000     
  0.62500000000000000        9.3750000000000000E-002   0.0000000000000000     
  0.50000000000000000       0.12500000000000000        0.0000000000000000     
  0.53125000000000000       0.12500000000000000        0.0000000000000000     
  0.56250000000000000       0.12500000000000000        0.0000000000000000     
  0.59375000000000000       0.12500000000000000        0.0000000000000000     
  0.62500000000000000       0.12500000000000000        0.0000000000000000     
  0.62500000000000000        0.0000000000000000        0.0000000000000000     
  0.65625000000000000        0.0000000000000000        0.0000000000000000     
  0.68750000000000000        0.0000000000000000        0.0000000000000000     
  0.71875000000000000        0.0000000000000000        0.0000000000000000     
  0.75000000000000000        0.0000000000000000        0.0000000000000000     
  0.62500000000000000        3.1250000000000000E-002   0.0000000000000000     
  0.65625000000000000        3.1250000000000000E-002   0.0000000000000000     
  0.68750000000000000        3.1250000000000000E-002   0.0000000000000000     
  0.71875000000000000        3.1250000000000000E-002   0.0000000000000000     
  0.75000000000000000        3.1250000000000000E-002   0.0000000000000000     
  0.62500000000000000        6.2500000000000000E-002   0.0000000000000000     
  0.65625000000000000        6.2500000000000000E-002   0.0000000000000000     
  0.68750000000000000        6.2500000000000000E-002   0.0000000000000000     
  0.71875000000000000        6.2500000000000000E-002   0.0000000000000000     
  0.75000000000000000        6.2500000000000000E-002   0.0000000000000000     
  0.62500000000000000        9.3750000000000000E-002   0.0000000000000000     
  0.65625000000000000        9.3750000000000000E-002   0.0000000000000000     
  0.68750000000000000        9.3750000000000000E-002   0.0000000000000000     
  0.71875000000000000        9.3750000000000000E-002   0.0000000000000000     
  0.75000000000000000        9.3750000000000000E-002   0.0000000000000000     
  0.62500000000000000       0.12500000000000000        0.0000000000000000     
  0.65625000000000000       0.12500000000000000        0.0000000000000000     
  0.68750000000000000       0.12500000000000000        0.0000000000000000     
  0.71875000000000000       0.12500000000000000        0.0000000000000000     
  0.75000000000000000       0.12500000000000000        0.0000000000000000     
  0.75000000000000000        0.0000000000000000        0.0000000000000000     
  0.78125000000000000        0.0000000000000000        0.0000000000000000     
  0.81250000000000000        0.0000000000000000        0.0000000000000000     
  0.84375000000000000        0.0000000000000000        0.0000000000000000     
  0.87500000000000000        0.0000000000000000        0.0000000000000000     
  0.75000000000000000        3.1250000000000000E-002   0.0000000000000000     
  0.78125000000000000        3.1250000000000000E-002   0.0000000000000000     
  0.81250000000000000        3.1250000000000000E-002   0.0000000000000000     
  0.84375000000000000        3.1250000000000000E-002   0.0000000000000000     
  0.87500000000000000        3.1250000000000000E-002   0.0000000000000000     
  0.75000000000000000        6.2500000000000000E-002   0.0000000000000000     
  0.78125000000000000        6.2500000000000000E-002   0.0000000000000000     
  0.81250000000000000        6.2500000000000000E-002   0.0000000000000000     
  0.84375000000000000        6.2500000000000000E-002   0.0000000000000000     
  0.87500000000000000        6.2500000000000000E-002   0.0000000000000000     
  0.75000000000000000        9.3750000000000000E-002   0.0000000000000000     
  0.78125000000000000        9.3750000000000000E-002   0.0000000000000000     
  0.81250000000000000        9.3750000000000000E-002   0.0000000000000000     
  0.84375000000000000        9.3750000000000000E-002   0.0000000000000000     
  0.87500000000000000        9.3750000000000000E-002   0.0000000000000000     
  0.75000000000000000       0.12500000000000000        0.0000000000000000     
  0.78125000000000000       0.12500000000000000        0.0000000000000000     
  0.81250000000000000       0.12500000000000000        0.0000000000000000     
  0.84375000000000000       0.12500000000000000        0.0000000000000000     
  0.87500000000000000       0.12500000000000000        0.0000000000000000     
  0.87500000000000000        0.0000000000000000        0.0000000000000000     
  0.90625000000000000        0.0000000000000000        0.0000000000000000     
  0.93750000000000000        0.0000000000000000        0.0000000000000000     
  0.96875000000000000        0.0000000000000000        0.0000000000000000     
   1.0000000000000000        0.0000000000000000        0.0000000000000000     
  0.87500000000000000        3.1250000000000000E-002   0.0000000000000000     
  0.90625000000000000        3.1250000000000000E-002   0.0000000000000000     
  0.93750000000000000        3.1250000000000000E-002   0.0000000000000000     
  0.96875000000000000        3.1250000000000000E-002   0.0000000000000000     
   1.0000000000000000        3.1250000000000000E-002   0.0000000000000000     
  0.87500000000000000        6.2500000000000000E-002   0.0000000000000000     
  0.90625000000000000        6.2500000000000000E-002   0.0000000000000000     
  0.93750000000000000        6.2500000000000000E-002   0.0000000000000000     
  0.96875000000000000        6.2500000000000000E-002   0.0000000000000000     
   1.0000000000000000        6.2500000000000000E-002   0.0000000000000000     
  0.87500000000000000        9.3750000000000000E-002   0.0000000000000000     
  0.90625000000000000        9.3750000000000000E-002   0.0000000000000000     
  0.93750000000000000        9.3750000000000000E-002   0.0000000000000000     
  0.96875000000000000        9.3750000000000000E-002   0.0000000000000000     
   1.0000000000000000        9.3750000000000000E-002   0.0000000000000000     
  0.87500000000000000       0.12500000000000000        0.0000000000000000     
  0.90625000000000000       0.12500000000000000        0.0000000000000000     
  0.93750000000000000       0.12500000000000000        0.0000000000000000     
  0.96875000000000000       0.12500000000000000        0.0000000000000000     
   1.0000000000000000       0.12500000000000000        0.0000000000000000     
   0.0000000000000000       0.12500000000000000        0.0000000000000000     
   3.1250000000000000E-002  0.12500000000000000        0.0000000000000000     
   6.2500000000000000E-002  0.12500000000000000        0.0000000000000000     
   9.3750000000000000E-002  0.12500000000000000        0.0000000000000000     
  0.12500000000000000       0.12500000000000000        0.0000000000000000     
   0.0000000000000000       0.15625000000000000        0.0000000000000000     
   3.1250000000000000E-002  0.15625000000000000        0.0000000000000000     
   6.2500000000000000E-002  0.15625000000000000        0.0000000000000000     
   9.3750000000000000E-002  0.15625000000000000        0.0000000000000000     
  0.12500000000000000       0.15625000000000000        0.0000000000000000     
   0.0000000000000000       0.18750000000000000        0.0000000000000000     
   3.1250000000000000E-002  0.18750000000000000        0.0000000000000000     
   6.2500000000000000E-002  0.18750000000000000        0.0000000000000000     
   9.3750000000000000E-002  0.18750000000000000        0.0000000000000000     
  0.12500000000000000       0.18750000000000000        0.0000000000000000     
   0.0000000000000000       0.21875000000000000        0.0000000000000000     
   3.1250000000000000E-002  0.21875000000000000        0.0000000000000000     
   6.2500000000000000E-002  0.21875000000000000        0.0000000000000000     
   9.3750000000000000E-002  0.21875000000000000        0.0000000000000000     
  0.12500000000000000       0.21875000000000000        0.0000000000000000     
   0.0000000000000000       0.25000000000000000        0.0000000000000000     
   3.1250000000000000E-002  0.25000000000000000        0.0000000000000000     
   6.2500000000000000E-002  0.25000000000000000        0.0000000000000000     
   9.3750000000000000E-002  0.25000000000000000        0.0000000000000000     
  0.12500000000000000       0.25000000000000000        0.0000000000000000     
  0.12500000000000000       0.12500000000000000        0.0000000000000000     
  0.15625000000000000       0.12500000000000000        0.0000000000000000     
  0.18750000000000000       0.12500000000000000        0.0000000000000000     
  0.21875000000000000       0.12500000000000000        0.0000000000000000     
  0.25000000000000000       0.12500000000000000        0.0000000000000000     
  0.12500000000000000       0.15625000000000000        0.0000000000000000     
  0.15625000000000000       0.15625000000000000        0.0000000000000000     
  0.18750000000000000       0.15625000000000000        0.0000000000000000     
  0.21875000000000000       0.15625000000000000        0.0000000000000000     
  0.25000000000000000       0.15625000000000000        0.0000000000000000     
  0.12500000000000000       0.18750000000000000        0.0000000000000000     
  0.15625000000000000       0.18750000000000000        0.0000000000000000     
  0.18750000000000000       0.18750000000000000        0.0000000000000000     
  0.21875000000000000       0.18750000000000000        0.0000000000000000     
  0.25000000000000000       0.18750000000000000        0.0000000000000000     
  0.12500000000000000       0.21875000000000000        0.0000000000000000     
  0.15625000000000000       0.21875000000000000        0.0000000000000000     
  0.18750000000000000       0.21875000000000000        0.0000000000000000     
  0.21875000000000000       0.21875000000000000        0.0000000000000000     
  0.25000000000000000       0.21875000000000000        0.0000000000000000     
  0.12500000000000000       0.25000000000000000        0.0000000000000000     
  0.15625000000000000       0.25000000000000000        0.0000000000000000     
  0.18750000000000000       0.25000000000000000        0.0000000000000000     
  0.21875000000000000       0.25000000000000000        0.0000000000000000     
  0.25000000000000000       0.25000000000000000        0.0000000000000000     
  0.25000000000000000       0.12500000000000000        0.0000000000000000     
  0.28125000000000000       0.12500000000000000        0.0000000000000000     
  0.31250000000000000       0.12500000000000000        0.0000000000000000     
  0.34375000000000000       0.12500000000000000        0.0000000000000000     
  0.37500000000000000       0.12500000000000000        0.0000000000000000     
  0.25000000000000000       0.15625000000000000        0.0000000000000000     
  0.28125000000000000       0.15625000000000000        0.0000000000000000     
  0.31250000000000000       0.15625000000000000        0.0000000000000000     
  0.34375000000000000       0.15625000000000000        0.0000000000000000     
  0.37500000000000000       0.15625000000000000        0.0000000000000000     
  0.25000000000000000       0.18750000000000000        0.0000000000000000     
  0.28125000000000000       0.18750000000000000        0.0000000000000000     
  0.31250000000000000       0.18750000000000000        0.0000000000000000     
  0.34375000000000000       0.18750000000000000        0.0000000000000000     
  0.37500000000000000       0.18750000000000000        0.0000000000000000     
  0.25000000000000000       0.21875000000000000        0.0000000000000000     
  0.28125000000000000       0.21875000000000000        0.0000000000000000     
  0.31250000000000000       0.21875000000000000        0.0000000000000000     
  0.34375000000000000       0.21875000000000000        0.0000000000000000     
  0.37500000000000000       0.21875000000000000        0.0000000000000000     
  0.25000000000000000       0.25000000000000000        0.0000000000000000     
  0.28125000000000000       0.25000000000000000        0.0000000000000000     
  0.31250000000000000       0.25000000000000000        0.0000000000000000     
  0.34375000000000000       0.25000000000000000        0.0000000000000000     
  0.37500000000000000       0.25000000000000000        0.0000000000000000     
  0.37500000000000000       0.12500000000000000        0.0000000000000000     
  0.40625000000000000       0.12500000000000000        0.0000000000000000     
  0.43750000000000000       0.12500000000000000        0.0000000000000000     
  0.46875000000000000       0.12500000000000000        0.0000000000000000     
  0.50000000000000000       0.12500000000000000        0.0000000000000000     
  0.37500000000000000       0.15625000000000000        0.0000000000000000     
  0.40625000000000000       0.15625000000000000        0.0000000000000000     
  0.43750000000000000       0.15625000000000000        0.0000000000000000     
  0.46875000000000000       0.15625000000000000        0.0000000000000000     
  0.50000000000000000       0.15625000000000000        0.0000000000000000     
  0.37500000000000000       0.18750000000000000        0.0000000000000000     
  0.40625000000000000       0.18750000000000000        0.0000000000000000     
  0.43750000000000000       0.18750000000000000        0.0000000000000000     
  0.46875000000000000       0.18750000000000000        0.0000000000000000     
  0.50000000000000000       0.18750000000000000        0.0000000000000000     
  0.37500000000000000       0.21875000000000000        0.0000000000000000     
  0.40625000000000000       0.21875000000000000        0.0000000000000000     
  0.43750000000000000       0.21875000000000000        0.0000000000000000     
  0.46875000000000000       0.21875000000000000        0.0000000000000000     
  0.50000000000000000       0.21875000000000000        0.0000000000000000     
  0.37500000000000000       0.25000000000000000        0.0000000000000000     
  0.40625000000000000       0.25000000000000000        0.0000000000000000     
  0.43750000000000000       0.25000000000000000        0.0000000000000000     
  0.46875000000000000       0.25000000000000000        0.0000000000000000     
  0.50000000000000000       0.25000000000000000        0.0000000000000000     
  0.50000000000000000       0.12500000000000000        0.0000000000000000     
  0.53125000000000000       0.12500000000000000        0.0000000000000000     
  0.56250000000000000       0.12500000000000000        0.0000000000000000     
  0.59375000000000000       0.12500000000000000        0.0000000000000000     
  0.62500000000000000       0.12500000000000000        0.0000000000000000     
  0.50000000000000000       0.15625000000000000        0.0000000000000000     
  0.53125000000000000       0.15625000000000000        0.0000000000000000     
  0.56250000000000000       0.15625000000000000        0.0000000000000000     
  0.59375000000000000       0.15625000000000000        0.0000000000000000     
  0.62500000000000000       0.15625000000000000        0.0000000000000000     
  0.50000000000000000       0.18750000000000000        0.0000000000000000     
  0.53125000000000000       0.18750000000000000        0.0000000000000000     
  0.56250000000000000       0.18750000000000000        0.0000000000000000     
  0.59375000000000000       0.18750000000000000        0.0000000000000000     
  0.62500000000000000       0.18750000000000000        0.0000000000000000     
  0.50000000000000000       0.21875000000000000        0.0000000000000000     
  0.53125000000000000       0.21875000000000000        0.0000000000000000     
  0.56250000000000000       0.21875000000000000        0.0000000000000000     
  0.59375000000000000       0.21875000000000000        0.0000000000000000     
  0.62500000000000000       0.21875000000000000        0.0000000000000000     
  0.50000000000000000       0.25000000000000000        0.0000000000000000     
  0.53125000000000000       0.25000000000000000        0.0000000000000000     
  0.56250000000000000       0.25000000000000000        0.0000000000000000     
  0.59375000000000000       0.25000000000000000        0.0000000000000000     
  0.62500000000000000       0.25000000000000000        0.0000000000000000     
  0.62500000000000000       0.12500000000000000        0.0000000000000000     
  0.65625000000000000       0.12500000000000000        0.0000000000000000     
  0.68750000000000000       0.12500000000000000        0.0000000000000000     
  0.71875000000000000       0.12500000000000000        0.0000000000000000     
  0.75000000000000000       0.12500000000000000        0.0000000000000000     
  0.62500000000000000       0.15625000000000000        0.0000000000000000     
  0.65625000000000000       0.15625000000000000        0.0000000000000000     
  0.68750000000000000       0.15625000000000000        0.0000000000000000     
  0.71875000000000000       0.15625000000000000        0.0000000000000000     
  0.75000000000000000       0.15625000000000000        0.0000000000000000     
  0.62500000000000000       0.18750000000000000        0.0000000000000000     
  0.65625000000000000       0.18750000000000000        0.0000000000000000     
  0.68750000000000000       0.18750000000000000        0.0000000000000000     
  0.71875000000000000       0.18750000000000000        0.0000000000000000     
  0.75000000000000000       0.18750000000000000        0.0000000000000000     
  0.62500000000000000       0.21875000000000000        0.0000000000000000     
  0.65625000000000000       0.21875000000000000        0.0000000000000000     
  0.68750000000000000       0.21875000000000000        0.0000000000000000     
  0.71875000000000000       0.21875000000000000        0.0000000000000000     
  0.75000000000000000       0.21875000000000000        0.0000000000000000     
  0.62500000000000000       0.25000000000000000        0.0000000000000000     
  0.65625000000000000       0.25000000000000000        0.0000000000000000     
  0.68750000000000000       0.25000000000000000        0.0000000000000000     
  0.71875000000000000       0.25000000000000000        0.0000000000000000     
  0.75000000000000000       0.25000000000000000        0.0000000000000000     
  0.75000000000000000       0.12500000000000000        0.0000000000000000     
  0.78125000000000000       0.12500000000000000        0.0000000000000000     
  0.81250000000000000       0.12500000000000000        0.0000000000000000     
  0.84375000000000000       0.12500000000000000        0.0000000000000000     
  0.87500000000000000       0.12500000000000000        0.0000000000000000     
  0.75000000000000000       0.15625000000000000        0.0000000000000000     
  0.78125000000000000       0.15625000000000000        0.0000000000000000     
  0.81250000000000000       0.15625000000000000        0.0000000000000000     
  0.84375000000000000       0.15625000000000000        0.0000000000000000     
  0.87500000000000000       0.15625000000000000        0.0000000000000000     
  0.75000000000000000       0.18750000000000000        0.0000000000000000     
  0.78125000000000000       0.18750000000000000        0.0000000000000000     
  0.81250000000000000       0.18750000000000000        0.0000000000000000     
  0.84375000000000000       0.18750000000000000        0.0000000000000000     
  0.87500000000000000       0.18750000000000000        0.0000000000000000     
  0.75000000000000000       0.21875000000000000        0.0000000000000000     
  0.78125000000000000       0.21875000000000000        0.0000000000000000     
  0.81250000000000000       0.21875000000000000        0.0000000000000000     
  0.84375000000000000       0.21875000000000000        0.0000000000000000     
  0.87500000000000000       0.21875000000000000        0.0000000000000000     
  0.75000000000000000       0.25000000000000000        0.0000000000000000     
  0.78125000000000000       0.25000000000000000        0.0000000000000000     
  0.81250000000000000       0.25000000000000000        0.0000000000000000     
  0.84375000000000000       0.25000000000000000        0.0000000000000000     
  0.87500000000000000       0.25000000000000000        0.0000000000000000     
  0.87500000000000000       0.12500000000000000        0.0000000000000000     
  0.90625000000000000       0.12500000000000000        0.0000000000000000     
  0.93750000000000000       0.12500000000000000        0.0000000000000000     
  0.96875000000000000       0.12500000000000000        0.0000000000000000     
   1.0000000000000000       0.12500000000000000        0.0000000000000000     
  0.87500000000000000       0.15625000000000000        0.0000000000000000     
  0.90625000000000000       0.15625000000000000        0.0000000000000000     
  0.93750000000000000       0.15625000000000000        0.0000000000000000     
  0.96875000000000000       0.15625000000000000        0.0000000000000000     
   1.0000000000000000       0.15625000000000000        0.0000000000000000     
  0.87500000000000000       0.18750000000000000        0.0000000000000000     
  0.90625000000000000       0.18750000000000000        0.0000000000000000     
  0.93750000000000000       0.18750000000000000        0.0000000000000000     
  0.96875000000000000       0.18750000000000000        0.0000000000000000     
   1.0000000000000000       0.18750000000000000        0.0000000000000000     
  0.87500000000000000       0.21875000000000000        0.0000000000000000     
  0.90625000000000000       0.21875000000000000        0.0000000000000000     
  0.93750000000000000       0.21875000000000000        0.0000000000000000     
  0.96875000000000000       0.21875000000000000        0.0000000000000000     
   1.0000000000000000       0.21875000000000000        0.0000000000000000     
  0.87500000000000000       0.25000000000000000        0.0000000000000000     
  0.90625000000000000       0.25000000000000000        0.0000000000000000     
  0.93750000000000000       0.25000000000000000        0.0000000000000000     
  0.96875000000000000       0.25000000000000000        0.0000000000000000     
   1.0000000000000000       0.25000000000000000        0.0000000000000000     
   0.0000000000000000       0.25000000000000000        0.0000000000000000     
   3.1250000000000000E-002  0.25000000000000000        0.0000000000000000     
   6.2500000000000000E-002  0.25000000000000000        0.0000000000000000     
   9.3750000000000000E-002  0.25000000000000000        0.0000000000000000     
  0.12500000000000000       0.25000000000000000        0.0000000000000000     
   0.0000000000000000       0.28125000000000000        0.0000000000000000     
   3.1250000000000000E-002  0.28125000000000000        0.0000000000000000     
   6.2500000000000000E-002  0.28125000000000000        0.0000000000000000     
   9.3750000000000000E-002  0.28125000000000000        0.0000000000000000     
  0.12500000000000000       0.28125000000000000        0.0000000000000000     
   0.0000000000000000       0.31250000000000000        0.0000000000000000     
   3.1250000000000000E-002  0.31250000000000000        0.0000000000000000     
   6.2500000000000000E-002  0.31250000000000000        0.0000000000000000     
   9.3750000000000000E-002  0.31250000000000000        0.0000000000000000     
  0.12500000000000000       0.31250000000000000        0.0000000000000000     
   0.0000000000000000       0.34375000000000000        0.0000000000000000     
   3.1250000000000000E-002  0.34375000000000000        0.0000000000000000     
   6.2500000000000000E-002  0.34375000000000000        0.0000000000000000     
   9.3750000000000000E-002  0.34375000000000000        0.0000000000000000     
  0.12500000000000000       0.34375000000000000        0.0000000000000000     
   0.0000000000000000       0.37500000000000000        0.0000000000000000     
   3.1250000000000000E-002  0.37500000000000000        0.0000000000000000     
   6.2500000000000000E-002  0.37500000000000000        0.0000000000000000     
   9.3750000000000000E-002  0.37500000000000000        0.0000000000000000     
  0.12500000000000000       0.37500000000000000        0.0000000000000000     
  0.12500000000000000       0.25000000000000000        0.0000000000000000     
  0.15625000000000000       0.25000000000000000        0.0000000000000000     
  0.18750000000000000       0.25000000000000000        0.0000000000000000     
  0.21875000000000000       0.25000000000000000        0.0000000000000000     
  0.25000000000000000       0.25000000000000000        0.0000000000000000     
  0.12500000000000000       0.28125000000000000        0.0000000000000000     
  0.15625000000000000       0.28125000000000000        0.0000000000000000     
  0.18750000000000000       0.28125000000000000        0.0000000000000000     
  0.21875000000000000       0.28125000000000000        0.0000000000000000     
  0.25000000000000000       0.28125000000000000        0.0000000000000000     
  0.12500000000000000       0.31250000000000000        0.0000000000000000     
  0.15625000000000000       0.31250000000000000        0.0000000000000000     
  0.18750000000000000       0.31250000000000000        0.0000000000000000     
  0.21875000000000000       0.31250000000000000        0.0000000000000000     
  0.25000000000000000       0.31250000000000000        0.0000000000000000     
  0.12500000000000000       0.34375000000000000        0.0000000000000000     
  0.15625000000000000       0.34375000000000000        0.0000000000000000     
  0.18750000000000000       0.34375000000000000        0.0000000000000000     
  0.21875000000000000       0.34375000000000000        0.0000000000000000     
  0.25000000000000000       0.34375000000000000        0.0000000000000000     
  0.12500000000000000       0.37500000000000000        0.0000000000000000     
  0.15625000000000000       0.37500000000000000        0.0000000000000000     
  0.18750000000000000       0.37500000000000000        0.0000000000000000     
  0.21875000000000000       0.37500000000000000        0.0000000000000000     
  0.25000000000000000       0.37500000000000000        0.0000000000000000     
  0.25000000000000000       0.25000000000000000        0.0000000000000000     
  0.28125000000000000       0.25000000000000000        0.0000000000000000     
  0.31250000000000000       0.25000000000000000        0.0000000000000000     
  0.34375000000000000       0.25000000000000000        0.0000000000000000     
  0.37500000000000000       0.25000000000000000        0.0000000000000000     
  0.25000000000000000       0.28125000000000000        0.0000000000000000     
  0.28125000000000000       0.28125000000000000        0.0000000000000000     
  0.31250000000000000       0.28125000000000000        0.0000000000000000     
  0.34375000000000000       0.28125000000000000        0.0000000000000000     
  0.37500000000000000       0.28125000000000000        0.0000000000000000     
  0.25000000000000000       0.31250000000000000        0.0000000000000000     
  0.28125000000000000       0.31250000000000000        0.0000000000000000     
  0.31250000000000000       0.31250000000000000        0.0000000000000000     
  0.34375000000000000       0.31250000000000000        0.0000000000000000     
  0.37500000000000000       0.31250000000000000        0.0000000000000000     
  0.25000000000000000       0.34375000000000000        0.0000000000000000     
  0.28125000000000000       0.34375000000000000        0.0000000000000000     
  0.31250000000000000       0.34375000000000000        0.0000000000000000     
  0.34375000000000000       0.34375000000000000        0.0000000000000000     
  0.37500000000000000       0.34375000000000000        0.0000000000000000     
  0.25000000000000000       0.37500000000000000        0.0000000000000000     
  0.28125000000000000       0.37500000000000000        0.0000000000000000     
  0.31250000000000000       0.37500000000000000        0.0000000000000000     
  0.34375000000000000       0.37500000000000000        0.0000000000000000     
  0.37500000000000000       0.37500000000000000        0.0000000000000000     
  0.37500000000000000       0.25000000000000000        0.0000000000000000     
  0.40625000000000000       0.25000000000000000        0.0000000000000000     
  0.43750000000000000       0.25000000000000000        0.0000000000000000     
  0.46875000000000000       0.25000000000000000        0.0000000000000000     
  0.50000000000000000       0.25000000000000000        0.0000000000000000     
  0.37500000000000000       0.28125000000000000        0.0000000000000000     
  0.40625000000000000       0.28125000000000000        0.0000000000000000     
  0.43750000000000000       0.28125000000000000        0.0000000000000000     
  0.46875000000000000       0.28125000000000000        0.0000000000000000     
  0.50000000000000000       0.28125000000000000        0.0000000000000000     
  0.37500000000000000       0.31250000000000000        0.0000000000000000     
  0.40625000000000000       0.31250000000000000        0.0000000000000000     
  0.43750000000000000       0.31250000000000000        0.0000000000000000     
  0.46875000000000000       0.31250000000000000        0.0000000000000000     
  0.50000000000000000       0.31250000000000000        0.0000000000000000     
  0.37500000000000000       0.34375000000000000        0.0000000000000000     
  0.40625000000000000       0.34375000000000000        0.0000000000000000     
  0.43750000000000000       0.34375000000000000        0.0000000000000000     
  0.46875000000000000       0.34375000000000000        0.0000000000000000     
  0.50000000000000000       0.34375000000000000        0.0000000000000000     
  0.37500000000000000       0.37500000000000000        0.0000000000000000     
  0.40625000000000000       0.37500000000000000        0.0000000000000000     
  0.43750000000000000       0.37500000000000000        0.0000000000000000     
  0.46875000000000000       0.37500000000000000        0.0000000000000000     
  0.50000000000000000       0.37500000000000000        0.0000000000000000     
  0.50000000000000000       0.25000000000000000        0.0000000000000000     
  0.53125000000000000       0.25000000000000000        0.0000000000000000     
  0.56250000000000000       0.25000000000000000        0.0000000000000000     
  0.59375000000000000       0.25000000000000000        0.0000000000000000     
  0.62500000000000000       0.25000000000000000        0.0000000000000000     
  0.50000000000000000       0.28125000000000000        0.0000000000000000     
  0.53125000000000000       0.28125000000000000        0.0000000000000000     
  0.56250000000000000       0.28125000000000000        0.0000000000000000     
  0.59375000000000000       0.28125000000000000        0.0000000000000000     
  0.62500000000000000       0.28125000000000000        0.0000000000000000     
  0.50000000000000000       0.31250000000000000        0.0000000000000000     
  0.53125000000000000       0.31250000000000000        0.0000000000000000     
  0.56250000000000000       0.31250000000000000        0.0000000000000000     
  0.59375000000000000       0.31250000000000000        0.0000000000000000     
  0.62500000000000000       0.31250000000000000        0.0000000000000000     
  0.50000000000000000       0.34375000000000000        0.0000000000000000     
  0.53125000000000000       0.34375000000000000        0.0000000000000000     
  0.56250000000000000       0.34375000000000000        0.0000000000000000     
  0.59375000000000000       0.34375000000000000        0.0000000000000000     
  0.62500000000000000       0.34375000000000000        0.0000000000000000     
  0.50000000000000000       0.37500000000000000        0.0000000000000000     
  0.53125000000000000       0.37500000000000000        0.0000000000000000     
  0.56250000000000000       0.37500000000000000        0.0000000000000000     
  0.59375000000000000       0.37500000000000000        0.0000000000000000     
  0.62500000000000000       0.37500000000000000        0.0000000000000000     
  0.62500000000000000       0.25000000000000000        0.0000000000000000     
  0.65625000000000000       0.25000000000000000        0.0000000000000000     
  0.68750000000000000       0.25000000000000000        0.0000000000000000     
  0.71875000000000000       0.25000000000000000        0.0000000000000000     
  0.75000000000000000       0.25000000000000000        0.0000000000000000     
  0.62500000000000000       0.28125000000000000        0.0000000000000000     
  0.65625000000000000       0.28125000000000000        0.0000000000000000     
  0.68750000000000000       0.28125000000000000        0.0000000000000000     
  0.71875000000000000       0.28125000000000000        0.0000000000000000     
  0.75000000000000000       0.28125000000000000        0.0000000000000000     
  0.62500000000000000       0.31250000000000000        0.0000000000000000     
  0.65625000000000000       0.31250000000000000        0.0000000000000000     
  0.68750000000000000       0.31250000000000000        0.0000000000000000     
  0.71875000000000000       0.31250000000000000        0.0000000000000000     
  0.75000000000000000       0.31250000000000000        0.0000000000000000     
  0.62500000000000000       0.34375000000000000        0.0000000000000000     
  0.65625000000000000       0.34375000000000000        0.0000000000000000     
  0.68750000000000000       0.34375000000000000        0.0000000000000000     
  0.71875000000000000       0.34375000000000000        0.0000000000000000     
  0.75000000000000000       0.34375000000000000        0.0000000000000000     
  0.62500000000000000       0.37500000000000000        0.0000000000000000     
  0.65625000000000000       0.37500000000000000        0.0000000000000000     
  0.68750000000000000       0.37500000000000000        0.0000000000000000     
  0.71875000000000000       0.37500000000000000        0.0000000000000000     
  0.75000000000000000       0.37500000000000000        0.0000000000000000     
  0.75000000000000000       0.25000000000000000        0.0000000000000000     
  0.78125000000000000       0.25000000000000000        0.0000000000000000     
  0.81250000000000000       0.25000000000000000        0.0000000000000000     
  0.84375000000000000       0.25000000000000000        0.0000000000000000     
  0.87500000000000000       0.25000000000000000        0.0000000000000000     
  0.75000000000000000       0.28125000000000000        0.0000000000000000     
  0.78125000000000000       0.28125000000000000        0.0000000000000000     
  0.81250000000000000       0.28125000000000000        0.0000000000000000     
  0.84375000000000000       0.28125000000000000        0.0000000000000000     
  0.87500000000000000       0.28125000000000000        0.0000000000000000     
  0.75000000000000000       0.31250000000000000        0.0000000000000000     
  0.78125000000000000       0.31250000000000000        0.0000000000000000     
  0.81250000000000000       0.31250000000000000        0.0000000000000000     
  0.84375000000000000       0.31250000000000000        0.0000000000000000     
  0.87500000000000000       0.31250000000000000        0.0000000000000000     
  0.75000000000000000       0.34375000000000000        0.0000000000000000     
  0.78125000000000000       0.34375000000000000        0.0000000000000000     
  0.81250000000000000       0.34375000000000000        0.0000000000000000     
  0.84375000000000000       0.34375000000000000        0.0000000000000000     
  0.87500000000000000       0.34375000000000000        0.0000000000000000     
  0.75000000000000000       0.37500000000000000        0.0000000000000000     
  0.78125000000000000       0.37500000000000000        0.0000000000000000     
  0.81250000000000000       0.37500000000000000        0.0000000000000000     
  0.84375000000000000       0.37500000000000000        0.0000000000000000     
  0.87500000000000000       0.37500000000000000        0.0000000000000000     
  0.87500000000000000       0.25000000000000000        0.0000000000000000     
  0.90625000000000000       0.25000000000000000        0.0000000000000000     
  0.93750000000000000       0.25000000000000000        0.0000000000000000     
  0.96875000000000000       0.25000000000000000        0.0000000000000000     
   1.0000000000000000       0.25000000000000000        0.0000000000000000     
  0.87500000000000000       0.28125000000000000        0.0000000000000000     
  0.90625000000000000       0.28125000000000000        0.0000000000000000     
  0.93750000000000000       0.28125000000000000        0.0000000000000000     
  0.96875000000000000       0.28125000000000000        0.0000000000000000     
   1.0000000000000000       0.28125000000000000        0.0000000000000000     
  0.87500000000000000       0.31250000000000000        0.0000000000000000     
  0.90625000000000000       0.31250000000000000        0.0000000000000000     
  0.93750000000000000       0.31250000000000000        0.0000000000000000     
  0.96875000000000000       0.31250000000000000        0.0000000000000000     
   1.0000000000000000       0.31250000000000000        0.0000000000000000     
  0.87500000000000000       0.34375000000000000        0.0000000000000000     
  0.90625000000000000       0.34375000000000000        0.0000000000000000     
  0.93750000000000000       0.34375000000000000        0.0000000000000000     
  0.96875000000000000       0.34375000000000000        0.0000000000000000     
   1.0000000000000000       0.34375000000000000        0.0000000000000000     
  0.87500000000000000       0.37500000000000000        0.0000000000000000     
  0.90625000000000000       0.37500000000000000        0.0000000000000000     
  0.93750000000000000       0.37500000000000000        0.0000000000000000     
  0.96875000000000000       0.37500000000000000        0.0000000000000000     
   1.0000000000000000       0.37500000000000000        0.0000000000000000     
   0.0000000000000000       0.37500000000000000        0.0000000000000000     
   3.1250000000000000E-002  0.37500000000000000        0.0000000000000000     
   6.2500000000000000E-002  0.37500000000000000        0.0000000000000000     
   9.3750000000000000E-002  0.37500000000000000        0.0000000000000000     
  0.12500000000000000       0.37500000000000000        0.0000000000000000     
   0.0000000000000000       0.40625000000000000        0.0000000000000000     
   3.1250000000000000E-002  0.40625000000000000        0.0000000000000000     
   6.2500000000000000E-002  0.40625000000000000        0.0000000000000000     
   9.3750000000000000E-002  0.40625000000000000        0.0000000000000000     
  0.12500000000000000       0.40625000000000000        0.0000000000000000     
   0.0000000000000000       0.43750000000000000        0.0000000000000000     
   3.1250000000000000E-002  0.43750000000000000        0.0000000000000000     
   6.2500000000000000E-002  0.43750000000000000        0.0000000000000000     
   9.3750000000000000E-002  0.43750000000000000        0.0000000000000000     
  0.12500000000000000       0.43750000000000000        0.0000000000000000     
   0.0000000000000000       0.46875000000000000        0.0000000000000000     
   3.1250000000000000E-002  0.46875000000000000        0.0000000000000000     
   6.2500000000000000E-002  0.46875000000000000        0.0000000000000000     
   9.3750000000000000E-002  0.46875000000000000        0.0000000000000000     
  0.12500000000000000       0.46875000000000000        0.0000000000000000     
   0.0000000000000000       0.50000000000000000        0.0000000000000000     
   3.1250000000000000E-002  0.50000000000000000        0.0000000000000000     
   6.2500000000000000E-002  0.50000000000000000        0.0000000000000000     
   9.3750000000000000E-002  0.50000000000000000        0.0000000000000000     
  0.12500000000000000       0.50000000000000000        0.0000000000000000     
  0.12500000000000000       0.37500000000000000        0.0000000000000000     
  0.15625000000000000       0.37500000000000000        0.0000000000000000     
  0.18750000000000000       0.37500000000000000        0.0000000000000000     
  0.21875000000000000       0.37500000000000000        0.0000000000000000     
  0.25000000000000000       0.37500000000000000        0.0000000000000000     
  0.12500000000000000       0.40625000000000000        0.0000000000000000     
  0.15625000000000000       0.40625000000000000        0.0000000000000000     
  0.18750000000000000       0.40625000000000000        0.0000000000000000     
  0.21875000000000000       0.40625000000000000        0.0000000000000000     
  0.25000000000000000       0.40625000000000000        0.0000000000000000     
  0.12500000000000000       0.43750000000000000        0.0000000000000000     
  0.15625000000000000       0.43750000000000000        0.0000000000000000     
  0.18750000000000000       0.43750000000000000        0.0000000000000000     
  0.21875000000000000       0.43750000000000000        0.0000000000000000     
  0.25000000000000000       0.43750000000000000        0.0000000000000000     
  0.12500000000000000       0.46875000000000000        0.0000000000000000     
  0.15625000000000000       0.46875000000000000        0.0000000000000000     
  0.18750000000000000       0.46875000000000000        0.0000000000000000     
  0.21875000000000000       0.46875000000000000        0.0000000000000000     
  0.25000000000000000       0.46875000000000000        0.0000000000000000     
  0.12500000000000000       0.50000000000000000        0.0000000000000000     
  0.15625000000000000       0.50000000000000000        0.0000000000000000     
  0.18750000000000000       0.50000000000000000        0.0000000000000000     
  0.21875000000000000       0.50000000000000000        0.0000000000000000     
  0.25000000000000000       0.50000000000000000        0.0000000000000000     
  0.25000000000000000       0.37500000000000000        0.0000000000000000     
  0.28125000000000000       0.37500000000000000        0.0000000000000000     
  0.31250000000000000       0.37500000000000000        0.0000000000000000     
  0.34375000000000000       0.37500000000000000        0.0000000000000000     
  0.37500000000000000       0.37500000000000000        0.0000000000000000     
  0.25000000000000000       0.40625000000000000        0.0000000000000000     
  0.28125000000000000       0.40625000000000000        0.0000000000000000     
  0.31250000000000000       0.40625000000000000        0.0000000000000000     
  0.34375000000000000       0.40625000000000000        0.0000000000000000     
  0.37500000000000000       0.40625000000000000        0.0000000000000000     
  0.25000000000000000       0.43750000000000000        0.0000000000000000     
  0.28125000000000000       0.43750000000000000        0.0000000000000000     
  0.31250000000000000       0.43750000000000000        0.0000000000000000     
  0.34375000000000000       0.43750000000000000        0.0000000000000000     
  0.37500000000000000       0.43750000000000000        0.0000000000000000     
  0.25000000000000000       0.46875000000000000        0.0000000000000000     
  0.28125000000000000       0.46875000000000000        0.0000000000000000     
  0.31250000000000000       0.46875000000000000        0.0000000000000000     
  0.34375000000000000       0.46875000000000000        0.0000000000000000     
  0.37500000000000000       0.46875000000000000        0.0000000000000000     
  0.25000000000000000       0.50000000000000000        0.0000000000000000     
  0.28125000000000000       0.50000000000000000        0.0000000000000000     
  0.31250000000000000       0.50000000000000000        0.0000000000000000     
  0.34375000000000000       0.50000000000000000        0.0000000000000000     
  0.37500000000000000       0.50000000000000000        0.0000000000000000     
  0.37500000000000000       0.37500000000000000        0.0000000000000000     
  0.40625000000000000       0.37500000000000000        0.0000000000000000     
  0.43750000000000000       0.37500000000000000        0.0000000000000000     
  0.46875000000000000       0.37500000000000000        0.0000000000000000     
  0.50000000000000000       0.37500000000000000        0.0000000000000000     
  0.37500000000000000       0.40625000000000000        0.0000000000000000     
  0.40625000000000000       0.40625000000000000        0.0000000000000000     
  0.43750000000000000       0.40625000000000000        0.0000000000000000     
  0.46875000000000000       0.40625000000000000        0.0000000000000000     
  0.50000000000000000       0.40625000000000000        0.0000000000000000     
  0.37500000000000000       0.43750000000000000        0.0000000000000000     
  0.40625000000000000       0.43750000000000000        0.0000000000000000     
  0.43750000000000000       0.43750000000000000        0.0000000000000000     
  0.46875000000000000       0.43750000000000000        0.0000000000000000     
  0.50000000000000000       0.43750000000000000        0.0000000000000000     
  0.37500000000000000       0.46875000000000000        0.0000000000000000     
  0.40625000000000000       0.46875000000000000        0.0000000000000000     
  0.43750000000000000       0.46875000000000000        0.0000000000000000     
  0.46875000000000000       0.46875000000000000        0.0000000000000000     
  0.50000000000000000       0.46875000000000000        0.0000000000000000     
  0.37500000000000000       0.50000000000000000        0.0000000000000000     
  0.40625000000000000       0.50000000000000000        0.0000000000000000     
  0.43750000000000000       0.50000000000000000        0.0000000000000000     
  0.46875000000000000       0.50000000000000000        0.0000000000000000     
  0.50000000000000000       0.50000000000000000        0.0000000000000000     
  0.50000000000000000       0.37500000000000000        0.0000000000000000     
  0.53125000000000000       0.37500000000000000        0.0000000000000000     
  0.56250000000000000       0.37500000000000000        0.0000000000000000     
  0.59375000000000000       0.37500000000000000        0.0000000000000000     
  0.62500000000000000       0.37500000000000000        0.0000000000000000     
  0.50000000000000000       0.40625000000000000        0.0000000000000000     
  0.53125000000000000       0.40625000000000000        0.0000000000000000     
  0.56250000000000000       0.40625000000000000        0.0000000000000000     
  0.59375000000000000       0.40625000000000000        0.0000000000000000     
  0.62500000000000000       0.40625000000000000        0.0000000000000000     
  0.50000000000000000       0.43750000000000000        0.0000000000000000     
  0.53125000000000000       0.43750000000000000        0.0000000000000000     
  0.56250000000000000       0.43750000000000000        0.0000000000000000     
  0.59375000000000000       0.43750000000000000        0.0000000000000000     
  0.62500000000000000       0.43750000000000000        0.0000000000000000     
  0.50000000000000000       0.46875000000000000        0.0000000000000000     
  0.53125000000000000       0.46875000000000000        0.0000000000000000     
  0.56250000000000000       0.46875000000000000        0.0000000000000000     
  0.59375000000000000       0.46875000000000000        0.0000000000000000     
  0.62500000000000000       0.46875000000000000        0.0000000000000000     
  0.50000000000000000       0.50000000000000000        0.0000000000000000     
  0.53125000000000000       0.50000000000000000        0.0000000000000000     
  0.56250000000000000       0.50000000000000000        0.0000000000000000     
  0.59375000000000000       0.50000000000000000        0.0000000000000000     
  0.62500000000000000       0.50000000000000000        0.0000000000000000     
  0.62500000000000000       0.37500000000000000        0.0000000000000000     
  0.65625000000000000       0.37500000000000000        0.0000000000000000     
  0.68750000000000000       0.37500000000000000        0.0000000000000000     
  0.71875000000000000       0.37500000000000000        0.0000000000000000     
  0.75000000000000000       0.37500000000000000        0.0000000000000000     
  0.62500000000000000       0.40625000000000000        0.0000000000000000     
  0.65625000000000000       0.40625000000000000        0.0000000000000000     
  0.68750000000000000       0.40625000000000000        0.0000000000000000     
  0.71875000000000000       0.40625000000000000        0.0000000000000000     
  0.75000000000000000       0.40625000000000000        0.0000000000000000     
  0.62500000000000000       0.43750000000000000        0.0000000000000000     
  0.65625000000000000       0.43750000000000000        0.0000000000000000     
  0.68750000000000000       0.43750000000000000        0.0000000000000000     
  0.71875000000000000       0.43750000000000000        0.0000000000000000     
  0.75000000000000000       0.43750000000000000        0.0000000000000000     
  0.62500000000000000       0.46875000000000000        0.0000000000000000     
  0.65625000000000000       0.46875000000000000        0.0000000000000000     
  0.68750000000000000       0.46875000000000000        0.0000000000000000     
  0.71875000000000000       0.46875000000000000        0.0000000000000000     
  0.75000000000000000       0.46875000000000000        0.0000000000000000     
  0.62500000000000000       0.50000000000000000        0.0000000000000000     
  0.65625000000000000       0.50000000000000000        0.0000000000000000     
  0.68750000000000000       0.50000000000000000        0.0000000000000000     
  0.71875000000000000       0.50000000000000000        0.0000000000000000     
  0.75000000000000000       0.50000000000000000        0.0000000000000000     
  0.75000000000000000       0.37500000000000000        0.0000000000000000     
  0.78125000000000000       0.37500000000000000        0.0000000000000000     
  0.81250000000000000       0.37500000000000000        0.0000000000000000     
  0.84375000000000000       0.37500000000000000        0.0000000000000000     
  0.87500000000000000       0.37500000000000000        0.0000000000000000     
  0.75000000000000000       0.40625000000000000        0.0000000000000000     
  0.78125000000000000       0.40625000000000000        0.0000000000000000     
  0.81250000000000000       0.40625000000000000        0.0000000000000000     
  0.84375000000000000       0.40625000000000000        0.0000000000000000     
  0.87500000000000000       0.40625000000000000        0.0000000000000000     
  0.75000000000000000       0.43750000000000000        0.0000000000000000     
  0.78125000000000000       0.43750000000000000        0.0000000000000000     
  0.81250000000000000       0.43750000000000000        0.0000000000000000     
  0.84375000000000000       0.43750000000000000        0.0000000000000000     
  0.87500000000000000       0.43750000000000000        0.0000000000000000     
  0.75000000000000000       0.46875000000000000        0.0000000000000000     
  0.78125000000000000       0.46875000000000000        0.0000000000000000     
  0.81250000000000000       0.46875000000000000        0.0000000000000000     
  0.84375000000000000       0.46875000000000000        0.0000000000000000     
  0.87500000000000000       0.46875000000000000        0.0000000000000000     
  0.75000000000000000       0.50000000000000000        0.0000000000000000     
  0.78125000000000000       0.50000000000000000        0.0000000000000000     
  0.81250000000000000       0.50000000000000000        0.0000000000000000     
  0.84375000000000000       0.50000000000000000        0.0000000000000000     
  0.87500000000000000       0.50000000000000000        0.0000000000000000     
  0.87500000000000000       0.37500000000000000        0.0000000000000000     
  0.90625000000000000       0.37500000000000000        0.0000000000000000     
  0.93750000000000000       0.37500000000000000        0.0000000000000000     
  0.96875000000000000       0.37500000000000000        0.0000000000000000     
   1.0000000000000000       0.37500000000000000        0.0000000000000000     
  0.87500000000000000       0.40625000000000000        0.0000000000000000     
  0.90625000000000000       0.40625000000000000        0.0000000000000000     
  0.93750000000000000       0.40625000000000000        0.0000000000000000     
  0.96875000000000000       0.40625000000000000        0.0000000000000000     
   1.0000000000000000       0.40625000000000000        0.0000000000000000     
  0.87500000000000000       0.43750000000000000        0.0000000000000000     
  0.90625000000000000       0.43750000000000000        0.0000000000000000     
  0.93750000000000000       0.43750000000000000        0.0000000000000000     
  0.96875000000000000       0.43750000000000000        0.0000000000000000     
   1.0000000000000000       0.43750000000000000        0.0000000000000000     
  0.87500000000000000       0.46875000000000000        0.0000000000000000     
  0.90625000000000000       0.46875000000000000        0.0000000000000000     
  0.93750000000000000       0.46875000000000000        0.0000000000000000     
  0.96875000000000000       0.46875000000000000        0.0000000000000000     
   1.0000000000000000       0.46875000000000000        0.0000000000000000     
  0.87500000000000000       0.50000000000000000        0.0000000000000000     
  0.90625000000000000       0.50000000000000000        0.0000000000000000     
  0.93750000000000000       0.50000000000000000        0.0000000000000000     
  0.96875000000000000       0.50000000000000000        0.0000000000000000     
   1.0000000000000000       0.50000000000000000        0.0000000000000000     
   0.0000000000000000       0.50000000000000000        0.0000000000000000     
   3.1250000000000000E-002  0.50000000000000000        0.0000000000000000     
   6.2500000000000000E-002  0.50000000000000000        0.0000000000000000     
   9.3750000000000000E-002  0.50000000000000000        0.0000000000000000     
  0.12500000000000000       0.50000000000000000        0.0000000000000000     
   0.0000000000000000       0.53125000000000000        0.0000000000000000     
   3.1250000000000000E-002  0.53125000000000000        0.0000000000000000     
   6.2500000000000000E-002  0.53125000000000000        0.0000000000000000     
   9.3750000000000000E-002  0.53125000000000000        0.0000000000000000     
  0.12500000000000000       0.53125000000000000        0.0000000000000000     
   0.0000000000000000       0.56250000000000000        0.0000000000000000     
   3.1250000000000000E-002  0.56250000000000000        0.0000000000000000     
   6.2500000000000000E-002  0.56250000000000000        0.0000000000000000     
   9.3750000000000000E-002  0.56250000000000000        0.0000000000000000     
  0.12500000000000000       0.56250000000000000        0.0000000000000000     
   0.0000000000000000       0.59375000000000000        0.0000000000000000     
   3.1250000000000000E-002  0.59375000000000000        0.0000000000000000     
   6.2500000000000000E-002  0.59375000000000000        0.0000000000000000     
   9.3750000000000000E-002  0.59375000000000000        0.0000000000000000     
  0.12500000000000000       0.59375000000000000        0.0000000000000000     
   0.0000000000000000       0.62500000000000000        0.0000000000000000     
   3.1250000000000000E-002  0.62500000000000000        0.0000000000000000     
   6.2500000000000000E-002  0.62500000000000000        0.0000000000000000     
   9.3750000000000000E-002  0.62500000000000000        0.0000000000000000     
  0.12500000000000000       0.62500000000000000        0.0000000000000000     
  0.12500000000000000       0.50000000000000000        0.0000000000000000     
  0.15625000000000000       0.50000000000000000        0.0000000000000000     
  0.18750000000000000       0.50000000000000000        0.0000000000000000     
  0.21875000000000000       0.50000000000000000        0.0000000000000000     
  0.25000000000000000       0.50000000000000000        0.0000000000000000     
  0.12500000000000000       0.53125000000000000        0.0000000000000000     
  0.15625000000000000       0.53125000000000000        0.0000000000000000     
  0.18750000000000000       0.53125000000000000        0.0000000000000000     
  0.21875000000000000       0.53125000000000000        0.0000000000000000     
  0.25000000000000000       0.53125000000000000        0.0000000000000000     
  0.12500000000000000       0.56250000000000000        0.0000000000000000     
  0.15625000000000000       0.56250000000000000        0.0000000000000000     
  0.18750000000000000       0.56250000000000000        0.0000000000000000     
  0.21875000000000000       0.56250000000000000        0.0000000000000000     
  0.25000000000000000       0.56250000000000000        0.0000000000000000     
  0.12500000000000000       0.59375000000000000        0.0000000000000000     
  0.15625000000000000       0.59375000000000000        0.0000000000000000     
  0.18750000000000000       0.59375000000000000        0.0000000000000000     
  0.21875000000000000       0.59375000000000000        0.0000000000000000     
  0.25000000000000000       0.59375000000000000        0.0000000000000000     
  0.12500000000000000       0.62500000000000000        0.0000000000000000     
  0.15625000000000000       0.62500000000000000        0.0000000000000000     
  0.18750000000000000       0.62500000000000000        0.0000000000000000     
  0.21875000000000000       0.62500000000000000        0.0000000000000000     
  0.25000000000000000       0.62500000000000000        0.0000000000000000     
  0.25000000000000000       0.50000000000000000        0.0000000000000000     
  0.28125000000000000       0.50000000000000000        0.0000000000000000     
  0.31250000000000000       0.50000000000000000        0.0000000000000000     
  0.34375000000000000       0.50000000000000000        0.0000000000000000     
  0.37500000000000000       0.50000000000000000        0.0000000000000000     
  0.25000000000000000       0.53125000000000000        0.0000000000000000     
  0.28125000000000000       0.53125000000000000        0.0000000000000000     
  0.31250000000000000       0.53125000000000000        0.0000000000000000     
  0.34375000000000000       0.53125000000000000        0.0000000000000000     
  0.37500000000000000       0.53125000000000000        0.0000000000000000     
  0.25000000000000000       0.56250000000000000        0.0000000000000000     
  0.28125000000000000       0.56250000000000000        0.0000000000000000     
  0.31250000000000000       0.56250000000000000        0.0000000000000000     
  0.34375000000000000       0.56250000000000000        0.0000000000000000     
  0.37500000000000000       0.56250000000000000        0.0000000000000000     
  0.25000000000000000       0.59375000000000000        0.0000000000000000     
  0.28125000000000000       0.59375000000000000        0.0000000000000000     
  0.31250000000000000       0.59375000000000000        0.0000000000000000     
  0.34375000000000000       0.59375000000000000        0.0000000000000000     
  0.37500000000000000       0.59375000000000000        0.0000000000000000     
  0.25000000000000000       0.62500000000000000        0.0000000000000000     
  0.28125000000000000       0.62500000000000000        0.0000000000000000     
  0.31250000000000000       0.62500000000000000        0.0000000000000000     
  0.34375000000000000       0.62500000000000000        0.0000000000000000     
  0.37500000000000000       0.62500000000000000        0.0000000000000000     
  0.37500000000000000       0.50000000000000000        0.0000000000000000     
  0.40625000000000000       0.50000000000000000        0.0000000000000000     
  0.43750000000000000       0.50000000000000000        0.0000000000000000     
  0.46875000000000000       0.50000000000000000        0.0000000000000000     
  0.50000000000000000       0.50000000000000000        0.0000000000000000     
  0.37500000000000000       0.53125000000000000        0.0000000000000000     
  0.40625000000000000       0.53125000000000000        0.0000000000000000     
  0.43750000000000000       0.53125000000000000        0.0000000000000000     
  0.46875000000000000       0.53125000000000000        0.0000000000000000     
  0.50000000000000000       0.53125000000000000        0.0000000000000000     
  0.37500000000000000       0.56250000000000000        0.0000000000000000     
  0.40625000000000000       0.56250000000000000        0.0000000000000000     
  0.43750000000000000       0.56250000000000000        0.0000000000000000     
  0.46875000000000000       0.56250000000000000        0.0000000000000000     
  0.50000000000000000       0.56250000000000000        0.0000000000000000     
  0.37500000000000000       0.59375000000000000        0.0000000000000000     
  0.40625000000000000       0.59375000000000000        0.0000000000000000     
  0.43750000000000000       0.59375000000000000        0.0000000000000000     
  0.46875000000000000       0.59375000000000000        0.0000000000000000     
  0.50000000000000000       0.59375000000000000        0.0000000000000000     
  0.37500000000000000       0.62500000000000000        0.0000000000000000     
  0.40625000000000000       0.62500000000000000        0.0000000000000000     
  0.43750000000000000       0.62500000000000000        0.0000000000000000     
  0.46875000000000000       0.62500000000000000        0.0000000000000000     
  0.50000000000000000       0.62500000000000000        0.0000000000000000     
  0.50000000000000000       0.50000000000000000        0.0000000000000000     
  0.53125000000000000       0.50000000000000000        0.0000000000000000     
  0.56250000000000000       0.50000000000000000        0.0000000000000000     
  0.59375000000000000       0.50000000000000000        0.0000000000000000     
  0.62500000000000000       0.50000000000000000        0.0000000000000000     
  0.50000000000000000       0.53125000000000000        0.0000000000000000     
  0.53125000000000000       0.53125000000000000        0.0000000000000000     
  0.56250000000000000       0.53125000000000000        0.0000000000000000     
  0.59375000000000000       0.53125000000000000        0.0000000000000000     
  0.62500000000000000       0.53125000000000000        0.0000000000000000     
  0.50000000000000000       0.56250000000000000        0.0000000000000000     
  0.53125000000000000       0.56250000000000000        0.0000000000000000     
  0.56250000000000000       0.56250000000000000        0.0000000000000000     
  0.59375000000000000       0.56250000000000000        0.0000000000000000     
  0.62500000000000000       0.56250000000000000        0.0000000000000000     
  0.50000000000000000       0.59375000000000000        0.0000000000000000     
  0.53125000000000000       0.59375000000000000        0.0000000000000000     
  0.56250000000000000       0.59375000000000000        0.0000000000000000     
  0.59375000000000000       0.59375000000000000        0.0000000000000000     
  0.62500000000000000       0.59375000000000000        0.0000000000000000     
  0.50000000000000000       0.62500000000000000        0.0000000000000000     
  0.53125000000000000       0.62500000000000000        0.0000000000000000     
  0.56250000000000000       0.62500000000000000        0.0000000000000000     
  0.59375000000000000       0.62500000000000000        0.0000000000000000     
  0.62500000000000000       0.62500000000000000        0.0000000000000000     
  0.62500000000000000       0.50000000000000000        0.0000000000000000     
  0.65625000000000000       0.50000000000000000        0.0000000000000000     
  0.68750000000000000       0.50000000000000000        0.0000000000000000     
  0.71875000000000000       0.50000000000000000        0.0000000000000000     
  0.75000000000000000       0.50000000000000000        0.0000000000000000     
  0.62500000000000000       0.53125000000000000        0.0000000000000000     
  0.65625000000000000       0.53125000000000000        0.0000000000000000     
  0.68750000000000000       0.53125000000000000        0.0000000000000000     
  0.71875000000000000       0.53125000000000000        0.0000000000000000     
  0.75000000000000000       0.53125000000000000        0.0000000000000000     
  0.62500000000000000       0.56250000000000000        0.0000000000000000     
  0.65625000000000000       0.56250000000000000        0.0000000000000000     
  0.68750000000000000       0.56250000000000000        0.0000000000000000     
  0.71875000000000000       0.56250000000000000        0.0000000000000000     
  0.75000000000000000       0.56250000000000000        0.0000000000000000     
  0.62500000000000000       0.59375000000000000        0.0000000000000000     
  0.65625000000000000       0.59375000000000000        0.0000000000000000     
  0.68750000000000000       0.59375000000000000        0.0000000000000000     
  0.71875000000000000       0.59375000000000000        0.0000000000000000     
  0.75000000000000000       0.59375000000000000        0.0000000000000000     
  0.62500000000000000       0.62500000000000000        0.0000000000000000     
  0.65625000000000000       0.62500000000000000        0.0000000000000000     
  0.68750000000000000       0.62500000000000000        0.0000000000000000     
  0.71875000000000000       0.62500000000000000        0.0000000000000000     
  0.75000000000000000       0.62500000000000000        0.0000000000000000     
  0.75000000000000000       0.50000000000000000        0.0000000000000000     
  0.78125000000000000       0.50000000000000000        0.0000000000000000     
  0.81250000000000000       0.50000000000000000        0.0000000000000000     
  0.84375000000000000       0.50000000000000000        0.0000000000000000     
  0.87500000000000000       0.50000000000000000        0.0000000000000000     
  0.75000000000000000       0.53125000000000000        0.0000000000000000     
  0.78125000000000000       0.53125000000000000        0.0000000000000000     
  0.81250000000000000       0.53125000000000000        0.0000000000000000     
  0.84375000000000000       0.53125000000000000        0.0000000000000000     
  0.87500000000000000       0.53125000000000000        0.0000000000000000     
  0.75000000000000000       0.56250000000000000        0.0000000000000000     
  0.78125000000000000       0.56250000000000000        0.0000000000000000     
  0.81250000000000000       0.56250000000000000        0.0000000000000000     
  0.84375000000000000       0.56250000000000000        0.0000000000000000     
  0.87500000000000000       0.56250000000000000        0.0000000000000000     
  0.75000000000000000       0.59375000000000000        0.0000000000000000     
  0.78125000000000000       0.59375000000000000        0.0000000000000000     
  0.81250000000000000       0.59375000000000000        0.0000000000000000     
  0.84375000000000000       0.59375000000000000        0.0000000000000000     
  0.87500000000000000       0.59375000000000000        0.0000000000000000     
  0.75000000000000000       0.62500000000000000        0.0000000000000000     
  0.78125000000000000       0.62500000000000000        0.0000000000000000     
  0.81250000000000000       0.62500000000000000        0.0000000000000000     
  0.84375000000000000       0.62500000000000000        0.0000000000000000     
  0.87500000000000000       0.62500000000000000        0.0000000000000000     
  0.87500000000000000       0.50000000000000000        0.0000000000000000     
  0.90625000000000000       0.50000000000000000        0.0000000000000000     
  0.93750000000000000       0.50000000000000000        0.0000000000000000     
  0.96875000000000000       0.50000000000000000        0.0000000000000000     
   1.0000000000000000       0.50000000000000000        0.0000000000000000     
  0.87500000000000000       0.53125000000000000        0.0000000000000000     
  0.90625000000000000       0.53125000000000000        0.0000000000000000     
  0.93750000000000000       0.53125000000000000        0.0000000000000000     
  0.96875000000000000       0.53125000000000000        0.0000000000000000     
   1.0000000000000000       0.53125000000000000        0.0000000000000000     
  0.87500000000000000       0.56250000000000000        0.0000000000000000     
  0.90625000000000000       0.56250000000000000        0.0000000000000000     
  0.93750000000000000       0.56250000000000000        0.0000000000000000     
  0.96875000000000000       0.56250000000000000        0.0000000000000000     
   1.0000000000000000       0.56250000000000000        0.0000000000000000     
  0.87500000000000000       0.59375000000000000        0.0000000000000000     
  0.90625000000000000       0.59375000000000000        0.0000000000000000     
  0.93750000000000000       0.59375000000000000        0.0000000000000000     
  0.96875000000000000       0.59375000000000000        0.0000000000000000     
   1.0000000000000000       0.59375000000000000        0.0000000000000000     
  0.87500000000000000       0.62500000000000000        0.0000000000000000     
  0.90625000000000000       0.62500000000000000        0.0000000000000000     
  0.93750000000000000       0.62500000000000000        0.0000000000000000     
  0.96875000000000000       0.62500000000000000        0.0000000000000000     
   1.0000000000000000       0.62500000000000000        0.0000000000000000     
   0.0000000000000000       0.62500000000000000        0.0000000000000000     
   3.1250000000000000E-002  0.62500000000000000        0.0000000000000000     
   6.2500000000000000E-002  0.62500000000000000        0.0000000000000000     
   9.3750000000000000E-002  0.62500000000000000        0.0000000000000000     
  0.12500000000000000       0.62500000000000000        0.0000000000000000     
   0.0000000000000000       0.65625000000000000        0.0000000000000000     
   3.1250000000000000E-002  0.65625000000000000        0.0000000000000000     
   6.2500000000000000E-002  0.65625000000000000        0.0000000000000000     
   9.3750000000000000E-002  0.65625000000000000        0.0000000000000000     
  0.12500000000000000       0.65625000000000000        0.0000000000000000     
   0.0000000000000000       0.68750000000000000        0.0000000000000000     
   3.1250000000000000E-002  0.68750000000000000        0.0000000000000000     
   6.2500000000000000E-002  0.68750000000000000        0.0000000000000000     
   9.3750000000000000E-002  0.68750000000000000        0.0000000000000000     
  0.12500000000000000       0.68750000000000000        0.0000000000000000     
   0.0000000000000000       0.71875000000000000        0.0000000000000000     
   3.1250000000000000E-002  0.71875000000000000        0.0000000000000000     
   6.2500000000000000E-002  0.71875000000000000        0.0000000000000000     
   9.3750000000000000E-002  0.71875000000000000        0.0000000000000000     
  0.12500000000000000       0.71875000000000000        0.0000000000000000     
   0.0000000000000000       0.75000000000000000        0.0000000000000000     
   3.1250000000000000E-002  0.75000000000000000        0.0000000000000000     
   6.2500000000000000E-002  0.75000000000000000        0.0000000000000000     
   9.3750000000000000E-002  0.75000000000000000        0.0000000000000000     
  0.12500000000000000       0.75000000000000000        0.0000000000000000     
  0.12500000000000000       0.62500000000000000        0.0000000000000000     
  0.15625000000000000       0.62500000000000000        0.0000000000000000     
  0.18750000000000000       0.62500000000000000        0.0000000000000000     
  0.21875000000000000       0.62500000000000000        0.0000000000000000     
  0.25000000000000000       0.62500000000000000        0.0000000000000000     
  0.12500000000000000       0.65625000000000000        0.0000000000000000     
  0.15625000000000000       0.65625000000000000        0.0000000000000000     
  0.18750000000000000       0.65625000000000000        0.0000000000000000     
  0.21875000000000000       0.65625000000000000        0.0000000000000000     
  0.25000000000000000       0.65625000000000000        0.0000000000000000     
  0.12500000000000000       0.68750000000000000        0.0000000000000000     
  0.15625000000000000       0.68750000000000000        0.0000000000000000     
  0.18750000000000000       0.68750000000000000        0.0000000000000000     
  0.21875000000000000       0.68750000000000000        0.0000000000000000     
  0.25000000000000000       0.68750000000000000        0.0000000000000000     
  0.12500000000000000       0.71875000000000000        0.0000000000000000     
  0.15625000000000000       0.71875000000000000        0.0000000000000000     
  0.18750000000000000       0.71875000000000000        0.0000000000000000     
  0.21875000000000000       0.71875000000000000        0.0000000000000000     
  0.25000000000000000       0.71875000000000000        0.0000000000000000     
  0.12500000000000000       0.75000000000000000        0.0000000000000000     
  0.15625000000000000       0.75000000000000000        0.0000000000000000     
  0.18750000000000000       0.75000000000000000        0.0000000000000000     
  0.21875000000000000       0.75000000000000000        0.0000000000000000     
  0.25000000000000000       0.75000000000000000        0.0000000000000000     
  0.25000000000000000       0.62500000000000000        0.0000000000000000     
  0.28125000000000000       0.62500000000000000        0.0000000000000000     
  0.31250000000000000       0.62500000000000000        0.0000000000000000     
  0.34375000000000000       0.62500000000000000        0.0000000000000000     
  0.37500000000000000       0.62500000000000000        0.0000000000000000     
  0.25000000000000000       0.65625000000000000        0.0000000000000000     
  0.28125000000000000       0.65625000000000000        0.0000000000000000     
  0.31250000000000000       0.65625000000000000        0.0000000000000000     
  0.34375000000000000       0.65625000000000000        0.0000000000000000     
  0.37500000000000000       0.65625000000000000        0.0000000000000000     
  0.25000000000000000       0.68750000000000000        0.0000000000000000     
  0.28125000000000000       0.68750000000000000        0.0000000000000000     
  0.31250000000000000       0.68750000000000000        0.0000000000000000     
  0.34375000000000000       0.68750000000000000        0.0000000000000000     
  0.37500000000000000       0.68750000000000000        0.0000000000000000     
  0.25000000000000000       0.71875000000000000        0.0000000000000000     
  0.28125000000000000       0.71875000000000000        0.0000000000000000     
  0.31250000000000000       0.71875000000000000        0.0000000000000000     
  0.34375000000000000       0.71875000000000000        0.0000000000000000     
  0.37500000000000000       0.71875000000000000        0.0000000000000000     
  0.25000000000000000       0.75000000000000000        0.0000000000000000     
  0.28125000000000000       0.75000000000000000        0.0000000000000000     
  0.31250000000000000       0.75000000000000000        0.0000000000000000     
  0.34375000000000000       0.75000000000000000        0.0000000000000000     
  0.37500000000000000       0.75000000000000000        0.0000000000000000     
  0.37500000000000000       0.62500000000000000        0.0000000000000000     
  0.40625000000000000       0.62500000000000000        0.0000000000000000     
  0.43750000000000000       0.62500000000000000        0.0000000000000000     
  0.46875000000000000       0.62500000000000000        0.0000000000000000     
  0.50000000000000000       0.62500000000000000        0.0000000000000000     
  0.37500000000000000       0.65625000000000000        0.0000000000000000     
  0.40625000000000000       0.65625000000000000        0.0000000000000000     
  0.43750000000000000       0.65625000000000000        0.0000000000000000     
  0.46875000000000000       0.65625000000000000        0.0000000000000000     
  0.50000000000000000       0.65625000000000000        0.0000000000000000     
  0.37500000000000000       0.68750000000000000        0.0000000000000000     
  0.40625000000000000       0.68750000000000000        0.0000000000000000     
  0.43750000000000000       0.68750000000000000        0.0000000000000000     
  0.46875000000000000       0.68750000000000000        0.0000000000000000     
  0.50000000000000000       0.68750000000000000        0.0000000000000000     
  0.37500000000000000       0.71875000000000000        0.0000000000000000     
  0.40625000000000000       0.71875000000000000        0.0000000000000000     
  0.43750000000000000       0.71875000000000000        0.0000000000000000     
  0.46875000000000000       0.71875000000000000        0.0000000000000000     
  0.50000000000000000       0.71875000000000000        0.0000000000000000     
  0.37500000000000000       0.75000000000000000        0.0000000000000000     
  0.40625000000000000       0.75000000000000000        0.0000000000000000     
  0.43750000000000000       0.75000000000000000        0.0000000000000000     
  0.46875000000000000       0.75000000000000000        0.0000000000000000     
  0.50000000000000000       0.75000000000000000        0.0000000000000000     
  0.50000000000000000       0.62500000000000000        0.0000000000000000     
  0.53125000000000000       0.62500000000000000        0.0000000000000000     
  0.56250000000000000       0.62500000000000000        0.0000000000000000     
  0.59375000000000000       0.62500000000000000        0.0000000000000000     
  0.62500000000000000       0.62500000000000000        0.0000000000000000     
  0.50000000000000000       0.65625000000000000        0.0000000000000000     
  0.53125000000000000       0.65625000000000000        0.0000000000000000     
  0.56250000000000000       0.65625000000000000        0.0000000000000000     
  0.59375000000000000       0.65625000000000000        0.0000000000000000     
  0.62500000000000000       0.65625000000000000        0.0000000000000000     
  0.50000000000000000       0.68750000000000000        0.0000000000000000     
  0.53125000000000000       0.68750000000000000        0.0000000000000000     
  0.56250000000000000       0.68750000000000000        0.0000000000000000     
  0.59375000000000000       0.68750000000000000        0.0000000000000000     
  0.62500000000000000       0.68750000000000000        0.0000000000000000     
  0.50000000000000000       0.71875000000000000        0.0000000000000000     
  0.53125000000000000       0.71875000000000000        0.0000000000000000     
  0.56250000000000000       0.71875000000000000        0.0000000000000000     
  0.59375000000000000       0.71875000000000000        0.0000000000000000     
  0.62500000000000000       0.71875000000000000        0.0000000000000000     
  0.50000000000000000       0.75000000000000000        0.0000000000000000     
  0.53125000000000000       0.75000000000000000        0.0000000000000000     
  0.56250000000000000       0.75000000000000000        0.0000000000000000     
  0.59375000000000000       0.75000000000000000        0.0000000000000000     
  0.62500000000000000       0.75000000000000000        0.0000000000000000     
  0.62500000000000000       0.62500000000000000        0.0000000000000000     
  0.65625000000000000       0.62500000000000000        0.0000000000000000     
  0.68750000000000000       0.62500000000000000        0.0000000000000000     
  0.71875000000000000       0.62500000000000000        0.0000000000000000     
  0.75000000000000000       0.62500000000000000        0.0000000000000000     
  0.62500000000000000       0.65625000000000000        0.0000000000000000     
  0.65625000000000000       0.65625000000000000        0.0000000000000000     
  0.68750000000000000       0.65625000000000000        0.0000000000000000     
  0.71875000000000000       0.65625000000000000        0.0000000000000000     
  0.75000000000000000       0.65625000000000000        0.0000000000000000     
  0.62500000000000000       0.68750000000000000        0.0000000000000000     
  0.65625000000000000       0.68750000000000000        0.0000000000000000     
  0.68750000000000000       0.68750000000000000        0.0000000000000000     
  0.71875000000000000       0.68750000000000000        0.0000000000000000     
  0.75000000000000000       0.68750000000000000        0.0000000000000000     
  0.62500000000000000       0.71875000000000000        0.0000000000000000     
  0.65625000000000000       0.71875000000000000        0.0000000000000000     
  0.68750000000000000       0.71875000000000000        0.0000000000000000     
  0.71875000000000000       0.71875000000000000        0.0000000000000000     
  0.75000000000000000       0.71875000000000000        0.0000000000000000     
  0.62500000000000000       0.75000000000000000        0.0000000000000000     
  0.65625000000000000       0.75000000000000000        0.0000000000000000     
  0.68750000000000000       0.75000000000000000        0.0000000000000000     
  0.71875000000000000       0.75000000000000000        0.0000000000000000     
  0.75000000000000000       0.75000000000000000        0.0000000000000000     
  0.75000000000000000       0.62500000000000000        0.0000000000000000     
  0.78125000000000000       0.62500000000000000        0.0000000000000000     
  0.81250000000000000       0.62500000000000000        0.0000000000000000     
  0.84375000000000000       0.62500000000000000        0.0000000000000000     
  0.87500000000000000       0.62500000000000000        0.0000000000000000     
  0.75000000000000000       0.65625000000000000        0.0000000000000000     
  0.78125000000000000       0.65625000000000000        0.0000000000000000     
  0.81250000000000000       0.65625000000000000        0.0000000000000000     
  0.84375000000000000       0.65625000000000000        0.0000000000000000     
  0.87500000000000000       0.65625000000000000        0.0000000000000000     
  0.75000000000000000       0.68750000000000000        0.0000000000000000     
  0.78125000000000000       0.68750000000000000        0.0000000000000000     
  0.81250000000000000       0.68750000000000000        0.0000000000000000     
  0.84375000000000000       0.68750000000000000        0.0000000000000000     
  0.87500000000000000       0.68750000000000000        0.0000000000000000     
  0.75000000000000000       0.71875000000000000        0.0000000000000000     
  0.78125000000000000       0.71875000000000000        0.0000000000000000     
  0.81250000000000000       0.71875000000000000        0.0000000000000000     
  0.84375000000000000       0.71875000000000000        0.0000000000000000     
  0.87500000000000000       0.71875000000000000        0.0000000000000000     
  0.75000000000000000       0.75000000000000000        0.0000000000000000     
  0.78125000000000000       0.75000000000000000        0.0000000000000000     
  0.81250000000000000       0.75000000000000000        0.0000000000000000     
  0.84375000000000000       0.75000000000000000        0.0000000000000000     
  0.87500000000000000       0.75000000000000000        0.0000000000000000     
  0.87500000000000000       0.62500000000000000        0.0000000000000000     
  0.90625000000000000       0.62500000000000000        0.0000000000000000     
  0.93750000000000000       0.62500000000000000        0.0000000000000000     
  0.96875000000000000       0.62500000000000000        0.0000000000000000     
   1.0000000000000000       0.62500000000000000        0.0000000000000000     
  0.87500000000000000       0.65625000000000000        0.0000000000000000     
  0.90625000000000000       0.65625000000000000        0.0000000000000000     
  0.93750000000000000       0.65625000000000000        0.0000000000000000     
  0.96875000000000000       0.65625000000000000        0.0000000000000000     
   1.0000000000000000       0.65625000000000000        0.0000000000000000     
  0.87500000000000000       0.68750000000000000        0.0000000000000000     
  0.90625000000000000       0.68750000000000000        0.0000000000000000     
  0.93750000000000000       0.68750000000000000        0.0000000000000000     
  0.96875000000000000       0.68750000000000000        0.0000000000000000     
   1.0000000000000000       0.68750000000000000        0.0000000000000000     
  0.87500000000000000       0.71875000000000000        0.0000000000000000     
  0.90625000000000000       0.71875000000000000        0.0000000000000000     
  0.93750000000000000       0.71875000000000000        0.0000000000000000     
  0.96875000000000000       0.71875000000000000        0.0000000000000000     
   1.0000000000000000       0.71875000000000000        0.0000000000000000     
  0.87500000000000000       0.75000000000000000        0.0000000000000000     
  0.90625000000000000       0.75000000000000000        0.0000000000000000     
  0.93750000000000000       0.75000000000000000        0.0000000000000000     
  0.96875000000000000       0.75000000000000000        0.0000000000000000     
   1.0000000000000000       0.75000000000000000        0.0000000000000000     
   0.0000000000000000       0.75000000000000000        0.0000000000000000     
   3.1250000000000000E-002  0.75000000000000000        0.0000000000000000     
   6.2500000000000000E-002  0.75000000000000000        0.0000000000000000     
   9.3750000000000000E-002  0.75000000000000000        0.0000000000000000     
  0.12500000000000000       0.75000000000000000        0.0000000000000000     
   0.0000000000000000       0.78125000000000000        0.0000000000000000     
   3.1250000000000000E-002  0.78125000000000000        0.0000000000000000     
   6.2500000000000000E-002  0.78125000000000000        0.0000000000000000     
   9.3750000000000000E-002  0.78125000000000000        0.0000000000000000     
  0.12500000000000000       0.78125000000000000        0.0000000000000000     
   0.0000000000000000       0.81250000000000000        0.0000000000000000     
   3.1250000000000000E-002  0.81250000000000000        0.0000000000000000     
   6.2500000000000000E-002  0.81250000000000000        0.0000000000000000     
   9.3750000000000000E-002  0.81250000000000000        0.0000000000000000     
  0.12500000000000000       0.81250000000000000        0.0000000000000000     
   0.0000000000000000       0.84375000000000000        0.0000000000000000     
   3.1250000000000000E-002  0.84375000000000000        0.0000000000000000     
   6.2500000000000000E-002  0.84375000000000000        0.0000000000000000     
   9.3750000000000000E-002  0.84375000000000000        0.0000000000000000     
  0.12500000000000000       0.84375000000000000        0.0000000000000000     
   0.0000000000000000       0.87500000000000000        0.0000000000000000     
   3.1250000000000000E-002  0.87500000000000000        0.0000000000000000     
   6.2500000000000000E-002  0.87500000000000000        0.0000000000000000     
   9.3750000000000000E-002  0.87500000000000000        0.0000000000000000     
  0.12500000000000000       0.87500000000000000        0.0000000000000000     
  0.12500000000000000       0.75000000000000000        0.0000000000000000     
  0.15625000000000000       0.75000000000000000        0.0000000000000000     
  0.18750000000000000       0.75000000000000000        0.0000000000000000     
  0.21875000000000000       0.75000000000000000        0.0000000000000000     
  0.25000000000000000       0.75000000000000000        0.0000000000000000     
  0.12500000000000000       0.78125000000000000        0.0000000000000000     
  0.15625000000000000       0.78125000000000000        0.0000000000000000     
  0.18750000000000000       0.78125000000000000        0.0000000000000000     
  0.21875000000000000       0.78125000000000000        0.0000000000000000     
  0.25000000000000000       0.78125000000000000        0.0000000000000000     
  0.12500000000000000       0.81250000000000000        0.0000000000000000     
  0.15625000000000000       0.81250000000000000        0.0000000000000000     
  0.18750000000000000       0.81250000000000000        0.0000000000000000     
  0.21875000000000000       0.81250000000000000        0.0000000000000000     
  0.25000000000000000       0.81250000000000000        0.0000000000000000     
  0.12500000000000000       0.84375000000000000        0.0000000000000000     
  0.15625000000000000       0.84375000000000000        0.0000000000000000     
  0.18750000000000000       0.84375000000000000        0.0000000000000000     
  0.21875000000000000       0.84375000000000000        0.0000000000000000     
  0.25000000000000000       0.84375000000000000        0.0000000000000000     
  0.12500000000000000       0.87500000000000000        0.0000000000000000     
  0.15625000000000000       0.87500000000000000        0.0000000000000000     
  0.18750000000000000       0.87500000000000000        0.0000000000000000     
  0.21875000000000000       0.87500000000000000        0.0000000000000000     
  0.25000000000000000       0.87500000000000000        0.0000000000000000     
  0.25000000000000000       0.75000000000000000        0.0000000000000000     
  0.28125000000000000       0.75000000000000000        0.0000000000000000     
  0.31250000000000000       0.75000000000000000        0.0000000000000000     
  0.34375000000000000       0.75000000000000000        0.0000000000000000     
  0.37500000000000000       0.75000000000000000        0.0000000000000000     
  0.25000000000000000       0.78125000000000000        0.0000000000000000     
  0.28125000000000000       0.78125000000000000        0.0000000000000000     
  0.31250000000000000       0.78125000000000000        0.0000000000000000     
  0.34375000000000000       0.78125000000000000        0.0000000000000000     
  0.37500000000000000       0.78125000000000000        0.0000000000000000     
  0.25000000000000000       0.81250000000000000        0.0000000000000000     
  0.28125000000000000       0.81250000000000000        0.0000000000000000     
  0.31250000000000000       0.81250000000000000        0.0000000000000000     
  0.34375000000000000       0.81250000000000000        0.0000000000000000     
  0.37500000000000000       0.81250000000000000        0.0000000000000000     
  0.25000000000000000       0.84375000000000000        0.0000000000000000     
  0.28125000000000000       0.84375000000000000        0.0000000000000000     
  0.31250000000000000       0.84375000000000000        0.0000000000000000     
  0.34375000000000000       0.84375000000000000        0.0000000000000000     
  0.37500000000000000       0.84375000000000000        0.0000000000000000     
  0.25000000000000000       0.87500000000000000        0.0000000000000000     
  0.28125000000000000       0.87500000000000000        0.0000000000000000     
  0.31250000000000000       0.87500000000000000        0.0000000000000000     
  0.34375000000000000       0.87500000000000000        0.0000000000000000     
  0.37500000000000000       0.87500000000000000        0.0000000000000000     
  0.37500000000000000       0.75000000000000000        0.0000000000000000     
  0.40625000000000000       0.75000000000000000        0.0000000000000000     
  0.43750000000000000       0.75000000000000000        0.0000000000000000     
  0.46875000000000000       0.75000000000000000        0.0000000000000000     
  0.50000000000000000       0.75000000000000000        0.0000000000000000     
  0.37500000000000000       0.78125000000000000        0.0000000000000000     
  0.40625000000000000       0.78125000000000000        0.0000000000000000     
  0.43750000000000000       0.78125000000000000        0.0000000000000000     
  0.46875000000000000       0.78125000000000000        0.0000000000000000     
  0.50000000000000000       0.78125000000000000        0.0000000000000000     
  0.37500000000000000       0.81250000000000000        0.0000000000000000     
  0.40625000000000000       0.81250000000000000        0.0000000000000000     
  0.43750000000000000       0.81250000000000000        0.0000000000000000     
  0.46875000000000000       0.81250000000000000        0.0000000000000000     
  0.50000000000000000       0.81250000000000000        0.0000000000000000     
  0.37500000000000000       0.84375000000000000        0.0000000000000000     
  0.40625000000000000       0.84375000000000000        0.0000000000000000     
  0.43750000000000000       0.84375000000000000        0.0000000000000000     
  0.46875000000000000       0.84375000000000000        0.0000000000000000     
  0.50000000000000000       0.84375000000000000        0.0000000000000000     
  0.37500000000000000       0.87500000000000000        0.0000000000000000     
  0.40625000000000000       0.87500000000000000        0.0000000000000000     
  0.43750000000000000       0.87500000000000000        0.0000000000000000     
  0.46875000000000000       0.87500000000000000        0.0000000000000000     
  0.50000000000000000       0.87500000000000000        0.0000000000000000     
  0.50000000000000000       0.75000000000000000        0.0000000000000000     
  0.53125000000000000       0.75000000000000000        0.0000000000000000     
  0.56250000000000000       0.75000000000000000        0.0000000000000000     
  0.59375000000000000       0.75000000000000000        0.0000000000000000     
  0.62500000000000000       0.75000000000000000        0.0000000000000000     
  0.50000000000000000       0.78125000000000000        0.0000000000000000     
  0.53125000000000000       0.78125000000000000        0.0000000000000000     
  0.56250000000000000       0.78125000000000000        0.0000000000000000     
  0.59375000000000000       0.78125000000000000        0.0000000000000000     
  0.62500000000000000       0.78125000000000000        0.0000000000000000     
  0.50000000000000000       0.81250000000000000        0.0000000000000000     
  0.53125000000000000       0.81250000000000000        0.0000000000000000     
  0.56250000000000000       0.81250000000000000        0.0000000000000000     
  0.59375000000000000       0.81250000000000000        0.0000000000000000     
  0.62500000000000000       0.81250000000000000        0.0000000000000000     
  0.50000000000000000       0.84375000000000000        0.0000000000000000     
  0.53125000000000000       0.84375000000000000        0.0000000000000000     
  0.56250000000000000       0.84375000000000000        0.0000000000000000     
  0.59375000000000000       0.84375000000000000        0.0000000000000000     
  0.62500000000000000       0.84375000000000000        0.0000000000000000     
  0.50000000000000000       0.87500000000000000        0.0000000000000000     
  0.53125000000000000       0.87500000000000000        0.0000000000000000     
  0.56250000000000000       0.87500000000000000        0.0000000000000000     
  0.59375000000000000       0.87500000000000000        0.0000000000000000     
  0.62500000000000000       0.87500000000000000        0.0000000000000000     
  0.62500000000000000       0.75000000000000000        0.0000000000000000     
  0.65625000000000000       0.75000000000000000        0.0000000000000000     
  0.68750000000000000       0.75000000000000000        0.0000000000000000     
  0.71875000000000000       0.75000000000000000        0.0000000000000000     
  0.75000000000000000       0.75000000000000000        0.0000000000000000     
  0.62500000000000000       0.78125000000000000        0.0000000000000000     
  0.65625000000000000       0.78125000000000000        0.0000000000000000     
  0.68750000000000000       0.78125000000000000        0.0000000000000000     
  0.71875000000000000       0.78125000000000000        0.0000000000000000     
  0.75000000000000000       0.78125000000000000        0.0000000000000000     
  0.62500000000000000       0.81250000000000000        0.0000000000000000     
  0.65625000000000000       0.81250000000000000        0.0000000000000000     
  0.68750000000000000       0.81250000000000000        0.0000000000000000     
  0.71875000000000000       0.81250000000000000        0.0000000000000000     
  0.75000000000000000       0.81250000000000000        0.0000000000000000     
  0.62500000000000000       0.84375000000000000        0.0000000000000000     
  0.65625000000000000       0.84375000000000000        0.0000000000000000     
  0.68750000000000000       0.84375000000000000        0.0000000000000000     
  0.71875000000000000       0.84375000000000000        0.0000000000000000     
  0.75000000000000000       0.84375000000000000        0.0000000000000000     
  0.62500000000000000       0.87500000000000000        0.0000000000000000     
  0.65625000000000000       0.87500000000000000        0.0000000000000000     
  0.68750000000000000       0.87500000000000000        0.0000000000000000     
  0.71875000000000000       0.87500000000000000        0.0000000000000000     
  0.75000000000000000       0.87500000000000000        0.0000000000000000     
  0.75000000000000000       0.75000000000000000        0.0000000000000000     
  0.78125000000000000       0.75000000000000000        0.0000000000000000     
  0.81250000000000000       0.75000000000000000        0.0000000000000000     
  0.84375000000000000       0.75000000000000000        0.0000000000000000     
  0.87500000000000000       0.75000000000000000        0.0000000000000000     
  0.75000000000000000       0.78125000000000000        0.0000000000000000     
  0.78125000000000000       0.78125000000000000        0.0000000000000000     
  0.81250000000000000       0.78125000000000000        0.0000000000000000     
  0.84375000000000000       0.78125000000000000        0.0000000000000000     
  0.87500000000000000       0.78125000000000000        0.0000000000000000     
  0.75000000000000000       0.81250000000000000        0.0000000000000000     
  0.78125000000000000       0.81250000000000000        0.0000000000000000     
  0.81250000000000000       0.81250000000000000        0.0000000000000000     
  0.84375000000000000       0.81250000000000000        0.0000000000000000     
  0.87500000000000000       0.81250000000000000        0.0000000000000000     
  0.75000000000000000       0.84375000000000000        0.0000000000000000     
  0.78125000000000000       0.84375000000000000        0.0000000000000000     
  0.81250000000000000       0.84375000000000000        0.0000000000000000     
  0.84375000000000000       0.84375000000000000        0.0000000000000000     
  0.87500000000000000       0.84375000000000000        0.0000000000000000     
  0.75000000000000000       0.87500000000000000        0.0000000000000000     
  0.78125000000000000       0.87500000000000000        0.0000000000000000     
  0.81250000000000000       0.87500000000000000        0.0000000000000000     
  0.84375000000000000       0.87500000000000000        0.0000000000000000     
  0.87500000000000000       0.87500000000000000        0.0000000000000000     
  0.87500000000000000       0.75000000000000000        0.0000000000000000     
  0.90625000000000000       0.75000000000000000        0.0000000000000000     
  0.93750000000000000       0.75000000000000000        0.0000000000000000     
  0.96875000000000000       0.75000000000000000        0.0000000000000000     
   1.0000000000000000       0.75000000000000000        0.0000000000000000     
  0.87500000000000000       0.78125000000000000        0.0000000000000000     
  0.90625000000000000       0.78125000000000000        0.0000000000000000     
  0.93750000000000000       0.78125000000000000        0.0000000000000000     
  0.96875000000000000       0.78125000000000000        0.0000000000000000     
   1.0000000000000000       0.78125000000000000        0.0000000000000000     
  0.87500000000000000       0.81250000000000000        0.0000000000000000     
  0.90625000000000000       0.81250000000000000        0.0000000000000000     
  0.93750000000000000       0.81250000000000000        0.0000000000000000     
  0.96875000000000000       0.81250000000000000        0.0000000000000000     
   1.0000000000000000       0.81250000000000000        0.0000000000000000     
  0.87500000000000000       0.84375000000000000        0.0000000000000000     
  0.90625000000000000       0.84375000000000000        0.0000000000000000     
  0.93750000000000000       0.84375000000000000        0.0000000000000000     
  0.96875000000000000       0.84375000000000000        0.0000000000000000     
   1.0000000000000000       0.84375000000000000        0.0000000000000000     
  0.87500000000000000       0.87500000000000000        0.0000000000000000     
  0.90625000000000000       0.87500000000000000        0.0000000000000000     
  0.93750000000000000       0.87500000000000000        0.0000000000000000     
  0.96875000000000000       0.87500000000000000        0.0000000000000000     
   1.0000000000000000       0.87500000000000000        0.0000000000000000     
   0.0000000000000000       0.87500000000000000        0.0000000000000000     
   3.1250000000000000E-002  0.87500000000000000        0.0000000000000000     
   6.2500000000000000E-002  0.87500000000000000        0.0000000000000000     
   9.3750000000000000E-002  0.87500000000000000        0.0000000000000000     
  0.12500000000000000       0.87500000000000000        0.0000000000000000     
   0.0000000000000000       0.90625000000000000        0.0000000000000000     
   3.1250000000000000E-002  0.90625000000000000        0.0000000000000000     
   6.2500000000000000E-002  0.90625000000000000        0.0000000000000000     
   9.3750000000000000E-002  0.90625000000000000        0.0000000000000000     
  0.12500000000000000       0.90625000000000000        0.0000000000000000     
   0.0000000000000000       0.93750000000000000        0.0000000000000000     
   3.1250000000000000E-002  0.93750000000000000        0.0000000000000000     
   6.2500000000000000E-002  0.93750000000000000        0.0000000000000000     
   9.3750000000000000E-002  0.93750000000000000        0.0000000000000000     
  0.12500000000000000       0.93750000000000000        0.0000000000000000     
   0.0000000000000000       0.96875000000000000        0.0000000000000000     
   3.1250000000000000E-002  0.96875000000000000        0.0000000000000000     
   6.2500000000000000E-002  0.96875000000000000        0.0000000000000000     
   9.3750000000000000E-002  0.96875000000000000        0.0000000000000000     
  0.12500000000000000       0.96875000000000000        0.0000000000000000     
   0.0000000000000000        1.0000000000000000        0.0000000000000000     
   3.1250000000000000E-002   1.0000000000000000        0.0000000000000000     
   6.2500000000000000E-002   1.0000000000000000        0.0000000000000000     
   9.3750000000000000E-002   1.0000000000000000        0.0000000000000000     
  0.12500000000000000        1.0000000000000000        0.0000000000000000     
  0.12500000000000000       0.87500000000000000        0.0000000000000000     
  0.15625000000000000       0.87500000000000000        0.0000000000000000     
  0.18750000000000000       0.87500000000000000        0.0000000000000000     
  0.21875000000000000       0.87500000000000000        0.0000000000000000     
  0.25000000000000000       0.87500000000000000        0.0000000000000000     
  0.12500000000000000       0.90625000000000000        0.0000000000000000     
  0.15625000000000000       0.90625000000000000        0.0000000000000000     
  0.18750000000000000       0.90625000000000000        0.0000000000000000     
  0.21875000000000000       0.90625000000000000        0.0000000000000000     
  0.25000000000000000       0.90625000000000000        0.0000000000000000     
  0.12500000000000000       0.93750000000000000        0.0000000000000000     
  0.15625000000000000       0.93750000000000000        0.0000000000000000     
  0.18750000000000000       0.93750000000000000        0.0000000000000000     
  0.21875000000000000       0.93750000000000000        0.0000000000000000     
  0.25000000000000000       0.93750000000000000        0.0000000000000000     
  0.12500000000000000       0.96875000000000000        0.0000000000000000     
  0.15625000000000000       0.96875000000000000        0.0000000000000000     
  0.18750000000000000       0.96875000000000000        0.0000000000000000     
  0.21875000000000000       0.96875000000000000        0.0000000000000000     
  0.25000000000000000       0.96875000000000000        0.0000000000000000     
  0.12500000000000000        1.0000000000000000        0.0000000000000000     
  0.15625000000000000        1.0000000000000000        0.0000000000000000     
  0.18750000000000000        1.0000000000000000        0.0000000000000000     
  0.21875000000000000        1.0000000000000000        0.0000000000000000     
  0.25000000000000000        1.0000000000000000        0.0000000000000000     
  0.25000000000000000       0.87500000000000000        0.0000000000000000     
  0.28125000000000000       0.87500000000000000        0.0000000000000000     
  0.31250000000000000       0.87500000000000000        0.0000000000000000     
  0.34375000000000000       0.87500000000000000        0.0000000000000000     
  0.37500000000000000       0.87500000000000000        0.0000000000000000     
  0.25000000000000000       0.90625000000000000        0.0000000000000000     
  0.28125000000000000       0.90625000000000000        0.0000000000000000     
  0.31250000000000000       0.90625000000000000        0.0000000000000000     
  0.34375000000000000       0.90625000000000000        0.0000000000000000     
  0.37500000000000000       0.90625000000000000        0.0000000000000000     
  0.25000000000000000       0.93750000000000000        0.0000000000000000     
  0.28125000000000000       0.93750000000000000        0.0000000000000000     
  0.31250000000000000       0.93750000000000000        0.0000000000000000     
  0.34375000000000000       0.93750000000000000        0.0000000000000000     
  0.37500000000000000       0.93750000000000000        0.0000000000000000     
  0.25000000000000000       0.96875000000000000        0.0000000000000000     
  0.28125000000000000       0.96875000000000000        0.0000000000000000     
  0.31250000000000000       0.96875000000000000        0.0000000000000000     
  0.34375000000000000       0.96875000000000000        0.0000000000000000     
  0.37500000000000000       0.96875000000000000        0.0000000000000000     
  0.25000000000000000        1.0000000000000000        0.0000000000000000     
  0.28125000000000000        1.0000000000000000        0.0000000000000000     
  0.31250000000000000        1.0000000000000000        0.0000000000000000     
  0.34375000000000000        1.0000000000000000        0.0000000000000000     
  0.37500000000000000        1.0000000000000000        0.0000000000000000     
  0.37500000000000000       0.87500000000000000        0.0000000000000000     
  0.40625000000000000       0.87500000000000000        0.0000000000000000     
  0.43750000000000000       0.87500000000000000        0.0000000000000000     
  0.46875000000000000       0.87500000000000000        0.0000000000000000     
  0.50000000000000000       0.87500000000000000        0.0000000000000000     
  0.37500000000000000       0.90625000000000000        0.0000000000000000     
  0.40625000000000000       0.90625000000000000        0.0000000000000000     
  0.43750000000000000       0.90625000000000000        0.0000000000000000     
  0.46875000000000000       0.90625000000000000        0.0000000000000000     
  0.50000000000000000       0.90625000000000000        0.0000000000000000     
  0.37500000000000000       0.93750000000000000        0.0000000000000000     
  0.40625000000000000       0.93750000000000000        0.0000000000000000     
  0.43750000000000000       0.93750000000000000        0.0000000000000000     
  0.46875000000000000       0.93750000000000000        0.0000000000000000     
  0.50000000000000000       0.93750000000000000        0.0000000000000000     
  0.37500000000000000       0.96875000000000000        0.0000000000000000     
  0.40625000000000000       0.96875000000000000        0.0000000000000000     
  0.43750000000000000       0.96875000000000000        0.0000000000000000     
  0.46875000000000000       0.96875000000000000        0.0000000000000000     
  0.50000000000000000       0.96875000000000000        0.0000000000000000     
  0.37500000000000000        1.0000000000000000        0.0000000000000000     
  0.40625000000000000        1.0000000000000000        0.0000000000000000     
  0.43750000000000000        1.0000000000000000        0.0000000000000000     
  0.46875000000000000        1.0000000000000000        0.0000000000000000     
  0.50000000000000000        1.0000000000000000        0.0000000000000000     
  0.50000000000000000       0.87500000000000000        0.0000000000000000     
  0.53125000000000000       0.87500000000000000        0.0000000000000000     
  0.56250000000000000       0.87500000000000000        0.0000000000000000     
  0.59375000000000000       0.87500000000000000        0.0000000000000000     
  0.62500000000000000       0.87500000000000000        0.0000000000000000     
  0.50000000000000000       0.90625000000000000        0.0000000000000000     
  0.53125000000000000       0.90625000000000000        0.0000000000000000     
  0.56250000000000000       0.90625000000000000        0.0000000000000000     
  0.59375000000000000       0.90625000000000000        0.0000000000000000     
  0.62500000000000000       0.90625000000000000        0.0000000000000000     
  0.50000000000000000       0.93750000000000000        0.0000000000000000     
  0.53125000000000000       0.93750000000000000        0.0000000000000000     
  0.56250000000000000       0.93750000000000000        0.0000000000000000     
  0.59375000000000000       0.93750000000000000        0.0000000000000000     
  0.62500000000000000       0.93750000000000000        0.0000000000000000     
  0.50000000000000000       0.96875000000000000        0.0000000000000000     
  0.53125000000000000       0.96875000000000000        0.0000000000000000     
  0.56250000000000000       0.96875000000000000        0.0000000000000000     
  0.59375000000000000       0.96875000000000000        0.0000000000000000     
  0.62500000000000000       0.96875000000000000        0.0000000000000000     
  0.50000000000000000        1.0000000000000000        0.0000000000000000     
  0.53125000000000000        1.0000000000000000        0.0000000000000000     
  0.56250000000000000        1.0000000000000000        0.0000000000000000     
  0.59375000000000000        1.0000000000000000        0.0000000000000000     
  0.62500000000000000        1.0000000000000000        0.0000000000000000     
  0.62500000000000000       0.87500000000000000        0.0000000000000000     
  0.65625000000000000       0.87500000000000000        0.0000000000000000     
  0.68750000000000000       0.87500000000000000        0.0000000000000000     
  0.71875000000000000       0.87500000000000000        0.0000000000000000     
  0.75000000000000000       0.87500000000000000        0.0000000000000000     
  0.62500000000000000       0.90625000000000000        0.0000000000000000     
  0.65625000000000000       0.90625000000000000        0.0000000000000000     
  0.68750000000000000       0.90625000000000000        0.0000000000000000     
  0.71875000000000000       0.90625000000000000        0.0000000000000000     
  0.75000000000000000       0.90625000000000000        0.0000000000000000     
  0.62500000000000000       0.93750000000000000        0.0000000000000000     
  0.65625000000000000       0.93750000000000000        0.0000000000000000     
  0.68750000000000000       0.93750000000000000        0.0000000000000000     
  0.71875000000000000       0.93750000000000000        0.0000000000000000     
  0.75000000000000000       0.93750000000000000        0.0000000000000000     
  0.62500000000000000       0.96875000000000000        0.0000000000000000     
  0.65625000000000000       0.96875000000000000        0.0000000000000000     
  0.68750000000000000       0.96875000000000000        0.0000000000000000     
  0.71875000000000000       0.96875000000000000        0.0000000000000000     
  0.75000000000000000       0.96875000000000000        0.0000000000000000     
  0.62500000000000000        1.0000000000000000        0.0000000000000000     
  0.65625000000000000        1.0000000000000000        0.0000000000000000     
  0.68750000000000000        1.0000000000000000        0.0000000000000000     
  0.71875000000000000        1.0000000000000000        0.0000000000000000     
  0.75000000000000000        1.0000000000000000        0.0000000000000000     
  0.75000000000000000       0.87500000000000000        0.0000000000000000     
  0.78125000000000000       0.87500000000000000        0.0000000000000000     
  0.81250000000000000       0.87500000000000000        0.0000000000000000     
  0.84375000000000000       0.87500000000000000        0.0000000000000000     
  0.87500000000000000       0.87500000000000000        0.0000000000000000     
  0.75000000000000000       0.90625000000000000        0.0000000000000000     
  0.78125000000000000       0.90625000000000000        0.0000000000000000     
  0.81250000000000000       0.90625000000000000        0.0000000000000000     
  0.84375000000000000       0.90625000000000000        0.0000000000000000     
  0.87500000000000000       0.90625000000000000        0.0000000000000000     
  0.75000000000000000       0.93750000000000000        0.0000000000000000     
  0.78125000000000000       0.93750000000000000        0.0000000000000000     
  0.81250000000000000       0.93750000000000000        0.0000000000000000     
  0.84375000000000000       0.93750000000000000        0.0000000000000000     
  0.87500000000000000       0.93750000000000000        0.0000000000000000     
  0.75000000000000000       0.96875000000000000        0.0000000000000000     
  0.78125000000000000       0.96875000000000000        0.0000000000000000     
  0.81250000000000000       0.96875000000000000        0.0000000000000000     
  0.84375000000000000       0.96875000000000000        0.0000000000000000     
  0.87500000000000000       0.96875000000000000        0.0000000000000000     
  0.75000000000000000        1.0000000000000000        0.0000000000000000     
  0.78125000000000000        1.0000000000000000        0.0000000000000000     
  0.81250000000000000        1.0000000000000000        0.0000000000000000     
  0.84375000000000000        1.0000000000000000        0.0000000000000000     
  0.87500000000000000        1.0000000000000000        0.0000000000000000     
  0.87500000000000000       0.87500000000000000        0.0000000000000000     
  0.90625000000000000       0.87500000000000000        0.0000000000000000     
  0.93750000000000000       0.87500000000000000        0.0000000000000000     
  0.96875000000000000       0.87500000000000000        0.0000000000000000     
   1.0000000000000000       0.87500000000000000        0.0000000000000000     
  0.87500000000000000       0.90625000000000000        0.0000000000000000     
  0.90625000000000000       0.90625000000000000        0.0000000000000000     
  0.93750000000000000       0.90625000000000000        0.0000000000000000     
  0.96875000000000000       0.90625000000000000        0.0000000000000000     
   1.0000000000000000       0.90625000000000000        0.0000000000000000     
  0.87500000000000000       0.93750000000000000        0.0000000000000000     
  0.90625000000000000       0.93750000000000000        0.0000000000000000     
  0.93750000000000000       0.93750000000000000        0.0000000000000000     
  0.96875000000000000       0.93750000000000000        0.0000000000000000     
   1.0000000000000000       0.93750000000000000        0.0000000000000000     
  0.87500000000000000       0.96875000000000000        0.0000000000000000     
  0.90625000000000000       0.96875000000000000        0.0000000000000000     
  0.93750000000000000       0.96875000000000000        0.0000000000000000     
  0.96875000000000000       0.96875000000000000        0.0000000000000000     
   1.0000000000000000       0.96875000000000000        0.0000000000000000     
  0.87500000000000000        1.0000000000000000        0.0000000000000000     
  0.90625000000000000        1.0000000000000000        0.0000000000000000     
  0.93750000000000000        1.0000000000000000        0.0000000000000000     
  0.96875000000000000        1.0000000000000000        0.0000000000000000     
   1.0000000000000000        1.0000000000000000        0.0000000000000000     
 </DataArray>
 </Points>
 <Cells>
 <DataArray  type="Int32"  Name="connectivity"  format="ascii">
           0           1           6           5
           1           2           7           6
           2           3           8           7
           3           4           9           8
           5           6          11          10
           6           7          12          11
           7           8          13          12
           8           9          14          13
          10          11          16          15
          11          12          17          16
          12          13          18          17
          13          14          19          18
          15          16          21          20
          16          17          22          21
          17          18          23          22
          18          19          24          23
          25          26          31          30
          26          27          32          31
          27          28          33          32
          28          29          34          33
          30          31          36          35
          31          32          37          36
          32          33          38          37
          33          34          39          38
          35          36          41          40
          36          37          42          41
          37          38          43          42
          38          39          44          43
          40          41          46          45
          41          42          47          46
          42          43          48          47
          43          44          49          48
          50          51          56          55
          51          52          57          56
          52          53          58          57
          53          54          59          58
          55          56          61          60
          56          57          62          61
          57          58          63          62
          58          59          64          63
          60          61          66          65
          61          62          67          66
          62          63          68          67
          63          64          69          68
          65          66          71          70
          66          67          72          71
          67          68          73          72
          68          69          74          73
          75          76          81          80
          76          77          82          81
          77          78          83          82
          78          79          84          83
          80          81          86          85
          81          82          87          86
          82          83          88          87
          83          84          89          88
          85          86          91          90
          86          87          92          91
          87          88          93          92
          88          89          94          93
          90          91          96          95
          91          92          97          96
          92          93          98          97
          93          94          99          98
         100         101         106         105
         101         102         107         106
         102         103         108         107
         103         104         109         108
         105         106         111         110
         106         107         112         111
         107         108         113         112
         108         109         114         113
         110         111         116         115
         111         112         117         116
         112         113         118         117
         113         114         119         118
         115         116         121         120
         116         117         122         121
         117         118         123         122
         118         119         124         123
         125         126         131         130
         126         127         132         131
         127         128         133         132
         128         129         134         133
         130         131         136         135
         131         132         137         136
         132         133         138         137
         133         134         139         138
         135         136         141         140
         136         137         142         141
         137         138         143         142
         138         139         144         143
         140         141         146         145
         141         142         147         146
         142         143         148         147
         143         144         149         148
         150         151         156         155
         151         152         157         156
         152         153         158         157
         153         154         159         158
         155         156         161         160
         156         157         162         161
         157         158         163         162
         158         159         164         163
         160         161         166         165
         161         162         167         166
         162         163         168         167
         163         164         169         168
         165         166         171         170
         166         167         172         171
         167         168         173         172
         168         169         174         173
         175         176         181         180
         176         177         182         181
         177         178         183         182
         178         179         184         183
         180         181         186         185
         181         182         187         186
         182         183         188         187
         183         184         189         188
         185         186         191         190
         186         187         192         191
         187         188         193         192
         188         189         194         193
         190         191         196         195
         191         192         197         196
         192         193         198         197
         193         194         199         198
         200         201         206         205
         201         202         207         206
         202         203         208         207
         203         204         209         208
         205         206         211         210
         206         207         212         211
         207         208         213         212
         208         209         214         213
         210         211         216         215
         211         212         217         216
         212         213         218         217
         213         214         219         218
         215         216         221         220
         216         217         222         221
         217         218         223         222
         218         219         224         223
         225         226         231         230
         226         227         232         231
         227         228         233         232
         228         229         234         233
         230         231         236         235
         231         232         237         236
         232         233         238         237
         233         234         239         238
         235         236         241         240
         236         237         242         241
         237         238         243         242
         238         239         244         243
         240         241         246         245
         241         242         247         246
         242         243         248         247
         243         244         249         248
         250         251         256         255
         251         252         257         256
         252         253         258         257
         253         254         259         258
         255         256         261         260
         256         257         262         261
         257         258         263         262
         258         259         264         263
         260         261         266         265
         261         262         267         266
         262         263         268         267
         263         264         269         268
         265         266         271         270
         266         267         272         271
         267         268         273         272
         268         269         274         273
         275         276         281         280
         276         277         282         281
         277         278         283         282
         278         279         284         283
         280         281         286         285
         281         282         287         286
         282         283         288         287
         283         284         289         288
         285         286         291         290
         286         287         292         291
         287         288         293         292
         288         289         294         293
         290         291         296         295
         291         292         297         296
         292         293         298         297
         293         294         299         298
         300         301         306         305
         301         302         307         306
         302         303         308         307
         303         304         309         308
         305         306         311         310
         306         307         312         311
         307         308         313         312
         308         309         314         313
         310         311         316         315
         311         312         317         316
         312         313         318         317
         313         314         319         318
         315         316         321         320
         316         317         322         321
         317         318         323         322
         318         319         324         323
         325         326         331         330
         326         327         332         331
         327         328         333         332
         328         329         334         333
         330         331         336         335
         331         332         337         336
         332         333         338         337
         333         334         339         338
         335         336         341         340
         336         337         342         341
         337         338         343         342
         338         339         344         343
         340         341         346         345
         341         342         347         346
         342         343         348         347
         343         344         349         348
         350         351         356         355
         351         352         357         356
         352         353         358         357
         353         354         359         358
         355         356         361         360
         356         357         362         361
         357         358         363         362
         358         359         364         363
         360         361         366         365
         361         362         367         366
         362         363         368         367
         363         364         369         368
         365         366         371         370
         366         367         372         371
         367         368         373         372
         368         369         374         373
         375         376         381         380
         376         377         382         381
         377         378         383         382
         378         379         384         383
         380         381         386         385
         381         382         387         386
         382         383         388         387
         383         384         389         388
         385         386         391         390
         386         387         392         391
         387         388         393         392
         388         389         394         393
         390         391         396         395
         391         392         397         396
         392         393         398         397
         393         394         399         398
         400         401         406         405
         401         402         407         406
         402         403         408         407
         403         404         409         408
         405         406         411         410
         406         407         412         411
         407         408         413         412
         408         409         414         413
         410         411         416         415
         411         412         417         416
         412         413         418         417
         413         414         419         418
         415         416         421         420
         416         417         422         421
         417         418         423         422
         418         419         424         423
         425         426         431         430
         426         427         432         431
         427         428         433         432
         428         429         434         433
         430         431         436         435
         431         432         437         436
         432         433         438         437
         433         434         439         438
         435         436         441         440
         436         437         442         441
         437         438         443         442
         438         439         444         443
         440         441         446         445
         441         442         447         446
         442         443         448         447
         443         444         449         448
         450         451         456         455
         451         452         457         456
         452         453         458         457
         453         454         459         458
         455         456         461         460
         456         457         462         461
         457         458         463         462
         458         459         464         463
         460         461         466         465
         461         462         467         466
         462         463         468         467
         463         464         469         468
         465         466         471         470
         466         467         472         471
         467         468         473         472
         468         469         474         473
         475         476         481         480
         476         477         482         481
         477         478         483         482
         478         479         484         483
         480         481         486         485
         481         482         487         486
         482         483         488         487
         483         484         489         488
         485         486         491         490
         486         487         492         491
         487         488         493         492
         488         489         494         493
         490         491         496         495
         491         492         497         496
         492         493         498         497
         493         494         499         498
         500         501         506         505
         501         502         507         506
         502         503         508         507
         503         504         509         508
         505         506         511         510
         506         507         512         511
         507         508         513         512
         508         509         514         513
         510         511         516         515
         511         512         517         516
         512         513         518         517
         513         514         519         518
         515         516         521         520
         516         517         522         521
         517         518         523         522
         518         519         524         523
         525         526         531         530
         526         527         532         531
         527         528         533         532
         528         529         534         533
         530         531         536         535
         531         532         537         536
         532         533         538         537
         533         534         539         538
         535         536         541         540
         536         537         542         541
         537         538         543         542
         538         539         544         543
         540         541         546         545
         541         542         547         546
         542         543         548         547
         543         544         549         548
         550         551         556         555
         551         552         557         556
         552         553         558         557
         553         554         559         558
         555         556         561         560
         556         557         562         561
         557         558         563         562
         558         559         564         563
         560         561         566         565
         561         562         567         566
         562         563         568         567
         563         564         569         568
         565         566         571         570
         566         567         572         571
         567         568         573         572
         568         569         574         573
         575         576         581         580
         576         577         582         581
         577         578         583         582
         578         579         584         583
         580         581         586         585
         581         582         587         586
         582         583         588         587
         583         584         589         588
         585         586         591         590
         586         587         592         591
         587         588         593         592
         588         589         594         593
         590         591         596         595
         591         592         597         596
         592         593         598         597
         593         594         599         598
         600         601         606         605
         601         602         607         606
         602         603         608         607
         603         604         609         608
         605         606         611         610
         606         607         612         611
         607         608         613         612
         608         609         614         613
         610         611         616         615
         611         612         617         616
         612         613         618         617
         613         614         619         618
         615         616         621         620
         616         617         622         621
         617         618         623         622
         618         619         624         623
         625         626         631         630
         626         627         632         631
         627         628         633         632
         628         629         634         633
         630         631         636         635
         631         632         637         636
         632         633         638         637
         633         634         639         638
         635         636         641         640
         636         637         642         641
         637         638         643         642
         638         639         644         643
         640         641         646         645
         641         642         647         646
         642         643         648         647
         643         644         649         648
         650         651         656         655
         651         652         657         656
         652         653         658         657
         653         654         659         658
         655         656         661         660
         656         657         662         661
         657         658         663         662
         658         659         664         663
         660         661         666         665
         661         662         667         666
         662         663         668         667
         663         664         669         668
         665         666         671         670
         666         667         672         671
         667         668         673         672
         668         669         674         673
         675         676         681         680
         676         677         682         681
         677         678         683         682
         678         679         684         683
         680         681         686         685
         681         682         687         686
         682         683         688         687
         683         684         689         688
         685         686         691         690
         686         687         692         691
         687         688         693         692
         688         689         694         693
         690         691         696         695
         691         692         697         696
         692         693         698         697
         693         694         699         698
         700         701         706         705
         701         702         707         706
         702         703         708         707
         703         704         709         708
         705         706         711         710
         706         707         712         711
         707         708         713         712
         708         709         714         713
         710         711         716         715
         711         712         717         716
         712         713         718         717
         713         714         719         718
         715         716         721         720
         716         717         722         721
         717         718         723         722
         718         719         724         723
         725         726         731         730
         726         727         732         731
         727         728         733         732
         728         729         734         733
         730         731         736         735
         731         732         737         736
         732         733         738         737
         733         734         739         738
         735         736         741         740
         736         737         742         741
         737         738         743         742
         738         739         744         743
         740         741         746         745
         741         742         747         746
         742         743         748         747
         743         744         749         748
         750         751         756         755
         751         752         757         756
         752         753         758         757
         753         754         759         758
         755         756         761         760
         756         757         762         761
         757         758         763         762
         758         759         764         763
         760         761         766         765
         761         762         767         766
         762         763         768         767
         763         764         769         768
         765         766         771         770
         766         767         772         771
         767         768         773         772
         768         769         774         773
         775         776         781         780
         776         777         782         781
         777         778         783         782
         778         779         784         783
         780         781         786         785
         781         782         787         786
         782         783         788         787
         783         784         789         788
         785         786         791         790
         786         787         792         791
         787         788         793         792
         788         789         794         793
         790         791         796         795
         791         792         797         796
         792         793         798         797
         793         794         799         798
         800         801         806         805
         801         802         807         806
         802         803         808         807
         803         804         809         808
         805         806         811         810
         806         807         812         811
         807         808         813         812
         808         809         814         813
         810         811         816         815
         811         812         817         816
         812         813         818         817
         813         814         819         818
         815         816         821         820
         816         817         822         821
         817         818         823         822
         818         819         824         823
         825         826         831         830
         826         827         832         831
         827         828         833         832
         828         829         834         833
         830         831         836         835
         831         832         837         836
         832         833         838         837
         833         834         839         838
         835         836         841         840
         836         837         842         841
         837         838         843         842
         838         839         844         843
         840         841         846         845
         841         842         847         846
         842         843         848         847
         843         844         849         848
         850         851         856         855
         851         852         857         856
         852         853         858         857
         853         854         859         858
         855         856         861         860
         856         857         862         861
         857         858         863         862
         858         859         864         863
         860         861         866         865
         861         862         867         866
         862         863         868         867
         863         864         869         868
         865         866         871         870
         866         867         872         871
         867         868         873         872
         868         869         874         873
         875         876         881         880
         876         877         882         881
         877         878         883         882
         878         879         884         883
         880         881         886         885
         881         882         887         886
         882         883         888         887
         883         884         889         888
         885         886         891         890
         886         887         892         891
         887         888         893         892
         888         889         894         893
         890         891         896         895
         891         892         897         896
         892         893         898         897
         893         894         899         898
         900         901         906         905
         901         902         907         906
         902         903         908         907
         903         904         909         908
         905         906         911         910
         906         907         912         911
         907         908         913         912
         908         909         914         913
         910         911         916         915
         911         912         917         916
         912         913         918         917
         913         914         919         918
         915         916         921         920
         916         917         922         921
         917         918         923         922
         918         919         924         923
         925         926         931         930
         926         927         932         931
         927         928         933         932
         928         929         934         933
         930         931         936         935
         931         932         937         936
         932         933         938         937
         933         934         939         938
         935         936         941         940
         936         937         942         941
         937         938         943         942
         938         939         944         943
         940         941         946         945
         941         942         947         946
         942         943         948         947
         943         944         949         948
         950         951         956         955
         951         952         957         956
         952         953         958         957
         953         954         959         958
         955         956         961         960
         956         957         962         961
         957         958         963         962
         958         959         964         963
         960         961         966         965
         961         962         967         966
         962         963         968         967
         963         964         969         968
         965         966         971         970
         966         967         972         971
         967         968         973         972
         968         969         974         973
         975         976         981         980
         976         977         982         981
         977         978         983         982
         978         979         984         983
         980         981         986         985
         981         982         987         986
         982         983         988         987
         983         984         989         988
         985         986         991         990
         986         987         992         991
         987         988         993         992
         988         989         994         993
         990         991         996         995
         991         992         997         996
         992         993         998         997
         993         994         999         998
        1000        1001        1006        1005
        1001        1002        1007        1006
        1002        1003        1008        1007
        1003        1004        1009        1008
        1005        1006        1011        1010
        1006        1007        1012        1011
        1007        1008        1013        1012
        1008        1009        1014        1013
        1010        1011        1016        1015
        1011        1012        1017        1016
        1012        1013        1018        1017
        1013        1014        1019        1018
        1015        1016        1021        1020
        1016        1017        1022        1021
        1017        1018        1023        1022
        1018        1019        1024        1023
        1025        1026        1031        1030
        1026        1027        1032        1031
        1027        1028        1033        1032
        1028        1029        1034        1033
        1030        1031        1036        1035
        1031        1032        1037        1036
        1032        1033        1038        1037
        1033        1034        1039        1038
        1035        1036        1041        1040
        1036        1037        1042        1041
        1037        1038        1043        1042
        1038        1039        1044        1043
        1040        1041        1046        1045
        1041        1042        1047        1046
        1042        1043        1048        1047
        1043        1044        1049        1048
        1050        1051        1056        1055
        1051        1052        1057        1056
        1052        1053        1058        1057
        1053        1054        1059        1058
        1055        1056        1061        1060
        1056        1057        1062        1061
        1057        1058        1063        1062
        1058        1059        1064        1063
        1060        1061        1066        1065
        1061        1062        1067        1066
        1062        1063        1068        1067
        1063        1064        1069        1068
        1065        1066        1071        1070
        1066        1067        1072        1071
        1067        1068        1073        1072
        1068        1069        1074        1073
        1075        1076        1081        1080
        1076        1077        1082        1081
        1077        1078        1083        1082
        1078        1079        1084        1083
        1080        1081        1086        1085
        1081        1082        1087        1086
        1082        1083        1088        1087
        1083        1084        1089        1088
        1085        1086        1091        1090
        1086        1087        1092        1091
        1087        1088        1093        1092
        1088        1089        1094        1093
        1090        1091        1096        1095
        1091        1092        1097        1096
        1092        1093        1098        1097
        1093        1094        1099        1098
        1100        1101        1106        1105
        1101        1102        1107        1106
        1102        1103        1108        1107
        1103        1104        1109        1108
        1105        1106        1111        1110
        1106        1107        1112        1111
        1107        1108        1113        1112
        1108        1109        1114        1113
        1110        1111        1116        1115
        1111        1112        1117        1116
        1112        1113        1118        1117
        1113        1114        1119        1118
        1115        1116        1121        1120
        1116        1117        1122        1121
        1117        1118        1123        1122
        1118        1119        1124        1123
        1125        1126        1131        1130
        1126        1127        1132        1131
        1127        1128        1133        1132
        1128        1129        1134        1133
        1130        1131        1136        1135
        1131        1132        1137        1136
        1132        1133        1138        1137
        1133        1134        1139        1138
        1135        1136        1141        1140
        1136        1137        1142        1141
        1137        1138        1143        1142
        1138        1139        1144        1143
        1140        1141        1146        1145
        1141        1142        1147        1146
        1142        1143        1148        1147
        1143        1144        1149        1148
        1150        1151        1156        1155
        1151        1152        1157        1156
        1152        1153        1158        1157
        1153        1154        1159        1158
        1155        1156        1161        1160
        1156        1157        1162        1161
        1157        1158        1163        1162
        1158        1159        1164        1163
        1160        1161        1166        1165
        1161        1162        1167        1166
        1162        1163        1168        1167
        1163        1164        1169        1168
        1165        1166        1171        1170
        1166        1167        1172        1171
        1167        1168        1173        1172
        1168        1169        1174        1173
        1175        1176        1181        1180
        1176        1177        1182        1181
        1177        1178        1183        1182
        1178        1179        1184        1183
        1180        1181        1186        1185
        1181        1182        1187        1186
        1182        1183        1188        1187
        1183        1184        1189        1188
        1185        1186        1191        1190
        1186        1187        1192        1191
        1187        1188        1193        1192
        1188        1189        1194        1193
        1190        1191        1196        1195
        1191        1192        1197        1196
        1192        1193        1198        1197
        1193        1194        1199        1198
        1200        1201        1206        1205
        1201        1202        1207        1206
        1202        1203        1208        1207
        1203        1204        1209        1208
        1205        1206        1211        1210
        1206        1207        1212        1211
        1207        1208        1213        1212
        1208        1209        1214        1213
        1210        1211        1216        1215
        1211        1212        1217        1216
        1212        1213        1218        1217
        1213        1214        1219        1218
        1215        1216        1221        1220
        1216        1217        1222        1221
        1217        1218        1223        1222
        1218        1219        1224        1223
        1225        1226        1231        1230
        1226        1227        1232        1231
        1227        1228        1233        1232
        1228        1229        1234        1233
        1230        1231        1236        1235
        1231        1232        1237        1236
        1232        1233        1238        1237
        1233        1234        1239        1238
        1235        1236        1241        1240
        1236        1237        1242        1241
        1237        1238        1243        1242
        1238        1239        1244        1243
        1240        1241        1246        1245
        1241        1242        1247        1246
        1242        1243        1248        1247
        1243        1244        1249        1248
        1250        1251        1256        1255
        1251        1252        1257        1256
        1252        1253        1258        1257
        1253        1254        1259        1258
        1255        1256        1261        1260
        1256        1257        1262        1261
        1257        1258        1263        1262
        1258        1259        1264        1263
        1260        1261        1266        1265
        1261        1262        1267        1266
        1262        1263        1268        1267
        1263        1264        1269        1268
        1265        1266        1271        1270
        1266        1267        1272        1271
        1267        1268        1273        1272
        1268        1269        1274        1273
        1275        1276        1281        1280
        1276        1277        1282        1281
        1277        1278        1283        1282
        1278        1279        1284        1283
        1280        1281        1286        1285
        1281        1282        1287        1286
        1282        1283        1288        1287
        1283        1284        1289        1288
        1285        1286        1291        1290
        1286        1287        1292        1291
        1287        1288        1293        1292
        1288        1289        1294        1293
        1290        1291        1296        1295
        1291        1292        1297        1296
        1292        1293        1298        1297
        1293        1294        1299        1298
        1300        1301        1306        1305
        1301        1302        1307        1306
        1302        1303        1308        1307
        1303        1304        1309        1308
        1305        1306        1311        1310
        1306        1307        1312        1311
        1307        1308        1313        1312
        1308        1309        1314        1313
        1310        1311        1316        1315
        1311        1312        1317        1316
        1312        1313        1318        1317
        1313        1314        1319        1318
        1315        1316        1321        1320
        1316        1317        1322        1321
        1317        1318        1323        1322
        1318        1319        1324        1323
        1325        1326        1331        1330
        1326        1327        1332        1331
        1327        1328        1333        1332
        1328        1329        1334        1333
        1330        1331        1336        1335
        1331        1332        1337        1336
        1332        1333        1338        1337
        1333        1334        1339        1338
        1335        1336        1341        1340
        1336        1337        1342        1341
        1337        1338        1343        1342
        1338        1339        1344        1343
        1340        1341        1346        1345
        1341        1342        1347        1346
        1342        1343        1348        1347
        1343        1344        1349        1348
        1350        1351        1356        1355
        1351        1352        1357        1356
        1352        1353        1358        1357
        1353        1354        1359        1358
        1355        1356        1361        1360
        1356        1357        1362        1361
        1357        1358        1363        1362
        1358        1359        1364        1363
        1360        1361        1366        1365
        1361        1362        1367        1366
        1362        1363        1368        1367
        1363        1364        1369        1368
        1365        1366        1371        1370
        1366        1367        1372        1371
        1367        1368        1373        1372
        1368        1369        1374        1373
        1375        1376        1381        1380
        1376        1377        1382        1381
        1377        1378        1383        1382
        1378        1379        1384        1383
        1380        1381        1386        1385
        1381        1382        1387        1386
        1382        1383        1388        1387
        1383        1384        1389        1388
        1385        1386        1391        1390
        1386        1387        1392        1391
        1387        1388        1393        1392
        1388        1389        1394        1393
        1390        1391        1396        1395
        1391        1392        1397        1396
        1392        1393        1398        1397
        1393        1394        1399        1398
        1400        1401        1406        1405
        1401        1402        1407        1406
        1402        1403        1408        1407
        1403        1404        1409        1408
        1405        1406        1411        1410
        1406        1407        1412        1411
        1407        1408        1413        1412
        1408        1409        1414        1413
        1410        1411        1416        1415
        1411        1412        1417        1416
        1412        1413        1418        1417
        1413        1414        1419        1418
        1415        1416        1421        1420
        1416        1417        1422        1421
        1417        1418        1423        1422
        1418        1419        1424        1423
        1425        1426        1431        1430
        1426        1427        1432        1431
        1427        1428        1433        1432
        1428        1429        1434        1433
        1430        1431        1436        1435
        1431        1432        1437        1436
        1432        1433        1438        1437
        1433        1434        1439        1438
        1435        1436        1441        1440
        1436        1437        1442        1441
        1437        1438        1443        1442
        1438        1439        1444        1443
        1440        1441        1446        1445
        1441        1442        1447        1446
        1442        1443        1448        1447
        1443        1444        1449        1448
        1450        1451        1456        1455
        1451        1452        1457        1456
        1452        1453        1458        1457
        1453        1454        1459        1458
        1455        1456        1461        1460
        1456        1457        1462        1461
        1457        1458        1463        1462
        1458        1459        1464        1463
        1460        1461        1466        1465
        1461        1462        1467        1466
        1462        1463        1468        1467
        1463        1464        1469        1468
        1465        1466        1471        1470
        1466        1467        1472        1471
        1467        1468        1473        1472
        1468        1469        1474        1473
        1475        1476        1481        1480
        1476        1477        1482        1481
        1477        1478        1483        1482
        1478        1479        1484        1483
        1480        1481        1486        1485
        1481        1482        1487        1486
        1482        1483        1488        1487
        1483        1484        1489        1488
        1485        1486        1491        1490
        1486        1487        1492        1491
        1487        1488        1493        1492
        1488        1489        1494        1493
        1490        1491        1496        1495
        1491        1492        1497        1496
        1492        1493        1498        1497
        1493        1494        1499        1498
        1500        1501        1506        1505
        1501        1502        1507        1506
        1502        1503        1508        1507
        1503        1504        1509        1508
        1505        1506        1511        1510
        1506        1507        1512        1511
        1507        1508        1513        1512
        1508        1509        1514        1513
        1510        1511        1516        1515
        1511        1512        1517        1516
        1512        1513        1518        1517
        1513        1514        1519        1518
        1515        1516        1521        1520
        1516        1517        1522        1521
        1517        1518        1523        1522
        1518        1519        1524        1523
        1525        1526        1531        1530
        1526        1527        1532        1531
        1527        1528        1533        1532
        1528        1529        1534        1533
        1530        1531        1536        1535
        1531        1532        1537        1536
        1532        1533        1538        1537
        1533        1534        1539        1538
        1535        1536        1541        1540
        1536        1537        1542        1541
        1537        1538        1543        1542
        1538        1539        1544        1543
        1540        1541        1546        1545
        1541        1542        1547        1546
        1542        1543        1548        1547
        1543        1544        1549        1548
        1550        1551        1556        1555
        1551        1552        1557        1556
        1552        1553        1558        1557
        1553        1554        1559        1558
        1555        1556        1561        1560
        1556        1557        1562        1561
        1557        1558        1563        1562
        1558        1559        1564        1563
        1560        1561        1566        1565
        1561        1562        1567        1566
        1562        1563        1568        1567
        1563        1564        1569        1568
        1565        1566        1571        1570
        1566        1567        1572        1571
        1567        1568        1573        1572
        1568        1569        1574        1573
        1575        1576        1581        1580
        1576        1577        1582        1581
        1577        1578        1583        1582
        1578        1579        1584        1583
        1580        1581        1586        1585
        1581        1582        1587        1586
        1582        1583        1588        1587
        1583        1584        1589        1588
        1585        1586        1591        1590
        1586        1587        1592        1591
        1587        1588        1593        1592
        1588        1589        1594        1593
        1590        1591        1596        1595
        1591        1592        1597        1596
        1592        1593        1598        1597
        1593        1594        1599        1598
 </DataArray>
 <DataArray  type="Int32"  Name="offsets"  format="ascii"> 
           4
           8
          12
          16
          20
          24
          28
          32
          36
          40
          44
          48
          52
          56
          60
          64
          68
          72
          76
          80
          84
          88
          92
          96
         100
         104
         108
         112
         116
         120
         124
         128
         132
         136
         140
         144
         148
         152
         156
         160
         164
         168
         172
         176
         180
         184
         188
         192
         196
         200
         204
         208
         212
         216
         220
         224
         228
         232
         236
         240
         244
         248
         252
         256
         260
         264
         268
         272
         276
         280
         284
         288
         292
         296
         300
         304
         308
         312
         316
         320
         324
         328
         332
         336
         340
         344
         348
         352
         356
         360
         364
         368
         372
         376
         380
         384
         388
         392
         396
         400
         404
         408
         412
         416
         420
         424
         428
         432
         436
         440
         444
         448
         452
         456
         460
         464
         468
         472
         476
         480
         484
         488
         492
         496
         500
         504
         508
         512
         516
         520
         524
         528
         532
         536
         540
         544
         548
         552
         556
         560
         564
         568
         572
         576
         580
         584
         588
         592
         596
         600
         604
         608
         612
         616
         620
         624
         628
         632
         636
         640
         644
         648
         652
         656
         660
         664
         668
         672
         676
         680
         684
         688
         692
         696
         700
         704
         708
         712
         716
         720
         724
         728
         732
         736
         740
         744
         748
         752
         756
         760
         764
         768
         772
         776
         780
         784
         788
         792
         796
         800
         804
         808
         812
         816
         820
         824
         828
         832
         836
         840
         844
         848
         852
         856
         860
         864
         868
         872
         876
         880
         884
         888
         892
         896
         900
         904
         908
         912
         916
         920
         924
         928
         932
         936
         940
         944
         948
         952
         956
         960
         964
         968
         972
         976
         980
         984
         988
         992
         996
        1000
        1004
        1008
        1012
        1016
        1020
        1024
        1028
        1032
        1036
        1040
        1044
        1048
        1052
        1056
        1060
        1064
        1068
        1072
        1076
        1080
        1084
        1088
        1092
        1096
        1100
        1104
        1108
        1112
        1116
        1120
        1124
        1128
        1132
        1136
        1140
        1144
        1148
        1152
        1156
        1160
        1164
        1168
        1172
        1176
        1180
        1184
        1188
        1192
        1196
        1200
        1204
        1208
        1212
        1216
        1220
        1224
        1228
        1232
        1236
        1240
        1244
        1248
        1252
        1256
        1260
        1264
        1268
        1272
        1276
        1280
        1284
        1288
        1292
        1296
        1300
        1304
        1308
        1312
        1316
        1320
        1324
        1328
        1332
        1336
        1340
        1344
        1348
        1352
        1356
        1360
        1364
        1368
        1372
        1376
        1380
        1384
        1388
        1392
        1396
        1400
        1404
        1408
        1412
        1416
        1420
        1424
        1428
        1432
        1436
        1440
        1444
        1448
        1452
        1456
        1460
        1464
        1468
        1472
        1476
        1480
        1484
        1488
        1492
        1496
        1500
        1504
        1508
        1512
        1516
        1520
        1524
        1528
        1532
        1536
        1540
        1544
        1548
        1552
        1556
        1560
        1564
        1568
        1572
        1576
        1580
        1584
        1588
        1592
        1596
        1600
        1604
        1608
        1612
        1616
        1620
        1624
        1628
        1632
        1636
        1640
        1644
        1648
        1652
        1656
        1660
        1664
        1668
        1672
        1676
        1680
        1684
        1688
        1692
        1696
        1700
        1704
        1708
        1712
        1716
        1720
        1724
        1728
        1732
        1736
        1740
        1744
        1748
        1752
        1756
        1760
        1764
        1768
        1772
        1776
        1780
        1784
        1788
        1792
        1796
        1800
        1804
        1808
        1812
        1816
        1820
        1824
        1828
        1832
        1836
        1840
        1844
        1848
        1852
        1856
        1860
        1864
        1868
        1872
        1876
        1880
        1884
        1888
        1892
        1896
        1900
        1904
        1908
        1912
        1916
        1920
        1924
        1928
        1932
        1936
        1940
        1944
        1948
        1952
        1956
        1960
        1964
        1968
        1972
        1976
        1980
        1984
        1988
        1992
        1996
        2000
        2004
        2008
        2012
        2016
        2020
        2024
        2028
        2032
        2036
        2040
        2044
        2048
        2052
        2056
        2060
        2064
        2068
        2072
        2076
        2080
        2084
        2088
        2092
        2096
        2100
        2104
        2108
        2112
        2116
        2120
        2124
        2128
        2132
        2136
        2140
        2144
        2148
        2152
        2156
        2160
        2164
        2168
        2172
        2176
        2180
        2184
        2188
        2192
        2196
        2200
        2204
        2208
        2212
        2216
        2220
        2224
        2228
        2232
        2236
        2240
        2244
        2248
        2252
        2256
        2260
        2264
        2268
        2272
        2276
        2280
        2284
        2288
        2292
        2296
        2300
        2304
        2308
        2312
        2316
        2320
        2324
        2328
        2332
        2336
        2340
        2344
        2348
        2352
        2356
        2360
        2364
        2368
        2372
        2376
        2380
        2384
        2388
        2392
        2396
        2400
        2404
        2408
        2412
        2416
        2420
        2424
        2428
        2432
        2436
        2440
        2444
        2448
        2452
        2456
        2460
        2464
        2468
        2472
        2476
        2480
        2484
        2488
        2492
        2496
        2500
        2504
        2508
        2512
        2516
        2520
        2524
        2528
        2532
        2536
        2540
        2544
        2548
        2552
        2556
        2560
        2564
        2568
        2572
        2576
        2580
        2584
        2588
        2592
        2596
        2600
        2604
        2608
        2612
        2616
        2620
        2624
        2628
        2632
        2636
        2640
        2644
        2648
        2652
        2656
        2660
        2664
        2668
        2672
        2676
        2680
        2684
        2688
        2692
        2696
        2700
        2704
        2708
        2712
        2716
        2720
        2724
        2728
        2732
        2736
        2740
        2744
        2748
        2752
        2756
        2760
        2764
        2768
        2772
        2776
        2780
        2784
        2788
        2792
        2796
        2800
        2804
        2808
        2812
        2816
        2820
        2824
        2828
        2832
        2836
        2840
        2844
        2848
        2852
        2856
        2860
        2864
        2868
        2872
        2876
        2880
        2884
        2888
        2892
        2896
        2900
        2904
        2908
        2912
        2916
        2920
        2924
        2928
        2932
        2936
        2940
        2944
        2948
        2952
        2956
        2960
        2964
        2968
        2972
        2976
        2980
        2984
        2988
        2992
        2996
        3000
        3004
        3008
        3012
        3016
        3020
        3024
        3028
        3032
        3036
        3040
        3044
        3048
        3052
        3056
        3060
        3064
        3068
        3072
        3076
        3080
        3084
        3088
        3092
        3096
        3100
        3104
        3108
        3112
        3116
        3120
        3124
        3128
        3132
        3136
        3140
        3144
        3148
        3152
        3156
        3160
        3164
        3168
        3172
        3176
        3180
        3184
        3188
        3192
        3196
        3200
        3204
        3208
        3212
        3216
        3220
        3224
        3228
        3232
        3236
        3240
        3244
        3248
        3252
        3256
        3260
        3264
        3268
        3272
        3276
        3280
        3284
        3288
        3292
        3296
        3300
        3304
        3308
        3312
        3316
        3320
        3324
        3328
        3332
        3336
        3340
        3344
        3348
        3352
        3356
        3360
        3364
        3368
        3372
        3376
        3380
        3384
        3388
        3392
        3396
        3400
        3404
        3408
        3412
        3416
        3420
        3424
        3428
        3432
        3436
        3440
        3444
        3448
        3452
        3456
        3460
        3464
        3468
        3472
        3476
        3480
        3484
        3488
        3492
        3496
        3500
        3504
        3508
        3512
        3516
        3520
        3524
        3528
        3532
        3536
        3540
        3544
        3548
        3552
        3556
        3560
        3564
        3568
        3572
        3576
        3580
        3584
        3588
        3592
        3596
        3600
        3604
        3608
        3612
        3616
        3620
        3624
        3628
        3632
        3636
        3640
        3644
        3648
        3652
        3656
        3660
        3664
        3668
        3672
        3676
        3680
        3684
        3688
        3692
        3696
        3700
        3704
        3708
        3712
        3716
        3720
        3724
        3728
        3732
        3736
        3740
        3744
        3748
        3752
        3756
        3760
        3764
        3768
        3772
        3776
        3780
        3784
        3788
        3792
        3796
        3800
        3804
        3808
        3812
        3816
        3820
        3824
        3828
        3832
        3836
        3840
        3844
        3848
        3852
        3856
        3860
        3864
        3868
        3872
        3876
        3880
        3884
        3888
        3892
        3896
        3900
        3904
        3908
        3912
        3916
        3920
        3924
        3928
        3932
        3936
        3940
        3944
        3948
        3952
        3956
        3960
        3964
        3968
        3972
        3976
        3980
        3984
        3988
        3992
        3996
        4000
        4004
        4008
        4012
        4016
        4020
        4024
        4028
        4032
        4036
        4040
        4044
        4048
        4052
        4056
        4060
        4064
        4068
        4072
        4076
        4080
        4084
        4088
        4092
        4096
 </DataArray>
 <DataArray  type="UInt8"  Name="types"  format="ascii">
 9
 9
 9
 9
 9
 9
 9
 9
 9
 9
 9
 9
 9
 9
 9
 9
 9
 9
 9
 9
 9
 9
 9
 9
 9
 9
 9
 9
 9
 9
 9
 9
 9
 9
 9
 9
 9
 9
 9
 9
 9
 9
 9
 9
 9
 9
 9
 9
 9
 9
 9
 9
 9
 9
 9
 9
 9
 9
 9
 9
 9
 9
 9
 9
 9
 9
 9
 9
 9
 9
 9
 9
 9
 9
 9
 9
 9
 9
 9
 9
 9
 9
 9
 9
 9
 9
 9
 9
 9
 9
 9
 9
 9
 9
 9
 9
 9
 9
 9
 9
 9
 9
 9
 9
 9
 9
 9
 9
 9
 9
 9
 9
 9
 9
 9
 9
 9
 9
 9
 9
 9
 9
 9
 9
 9
 9
 9
 9
 9
 9
 9
 9
 9
 9
 9
 9
 9
 9
 9
 9
 9
 9
 9
 9
 9
 9
 9
 9
 9
 9
 9
 9
 9
 9
 9
 9
 9
 9
 9
 9
 9
 9
 9
 9
 9
 9
 9
 9
 9
 9
 9
 9
 9
 9
 9
 9
 9
 9
 9
 9
 9
 9
 9
 9
 9
 9
 9
 9
 9
 9
 9
 9
 9
 9
 9
 9
 9
 9
 9
 9
 9
 9
 9
 9
 9
 9
 9
 9
 9
 9
 9
 9
 9
 9
 9
 9
 9
 9
 9
 9
 9
 9
 9
 9
 9
 9
 9
 9
 9
 9
 9
 9
 9
 9
 9
 9
 9
 9
 9
 9
 9
 9
 9
 9
 9
 9
 9
 9
 9
 9
 9
 9
 9
 9
 9
 9
 9
 9
 9
 9
 9
 9
 9
 9
 9
 9
 9
 9
 9
 9
 9
 9
 9
 9
 9
 9
 9
 9
 9
 9
 9
 9
 9
 9
 9
 9
 9
 9
 9
 9
 9
 9
 9
 9
 9
 9
 9
 9
 9
 9
 9
 9
 9
 9
 9
 9
 9
 9
 9
 9
 9
 9
 9
 9
 9
 9
 9
 9
 9
 9
 9
 9
 9
 9
 9
 9
 9
 9
 9
 9
 9
 9
 9
 9
 9
 9
 9
 9
 9
 9
 9
 9
 9
 9
 9
 9
 9
 9
 9
 9
 9
 9
 9
 9
 9
 9
 9
 9
 9
 9
 9
 9
 9
 9
 9
 9
 9
 9
 9
 9
 9
 9
 9
 9
 9
 9
 9
 9
 9
 9
 9
 9
 9
 9
 9
 9
 9
 9
 9
 9
 9
 9
 9
 9
 9
 9
 9
 9
 9
 9
 9
 9
 9
 9
 9
 9
 9
 9
 9
 9
 9
 9
 9
 9
 9
 9
 9
 9
 9
 9
 9
 9
 9
 9
 9
 9
 9
 9
 9
 9
 9
 9
 9
 9
 9
 9
 9
 9
 9
 9
 9
 9
 9
 9
 9
 9
 9
 9
 9
 9
 9
 9
 9
 9
 9
 9
 9
 9
 9
 9
 9
 9
 9
 9
 9
 9
 9
 9
 9
 9
 9
 9
 9
 9
 9
 9
 9
 9
 9
 9
 9
 9
 9
 9
 9
 9
 9
 9
 9
 9
 9
 9
 9
 9
 9
 9
 9
 9
 9
 9
 9
 9
 9
 9
 9
 9
 9
 9
 9
 9
 9
 9
 9
 9
 9
 9
 9
 9
 9
 9
 9
 9
 9
 9
 9
 9
 9
 9
 9
 9
 9
 9
 9
 9
 9
 9
 9
 9
 9
 9
 9
 9
 9
 9
 9
 9
 9
 9
 9
 9
 9
 9
 9
 9
 9
 9
 9
 9
 9
 9
 9
 9
 9
 9
 9
 9
 9
 9
 9
 9
 9
 9
 9
 9
 9
 9
 9
 9
 9
 9
 9
 9
 9
 9
 9
 9
 9
 9
 9
 9
 9
 9
 9
 9
 9
 9
 9
 9
 9
 9
 9
 9
 9
 9
 9
 9
 9
 9
 9
 9
 9
 9
 9
 9
 9
 9
 9
 9
 9
 9
 9
 9
 9
 9
 9
 9
 9
 9
 9
 9
 9
 9
 9
 9
 9
 9
 9
 9
 9
 9
 9
 9
 9
 9
 9
 9
 9
 9
 9
 9
 9
 9
 9
 9
 9
 9
 9
 9
 9
 9
 9
 9
 9
 9
 9
 9
 9
 9
 9
 9
 9
 9
 9
 9
 9
 9
 9
 9
 9
 9
 9
 9
 9
 9
 9
 9
 9
 9
 9
 9
 9
 9
 9
 9
 9
 9
 9
 9
 9
 9
 9
 9
 9
 9
 9
 9
 9
 9
 9
 9
 9
 9
 9
 9
 9
 9
 9
 9
 9
 9
 9
 9
 9
 9
 9
 9
 9
 9
 9
 9
 9
 9
 9
 9
 9
 9
 9
 9
 9
 9
 9
 9
 9
 9
 9
 9
 9
 9
 9
 9
 9
 9
 9
 9
 9
 9
 9
 9
 9
 9
 9
 9
 9
 9
 9
 9
 9
 9
 9
 9
 9
 9
 9
 9
 9
 9
 9
 9
 9
 9
 9
 9
 9
 9
 9
 9
 9
 9
 9
 9
 9
 9
 9
 9
 9
 9
 9
 9
 9
 9
 9
 9
 9
 9
 9
 9
 9
 9
 9
 9
 9
 9
 9
 9
 9
 9
 9
 9
 9
 9
 9
 9
 9
 9
 9
 9
 9
 9
 9
 9
 9
 9
 9
 9
 9
 9
 9
 9
 9
 9
 9
 9
 9
 9
 9
 9
 9
 9
 9
 9
 9
 9
 9
 9
 9
 9
 9
 9
 9
 9
 9
 9
 9
 9
 9
 9
 9
 9
 9
 9
 9
 9
 9
 9
 9
 9
 9
 9
 9
 9
 9
 9
 9
 9
 9
 9
 9
 9
 9
 9
 9
 9
 9
 9
 9
 9
 9
 9
 9
 9
 9
 9
 9
 9
 9
 9
 9
 9
 9
 9
 9
 9
 9
 9
 9
 9
 9
 9
 9
 9
 9
 9
 9
 9
 9
 9
 9
 9
 9
 9
 9
 9
 9
 9
 9
 9
 9
 9
 9
 9
 9
 9
 9
 9
 9
 9
 9
 9
 9
 9
 9
 9
 9
 9
 9
 9
 9
 9
 9
 9
 9
 9
 9
 9
 9
 9
 9
 9
 9
 9
 9
 9
 9
 9
 9
 9
 9
 9
 9
 9
 9
 9
 9
 9
 9
 9
 9
 9
 9
 9
 9
 9
 9
 9
 9
 9
 9
 9
 9
 9
 9
 9
 9
 9
 9
 9
 9
 9
 9
 9
 9
 9
 9
 9
 9
 9
 9
 9
 9
 9
 9
 9
 9
 9
 </DataArray>
 </Cells> 
 <PointData>
 <DataArray  type="Float64" Name="disp" NumberOfComponents="3" format="ascii">
   0.0000000000000000        0.0000000000000000        0.0000000000000000     
   6.0959912392799815E-003   3.7904090604615939E-003   0.0000000000000000     
   1.1666167573745631E-002   7.3237985804383435E-003   0.0000000000000000     
   1.6710529003396951E-002   1.0600168559930248E-002   0.0000000000000000     
   2.1229075528233936E-002   1.3619518998937312E-002   0.0000000000000000     
   0.0000000000000000        0.0000000000000000        0.0000000000000000     
   4.8912282553753329E-003   3.0220941100254852E-003   0.0000000000000000     
   9.5738494344573422E-003   6.0604402267000609E-003   0.0000000000000000     
   1.4047863537246030E-002   9.1150383500237277E-003   0.0000000000000000     
   1.8313270563741390E-002   1.2185888479996481E-002   0.0000000000000000     
   0.0000000000000000        0.0000000000000000        0.0000000000000000     
   3.9536725194456480E-003   2.4250415147858704E-003   0.0000000000000000     
   7.9108631611792216E-003   5.0627578145819446E-003   0.0000000000000000     
   1.1871571925200724E-002   7.9131488993882219E-003   0.0000000000000000     
   1.5835798811510152E-002   1.0976214769204701E-002   0.0000000000000000     
   0.0000000000000000        0.0000000000000000        0.0000000000000000     
   3.2833240314909242E-003   1.9992512747427490E-003   0.0000000000000000     
   6.6772087539112681E-003   4.3307513440839947E-003   0.0000000000000000     
   1.0181654167261035E-002   6.9945002080237352E-003   0.0000000000000000     
   1.3796660271540223E-002   9.9904978665619724E-003   0.0000000000000000     
   0.0000000000000000        0.0000000000000000        0.0000000000000000     
   2.8801827915111633E-003   1.7447233898961207E-003   0.0000000000000000     
   5.8728862126534841E-003   3.8644208152062093E-003   0.0000000000000000     
   8.9781102634269618E-003   6.3590922759302650E-003   0.0000000000000000     
   1.2195854943831597E-002   9.2287377720682903E-003   0.0000000000000000     
   2.1229075528233936E-002   1.3619518998937312E-002   0.0000000000000000     
   2.5434504962690514E-002   1.6612481424260805E-002   0.0000000000000000     
   2.9539515121200600E-002   1.9809687362702003E-002   0.0000000000000000     
   3.3544106003764201E-002   2.3211136814260905E-002   0.0000000000000000     
   3.7448277610381317E-002   2.6816829778937519E-002   0.0000000000000000     
   1.8313270563741390E-002   1.2185888479996481E-002   0.0000000000000000     
   2.2408183347911365E-002   1.5341366008967856E-002   0.0000000000000000     
   2.6370714723723883E-002   1.8649846329287376E-002   0.0000000000000000     
   3.0200864691178948E-002   2.2111329440955046E-002   0.0000000000000000     
   3.3898633250276561E-002   2.5725815343970861E-002   0.0000000000000000     
   1.5835798811510152E-002   1.0976214769204701E-002   0.0000000000000000     
   1.9731720698900695E-002   1.4210796178005566E-002   0.0000000000000000     
   2.3487514466165531E-002   1.7575733879764983E-002   0.0000000000000000     
   2.7103180113304665E-002   2.1071027874482964E-002   0.0000000000000000     
   3.0578717640318092E-002   2.4696678162159494E-002   0.0000000000000000     
   1.3796660271540223E-002   9.9904978665619724E-003   0.0000000000000000     
   1.7405117015658500E-002   1.3220771931373927E-002   0.0000000000000000     
   2.0889914348525548E-002   1.6587350014134819E-002   0.0000000000000000     
   2.4251052270141352E-002   2.0090232114844647E-002   0.0000000000000000     
   2.7488530780505928E-002   2.3729418233503417E-002   0.0000000000000000     
   1.2195854943831597E-002   9.2287377720682903E-003   0.0000000000000000     
   1.5428372298184787E-002   1.2371293269072939E-002   0.0000000000000000     
   1.8577914370803927E-002   1.5684694732396878E-002   0.0000000000000000     
   2.1644481161689020E-002   1.9168942162040112E-002   0.0000000000000000     
   2.4628072670840065E-002   2.2824035558002623E-002   0.0000000000000000     
   3.7448277610381317E-002   2.6816829778937519E-002   0.0000000000000000     
   4.1256789465795765E-002   3.0622040103873958E-002   0.0000000000000000     
   4.4974401094751384E-002   3.4622041636212346E-002   0.0000000000000000     
   4.8601112497248154E-002   3.8816834375952680E-002   0.0000000000000000     
   5.2136923673286102E-002   4.3206418323094964E-002   0.0000000000000000     
   3.3898633250276561E-002   2.5725815343970861E-002   0.0000000000000000     
   3.7487413778817771E-002   2.9522060567043183E-002   0.0000000000000000     
   4.0990599654603631E-002   3.3528821638880366E-002   0.0000000000000000     
   4.4408190877634146E-002   3.7746098559482411E-002   0.0000000000000000     
   4.7740187447909324E-002   4.2173891328849328E-002   0.0000000000000000     
   3.0578717640318092E-002   2.4696678162159494E-002   0.0000000000000000     
   3.3943654985556591E-002   2.8497173882272190E-002   0.0000000000000000     
   3.7227520087370902E-002   3.2517004174298633E-002   0.0000000000000000     
   4.0430312945761042E-002   3.6756169038238834E-002   0.0000000000000000     
   4.3552033560727010E-002   4.1214668474092782E-002   0.0000000000000000     
   2.7488530780505928E-002   2.3729418233503417E-002   0.0000000000000000     
   3.0625513086012225E-002   2.7547380049560963E-002   0.0000000000000000     
   3.3685162393053199E-002   3.1586589242467135E-002   0.0000000000000000     
   3.6667478701628849E-002   3.5847045812221923E-002   0.0000000000000000     
   3.9572462011739161E-002   4.0328749758825347E-002   0.0000000000000000     
   2.4628072670840065E-002   2.2824035558002623E-002   0.0000000000000000     
   2.7532988080184680E-002   2.6672679068909515E-002   0.0000000000000000     
   3.0363526571650510E-002   3.0737576843385874E-002   0.0000000000000000     
   3.3119688145237539E-002   3.5018728881431704E-002   0.0000000000000000     
   3.5801472800945776E-002   3.9516135183047002E-002   0.0000000000000000     
   5.2136923673286102E-002   4.3206418323094964E-002   0.0000000000000000     
   5.5578006020893148E-002   4.7795614018254502E-002   0.0000000000000000     
   5.8920530938097238E-002   5.2589242002046614E-002   0.0000000000000000     
   6.2164498424898372E-002   5.7587302274471279E-002   0.0000000000000000     
   6.5309908481296558E-002   6.2789794835528517E-002   0.0000000000000000     
   4.7740187447909324E-002   4.2173891328849328E-002   0.0000000000000000     
   5.0981669889278762E-002   4.6806012070503583E-002   0.0000000000000000     
   5.4127718725592085E-002   5.1636272907967670E-002   0.0000000000000000     
   5.7178333956849285E-002   5.6664673841241603E-002   0.0000000000000000     
   6.0133515583050356E-002   6.1891214870325353E-002   0.0000000000000000     
   4.3552033560727010E-002   4.1214668474092782E-002   0.0000000000000000     
   4.6587907511373192E-002   4.5880302191091411E-002   0.0000000000000000     
   4.9533160376803942E-002   5.0740869898465622E-002   0.0000000000000000     
   5.2387792157019282E-002   5.5796371596215422E-002   0.0000000000000000     
   5.5151802852019212E-002   6.1046807284340802E-002   0.0000000000000000     
   3.9572462011739161E-002   4.0328749758825347E-002   0.0000000000000000     
   4.2396718887176409E-002   4.5018484380017987E-002   0.0000000000000000     
   4.5136855891732816E-002   4.9903032973540463E-002   0.0000000000000000     
   4.7792873025408390E-002   5.4982395539392749E-002   0.0000000000000000     
   5.0364770288203138E-002   6.0256572077574871E-002   0.0000000000000000     
   3.5801472800945776E-002   3.9516135183047002E-002   0.0000000000000000     
   3.8408104016688427E-002   4.4220558637283310E-002   0.0000000000000000     
   4.0938805270378700E-002   4.9122762133192173E-002   0.0000000000000000     
   4.3393576562016603E-002   5.4222745670773585E-002   0.0000000000000000     
   4.5772417891602121E-002   5.9520509250027553E-002   0.0000000000000000     
   6.5309908481296558E-002   6.2789794835528517E-002   0.0000000000000000     
   6.8362626266174148E-002   6.8181932990496907E-002   0.0000000000000000     
   7.1328516938413494E-002   7.3748930044655076E-002   0.0000000000000000     
   7.4207580498014625E-002   7.9490785998002980E-002   0.0000000000000000     
   7.6999816944977512E-002   8.5407500850540635E-002   0.0000000000000000     
   6.0133515583050356E-002   6.1891214870325353E-002   0.0000000000000000     
   6.3000118324484822E-002   6.7305711845398700E-002   0.0000000000000000     
   6.5784996901442253E-002   7.2897980616641406E-002   0.0000000000000000     
   6.8488151313922607E-002   7.8668021184053444E-002   0.0000000000000000     
   7.1109581561925900E-002   8.4615833547634842E-002   0.0000000000000000     
   5.5151802852019212E-002   6.1046807284340802E-002   0.0000000000000000     
   5.7832070957419067E-002   6.6484464507332683E-002   0.0000000000000000     
   6.0435474968834203E-002   7.2101630809681974E-002   0.0000000000000000     
   6.2962014886264600E-002   7.7898306191388669E-002   0.0000000000000000     
   6.5411690709710271E-002   8.3874490652452768E-002   0.0000000000000000     
   5.0364770288203138E-002   6.0256572077574871E-002   0.0000000000000000     
   5.2858484164976856E-002   6.5718190976298871E-002   0.0000000000000000     
   5.5279951140589326E-002   7.1359880623776781E-002   0.0000000000000000     
   5.7629171215040589E-002   7.7181641020008643E-002   0.0000000000000000     
   5.9906144388330619E-002   8.3183472164994388E-002   0.0000000000000000     
   4.5772417891602121E-002   5.9520509250027553E-002   0.0000000000000000     
   4.8079357947158174E-002   6.5006891252297250E-002   0.0000000000000000     
   5.0318425416707661E-002   7.0672730058925853E-002   0.0000000000000000     
   5.2489620300250582E-002   7.6518025669913337E-002   0.0000000000000000     
   5.4592942597786936E-002   8.2542778085259727E-002   0.0000000000000000     
   7.6999816944977512E-002   8.5407500850540635E-002   0.0000000000000000     
   7.9695568926825069E-002   9.1494206976004383E-002   0.0000000000000000     
   8.2285179091080213E-002   9.7746036748130580E-002   0.0000000000000000     
   8.4768647437742956E-002  0.10416299016691920        0.0000000000000000     
   8.7145973966813284E-002  0.11074506723237026        0.0000000000000000     
   7.1109581561925900E-002   8.4615833547634842E-002   0.0000000000000000     
   7.3639113537171869E-002   9.0733777856284767E-002   0.0000000000000000     
   7.6066573131380266E-002   9.7014214258902290E-002   0.0000000000000000     
   7.8391960344551079E-002  0.10345714275548748        0.0000000000000000     
   8.0615275176684334E-002  0.11006256334604034        0.0000000000000000     
   6.5411690709710271E-002   8.3874490652452768E-002   0.0000000000000000     
   6.7774441175930317E-002   9.0020825166929913E-002   0.0000000000000000     
   7.0040205021683788E-002   9.6327950708875718E-002   0.0000000000000000     
   7.2208982246970727E-002  0.10279586727829025        0.0000000000000000     
   7.4280772851791105E-002  0.10942457487517343        0.0000000000000000     
   5.9906144388330619E-002   8.3183472164994388E-002   0.0000000000000000     
   6.2101551843100365E-002   8.9355348907939891E-002   0.0000000000000000     
   6.4206074761990764E-002   9.5687246098050904E-002   0.0000000000000000     
   6.6219713145001829E-002  0.10217916373532746        0.0000000000000000     
   6.8142466992133582E-002  0.10883110181976953        0.0000000000000000     
   5.4592942597786936E-002   8.2542778085259727E-002   0.0000000000000000     
   5.6620445538682035E-002   8.8737349079314645E-002   0.0000000000000000     
   5.8564182352301215E-002   9.5092100426427809E-002   0.0000000000000000     
   6.0424153038644464E-002  0.10160703212659913        0.0000000000000000     
   6.2200357597711774E-002  0.10828214417982868        0.0000000000000000     
   8.7145973966813284E-002  0.11074506723237026        0.0000000000000000     
   8.9424559167138179E-002  0.11747115716040303        0.0000000000000000     
   9.1611803527564636E-002  0.12432014916693679        0.0000000000000000     
   9.3707707048092670E-002  0.13129204325197158        0.0000000000000000     
   9.5712269728722266E-002  0.13838683941550736        0.0000000000000000     
   8.0615275176684334E-002  0.11006256334604034        0.0000000000000000     
   8.2747920874217590E-002  0.11681299914063496        0.0000000000000000     
   8.4801300683588404E-002  0.12369097324934554        0.0000000000000000     
   8.6775414604796791E-002  0.13069648567217207        0.0000000000000000     
   8.8670262637842764E-002  0.13782953640911455        0.0000000000000000     
   7.4280772851791105E-002  0.10942457487517343        0.0000000000000000     
   7.6268964540914863E-002  0.11619891455303719        0.0000000000000000     
   7.8186945019111873E-002  0.12310372736539341        0.0000000000000000     
   8.0034714286382161E-002  0.13013901331224212        0.0000000000000000     
   8.1812272342725728E-002  0.13730477239358327        0.0000000000000000     
   6.8142466992133582E-002  0.10883110181976953        0.0000000000000000     
   6.9987690167229985E-002  0.11562890339760967        0.0000000000000000     
   7.1768736534135041E-002  0.12255841151508041        0.0000000000000000     
   7.3485606092848751E-002  0.12961962617218170        0.0000000000000000     
   7.5138298843371101E-002  0.13681254736891363        0.0000000000000000     
   6.2200357597711774E-002  0.10828214417982868        0.0000000000000000     
   6.3904097753162983E-002  0.11510296567435246        0.0000000000000000     
   6.5546675228657925E-002  0.12205502569840654        0.0000000000000000     
   6.7128090024196563E-002  0.12913832425199090        0.0000000000000000     
   6.8648342139778940E-002  0.13635286133510555        0.0000000000000000     
   9.5712269728722266E-002  0.13838683941550736        0.0000000000000000     
   9.7630811850600741E-002  0.14560959156966385        0.0000000000000000     
   9.9468653694875356E-002  0.15296535362656080        0.0000000000000000     
  0.10122579526154613       0.16045412558619812        0.0000000000000000     
  0.10290223655061308       0.16807590744857590        0.0000000000000000     
   8.8670262637842764E-002  0.13782953640911455        0.0000000000000000     
   9.0476987116517693E-002  0.14508483959074206        0.0000000000000000     
   9.2186730374612905E-002  0.15245710934762391        0.0000000000000000     
   9.3799492412128441E-002  0.15994634567975996        0.0000000000000000     
   9.5315273229064260E-002  0.16755254858715030        0.0000000000000000     
   8.1812272342725728E-002  0.13730477239358327        0.0000000000000000     
   8.3502861871818615E-002  0.14458973303693762        0.0000000000000000     
   8.5089725557336904E-002  0.15198262366982573        0.0000000000000000     
   8.6572863399280553E-002  0.15948344429224770        0.0000000000000000     
   8.7952275397649604E-002  0.16709219490420354        0.0000000000000000     
   7.5138298843371101E-002  0.13681254736891363        0.0000000000000000     
   7.6708436116503492E-002  0.14412427190825039        0.0000000000000000     
   7.8177639243047298E-002  0.15154189659316633        0.0000000000000000     
   7.9545908223002476E-002  0.15906542142366140        0.0000000000000000     
   8.0813243056369111E-002  0.16669484639973570        0.0000000000000000     
   6.8648342139778940E-002  0.13635286133510555        0.0000000000000000     
   7.0093709850572353E-002  0.14368845620468049        0.0000000000000000     
   7.1450471431744114E-002  0.15113492811764564        0.0000000000000000     
   7.2718626883294252E-002  0.15869227707400108        0.0000000000000000     
   7.3898176205222751E-002  0.16636050307374672        0.0000000000000000     
   0.0000000000000000        0.0000000000000000        0.0000000000000000     
   2.8801827915111633E-003   1.7447233898961207E-003   0.0000000000000000     
   5.8728862126534841E-003   3.8644208152062093E-003   0.0000000000000000     
   8.9781102634269618E-003   6.3590922759302650E-003   0.0000000000000000     
   1.2195854943831597E-002   9.2287377720682903E-003   0.0000000000000000     
   0.0000000000000000        0.0000000000000000        0.0000000000000000     
   2.6104135596825310E-003   1.5887949977056906E-003   0.0000000000000000     
   5.2899243544561889E-003   3.5564491748315058E-003   0.0000000000000000     
   8.0385323843209771E-003   5.9029625313774467E-003   0.0000000000000000     
   1.0856237649276892E-002   8.6283350673435136E-003   0.0000000000000000     
   0.0000000000000000        0.0000000000000000        0.0000000000000000     
   2.3401810961811926E-003   1.4588032356311624E-003   0.0000000000000000     
   4.7203519963697101E-003   3.2995193698427995E-003   0.0000000000000000     
   7.1405127005655508E-003   5.5221484026349117E-003   0.0000000000000000     
   9.6006632087687147E-003   8.1266903340074959E-003   0.0000000000000000     
   0.0000000000000000        0.0000000000000000        0.0000000000000000     
   2.0694854010071479E-003   1.3547481036725365E-003   0.0000000000000000     
   4.1641691383940424E-003   3.0936314002400897E-003   0.0000000000000000     
   6.2840512121606837E-003   5.2166498897026591E-003   0.0000000000000000     
   8.4291316223070699E-003   7.7238035720602442E-003   0.0000000000000000     
   0.0000000000000000        0.0000000000000000        0.0000000000000000     
   1.7983264741603987E-003   1.2766296018298130E-003   0.0000000000000000     
   3.6213757805291904E-003   2.9387852660233763E-003   0.0000000000000000     
   5.4691479191063749E-003   4.9864669925806897E-003   0.0000000000000000     
   7.3416428898919524E-003   7.4196747815017533E-003   0.0000000000000000     
   1.2195854943831597E-002   9.2287377720682903E-003   0.0000000000000000     
   1.5428372298184787E-002   1.2371293269072939E-002   0.0000000000000000     
   1.8577914370803927E-002   1.5684694732396878E-002   0.0000000000000000     
   2.1644481161689020E-002   1.9168942162040112E-002   0.0000000000000000     
   2.4628072670840065E-002   2.2824035558002623E-002   0.0000000000000000     
   1.0856237649276892E-002   8.6283350673435136E-003   0.0000000000000000     
   1.3689684326093765E-002   1.1650306071811813E-002   0.0000000000000000     
   1.6485516591541440E-002   1.4886614833864458E-002   0.0000000000000000     
   1.9243734445619907E-002   1.8337261353501447E-002   0.0000000000000000     
   2.1964337888329168E-002   2.2002245630722783E-002   0.0000000000000000     
   9.6006632087687147E-003   8.1266903340074959E-003   0.0000000000000000     
   1.2077250878999661E-002   1.1045756220299742E-002   0.0000000000000000     
   1.4546723069278842E-002   1.4211957117850837E-002   0.0000000000000000     
   1.7009079779606261E-002   1.7625293026660771E-002   0.0000000000000000     
   1.9464321009981914E-002   2.1285763946729559E-002   0.0000000000000000     
   8.4291316223070699E-003   7.7238035720602442E-003   0.0000000000000000     
   1.0591071956902464E-002   1.0557643714536734E-002   0.0000000000000000     
   1.2761533804016139E-002   1.3660721584356012E-002   0.0000000000000000     
   1.4940517163648087E-002   1.7033037181518083E-002   0.0000000000000000     
   1.7128022035798308E-002   2.0674590506022942E-002   0.0000000000000000     
   7.3416428898919524E-003   7.4196747815017533E-003   0.0000000000000000     
   9.2311475598021824E-003   1.0185968554522782E-002   0.0000000000000000     
   1.1129948795753327E-002   1.3232908233379991E-002   0.0000000000000000     
   1.3038046597745384E-002   1.6560493818073372E-002   0.0000000000000000     
   1.4955440965778354E-002   2.0168725308602944E-002   0.0000000000000000     
   2.4628072670840065E-002   2.2824035558002623E-002   0.0000000000000000     
   2.7532988080184680E-002   2.6672679068909515E-002   0.0000000000000000     
   3.0363526571650510E-002   3.0737576843385874E-002   0.0000000000000000     
   3.3119688145237539E-002   3.5018728881431704E-002   0.0000000000000000     
   3.5801472800945776E-002   3.9516135183047002E-002   0.0000000000000000     
   2.1964337888329168E-002   2.2002245630722783E-002   0.0000000000000000     
   2.4630951485794368E-002   2.5879588639750019E-002   0.0000000000000000     
   2.7227199804140654E-002   2.9967311354804699E-002   0.0000000000000000     
   2.9753082843368025E-002   3.4265413775886835E-002   0.0000000000000000     
   3.2208600603476481E-002   3.8773895902996430E-002   0.0000000000000000     
   1.9464321009981914E-002   2.1285763946729559E-002   0.0000000000000000     
   2.1884274820561683E-002   2.5174626461514631E-002   0.0000000000000000     
   2.4240769271501435E-002   2.9273137154473442E-002   0.0000000000000000     
   2.6533804362801179E-002   3.3581296025606000E-002   0.0000000000000000     
   2.8763380094460909E-002   3.8099103074912301E-002   0.0000000000000000     
   1.7128022035798308E-002   2.0674590506022942E-002   0.0000000000000000     
   1.9292958084486628E-002   2.4557792534203364E-002   0.0000000000000000     
   2.1404234973732859E-002   2.8655054242392113E-002   0.0000000000000000     
   2.3461852703537005E-002   3.2966375630589191E-002   0.0000000000000000     
   2.5465811273899058E-002   3.7491756698794600E-002   0.0000000000000000     
   1.4955440965778354E-002   2.0168725308602944E-002   0.0000000000000000     
   1.6857001277569207E-002   2.4029086857816212E-002   0.0000000000000000     
   1.8717596910834924E-002   2.8113062618560704E-002   0.0000000000000000     
   2.0537227865575498E-002   3.2420652590836409E-002   0.0000000000000000     
   2.2315894141790932E-002   3.6951856774643341E-002   0.0000000000000000     
   3.5801472800945776E-002   3.9516135183047002E-002   0.0000000000000000     
   3.8408104016688427E-002   4.4220558637283310E-002   0.0000000000000000     
   4.0938805270378700E-002   4.9122762133192173E-002   0.0000000000000000     
   4.3393576562016603E-002   5.4222745670773585E-002   0.0000000000000000     
   4.5772417891602121E-002   5.9520509250027553E-002   0.0000000000000000     
   3.2208600603476481E-002   3.8773895902996430E-002   0.0000000000000000     
   3.4595234149301629E-002   4.3488415931598953E-002   0.0000000000000000     
   3.6914464545679072E-002   4.8404632057159898E-002   0.0000000000000000     
   3.9166291792608825E-002   5.3522544279679278E-002   0.0000000000000000     
   4.1350715890090865E-002   5.8842152599157080E-002   0.0000000000000000     
   2.8763380094460909E-002   3.8099103074912301E-002   0.0000000000000000     
   3.0931280534408405E-002   4.2823947231676499E-002   0.0000000000000000     
   3.3039289750571424E-002   4.7753217425182799E-002   0.0000000000000000     
   3.5087407742949973E-002   5.2886913655431168E-002   0.0000000000000000     
   3.7075634511544067E-002   5.8225035922421640E-002   0.0000000000000000     
   2.5465811273899058E-002   3.7491756698794600E-002   0.0000000000000000     
   2.7416243172008737E-002   4.2227152537515938E-002   0.0000000000000000     
   2.9313280885055734E-002   4.7168518237260836E-002   0.0000000000000000     
   3.1156924413040063E-002   5.2315853798029277E-002   0.0000000000000000     
   3.2947173755961720E-002   5.7669159219821263E-002   0.0000000000000000     
   2.2315894141790932E-002   3.6951856774643341E-002   0.0000000000000000     
   2.4050122062102636E-002   4.1698031849117294E-002   0.0000000000000000     
   2.5736437949132017E-002   4.6650534493394027E-002   0.0000000000000000     
   2.7374841802879083E-002   5.1809364707473576E-002   0.0000000000000000     
   2.8965333623343827E-002   5.7174522491355927E-002   0.0000000000000000     
   4.5772417891602121E-002   5.9520509250027553E-002   0.0000000000000000     
   4.8079357947158174E-002   6.5006891252297250E-002   0.0000000000000000     
   5.0318425416707661E-002   7.0672730058925853E-002   0.0000000000000000     
   5.2489620300250582E-002   7.6518025669913337E-002   0.0000000000000000     
   5.4592942597786936E-002   8.2542778085259727E-002   0.0000000000000000     
   4.1350715890090865E-002   5.8842152599157080E-002   0.0000000000000000     
   4.3469789871329483E-002   6.4351904725747922E-002   0.0000000000000000     
   4.5525566769528923E-002   7.0040248369606428E-002   0.0000000000000000     
   4.7518046584689208E-002   7.5907183530732614E-002   0.0000000000000000     
   4.9447229316810323E-002   8.1952710209126492E-002   0.0000000000000000     
   3.7075634511544067E-002   5.8225035922421640E-002   0.0000000000000000     
   3.9004877504857191E-002   6.3754570787070933E-002   0.0000000000000000     
   4.0876044171392879E-002   6.9462504810295825E-002   0.0000000000000000     
   4.2689134511151104E-002   7.5348837992096310E-002   0.0000000000000000     
   4.4444148524131880E-002   8.1413570332472388E-002   0.0000000000000000     
   3.2947173755961720E-002   5.7669159219821263E-002   0.0000000000000000     
   3.4684620847741328E-002   6.3214889436266339E-002   0.0000000000000000     
   3.6369857622299516E-002   6.8939499380994071E-002   0.0000000000000000     
   3.8002884079636277E-002   7.4842989054004438E-002   0.0000000000000000     
   3.9583700219751619E-002   8.0925358455297441E-002   0.0000000000000000     
   2.8965333623343827E-002   5.7174522491355927E-002   0.0000000000000000     
   3.0509019899981869E-002   6.2732860673334098E-002   0.0000000000000000     
   3.2007007122248833E-002   6.8471232081701111E-002   0.0000000000000000     
   3.3459295290144721E-002   7.4389636716456958E-002   0.0000000000000000     
   3.4865884403669528E-002   8.0488074577601640E-002   0.0000000000000000     
   5.4592942597786936E-002   8.2542778085259727E-002   0.0000000000000000     
   5.6620445538682035E-002   8.8737349079314645E-002   0.0000000000000000     
   5.8564182352301215E-002   9.5092100426427809E-002   0.0000000000000000     
   6.0424153038644464E-002  0.10160703212659913        0.0000000000000000     
   6.2200357597711774E-002  0.10828214417982868        0.0000000000000000     
   4.9447229316810323E-002   8.1952710209126492E-002   0.0000000000000000     
   5.1306581444131708E-002   8.8167898618984386E-002   0.0000000000000000     
   5.3089569444892792E-002   9.4543818974502702E-002   0.0000000000000000     
   5.4796193319093578E-002  0.10108047127568143        0.0000000000000000     
   5.6426453066734071E-002  0.10777785552252059        0.0000000000000000     
   4.4444148524131880E-002   8.1413570332472388E-002   0.0000000000000000     
   4.6135418740905737E-002   8.7648070464879185E-002   0.0000000000000000     
   4.7757277692043187E-002   9.4043707022771914E-002   0.0000000000000000     
   4.9309725377544231E-002  0.10060048000615048        0.0000000000000000     
   5.0792761797408867E-002  0.10731838941501498        0.0000000000000000     
   3.9583700219751619E-002   8.0925358455297441E-002   0.0000000000000000     
   4.1106957429004123E-002   8.7177864616999085E-002   0.0000000000000000     
   4.2567307093752380E-002   9.3591764571235400E-002   0.0000000000000000     
   4.3964749213996394E-002  0.10016705831800633        0.0000000000000000     
   4.5299283789736168E-002  0.10690374585731190        0.0000000000000000     
   3.4865884403669528E-002   8.0488074577601640E-002   0.0000000000000000     
   3.6221197508426881E-002   8.6757281075344070E-002   0.0000000000000000     
   3.7519657650020410E-002   9.3187991619893176E-002   0.0000000000000000     
   3.8761264828450104E-002   9.9780206211248917E-002   0.0000000000000000     
   3.9946019043715975E-002  0.10653392484941135        0.0000000000000000     
   6.2200357597711774E-002  0.10828214417982868        0.0000000000000000     
   6.3904097753162983E-002  0.11510296567435246        0.0000000000000000     
   6.5546675228657925E-002  0.12205502569840654        0.0000000000000000     
   6.7128090024196563E-002  0.12913832425199090        0.0000000000000000     
   6.8648342139778940E-002  0.13635286133510555        0.0000000000000000     
   5.6426453066734071E-002  0.10777785552252059        0.0000000000000000     
   5.7989029360507774E-002  0.11462069303063312        0.0000000000000000     
   5.9492602873108209E-002  0.12159370511563197        0.0000000000000000     
   6.0937173604535363E-002  0.12869689177751720        0.0000000000000000     
   6.2322741554789243E-002  0.13593025301628878        0.0000000000000000     
   5.0792761797408867E-002  0.10731838941501498        0.0000000000000000     
   5.2213327051058266E-002  0.11418167711381919        0.0000000000000000     
   5.3578361237913597E-002  0.12117458496701691        0.0000000000000000     
   5.4887864357974867E-002  0.12829711297460816        0.0000000000000000     
   5.6141836411242062E-002  0.13554926113659296        0.0000000000000000     
   4.5299283789736168E-002  0.10690374585731190        0.0000000000000000     
   4.6576990824814472E-002  0.11378591792391073        0.0000000000000000     
   4.7803950323074107E-002  0.12079766525256137        0.0000000000000000     
   4.8980162284515079E-002  0.12793898784326380        0.0000000000000000     
   5.0105626709137374E-002  0.13520988569601813        0.0000000000000000     
   3.9946019043715975E-002  0.10653392484941135        0.0000000000000000     
   4.1080020681776394E-002  0.11343341546090771        0.0000000000000000     
   4.2169370128589734E-002  0.12046294597226531        0.0000000000000000     
   4.3214067384156007E-002  0.12762251638348418        0.0000000000000000     
   4.4214112448475201E-002  0.13491212669456423        0.0000000000000000     
   6.8648342139778940E-002  0.13635286133510555        0.0000000000000000     
   7.0093709850572353E-002  0.14368845620468049        0.0000000000000000     
   7.1450471431744114E-002  0.15113492811764564        0.0000000000000000     
   7.2718626883294252E-002  0.15869227707400108        0.0000000000000000     
   7.3898176205222751E-002  0.16636050307374672        0.0000000000000000     
   6.2322741554789243E-002  0.13593025301628878        0.0000000000000000     
   6.3641815610360725E-002  0.14328746403881509        0.0000000000000000     
   6.4886904657740677E-002  0.15076220005196456        0.0000000000000000     
   6.6058008696929099E-002  0.15835446105573717        0.0000000000000000     
   6.7155127727925992E-002  0.16606424705013290        0.0000000000000000     
   5.6141836411242062E-002  0.13554926113659296        0.0000000000000000     
   5.7335885932204185E-002  0.14292647352324148        0.0000000000000000     
   5.8465621455350267E-002  0.15042419420482392        0.0000000000000000     
   5.9531042980680286E-002  0.15804242318134029        0.0000000000000000     
   6.0532150508194264E-002  0.16578116045279057        0.0000000000000000     
   5.0105626709137374E-002  0.13520988569601813        0.0000000000000000     
   5.1175920816102741E-002  0.14260548465795961        0.0000000000000000     
   5.2186621824572878E-002  0.15012091057622373        0.0000000000000000     
   5.3137729734547841E-002  0.15775616345081039        0.0000000000000000     
   5.4029244546027567E-002  0.16551124328171968        0.0000000000000000     
   4.4214112448475201E-002  0.13491212669456423        0.0000000000000000     
   4.5161920262056371E-002  0.14232449744296954        0.0000000000000000     
   4.6049905765408537E-002  0.14985234916616394        0.0000000000000000     
   4.6878068958531721E-002  0.15749568186414753        0.0000000000000000     
   4.7646409841425902E-002  0.16525449553692029        0.0000000000000000     
   0.0000000000000000        0.0000000000000000        0.0000000000000000     
   1.7983264741603987E-003   1.2766296018298130E-003   0.0000000000000000     
   3.6213757805291904E-003   2.9387852660233763E-003   0.0000000000000000     
   5.4691479191063749E-003   4.9864669925806897E-003   0.0000000000000000     
   7.3416428898919524E-003   7.4196747815017533E-003   0.0000000000000000     
   0.0000000000000000        0.0000000000000000        0.0000000000000000     
   1.5349857242708187E-003   1.2173419535723715E-003   0.0000000000000000     
   3.0993345557426295E-003   2.8204812052194709E-003   0.0000000000000000     
   4.6930464944154324E-003   4.8094177549412986E-003   0.0000000000000000     
   6.3161215402892275E-003   7.1841516027378533E-003   0.0000000000000000     
   0.0000000000000000        0.0000000000000000        0.0000000000000000     
   1.2877445599682837E-003   1.1697793823695916E-003   0.0000000000000000     
   2.6054080970018380E-003   2.7242194558551847E-003   0.0000000000000000     
   3.9529906111006622E-003   4.6633202204567799E-003   0.0000000000000000     
   5.3304921022647557E-003   6.9870816761743752E-003   0.0000000000000000     
   0.0000000000000000        0.0000000000000000        0.0000000000000000     
   1.0566029812527939E-003   1.1339418882214737E-003   0.0000000000000000     
   2.1395964043068147E-003   2.6500000179305173E-003   0.0000000000000000     
   3.2489802691620627E-003   4.5481743891271310E-003   0.0000000000000000     
   4.3847545758185363E-003   6.8284650018113173E-003   0.0000000000000000     
   0.0000000000000000        0.0000000000000000        0.0000000000000000     
   8.4156098812434958E-004   1.1098294711280171E-003   0.0000000000000000     
   1.7018994776575613E-003   2.5978228914454696E-003   0.0000000000000000     
   2.5810154685996351E-003   4.4639802609523571E-003   0.0000000000000000     
   3.4789089609505710E-003   6.7083015796486796E-003   0.0000000000000000     
   7.3416428898919524E-003   7.4196747815017533E-003   0.0000000000000000     
   9.2311475598021824E-003   1.0185968554522782E-002   0.0000000000000000     
   1.1129948795753327E-002   1.3232908233379991E-002   0.0000000000000000     
   1.3038046597745384E-002   1.6560493818073372E-002   0.0000000000000000     
   1.4955440965778354E-002   2.0168725308602944E-002   0.0000000000000000     
   6.3161215402892275E-003   7.1841516027378533E-003   0.0000000000000000     
   7.9558101885868291E-003   9.8950948053780057E-003   0.0000000000000000     
   9.5993629345310534E-003   1.2892659419630626E-002   0.0000000000000000     
   1.1246779778121897E-002   1.6176845445495708E-002   0.0000000000000000     
   1.2898060719359361E-002   1.9747652882973261E-002   0.0000000000000000     
   5.3304921022647557E-003   6.9870816761743752E-003   0.0000000000000000     
   6.7233923441444221E-003   9.6493865322225224E-003   0.0000000000000000     
   8.1171711103899622E-003   1.2604117497815776E-002   0.0000000000000000     
   9.5118284010013727E-003   1.5851274572954134E-002   0.0000000000000000     
   1.0907364215978658E-002   1.9390857757637592E-002   0.0000000000000000     
   4.3847545758185363E-003   6.8284650018113173E-003   0.0000000000000000     
   5.5338940264749604E-003   9.4488437350563337E-003   0.0000000000000000     
   6.6833733233300505E-003   1.2367282467935441E-002   0.0000000000000000     
   7.8331924663838110E-003   1.5583781200448640E-002   0.0000000000000000     
   8.9833514556362411E-003   1.9098339932595933E-002   0.0000000000000000     
   3.4789089609505710E-003   6.7083015796486796E-003   0.0000000000000000     
   4.3873152355784432E-003   9.2934664138794344E-003   0.0000000000000000     
   5.2979695733513235E-003   1.2182154329989621E-002   0.0000000000000000     
   6.2108719742692128E-003   1.5374365327979238E-002   0.0000000000000000     
   7.1260224383321111E-003   1.8870099407848288E-002   0.0000000000000000     
   1.4955440965778354E-002   2.0168725308602944E-002   0.0000000000000000     
   1.6857001277569207E-002   2.4029086857816212E-002   0.0000000000000000     
   1.8717596910834924E-002   2.8113062618560704E-002   0.0000000000000000     
   2.0537227865575498E-002   3.2420652590836409E-002   0.0000000000000000     
   2.2315894141790932E-002   3.6951856774643341E-002   0.0000000000000000     
   1.2898060719359361E-002   1.9747652882973261E-002   0.0000000000000000     
   1.4537040703147366E-002   2.3578996999347037E-002   0.0000000000000000     
   1.6147554674389841E-002   2.7644793061900798E-002   0.0000000000000000     
   1.7729602633086778E-002   3.1945041070634540E-002   0.0000000000000000     
   1.9283184579238180E-002   3.6479741025548275E-002   0.0000000000000000     
   1.0907364215978658E-002   1.9390857757637592E-002   0.0000000000000000     
   1.2293712664559061E-002   2.3198010525789698E-002   0.0000000000000000     
   1.3660807855979829E-002   2.7247876351333983E-002   0.0000000000000000     
   1.5008649790240965E-002   3.1540455234270466E-002   0.0000000000000000     
   1.6337238467342467E-002   3.6075747174599125E-002   0.0000000000000000     
   8.9833514556362411E-003   1.9098339932595933E-002   0.0000000000000000     
   1.0127017161804284E-002   2.2886127437144178E-002   0.0000000000000000     
   1.1257356455604890E-002   2.6922312486860264E-002   0.0000000000000000     
   1.2374369337038053E-002   3.1206895081744172E-002   0.0000000000000000     
   1.3478055806103780E-002   3.5739875221795905E-002   0.0000000000000000     
   7.1260224383321111E-003   1.8870099407848288E-002   0.0000000000000000     
   8.0369541948830392E-003   2.2643347733410507E-002   0.0000000000000000     
   8.9372004732650202E-003   2.6668101468479630E-002   0.0000000000000000     
   9.8267612734780473E-003   3.0944360613055669E-002   0.0000000000000000     
   1.0705636595522127E-002   3.5472125167138609E-002   0.0000000000000000     
   2.2315894141790932E-002   3.6951856774643341E-002   0.0000000000000000     
   2.4050122062102636E-002   4.1698031849117294E-002   0.0000000000000000     
   2.5736437949132017E-002   4.6650534493394027E-002   0.0000000000000000     
   2.7374841802879083E-002   5.1809364707473576E-002   0.0000000000000000     
   2.8965333623343827E-002   5.7174522491355927E-002   0.0000000000000000     
   1.9283184579238180E-002   3.6479741025548275E-002   0.0000000000000000     
   2.0801246447536784E-002   4.1234934509864679E-002   0.0000000000000000     
   2.2276734172675318E-002   4.6196663106806458E-002   0.0000000000000000     
   2.3709647754653788E-002   5.1364926816373599E-002   0.0000000000000000     
   2.5099987193472180E-002   5.6739725638566101E-002   0.0000000000000000     
   1.6337238467342467E-002   3.6075747174599125E-002   0.0000000000000000     
   1.7637945571157863E-002   4.0836209863142264E-002   0.0000000000000000     
   1.8902142785560676E-002   4.5804300990722163E-002   0.0000000000000000     
   2.0129830110550920E-002   5.0980020557338822E-002   0.0000000000000000     
   2.1321007546128583E-002   5.6363368562992254E-002   0.0000000000000000     
   1.3478055806103780E-002   3.5739875221795905E-002   0.0000000000000000     
   1.4560219432965862E-002   4.0501857908950042E-002   0.0000000000000000     
   1.5612663787788099E-002   4.5473448145141177E-002   0.0000000000000000     
   1.6635388870570488E-002   5.0654645930369266E-002   0.0000000000000000     
   1.7628394681313029E-002   5.6045451264634359E-002   0.0000000000000000     
   1.0705636595522127E-002   3.5472125167138609E-002   0.0000000000000000     
   1.1568068032960793E-002   4.0231878647288020E-002   0.0000000000000000     
   1.2408297179357580E-002   4.5204104570063464E-002   0.0000000000000000     
   1.3226324034712487E-002   5.0388802935464931E-002   0.0000000000000000     
   1.4022148599025522E-002   5.5785973743492437E-002   0.0000000000000000     
   2.8965333623343827E-002   5.7174522491355927E-002   0.0000000000000000     
   3.0509019899981869E-002   6.2732860673334098E-002   0.0000000000000000     
   3.2007007122248833E-002   6.8471232081701111E-002   0.0000000000000000     
   3.3459295290144721E-002   7.4389636716456958E-002   0.0000000000000000     
   3.4865884403669528E-002   8.0488074577601640E-002   0.0000000000000000     
   2.5099987193472180E-002   5.6739725638566101E-002   0.0000000000000000     
   2.6449476209686806E-002   6.2308449509661745E-002   0.0000000000000000     
   2.7759838523853941E-002   6.8058488365938266E-002   0.0000000000000000     
   2.9031074135973604E-002   7.3989842207395642E-002   0.0000000000000000     
   3.0263183046045777E-002   8.0102511034033888E-002   0.0000000000000000     
   2.1321007546128583E-002   5.6363368562992254E-002   0.0000000000000000     
   2.2477391324964111E-002   6.1941620956636786E-002   0.0000000000000000     
   2.3600697679727948E-002   6.7702053687226760E-002   0.0000000000000000     
   2.4690926610420088E-002   7.3644666754762195E-002   0.0000000000000000     
   2.5748078117040545E-002   7.9769460159243077E-002   0.0000000000000000     
   1.7628394681313029E-002   5.6045451264634359E-002   0.0000000000000000     
   1.8592765245813794E-002   6.1632375014259229E-002   0.0000000000000000     
   1.9529584589870846E-002   6.7401928045566648E-002   0.0000000000000000     
   2.0438852713484189E-002   7.3354110358556643E-002   0.0000000000000000     
   2.1320569616653816E-002   7.9488921953229222E-002   0.0000000000000000     
   1.4022148599025522E-002   5.5785973743492437E-002   0.0000000000000000     
   1.4795597972235845E-002   6.1380711682529072E-002   0.0000000000000000     
   1.5546499254282633E-002   6.7158111440957916E-002   0.0000000000000000     
   1.6274852445165890E-002   7.3118173018778973E-002   0.0000000000000000     
   1.6980657544885612E-002   7.9260896415992280E-002   0.0000000000000000     
   3.4865884403669528E-002   8.0488074577601640E-002   0.0000000000000000     
   3.6221197508426881E-002   8.6757281075344070E-002   0.0000000000000000     
   3.7519657650020410E-002   9.3187991619893176E-002   0.0000000000000000     
   3.8761264828450104E-002   9.9780206211248917E-002   0.0000000000000000     
   3.9946019043715975E-002  0.10653392484941135        0.0000000000000000     
   3.0263183046045777E-002   8.0102511034033888E-002   0.0000000000000000     
   3.1450346442321322E-002   8.6386628645779659E-002   0.0000000000000000     
   3.2586745513051102E-002   9.2832328842559625E-002   0.0000000000000000     
   3.3672380258235095E-002   9.9439611624373758E-002   0.0000000000000000     
   3.4707250677873322E-002  0.10620847699122209        0.0000000000000000     
   2.5748078117040545E-002   7.9769460159243077E-002   0.0000000000000000     
   2.6766611693834780E-002   8.6066216134171397E-002   0.0000000000000000     
   2.7740986835048314E-002   9.2524716913049171E-002   0.0000000000000000     
   2.8671203540681138E-002   9.9144962495876329E-002   0.0000000000000000     
   2.9557261810733239E-002  0.10592695288265294        0.0000000000000000     
   2.1320569616653816E-002   7.9488921953229222E-002   0.0000000000000000     
   2.2169993262967268E-002   8.5796043540519243E-002   0.0000000000000000     
   2.2982381616012071E-002   9.2265155831361703E-002   0.0000000000000000     
   2.3757734675788223E-002   9.8896258825756589E-002   0.0000000000000000     
   2.4496052442295722E-002  0.10568935252370390        0.0000000000000000     
   1.6980657544885612E-002   7.9260896415992280E-002   0.0000000000000000     
   1.7660491149718772E-002   8.5576110864823252E-002   0.0000000000000000     
   1.8310929855942359E-002   9.2053645597497361E-002   0.0000000000000000     
   1.8931973663556364E-002   9.8693500614014565E-002   0.0000000000000000     
   1.9523622572560788E-002  0.10549567591437495        0.0000000000000000     
   3.9946019043715975E-002  0.10653392484941135        0.0000000000000000     
   4.1080020681776394E-002  0.11343341546090771        0.0000000000000000     
   4.2169370128589734E-002  0.12046294597226531        0.0000000000000000     
   4.3214067384156007E-002  0.12762251638348418        0.0000000000000000     
   4.4214112448475201E-002  0.13491212669456423        0.0000000000000000     
   3.4707250677873322E-002  0.10620847699122209        0.0000000000000000     
   3.5697712443542556E-002  0.11312355089885984        0.0000000000000000     
   3.6650121226819585E-002  0.12016945930304226        0.0000000000000000     
   3.7564477027704407E-002  0.12734620220376935        0.0000000000000000     
   3.8440779846197010E-002  0.13465377960104111        0.0000000000000000     
   2.9557261810733239E-002  0.10592695288265294        0.0000000000000000     
   3.0405361931711491E-002  0.11285570541181678        0.0000000000000000     
   3.1221704190122740E-002  0.11991623742180565        0.0000000000000000     
   3.2006288585967005E-002  0.12710854891261958        0.0000000000000000     
   3.2759115119244273E-002  0.13443263988425846        0.0000000000000000     
   2.4496052442295722E-002  0.10568935252370390        0.0000000000000000     
   2.5202969146283189E-002  0.11262987899977855        0.0000000000000000     
   2.5884119018499224E-002  0.11970328032855551        0.0000000000000000     
   2.6539502058943822E-002  0.12690955651003480        0.0000000000000000     
   2.7169118267616987E-002  0.13424870754421636        0.0000000000000000     
   1.9523622572560788E-002  0.10549567591437495        0.0000000000000000     
   2.0090534087257660E-002  0.11244607166274513        0.0000000000000000     
   2.0637365711949011E-002  0.11953058802329183        0.0000000000000000     
   2.1164117446634843E-002  0.12674922499601504        0.0000000000000000     
   2.1670789291315155E-002  0.13410198258091474        0.0000000000000000     
   4.4214112448475201E-002  0.13491212669456423        0.0000000000000000     
   4.5161920262056371E-002  0.14232449744296954        0.0000000000000000     
   4.6049905765408537E-002  0.14985234916616394        0.0000000000000000     
   4.6878068958531721E-002  0.15749568186414753        0.0000000000000000     
   4.7646409841425902E-002  0.16525449553692029        0.0000000000000000     
   3.8440779846197010E-002  0.13465377960104111        0.0000000000000000     
   3.9267935426482520E-002  0.14208218808701448        0.0000000000000000     
   4.0034849512746037E-002  0.14962142425384634        0.0000000000000000     
   4.0741522104987542E-002  0.15727148810153677        0.0000000000000000     
   4.1387953203207054E-002  0.16503237963008566        0.0000000000000000     
   3.2759115119244273E-002  0.13443263988425846        0.0000000000000000     
   3.3468017465798638E-002  0.14187723279883774        0.0000000000000000     
   3.4120829301474184E-002  0.14943105011847263        0.0000000000000000     
   3.4717550626270924E-002  0.15709409184316309        0.0000000000000000     
   3.5258181440188829E-002  0.16486635797290916        0.0000000000000000     
   2.7169118267616987E-002  0.13424870754421636        0.0000000000000000     
   2.7762166380004720E-002  0.14170963157843930        0.0000000000000000     
   2.8307845131593002E-002  0.14928122676004271        0.0000000000000000     
   2.8806154522381833E-002  0.15696349308902649        0.0000000000000000     
   2.9257094552371216E-002  0.16475643056539077        0.0000000000000000     
   2.1670789291315155E-002  0.13410198258091474        0.0000000000000000     
   2.2150382169100761E-002  0.14157938442581916        0.0000000000000000     
   2.2595897003102473E-002  0.14917195417855661        0.0000000000000000     
   2.3007333793320293E-002  0.15687969183912709        0.0000000000000000     
   2.3384692539754219E-002  0.16470259740753046        0.0000000000000000     
   0.0000000000000000        0.0000000000000000        0.0000000000000000     
   8.4156098812434958E-004   1.1098294711280171E-003   0.0000000000000000     
   1.7018994776575613E-003   2.5978228914454696E-003   0.0000000000000000     
   2.5810154685996351E-003   4.4639802609523571E-003   0.0000000000000000     
   3.4789089609505710E-003   6.7083015796486796E-003   0.0000000000000000     
   0.0000000000000000        0.0000000000000000        0.0000000000000000     
   6.3370969388988922E-004   1.0938647097526225E-003   0.0000000000000000     
   1.2777785516675147E-003   2.5618225397340579E-003   0.0000000000000000     
   1.9322065733328763E-003   4.4038734899443073E-003   0.0000000000000000     
   2.5969937588859742E-003   6.6200175603833697E-003   0.0000000000000000     
   0.0000000000000000        0.0000000000000000        0.0000000000000000     
   4.2414021185635206E-004   1.0824701827586902E-003   0.0000000000000000     
   8.5269486095011305E-004   2.5361334261303024E-003   0.0000000000000000     
   1.2856639472812832E-003   4.3609897301148375E-003   0.0000000000000000     
   1.7230474708498623E-003   6.5570390947122933E-003   0.0000000000000000     
   0.0000000000000000        0.0000000000000000        0.0000000000000000     
   2.1285254202373777E-004   1.0756458901462198E-003   0.0000000000000000     
   4.2664840550535641E-004   2.5207555506342018E-003   0.0000000000000000     
   6.4138759044485587E-004   4.3353289814639477E-003   0.0000000000000000     
   8.5707009684223598E-004   6.5193661826354532E-003   0.0000000000000000     
   0.0000000000000000        0.0000000000000000        0.0000000000000000     
  -1.5331560795339683E-007   1.0733918319152118E-003   0.0000000000000000     
  -3.6081466675541834E-007   2.5156889132457562E-003   0.0000000000000000     
  -6.2249717640598320E-007   4.3268912439916353E-003   0.0000000000000000     
  -9.3836313690511854E-007   6.5069988241528466E-003   0.0000000000000000     
   3.4789089609505710E-003   6.7083015796486796E-003   0.0000000000000000     
   4.3873152355784432E-003   9.2934664138794344E-003   0.0000000000000000     
   5.2979695733513235E-003   1.2182154329989621E-002   0.0000000000000000     
   6.2108719742692128E-003   1.5374365327979238E-002   0.0000000000000000     
   7.1260224383321111E-003   1.8870099407848288E-002   0.0000000000000000     
   2.5969937588859742E-003   6.6200175603833697E-003   0.0000000000000000     
   3.2691873039355068E-003   9.1773186975972476E-003   0.0000000000000000     
   3.9458344040901733E-003   1.2042840848131949E-002   0.0000000000000000     
   4.6269350593499741E-003   1.5216584011987472E-002   0.0000000000000000     
   5.3124892697149094E-003   1.8698548189163815E-002   0.0000000000000000     
   1.7230474708498623E-003   6.5570390947122933E-003   0.0000000000000000     
   2.1650415640267883E-003   9.0944647151151945E-003   0.0000000000000000     
   2.6118423591829990E-003   1.1943449786516059E-002   0.0000000000000000     
   3.0634498563184933E-003   1.5103994308914882E-002   0.0000000000000000     
   3.5198640554332731E-003   1.8576098282311673E-002   0.0000000000000000     
   8.5707009684223598E-004   6.5193661826354532E-003   0.0000000000000000     
   1.0748780158522870E-003   9.0449044664332699E-003   0.0000000000000000     
   1.2959934386297986E-003   1.1883981145141944E-002   0.0000000000000000     
   1.5204163651747708E-003   1.5036596218761479E-002   0.0000000000000000     
   1.7481467954872040E-003   1.8502749687291868E-002   0.0000000000000000     
  -9.3836313690511854E-007   6.5069988241528466E-003   0.0000000000000000     
  -1.3033405879974997E-006   9.0286379515514773E-003   0.0000000000000000     
  -1.7123575694269076E-006   1.1864434924009612E-002   0.0000000000000000     
  -2.1654140811943384E-006   1.5014389741527251E-002   0.0000000000000000     
  -2.6625101232991347E-006   1.8478502404104393E-002   0.0000000000000000     
   7.1260224383321111E-003   1.8870099407848288E-002   0.0000000000000000     
   8.0369541948830392E-003   2.2643347733410507E-002   0.0000000000000000     
   8.9372004732650202E-003   2.6668101468479630E-002   0.0000000000000000     
   9.8267612734780473E-003   3.0944360613055669E-002   0.0000000000000000     
   1.0705636595522127E-002   3.5472125167138609E-002   0.0000000000000000     
   5.3124892697149094E-003   1.8698548189163815E-002   0.0000000000000000     
   5.9956270888016170E-003   2.2461187608442710E-002   0.0000000000000000     
   6.6694785702267421E-003   2.6476956498605899E-002   0.0000000000000000     
   7.3340437139902794E-003   3.0745854859653372E-002   0.0000000000000000     
   7.9893225200922333E-003   3.5267882691585130E-002   0.0000000000000000     
   3.5198640554332731E-003   1.8576098282311673E-002   0.0000000000000000     
   3.9751391685663119E-003   2.2331163256094862E-002   0.0000000000000000     
   4.4233294077565830E-003   2.6340590779652871E-002   0.0000000000000000     
   4.8644347730040878E-003   3.0604380852985710E-002   0.0000000000000000     
   5.2984552643088262E-003   3.5122533476093371E-002   0.0000000000000000     
   1.7481467954872040E-003   1.8502749687291868E-002   0.0000000000000000     
   1.9754904341771199E-003   2.2253274676366949E-002   0.0000000000000000     
   2.1987529858545425E-003   2.6259004311620548E-002   0.0000000000000000     
   2.4179344505194699E-003   3.0519938593052669E-002   0.0000000000000000     
   2.6330348281719046E-003   3.5036077520663310E-002   0.0000000000000000     
  -2.6625101232991347E-006   1.8478502404104393E-002   0.0000000000000000     
  -3.3191143659562668E-006   2.2227521869258974E-002   0.0000000000000000     
  -4.2506954793804339E-006   2.6232197094508931E-002   0.0000000000000000     
  -5.4572534635718121E-006   3.0492528079854263E-002   0.0000000000000000     
  -6.9387883185299815E-006   3.5008514825294969E-002   0.0000000000000000     
   1.0705636595522127E-002   3.5472125167138609E-002   0.0000000000000000     
   1.1568068032960793E-002   4.0231878647288020E-002   0.0000000000000000     
   1.2408297179357580E-002   4.5204104570063464E-002   0.0000000000000000     
   1.3226324034712487E-002   5.0388802935464931E-002   0.0000000000000000     
   1.4022148599025522E-002   5.5785973743492437E-002   0.0000000000000000     
   7.9893225200922333E-003   3.5267882691585130E-002   0.0000000000000000     
   8.6324894674255706E-003   4.0024091517924763E-002   0.0000000000000000     
   9.2607190348832601E-003   4.4995532862195840E-002   0.0000000000000000     
   9.8740112224653016E-003   5.0182206724398368E-002   0.0000000000000000     
   1.0472366030171695E-002   5.5584113104532339E-002   0.0000000000000000     
   5.2984552643088262E-003   3.5122533476093371E-002   0.0000000000000000     
   5.7244818326431142E-003   3.9876315960628836E-002   0.0000000000000000     
   6.1416054289792719E-003   4.4846995618245081E-002   0.0000000000000000     
   6.5498260533172975E-003   5.0034572448942112E-002   0.0000000000000000     
   6.9491437056571938E-003   5.5439046452719923E-002   0.0000000000000000     
   2.6330348281719046E-003   3.5036077520663310E-002   0.0000000000000000     
   2.8440451286134280E-003   3.9788551975400238E-002   0.0000000000000000     
   3.0509563616456198E-003   4.4758492838211185E-002   0.0000000000000000     
   3.2537685272684834E-003   4.9945900109096178E-002   0.0000000000000000     
   3.4524816254820167E-003   5.5350773788055189E-002   0.0000000000000000     
  -6.9387883185299815E-006   3.5008514825294969E-002   0.0000000000000000     
  -8.8206446634929306E-006   3.9760799562238963E-002   0.0000000000000000     
  -1.1228167117698540E-005   4.4730024522094153E-002   0.0000000000000000     
  -1.4161355681146728E-005   4.9916189704860538E-002   0.0000000000000000     
  -1.7620210353836872E-005   5.5319295110538125E-002   0.0000000000000000     
   1.4022148599025522E-002   5.5785973743492437E-002   0.0000000000000000     
   1.4795597972235845E-002   6.1380711682529072E-002   0.0000000000000000     
   1.5546499254282633E-002   6.7158111440957916E-002   0.0000000000000000     
   1.6274852445165890E-002   7.3118173018778973E-002   0.0000000000000000     
   1.6980657544885612E-002   7.9260896415992280E-002   0.0000000000000000     
   1.0472366030171695E-002   5.5584113104532339E-002   0.0000000000000000     
   1.1054476008302762E-002   6.1184921819718061E-002   0.0000000000000000     
   1.1619033707158820E-002   6.6968302687075806E-002   0.0000000000000000     
   1.2166039126739872E-002   7.2934255706605611E-002   0.0000000000000000     
   1.2695492267045914E-002   7.9082780878307446E-002   0.0000000000000000     
   6.9491437056571938E-003   5.5439046452719923E-002   0.0000000000000000     
   7.3379858580870363E-003   6.1043296284097950E-002   0.0000000000000000     
   7.7147799826949078E-003   6.6830200597595604E-002   0.0000000000000000     
   8.0795260794808040E-003   7.2799759393212912E-002   0.0000000000000000     
   8.4322241484447273E-003   7.8951972670949874E-002   0.0000000000000000     
   3.4524816254820167E-003   5.5350773788055189E-002   0.0000000000000000     
   3.6461275215886697E-003   6.0955835075668728E-002   0.0000000000000000     
   3.8337380808908931E-003   6.6743805172517309E-002   0.0000000000000000     
   4.0153133033886852E-003   7.2714684078600933E-002   0.0000000000000000     
   4.1908531890820474E-003   7.8868471793919565E-002   0.0000000000000000     
  -1.7620210353836872E-005   5.5319295110538125E-002   0.0000000000000000     
  -2.1099001192338446E-005   6.0922538194430415E-002   0.0000000000000000     
  -2.4091998253219951E-005   6.6709116411840907E-002   0.0000000000000000     
  -2.6599201536481684E-005   7.2679029762769604E-002   0.0000000000000000     
  -2.8620611042122534E-005   7.8832278247216517E-002   0.0000000000000000     
   1.6980657544885612E-002   7.9260896415992280E-002   0.0000000000000000     
   1.7660491149718772E-002   8.5576110864823252E-002   0.0000000000000000     
   1.8310929855942359E-002   9.2053645597497361E-002   0.0000000000000000     
   1.8931973663556364E-002   9.8693500614014565E-002   0.0000000000000000     
   1.9523622572560788E-002  0.10549567591437495        0.0000000000000000     
   1.2695492267045914E-002   7.9082780878307446E-002   0.0000000000000000     
   1.3205348281813906E-002   8.5403943073444580E-002   0.0000000000000000     
   1.3693562324780799E-002   9.1887807163280322E-002   0.0000000000000000     
   1.4160134395946595E-002   9.8534373147814630E-002   0.0000000000000000     
   1.4605064495311293E-002  0.10534364102704755        0.0000000000000000     
   8.4322241484447273E-003   7.8951972670949874E-002   0.0000000000000000     
   8.7718075869772684E-003   8.5277065132744537E-002   0.0000000000000000     
   9.0972097924690142E-003   9.1765261480534960E-002   0.0000000000000000     
   9.4084307649199665E-003   9.8416561714321157E-002   0.0000000000000000     
   9.7054705043301253E-003  0.10523096583410310        0.0000000000000000     
   4.1908531890820474E-003   7.8868471793919565E-002   0.0000000000000000     
   4.3598690652088606E-003   8.5195477042723053E-002   0.0000000000000000     
   4.5218722590070030E-003   9.1686008549261247E-002   0.0000000000000000     
   4.6768627704764773E-003   9.8340066313534091E-002   0.0000000000000000     
   4.8248405996172807E-003  0.10515765033554163        0.0000000000000000     
  -2.8620611042122534E-005   7.8832278247216517E-002   0.0000000000000000     
  -3.0467283491315660E-005   8.5159178803380184E-002   0.0000000000000000     
  -3.2450275605232324E-005   9.1650048369459156E-002   0.0000000000000000     
  -3.4569587383873949E-005   9.8304886945453474E-002   0.0000000000000000     
  -3.6825218827240061E-005  0.10512369453136311        0.0000000000000000     
   1.9523622572560788E-002  0.10549567591437495        0.0000000000000000     
   2.0090534087257660E-002  0.11244607166274513        0.0000000000000000     
   2.0637365711949011E-002  0.11953058802329183        0.0000000000000000     
   2.1164117446634843E-002  0.12674922499601504        0.0000000000000000     
   2.1670789291315155E-002  0.13410198258091474        0.0000000000000000     
   1.4605064495311293E-002  0.10534364102704755        0.0000000000000000     
   1.5031783402782682E-002  0.11230166290473140        0.0000000000000000     
   1.5443721898268538E-002  0.11939449088461856        0.0000000000000000     
   1.5840879981768866E-002  0.12662212496670902        0.0000000000000000     
   1.6223257653283665E-002  0.13398456515100277        0.0000000000000000     
   9.7054705043301253E-003  0.10523096583410310        0.0000000000000000     
   9.9904437410060290E-003  0.11219403222975216        0.0000000000000000     
   1.0265465205254209E-002  0.11929131929113958        0.0000000000000000     
   1.0530534897074671E-002  0.12652282701826539        0.0000000000000000     
   1.0785652816467411E-002  0.13388855541112965        0.0000000000000000     
   4.8248405996172807E-003  0.10515765033554163        0.0000000000000000     
   4.9665151019277027E-003  0.11212317963780738        0.0000000000000000     
   5.1025956329060276E-003  0.11922107324285494        0.0000000000000000     
   5.2330821925522545E-003  0.12645133115068422        0.0000000000000000     
   5.3579747808663860E-003  0.13381395336129534        0.0000000000000000     
  -3.6825218827240061E-005  0.10512369453136311        0.0000000000000000     
  -4.0002514452296221E-005  0.11208910512889712        0.0000000000000000     
  -4.4886818776008423E-005  0.11918375273976457        0.0000000000000000     
  -5.1478131798377643E-005  0.12640763736396546        0.0000000000000000     
  -5.9776453519403555E-005  0.13376075900149981        0.0000000000000000     
   2.1670789291315155E-002  0.13410198258091474        0.0000000000000000     
   2.2150382169100761E-002  0.14157938442581916        0.0000000000000000     
   2.2595897003102473E-002  0.14917195417855661        0.0000000000000000     
   2.3007333793320293E-002  0.15687969183912709        0.0000000000000000     
   2.3384692539754219E-002  0.16470259740753046        0.0000000000000000     
   1.6223257653283665E-002  0.13398456515100277        0.0000000000000000     
   1.6588113438364381E-002  0.14147435438325667        0.0000000000000000     
   1.6932705862562462E-002  0.14908403560922751        0.0000000000000000     
   1.7257034925877907E-002  0.15681360882891524        0.0000000000000000     
   1.7561100628310712E-002  0.16466307404231995        0.0000000000000000     
   1.0785652816467411E-002  0.13388855541112965        0.0000000000000000     
   1.1030808793073206E-002  0.14138240449303102        0.0000000000000000     
   1.1265992656532829E-002  0.14899827428726839        0.0000000000000000     
   1.1491204406846284E-002  0.15673616479384164        0.0000000000000000     
   1.1706444044013570E-002  0.16459607601275089        0.0000000000000000     
   5.3579747808663860E-003  0.13381395336129534        0.0000000000000000     
   5.4784682332272242E-003  0.14130353475514229        0.0000000000000000     
   5.5957573850135738E-003  0.14891467021267923        0.0000000000000000     
   5.7098422362254313E-003  0.15664735973390623        0.0000000000000000     
   5.8207227868628001E-003  0.16450160331882321        0.0000000000000000     
  -5.9776453519403555E-005  0.13376075900149981        0.0000000000000000     
  -6.8908241173556723E-005  0.14123774516959042        0.0000000000000000     
  -7.7999951995308143E-005  0.14883322338546015        0.0000000000000000     
  -8.7051585984658248E-005  0.15654719364910899        0.0000000000000000     
  -9.6063143141604870E-005  0.16437965596053700        0.0000000000000000     
   0.0000000000000000        0.0000000000000000        0.0000000000000000     
  -1.5331560795339683E-007   1.0733918319152118E-003   0.0000000000000000     
  -3.6081466675541834E-007   2.5156889132457562E-003   0.0000000000000000     
  -6.2249717640598320E-007   4.3268912439916353E-003   0.0000000000000000     
  -9.3836313690511854E-007   6.5069988241528466E-003   0.0000000000000000     
   0.0000000000000000        0.0000000000000000        0.0000000000000000     
  -2.1315387580161748E-004   1.0757127281618450E-003   0.0000000000000000     
  -4.2735328593983572E-004   2.5209293252002221E-003   0.0000000000000000     
  -6.4259823041465467E-004   4.3356497911151304E-003   0.0000000000000000     
  -8.5888870922607439E-004   6.5198741259065718E-003   0.0000000000000000     
   0.0000000000000000        0.0000000000000000        0.0000000000000000     
  -4.2442565332015023E-004   1.0826132989822995E-003   0.0000000000000000     
  -8.5334949468749799E-004   2.5364725977328533E-003   0.0000000000000000     
  -1.2867715241020432E-003   4.3615778962516607E-003   0.0000000000000000     
  -1.7246917415637858E-003   6.5579291945387251E-003   0.0000000000000000     
   0.0000000000000000        0.0000000000000000        0.0000000000000000     
  -6.3396864816355175E-004   1.0940935443765750E-003   0.0000000000000000     
  -1.2783494409097423E-003   2.5623187308436508E-003   0.0000000000000000     
  -1.9331423782385712E-003   4.4046755594012279E-003   0.0000000000000000     
  -2.5983474601500391E-003   6.6211640300493039E-003   0.0000000000000000     
   0.0000000000000000        0.0000000000000000        0.0000000000000000     
  -8.4178286033182218E-004   1.1101534643446717E-003   0.0000000000000000     
  -1.7023531246065683E-003   2.5984677245326142E-003   0.0000000000000000     
  -2.5817107928242391E-003   4.4649427805638275E-003   0.0000000000000000     
  -3.4798558649848342E-003   6.7095786324383117E-003   0.0000000000000000     
  -9.3836313690511854E-007   6.5069988241528466E-003   0.0000000000000000     
  -1.3033405879974997E-006   9.0286379515514773E-003   0.0000000000000000     
  -1.7123575694269076E-006   1.1864434924009612E-002   0.0000000000000000     
  -2.1654140811943384E-006   1.5014389741527251E-002   0.0000000000000000     
  -2.6625101232991347E-006   1.8478502404104393E-002   0.0000000000000000     
  -8.5888870922607439E-004   6.5198741259065718E-003   0.0000000000000000     
  -1.0773988005205008E-003   9.0455728647366642E-003   0.0000000000000000     
  -1.2993025824443393E-003   1.1884716542767520E-002   0.0000000000000000     
  -1.5246000549975897E-003   1.5037305159999152E-002   0.0000000000000000     
  -1.7532912181802529E-003   1.8503338716431547E-002   0.0000000000000000     
  -1.7246917415637858E-003   6.5579291945387251E-003   0.0000000000000000     
  -2.1673046591716601E-003   9.0956169002556729E-003   0.0000000000000000     
  -2.6148047890245996E-003   1.1944731421064140E-002   0.0000000000000000     
  -3.0671921311226044E-003   1.5105272756964130E-002   0.0000000000000000     
  -3.5244666854656742E-003   1.8577240907955636E-002   0.0000000000000000     
  -2.5983474601500391E-003   6.6211640300493039E-003   0.0000000000000000     
  -3.2710209165414746E-003   9.1787700581085086E-003   0.0000000000000000     
  -3.9482189773102075E-003   1.2044479558899469E-002   0.0000000000000000     
  -4.6299416424562369E-003   1.5218292532422184E-002   0.0000000000000000     
  -5.3161889119795643E-003   1.8700208978676650E-002   0.0000000000000000     
  -3.4798558649848342E-003   6.7095786324383117E-003   0.0000000000000000     
  -4.3885475726299457E-003   9.2950323382951713E-003   0.0000000000000000     
  -5.2995451473011627E-003   1.2183960956273504E-002   0.0000000000000000     
  -6.2128485889984880E-003   1.5376364486373313E-002   0.0000000000000000     
  -7.1284578977219215E-003   1.8872242928594598E-002   0.0000000000000000     
  -2.6625101232991347E-006   1.8478502404104393E-002   0.0000000000000000     
  -3.3191143659562668E-006   2.2227521869258974E-002   0.0000000000000000     
  -4.2506954793804339E-006   2.6232197094508931E-002   0.0000000000000000     
  -5.4572534635718121E-006   3.0492528079854263E-002   0.0000000000000000     
  -6.9387883185299815E-006   3.5008514825294969E-002   0.0000000000000000     
  -1.7532912181802529E-003   1.8503338716431547E-002   0.0000000000000000     
  -1.9818931803082546E-003   2.2253898212288820E-002   0.0000000000000000     
  -2.2069230496975204E-003   2.6260064647795081E-002   0.0000000000000000     
  -2.4283808263480516E-003   3.0521838022950318E-002   0.0000000000000000     
  -2.6462665102598478E-003   3.5039218337754537E-002   0.0000000000000000     
  -3.5244666854656742E-003   1.8577240907955636E-002   0.0000000000000000     
  -3.9808354668951105E-003   2.2332397082974371E-002   0.0000000000000000     
  -4.4305054902522142E-003   2.6342502490956050E-002   0.0000000000000000     
  -4.8734767555369827E-003   3.0607557131900671E-002   0.0000000000000000     
  -5.3097492627494193E-003   3.5127561005808224E-002   0.0000000000000000     
  -5.3161889119795643E-003   1.8700208978676650E-002   0.0000000000000000     
  -6.0001459741265252E-003   2.2463018481315624E-002   0.0000000000000000     
  -6.6749980171434591E-003   2.6479510623991846E-002   0.0000000000000000     
  -7.3407450410303658E-003   3.0749685406705314E-002   0.0000000000000000     
  -7.9973870457872437E-003   3.5273542829456030E-002   0.0000000000000000     
  -7.1284578977219215E-003   1.8872242928594598E-002   0.0000000000000000     
  -8.0398247020025005E-003   2.2645762407312576E-002   0.0000000000000000     
  -8.9404006303712581E-003   2.6671089046902460E-002   0.0000000000000000     
  -9.8301856828282002E-003   3.0948222847364253E-002   0.0000000000000000     
  -1.0709179859373322E-002   3.5477163808697962E-002   0.0000000000000000     
  -6.9387883185299815E-006   3.5008514825294969E-002   0.0000000000000000     
  -8.8206446634929306E-006   3.9760799562238963E-002   0.0000000000000000     
  -1.1228167117698540E-005   4.4730024522094153E-002   0.0000000000000000     
  -1.4161355681146728E-005   4.9916189704860538E-002   0.0000000000000000     
  -1.7620210353836872E-005   5.5319295110538125E-002   0.0000000000000000     
  -2.6462665102598478E-003   3.5039218337754537E-002   0.0000000000000000     
  -2.8607996203096554E-003   3.9792284819111512E-002   0.0000000000000000     
  -3.0721996753742234E-003   4.4761116693925004E-002   0.0000000000000000     
  -3.2804666754535508E-003   4.9945713962195021E-002   0.0000000000000000     
  -3.4856006205476356E-003   5.5346076623921561E-002   0.0000000000000000     
  -5.3097492627494193E-003   3.5127561005808224E-002   0.0000000000000000     
  -5.7385759314470732E-003   3.9882233843984378E-002   0.0000000000000000     
  -6.1592096811874950E-003   4.4851295377734773E-002   0.0000000000000000     
  -6.5716505119706881E-003   5.0034745607059401E-002   0.0000000000000000     
  -6.9758984237966483E-003   5.5432584531958276E-002   0.0000000000000000     
  -7.9973870457872437E-003   3.5273542829456030E-002   0.0000000000000000     
  -8.6421495780757453E-003   4.0030646636857549E-002   0.0000000000000000     
  -9.2722581845575188E-003   4.5000560573523439E-002   0.0000000000000000     
  -9.8877128652325608E-003   5.0183284639453686E-002   0.0000000000000000     
  -1.0488513620100877E-002   5.5578818834648297E-002   0.0000000000000000     
  -1.0709179859373322E-002   3.5477163808697962E-002   0.0000000000000000     
  -1.1571520560195669E-002   4.0237523197731058E-002   0.0000000000000000     
  -1.2411345185484285E-002   4.5208912281291029E-002   0.0000000000000000     
  -1.3228653735239166E-002   5.0391331059377875E-002   0.0000000000000000     
  -1.4023446209460319E-002   5.5784779531991603E-002   0.0000000000000000     
  -1.7620210353836872E-005   5.5319295110538125E-002   0.0000000000000000     
  -2.1099001192338446E-005   6.0922538194430415E-002   0.0000000000000000     
  -2.4091998253219951E-005   6.6709116411840907E-002   0.0000000000000000     
  -2.6599201536481684E-005   7.2679029762769604E-002   0.0000000000000000     
  -2.8620611042122534E-005   7.8832278247216517E-002   0.0000000000000000     
  -3.4856006205476356E-003   5.5346076623921561E-002   0.0000000000000000     
  -3.6857025308674332E-003   6.0946180028364307E-002   0.0000000000000000     
  -3.8788734266238926E-003   6.6729999524782965E-002   0.0000000000000000     
  -4.0651133078170153E-003   7.2697535113177572E-002   0.0000000000000000     
  -4.2444221744468028E-003   7.8848786793548079E-002   0.0000000000000000     
  -6.9758984237966483E-003   5.5432584531958276E-002   0.0000000000000000     
  -7.3696918880480555E-003   6.1029534965451722E-002   0.0000000000000000     
  -7.7507693761075845E-003   6.6810319720560105E-002   0.0000000000000000     
  -8.1191308879752355E-003   7.2774938797283417E-002   0.0000000000000000     
  -8.4747764236510099E-003   7.8923392195621639E-002   0.0000000000000000     
  -1.0488513620100877E-002   5.5578818834648297E-002   0.0000000000000000     
  -1.1073067072734206E-002   6.1172603005692695E-002   0.0000000000000000     
  -1.1639779846704295E-002   6.6950076999172312E-002   0.0000000000000000     
  -1.2188651942011139E-002   7.2911240815087153E-002   0.0000000000000000     
  -1.2719683358654742E-002   7.9056094453437198E-002   0.0000000000000000     
  -1.4023446209460319E-002   5.5784779531991603E-002   0.0000000000000000     
  -1.4795828084925888E-002   6.1375384149087178E-002   0.0000000000000000     
  -1.5545904838414023E-002   6.7149271360619545E-002   0.0000000000000000     
  -1.6273676469924728E-002   7.3106441166588751E-002   0.0000000000000000     
  -1.6979142979458003E-002   7.9246893566994742E-002   0.0000000000000000     
  -2.8620611042122534E-005   7.8832278247216517E-002   0.0000000000000000     
  -3.0467283491315660E-005   8.5159178803380184E-002   0.0000000000000000     
  -3.2450275605232324E-005   9.1650048369459156E-002   0.0000000000000000     
  -3.4569587383873949E-005   9.8304886945453474E-002   0.0000000000000000     
  -3.6825218827240061E-005  0.10512369453136311        0.0000000000000000     
  -4.2444221744468028E-003   7.8848786793548079E-002   0.0000000000000000     
  -4.4168801942225762E-003   8.5174025077941889E-002   0.0000000000000000     
  -4.5825675348536623E-003   9.1663520478406396E-002   0.0000000000000000     
  -4.7414841963400603E-003   9.8317272994941571E-002   0.0000000000000000     
  -4.8936301786817720E-003  0.10513528262754746        0.0000000000000000     
  -8.4747764236510099E-003   7.8923392195621639E-002   0.0000000000000000     
  -8.8170484020842384E-003   8.5245870529634199E-002   0.0000000000000000     
  -9.1452892422242520E-003   9.1732564413380555E-002   0.0000000000000000     
  -9.4594989440710577E-003   9.8383473846860650E-002   0.0000000000000000     
  -9.7596775076246485E-003  0.10519859883007451        0.0000000000000000     
  -1.2719683358654742E-002   7.9056094453437198E-002   0.0000000000000000     
  -1.3230971907076299E-002   8.5374715158457140E-002   0.0000000000000000     
  -1.3720615397717004E-002   9.1857180174381645E-002   0.0000000000000000     
  -1.4188613830576865E-002   9.8503489501210684E-002   0.0000000000000000     
  -1.4634967205655871E-002  0.10531364313894434        0.0000000000000000     
  -1.6979142979458003E-002   7.9246893566994742E-002   0.0000000000000000     
  -1.7658650709198760E-002   8.5560558964410671E-002   0.0000000000000000     
  -1.8308546001331923E-002   9.2037367761409666E-002   0.0000000000000000     
  -1.8928828855857477E-002   9.8677319957991741E-002   0.0000000000000000     
  -1.9519499272775440E-002  0.10548041555415688        0.0000000000000000     
  -3.6825218827240061E-005  0.10512369453136311        0.0000000000000000     
  -4.0002514452296221E-005  0.11208910512889712        0.0000000000000000     
  -4.4886818776008423E-005  0.11918375273976457        0.0000000000000000     
  -5.1478131798377643E-005  0.12640763736396546        0.0000000000000000     
  -5.9776453519403555E-005  0.13376075900149981        0.0000000000000000     
  -4.8936301786817720E-003  0.10513528262754746        0.0000000000000000     
  -5.0411851665252538E-003  0.11209861854316763        0.0000000000000000     
  -5.1863288445169629E-003  0.11918834990874580        0.0000000000000000     
  -5.3290612126569003E-003  0.12640447672428196        0.0000000000000000     
  -5.4693822709450685E-003  0.13374699898977607        0.0000000000000000     
  -9.7596775076246485E-003  0.10519859883007451        0.0000000000000000     
  -1.0049108912682455E-002  0.11215852972076525        0.0000000000000000     
  -1.0331077139041899E-002  0.11924385687667591        0.0000000000000000     
  -1.0605582186702985E-002  0.12645458029780651        0.0000000000000000     
  -1.0872624055665712E-002  0.13379069998415705        0.0000000000000000     
  -1.4634967205655871E-002  0.10531364313894434        0.0000000000000000     
  -1.5063773752923898E-002  0.11226883866168991        0.0000000000000000     
  -1.5479131702350818E-002  0.11935027364355484        0.0000000000000000     
  -1.5881041053936631E-002  0.12655794808453910        0.0000000000000000     
  -1.6269501807681337E-002  0.13389186198464273        0.0000000000000000     
  -1.9519499272775440E-002  0.10548041555415688        0.0000000000000000     
  -2.0085179687249589E-002  0.11242954536594164        0.0000000000000000     
  -2.0630492534443726E-002  0.11950760020938261        0.0000000000000000     
  -2.1155437814357841E-002  0.12671458008447978        0.0000000000000000     
  -2.1660015526991937E-002  0.13405048499123315        0.0000000000000000     
  -5.9776453519403555E-005  0.13376075900149981        0.0000000000000000     
  -6.8908241173556723E-005  0.14123774516959042        0.0000000000000000     
  -7.7999951995308143E-005  0.14883322338546015        0.0000000000000000     
  -8.7051585984658248E-005  0.15654719364910899        0.0000000000000000     
  -9.6063143141604870E-005  0.16437965596053700        0.0000000000000000     
  -5.4693822709450685E-003  0.13374699898977607        0.0000000000000000     
  -5.6068052516612208E-003  0.14121039980890643        0.0000000000000000     
  -5.7408433870851138E-003  0.14878916228535144        0.0000000000000000     
  -5.8714966772167492E-003  0.15648328641911105        0.0000000000000000     
  -5.9987651220561270E-003  0.16429277221018523        0.0000000000000000     
  -1.0872624055665712E-002  0.13379069998415705        0.0000000000000000     
  -1.1130707419767844E-002  0.14124686274562140        0.0000000000000000     
  -1.1378336952847143E-002  0.14881771539209349        0.0000000000000000     
  -1.1615512654903610E-002  0.15650325792357336        0.0000000000000000     
  -1.1842234525937250E-002  0.16430349034006092        0.0000000000000000     
  -1.6269501807681337E-002  0.13389186198464273        0.0000000000000000     
  -1.6640614745493422E-002  0.14134713397973531        0.0000000000000000     
  -1.6990480649281391E-002  0.14891888270568637        0.0000000000000000     
  -1.7319099519045242E-002  0.15660710816249596        0.0000000000000000     
  -1.7626471354784977E-002  0.16441181035016403        0.0000000000000000     
  -2.1660015526991937E-002  0.13405048499123315        0.0000000000000000     
  -2.2136527228837966E-002  0.14151121351124812        0.0000000000000000     
  -2.2577274476387871E-002  0.14909266422613002        0.0000000000000000     
  -2.2982257269641652E-002  0.15679483713587883        0.0000000000000000     
  -2.3351475608599303E-002  0.16461773224049464        0.0000000000000000     
   0.0000000000000000        0.0000000000000000        0.0000000000000000     
  -8.4178286033182218E-004   1.1101534643446717E-003   0.0000000000000000     
  -1.7023531246065683E-003   2.5984677245326142E-003   0.0000000000000000     
  -2.5817107928242391E-003   4.4649427805638275E-003   0.0000000000000000     
  -3.4798558649848342E-003   6.7095786324383117E-003   0.0000000000000000     
   0.0000000000000000        0.0000000000000000        0.0000000000000000     
  -1.0567760175367970E-003   1.1343476037400516E-003   0.0000000000000000     
  -2.1399134765176164E-003   2.6507614293149167E-003   0.0000000000000000     
  -3.2494123769424587E-003   4.5492414767245954E-003   0.0000000000000000     
  -4.3852727188113238E-003   6.8297877459690881E-003   0.0000000000000000     
   0.0000000000000000        0.0000000000000000        0.0000000000000000     
  -1.2878558474903117E-003   1.1702305074161770E-003   0.0000000000000000     
  -2.6055834273825255E-003   2.7250416957057314E-003   0.0000000000000000     
  -3.9531827396766415E-003   4.6644335648686639E-003   0.0000000000000000     
  -5.3306537843726591E-003   6.9884061149049726E-003   0.0000000000000000     
   0.0000000000000000        0.0000000000000000        0.0000000000000000     
  -1.5350223501923671E-003   1.2178021753730479E-003   0.0000000000000000     
  -3.0993629772012965E-003   2.8213085237050587E-003   0.0000000000000000     
  -4.6930218810267883E-003   4.8105190449960322E-003   0.0000000000000000     
  -6.3159990616688411E-003   7.1854337392459680E-003   0.0000000000000000     
   0.0000000000000000        0.0000000000000000        0.0000000000000000     
  -1.7982755256429628E-003   1.2770626076106643E-003   0.0000000000000000     
  -3.6212521259739285E-003   2.9395619133128978E-003   0.0000000000000000     
  -5.4689298009928979E-003   4.9874979171067001E-003   0.0000000000000000     
  -7.3413085506998698E-003   7.4208706189920707E-003   0.0000000000000000     
  -3.4798558649848342E-003   6.7095786324383117E-003   0.0000000000000000     
  -4.3885475726299457E-003   9.2950323382951713E-003   0.0000000000000000     
  -5.2995451473011627E-003   1.2183960956273504E-002   0.0000000000000000     
  -6.2128485889984880E-003   1.5376364486373313E-002   0.0000000000000000     
  -7.1284578977219215E-003   1.8872242928594598E-002   0.0000000000000000     
  -4.3852727188113238E-003   6.8297877459690881E-003   0.0000000000000000     
  -5.5345030242239723E-003   9.4504123234402833E-003   0.0000000000000000     
  -6.6841118152801623E-003   1.2369127295530077E-002   0.0000000000000000     
  -7.8340990919798948E-003   1.5585932662238462E-002   0.0000000000000000     
  -8.9844648543231688E-003   1.9100828423565443E-002   0.0000000000000000     
  -5.3306537843726591E-003   6.9884061149049726E-003   0.0000000000000000     
  -6.7235056681104535E-003   9.6509185961684840E-003   0.0000000000000000     
  -8.1172474975298951E-003   1.2605930259013015E-002   0.0000000000000000     
  -9.5118792726309864E-003   1.5853441103438577E-002   0.0000000000000000     
  -1.0907400993413729E-002   1.9393451129445155E-002   0.0000000000000000     
  -6.3159990616688411E-003   7.1854337392459680E-003   0.0000000000000000     
  -7.9555555042893893E-003   9.8965511564797649E-003   0.0000000000000000     
  -9.5989521940503652E-003   1.2894369846722327E-002   0.0000000000000000     
  -1.1246189130951769E-002   1.6178889809973646E-002   0.0000000000000000     
  -1.2897266314993600E-002   1.9750111046233733E-002   0.0000000000000000     
  -7.3413085506998698E-003   7.4208706189920707E-003   0.0000000000000000     
  -9.2306525327607823E-003   1.0187310004374133E-002   0.0000000000000000     
  -1.1129225904841574E-002   1.3234446058658002E-002   0.0000000000000000     
  -1.3037028666942240E-002   1.6562278781843683E-002   0.0000000000000000     
  -1.4954060819062785E-002   2.0170808173931180E-002   0.0000000000000000     
  -7.1284578977219215E-003   1.8872242928594598E-002   0.0000000000000000     
  -8.0398247020025005E-003   2.2645762407312576E-002   0.0000000000000000     
  -8.9404006303712581E-003   2.6671089046902460E-002   0.0000000000000000     
  -9.8301856828282002E-003   3.0948222847364253E-002   0.0000000000000000     
  -1.0709179859373322E-002   3.5477163808697962E-002   0.0000000000000000     
  -8.9844648543231688E-003   1.9100828423565443E-002   0.0000000000000000     
  -1.0128176578861637E-002   2.2888963636969149E-002   0.0000000000000000     
  -1.1258201742146949E-002   2.6925487359907709E-002   0.0000000000000000     
  -1.2374540344179103E-002   3.1210399592381123E-002   0.0000000000000000     
  -1.3477192384958099E-002   3.5743700334389394E-002   0.0000000000000000     
  -1.0907400993413729E-002   1.9393451129445155E-002   0.0000000000000000     
  -1.2293506533042547E-002   2.3200956946289264E-002   0.0000000000000000     
  -1.3659889764681870E-002   2.7250955163227390E-002   0.0000000000000000     
  -1.5006550688331698E-002   3.1543445780259548E-002   0.0000000000000000     
  -1.6333489303992029E-002   3.6078428797385723E-002   0.0000000000000000     
  -1.2897266314993600E-002   1.9750111046233733E-002   0.0000000000000000     
  -1.4535814564545228E-002   2.3581742335272909E-002   0.0000000000000000     
  -1.6145464697976022E-002   2.7647492456861513E-002   0.0000000000000000     
  -1.7726216715285979E-002   3.1947361410999527E-002   0.0000000000000000     
  -1.9278070616475101E-002   3.6481349197686960E-002   0.0000000000000000     
  -1.4954060819062785E-002   2.0170808173931180E-002   0.0000000000000000     
  -1.6855100673369681E-002   2.4031319803920103E-002   0.0000000000000000     
  -1.8714926542029400E-002   2.8115099240810057E-002   0.0000000000000000     
  -2.0533538425041947E-002   3.2422146484601053E-002   0.0000000000000000     
  -2.2310936322407320E-002   3.6952461535293094E-002   0.0000000000000000     
  -1.0709179859373322E-002   3.5477163808697962E-002   0.0000000000000000     
  -1.1571520560195669E-002   4.0237523197731058E-002   0.0000000000000000     
  -1.2411345185484285E-002   4.5208912281291029E-002   0.0000000000000000     
  -1.3228653735239166E-002   5.0391331059377875E-002   0.0000000000000000     
  -1.4023446209460319E-002   5.5784779531991603E-002   0.0000000000000000     
  -1.3477192384958099E-002   3.5743700334389394E-002   0.0000000000000000     
  -1.4557724218329607E-002   4.0505881970122101E-002   0.0000000000000000     
  -1.5607702198139286E-002   4.5477436883768846E-002   0.0000000000000000     
  -1.6627126324387134E-002   5.0658365075329628E-002   0.0000000000000000     
  -1.7615996597073160E-002   5.6048666544804442E-002   0.0000000000000000     
  -1.6333489303992029E-002   3.6078428797385723E-002   0.0000000000000000     
  -1.7631795893000315E-002   4.0838741397547958E-002   0.0000000000000000     
  -1.8892560736694000E-002   4.5807220763688247E-002   0.0000000000000000     
  -2.0115783835073092E-002   5.0983866895806612E-002   0.0000000000000000     
  -2.1301465188137577E-002   5.6368679793903038E-002   0.0000000000000000     
  -1.9278070616475101E-002   3.6481349197686960E-002   0.0000000000000000     
  -2.0793735584207787E-002   4.1236101480008606E-002   0.0000000000000000     
  -2.2265920801148427E-002   4.6198263921049226E-002   0.0000000000000000     
  -2.3694626267297021E-002   5.1367836520808827E-002   0.0000000000000000     
  -2.5079851982653570E-002   5.6744819279287408E-002   0.0000000000000000     
  -2.2310936322407320E-002   3.6952461535293094E-002   0.0000000000000000     
  -2.4043543291952026E-002   4.1697962217504041E-002   0.0000000000000000     
  -2.5727782391502564E-002   4.6650566355851769E-002   0.0000000000000000     
  -2.7363653621058935E-002   5.1810273950336258E-002   0.0000000000000000     
  -2.8951156980621146E-002   5.7177085000957542E-002   0.0000000000000000     
  -1.4023446209460319E-002   5.5784779531991603E-002   0.0000000000000000     
  -1.4795828084925888E-002   6.1375384149087178E-002   0.0000000000000000     
  -1.5545904838414023E-002   6.7149271360619545E-002   0.0000000000000000     
  -1.6273676469924728E-002   7.3106441166588751E-002   0.0000000000000000     
  -1.6979142979458003E-002   7.9246893566994742E-002   0.0000000000000000     
  -1.7615996597073160E-002   5.6048666544804442E-002   0.0000000000000000     
  -1.8576166135080778E-002   6.1634983958821124E-002   0.0000000000000000     
  -1.9509488057293412E-002   6.7403959984007528E-002   0.0000000000000000     
  -2.0415962363711061E-002   7.3355594620363618E-002   0.0000000000000000     
  -2.1295589054333732E-002   7.9489887867889436E-002   0.0000000000000000     
  -2.1301465188137577E-002   5.6368679793903038E-002   0.0000000000000000     
  -2.2452272433656550E-002   6.1948507998080472E-002   0.0000000000000000     
  -2.3570873209399094E-002   6.7710200048441860E-002   0.0000000000000000     
  -2.4657267515365205E-002   7.3653755944987159E-002   0.0000000000000000     
  -2.5711455351554887E-002   7.9779175687716419E-002   0.0000000000000000     
  -2.5079851982653570E-002   5.6744819279287408E-002   0.0000000000000000     
  -2.6424146980653214E-002   6.2315956266865244E-002   0.0000000000000000     
  -2.7730060294731074E-002   6.8067991553922569E-002   0.0000000000000000     
  -2.8997591924887153E-002   7.4000925140459389E-002   0.0000000000000000     
  -3.0226741871121458E-002   8.0114757026475691E-002   0.0000000000000000     
  -2.8951156980621146E-002   5.7177085000957542E-002   0.0000000000000000     
  -3.0491789776070762E-002   6.2737328765175404E-002   0.0000000000000000     
  -3.1987049313289342E-002   6.8477334500449641E-002   0.0000000000000000     
  -3.3436935592276902E-002   7.4397102206780266E-002   0.0000000000000000     
  -3.4841448613033441E-002   8.0496631884167294E-002   0.0000000000000000     
  -1.6979142979458003E-002   7.9246893566994742E-002   0.0000000000000000     
  -1.7658650709198760E-002   8.5560558964410671E-002   0.0000000000000000     
  -1.8308546001331923E-002   9.2037367761409666E-002   0.0000000000000000     
  -1.8928828855857477E-002   9.8677319957991741E-002   0.0000000000000000     
  -1.9519499272775440E-002  0.10548041555415688        0.0000000000000000     
  -2.1295589054333732E-002   7.9489887867889436E-002   0.0000000000000000     
  -2.2143077508629594E-002   8.5796689536063009E-002   0.0000000000000000     
  -2.2953137106066817E-002   9.2265849434362432E-002   0.0000000000000000     
  -2.3725767846645391E-002   9.8897367562787691E-002   0.0000000000000000     
  -2.4460969730365330E-002  0.10569124392133876        0.0000000000000000     
  -2.5711455351554887E-002   7.9779175687716419E-002   0.0000000000000000     
  -2.6727245005546778E-002   8.6076394461982342E-002   0.0000000000000000     
  -2.7698444764919512E-002   9.2535347453137670E-002   0.0000000000000000     
  -2.8625054629673099E-002   9.9156034661182404E-002   0.0000000000000000     
  -2.9507074599807531E-002  0.10593845608611656        0.0000000000000000     
  -3.0226741871121458E-002   8.0114757026475691E-002   0.0000000000000000     
  -3.1411153199950304E-002   8.6399673742168670E-002   0.0000000000000000     
  -3.2544468977890012E-002   9.2845861817735423E-002   0.0000000000000000     
  -3.3626689204940587E-002   9.9453321253175950E-002   0.0000000000000000     
  -3.4657813881102034E-002  0.10622205204849025        0.0000000000000000     
  -3.4841448613033441E-002   8.0496631884167294E-002   0.0000000000000000     
  -3.6194802091840172E-002   8.6766527376621966E-002   0.0000000000000000     
  -3.7491209744978313E-002   9.3197392528155634E-002   0.0000000000000000     
  -3.8730671572447875E-002   9.9789227338768258E-002   0.0000000000000000     
  -3.9913187574248853E-002  0.10654203180845986        0.0000000000000000     
  -1.9519499272775440E-002  0.10548041555415688        0.0000000000000000     
  -2.0085179687249589E-002  0.11242954536594164        0.0000000000000000     
  -2.0630492534443726E-002  0.11950760020938261        0.0000000000000000     
  -2.1155437814357841E-002  0.12671458008447978        0.0000000000000000     
  -2.1660015526991937E-002  0.13405048499123315        0.0000000000000000     
  -2.4460969730365330E-002  0.10569124392133876        0.0000000000000000     
  -2.5163696136521758E-002  0.11263226963761483        0.0000000000000000     
  -2.5838900444409802E-002  0.11970523583921500        0.0000000000000000     
  -2.6486582654029468E-002  0.12691014252613936        0.0000000000000000     
  -2.7106742765380745E-002  0.13424698969838783        0.0000000000000000     
  -2.9507074599807531E-002  0.10593845608611656        0.0000000000000000     
  -3.0349692521602637E-002  0.11286863128080379        0.0000000000000000     
  -3.1158096241338248E-002  0.11993257979810781        0.0000000000000000     
  -3.1932285759014356E-002  0.12713030163802863        0.0000000000000000     
  -3.2672261074630969E-002  0.13446179680056622        0.0000000000000000     
  -3.4657813881102034E-002  0.10622205204849025        0.0000000000000000     
  -3.5643168842492239E-002  0.11313863029550854        0.0000000000000000     
  -3.6588079925229056E-002  0.12018963208606098        0.0000000000000000     
  -3.7492547129312520E-002  0.12737505742014760        0.0000000000000000     
  -3.8356570454742611E-002  0.13469490629776840        0.0000000000000000     
  -3.9913187574248853E-002  0.10654203180845986        0.0000000000000000     
  -4.1044125099190538E-002  0.11344226668172908        0.0000000000000000     
  -4.2128851496082240E-002  0.12047639270307457        0.0000000000000000     
  -4.3167366764923956E-002  0.12764440987249631        0.0000000000000000     
  -4.4159670905715681E-002  0.13494631818999431        0.0000000000000000     
  -2.1660015526991937E-002  0.13405048499123315        0.0000000000000000     
  -2.2136527228837966E-002  0.14151121351124812        0.0000000000000000     
  -2.2577274476387871E-002  0.14909266422613002        0.0000000000000000     
  -2.2982257269641652E-002  0.15679483713587883        0.0000000000000000     
  -2.3351475608599303E-002  0.16461773224049464        0.0000000000000000     
  -2.7106742765380745E-002  0.13424698969838783        0.0000000000000000     
  -2.7688433212230124E-002  0.14171193452639616        0.0000000000000000     
  -2.8220706428344094E-002  0.14930113418060023        0.0000000000000000     
  -2.8703562413722652E-002  0.15701458866099990        0.0000000000000000     
  -2.9137001168365786E-002  0.16485229796759532        0.0000000000000000     
  -3.2672261074630969E-002  0.13446179680056622        0.0000000000000000     
  -3.3366321038098556E-002  0.14192213021141586        0.0000000000000000     
  -3.4002764499327584E-002  0.14950636679627280        0.0000000000000000     
  -3.4581591458318059E-002  0.15721450655513705        0.0000000000000000     
  -3.5102801915069981E-002  0.16504654948800859        0.0000000000000000     
  -3.8356570454742611E-002  0.13469490629776840        0.0000000000000000     
  -3.9170190706443252E-002  0.14214180056630718        0.0000000000000000     
  -3.9923448689338351E-002  0.14970836207314778        0.0000000000000000     
  -4.0616344403427901E-002  0.15739459081829021        0.0000000000000000     
  -4.1248877848711882E-002  0.16520048680173449        0.0000000000000000     
  -4.4159670905715681E-002  0.13494631818999431        0.0000000000000000     
  -4.5100042217264213E-002  0.14237094559107008        0.0000000000000000     
  -4.5982758998376366E-002  0.14990712001122511        0.0000000000000000     
  -4.6807821249052126E-002  0.15755484145045942        0.0000000000000000     
  -4.7575228969291505E-002  0.16531410990877304        0.0000000000000000     
   0.0000000000000000        0.0000000000000000        0.0000000000000000     
  -1.7982755256429628E-003   1.2770626076106643E-003   0.0000000000000000     
  -3.6212521259739285E-003   2.9395619133128978E-003   0.0000000000000000     
  -5.4689298009928979E-003   4.9874979171067001E-003   0.0000000000000000     
  -7.3413085506998698E-003   7.4208706189920707E-003   0.0000000000000000     
   0.0000000000000000        0.0000000000000000        0.0000000000000000     
  -2.0693535780061589E-003   1.3551338352786623E-003   0.0000000000000000     
  -4.1639093517163691E-003   3.0943273337441790E-003   0.0000000000000000     
  -6.2836673211306322E-003   5.2175804953965487E-003   0.0000000000000000     
  -8.4286274862489467E-003   7.7248933202357746E-003   0.0000000000000000     
   0.0000000000000000        0.0000000000000000        0.0000000000000000     
  -2.3399947114460160E-003   1.4591378895266773E-003   0.0000000000000000     
  -4.7199931324445671E-003   3.3001302542138311E-003   0.0000000000000000     
  -7.1399952629956536E-003   5.5229770940614627E-003   0.0000000000000000     
  -9.6000011030992760E-003   8.1276784090695709E-003   0.0000000000000000     
   0.0000000000000000        0.0000000000000000        0.0000000000000000     
  -2.6101989259625343E-003   1.5890747703547091E-003   0.0000000000000000     
  -5.2895034681585207E-003   3.5569706747218552E-003   0.0000000000000000     
  -8.0379136265879593E-003   5.9036877131014385E-003   0.0000000000000000     
  -1.0855429401250853E-002   8.6292258854934589E-003   0.0000000000000000     
   0.0000000000000000        0.0000000000000000        0.0000000000000000     
  -2.8799662215557133E-003   1.7449444777627584E-003   0.0000000000000000     
  -5.8724403588582318E-003   3.8648485952682511E-003   0.0000000000000000     
  -8.9774224119075537E-003   6.3597123525164770E-003   0.0000000000000000     
  -1.2194912380703683E-002   9.2295357495074375E-003   0.0000000000000000     
  -7.3413085506998698E-003   7.4208706189920707E-003   0.0000000000000000     
  -9.2306525327607823E-003   1.0187310004374133E-002   0.0000000000000000     
  -1.1129225904841574E-002   1.3234446058658002E-002   0.0000000000000000     
  -1.3037028666942240E-002   1.6562278781843683E-002   0.0000000000000000     
  -1.4954060819062785E-002   2.0170808173931180E-002   0.0000000000000000     
  -8.4286274862489467E-003   7.7248933202357746E-003   0.0000000000000000     
  -1.0590398893359880E-002   1.0558857349389380E-002   0.0000000000000000     
  -1.2760590588751992E-002   1.3662064123984890E-002   0.0000000000000000     
  -1.4939202572425281E-002   1.7034513644022305E-002   0.0000000000000000     
  -1.7126234844379754E-002   2.0676205909501626E-002   0.0000000000000000     
  -9.6000011030992760E-003   8.1276784090695709E-003   0.0000000000000000     
  -1.2076396725921926E-002   1.1046855401063307E-002   0.0000000000000000     
  -1.4545568204630092E-002   1.4213129271867827E-002   0.0000000000000000     
  -1.7007515539223785E-002   1.7626500021483124E-002   0.0000000000000000     
  -1.9462238729702989E-002   2.1286967649909207E-002   0.0000000000000000     
  -1.0855429401250853E-002   8.6292258854934589E-003   0.0000000000000000     
  -1.3688646030446922E-002   1.1651304159395913E-002   0.0000000000000000     
  -1.6484158752475882E-002   1.4887641502306809E-002   0.0000000000000000     
  -1.9241967567337731E-002   1.8338237914226150E-002   0.0000000000000000     
  -2.1962072475032481E-002   2.2003093395153918E-002   0.0000000000000000     
  -1.2194912380703683E-002   9.2295357495074375E-003   0.0000000000000000     
  -1.5427146806934864E-002   1.2372203624387202E-002   0.0000000000000000     
  -1.8576362232289350E-002   1.5685600815301844E-002   0.0000000000000000     
  -2.1642558656767140E-002   1.9169727322251369E-002   0.0000000000000000     
  -2.4625736080368239E-002   2.2824583145235763E-002   0.0000000000000000     
  -1.4954060819062785E-002   2.0170808173931180E-002   0.0000000000000000     
  -1.6855100673369681E-002   2.4031319803920103E-002   0.0000000000000000     
  -1.8714926542029400E-002   2.8115099240810057E-002   0.0000000000000000     
  -2.0533538425041947E-002   3.2422146484601053E-002   0.0000000000000000     
  -2.2310936322407320E-002   3.6952461535293094E-002   0.0000000000000000     
  -1.7126234844379754E-002   2.0676205909501626E-002   0.0000000000000000     
  -1.9290629007007499E-002   2.4559402760630011E-002   0.0000000000000000     
  -2.1401326662700615E-002   2.8656366037614626E-002   0.0000000000000000     
  -2.3458327811459099E-002   3.2967095740455456E-002   0.0000000000000000     
  -2.5461632453282944E-002   3.7491591869152525E-002   0.0000000000000000     
  -1.9462238729702989E-002   2.1286967649909207E-002   0.0000000000000000     
  -2.1881663712950288E-002   2.5175704613801836E-002   0.0000000000000000     
  -2.4237716425848259E-002   2.9273883369816785E-002   0.0000000000000000     
  -2.6530396868396904E-002   3.3581503917954059E-002   0.0000000000000000     
  -2.8759705040596221E-002   3.8098566258213659E-002   0.0000000000000000     
  -2.1962072475032481E-002   2.2003093395153918E-002   0.0000000000000000     
  -2.4628204791198045E-002   2.5880225363435570E-002   0.0000000000000000     
  -2.7224095831472350E-002   2.9967651237416550E-002   0.0000000000000000     
  -2.9749745595855383E-002   3.4265371017096848E-002   0.0000000000000000     
  -3.2205154084347161E-002   3.8773384702476481E-002   0.0000000000000000     
  -2.4625736080368239E-002   2.2824583145235763E-002   0.0000000000000000     
  -2.7530252241750767E-002   2.6672965009531219E-002   0.0000000000000000     
  -3.0360464879572863E-002   3.0737669640413912E-002   0.0000000000000000     
  -3.3116373993834519E-002   3.5018697037883836E-002   0.0000000000000000     
  -3.5797979584535747E-002   3.9516047201940997E-002   0.0000000000000000     
  -2.2310936322407320E-002   3.6952461535293094E-002   0.0000000000000000     
  -2.4043543291952026E-002   4.1697962217504041E-002   0.0000000000000000     
  -2.5727782391502564E-002   4.6650566355851769E-002   0.0000000000000000     
  -2.7363653621058935E-002   5.1810273950336258E-002   0.0000000000000000     
  -2.8951156980621146E-002   5.7177085000957542E-002   0.0000000000000000     
  -2.5461632453282944E-002   3.7491591869152525E-002   0.0000000000000000     
  -2.7411415053715991E-002   4.2226192837225986E-002   0.0000000000000000     
  -2.9307850078302059E-002   4.7167237058196018E-002   0.0000000000000000     
  -3.1150937527041157E-002   5.2314724532062616E-002   0.0000000000000000     
  -3.2940677399933282E-002   5.7668655258825793E-002   0.0000000000000000     
  -2.8759705040596221E-002   3.8098566258213659E-002   0.0000000000000000     
  -3.0927546906982635E-002   4.2822662566366146E-002   0.0000000000000000     
  -3.3035828432092559E-002   4.7751385018182123E-002   0.0000000000000000     
  -3.5084549615926011E-002   5.2884733613661583E-002   0.0000000000000000     
  -3.7073710458482970E-002   5.8222708352804527E-002   0.0000000000000000     
  -3.2205154084347161E-002   3.8773384702476481E-002   0.0000000000000000     
  -3.4591938851751956E-002   4.3487371404924528E-002   0.0000000000000000     
  -3.6911717452874061E-002   4.8403010235810076E-002   0.0000000000000000     
  -3.9164489887713483E-002   5.3520301195133159E-002   0.0000000000000000     
  -4.1350256156270207E-002   5.8839244282893742E-002   0.0000000000000000     
  -3.5797979584535747E-002   3.9516047201940997E-002   0.0000000000000000     
  -3.8404590888023962E-002   4.4220319352901105E-002   0.0000000000000000     
  -4.0935517140646568E-002   4.9122112711079885E-002   0.0000000000000000     
  -4.3390758342403586E-002   5.4221427276477337E-002   0.0000000000000000     
  -4.5770314493294995E-002   5.9518263049093453E-002   0.0000000000000000     
  -2.8951156980621146E-002   5.7177085000957542E-002   0.0000000000000000     
  -3.0491789776070762E-002   6.2737328765175404E-002   0.0000000000000000     
  -3.1987049313289342E-002   6.8477334500449641E-002   0.0000000000000000     
  -3.3436935592276902E-002   7.4397102206780266E-002   0.0000000000000000     
  -3.4841448613033441E-002   8.0496631884167294E-002   0.0000000000000000     
  -3.2940677399933282E-002   5.7668655258825793E-002   0.0000000000000000     
  -3.4677572526327353E-002   6.3215229029334075E-002   0.0000000000000000     
  -3.6362125735572293E-002   6.8940645634435985E-002   0.0000000000000000     
  -3.7994337027668100E-002   7.4844905074131551E-002   0.0000000000000000     
  -3.9574206402614776E-002   8.0928007348420719E-002   0.0000000000000000     
  -3.7073710458482970E-002   5.8222708352804527E-002   0.0000000000000000     
  -3.9003866937841171E-002   6.3752260595664356E-002   0.0000000000000000     
  -4.0875575032078289E-002   6.9460341702294495E-002   0.0000000000000000     
  -4.2688834741194365E-002   7.5346951672694909E-002   0.0000000000000000     
  -4.4443646065189378E-002   8.1412090506865639E-002   0.0000000000000000     
  -4.1350256156270207E-002   5.8839244282893742E-002   0.0000000000000000     
  -4.3470673010612186E-002   6.4348423464166277E-002   0.0000000000000000     
  -4.5527397202807351E-002   7.0036422704025159E-002   0.0000000000000000     
  -4.7520428732855703E-002   7.5903242002470395E-002   0.0000000000000000     
  -4.9449767600757255E-002   8.1948881359501971E-002   0.0000000000000000     
  -4.5770314493294995E-002   5.9518263049093453E-002   0.0000000000000000     
  -4.8077990744640420E-002   6.5003717634839808E-002   0.0000000000000000     
  -5.0317592247759460E-002   7.0668888639627975E-002   0.0000000000000000     
  -5.2489119002652136E-002   7.6513776063457953E-002   0.0000000000000000     
  -5.4592571009318414E-002   8.2538379906329756E-002   0.0000000000000000     
  -3.4841448613033441E-002   8.0496631884167294E-002   0.0000000000000000     
  -3.6194802091840172E-002   8.6766527376621966E-002   0.0000000000000000     
  -3.7491209744978313E-002   9.3197392528155634E-002   0.0000000000000000     
  -3.8730671572447875E-002   9.9789227338768258E-002   0.0000000000000000     
  -3.9913187574248853E-002  0.10654203180845986        0.0000000000000000     
  -3.9574206402614776E-002   8.0928007348420719E-002   0.0000000000000000     
  -4.1096528833095947E-002   8.7180919708719842E-002   0.0000000000000000     
  -4.2556099291795227E-002   9.3594609406445109E-002   0.0000000000000000     
  -4.3952917778712616E-002  0.10016907644159655        0.0000000000000000     
  -4.5286984293848136E-002  0.10690432081417414        0.0000000000000000     
  -4.4443646065189378E-002   8.1412090506865639E-002   0.0000000000000000     
  -4.6134670575597163E-002   8.7646815081839802E-002   0.0000000000000000     
  -4.7756569843951532E-002   9.4042182274650540E-002   0.0000000000000000     
  -4.9309343870252480E-002  0.10059819208529788        0.0000000000000000     
  -5.0792992654500033E-002  0.10731484451378179        0.0000000000000000     
  -4.9449767600757255E-002   8.1948881359501971E-002   0.0000000000000000     
  -5.1309227319343828E-002   8.8164213495981844E-002   0.0000000000000000     
  -5.3092621401447229E-002   9.4540111132771942E-002   0.0000000000000000     
  -5.4799949847067493E-002  0.10107657426987228        0.0000000000000000     
  -5.6431212656204571E-002  0.10777360290728280        0.0000000000000000     
  -5.4592571009318414E-002   8.2538379906329756E-002   0.0000000000000000     
  -5.6620199064335942E-002   8.8733114951145997E-002   0.0000000000000000     
  -5.8564253964282345E-002   9.5088395980809315E-002   0.0000000000000000     
  -6.0424735709157601E-002  0.10160422299531972        0.0000000000000000     
  -6.2201644298961731E-002  0.10828059599467720        0.0000000000000000     
  -3.9913187574248853E-002  0.10654203180845986        0.0000000000000000     
  -4.1044125099190538E-002  0.11344226668172908        0.0000000000000000     
  -4.2128851496082240E-002  0.12047639270307457        0.0000000000000000     
  -4.3167366764923956E-002  0.12764440987249631        0.0000000000000000     
  -4.4159670905715681E-002  0.13494631818999431        0.0000000000000000     
  -4.5286984293848136E-002  0.10690432081417414        0.0000000000000000     
  -4.6564038575726094E-002  0.11378633094642081        0.0000000000000000     
  -4.7789820362870855E-002  0.12080109526057947        0.0000000000000000     
  -4.8964329655282413E-002  0.12794861375665015        0.0000000000000000     
  -5.0087566452960752E-002  0.13522888643463277        0.0000000000000000     
  -5.0792992654500033E-002  0.10731484451378179        0.0000000000000000     
  -5.2214386556127451E-002  0.11417761359653911        0.0000000000000000     
  -5.3580395934567981E-002  0.12117197337000668        0.0000000000000000     
  -5.4891020789821644E-002  0.12829792383418451        0.0000000000000000     
  -5.6146261121888433E-002  0.13555546498907256        0.0000000000000000     
  -5.6431212656204571E-002  0.10777360290728280        0.0000000000000000     
  -5.7995169040394590E-002  0.11461611463208397        0.0000000000000000     
  -5.9500578211173619E-002  0.12158902703135618        0.0000000000000000     
  -6.0947440168541658E-002  0.12869234010509939        0.0000000000000000     
  -6.2335754912498709E-002  0.13592605385331366        0.0000000000000000     
  -6.2201644298961731E-002  0.10828059599467720        0.0000000000000000     
  -6.3906386028527523E-002  0.11510183405305541        0.0000000000000000     
  -6.5550367192687753E-002  0.12205225624462793        0.0000000000000000     
  -6.7133587791442448E-002  0.12913186256939485        0.0000000000000000     
  -6.8656047824791594E-002  0.13634065302735610        0.0000000000000000     
  -4.4159670905715681E-002  0.13494631818999431        0.0000000000000000     
  -4.5100042217264213E-002  0.14237094559107008        0.0000000000000000     
  -4.5982758998376366E-002  0.14990712001122511        0.0000000000000000     
  -4.6807821249052126E-002  0.15755484145045942        0.0000000000000000     
  -4.7575228969291505E-002  0.16531410990877304        0.0000000000000000     
  -5.0087566452960752E-002  0.13522888643463277        0.0000000000000000     
  -5.1157379112531189E-002  0.14262765426635327        0.0000000000000000     
  -5.2171615990619036E-002  0.15013065822363747        0.0000000000000000     
  -5.3130277087224287E-002  0.15773789830648544        0.0000000000000000     
  -5.4033362402346935E-002  0.16544937451489714        0.0000000000000000     
  -5.6146261121888433E-002  0.13555546498907256        0.0000000000000000     
  -5.7343704934213931E-002  0.14293001557280535        0.0000000000000000     
  -5.8480940230243743E-002  0.15040699432351751        0.0000000000000000     
  -5.9557967009977869E-002  0.15798640124120897        0.0000000000000000     
  -6.0574785273416296E-002  0.16566823632587974        0.0000000000000000     
  -6.2335754912498709E-002  0.13592605385331366        0.0000000000000000     
  -6.3659019682312426E-002  0.14327802951042645        0.0000000000000000     
  -6.4910731717250494E-002  0.15073612831086525        0.0000000000000000     
  -6.6090891017312886E-002  0.15830035025463005        0.0000000000000000     
  -6.7199497582499601E-002  0.16597069534172085        0.0000000000000000     
  -6.8656047824791594E-002  0.13634065302735610        0.0000000000000000     
  -7.0103323356826702E-002  0.14367169607921645        0.0000000000000000     
  -7.1460990451639270E-002  0.15111806018568064        0.0000000000000000     
  -7.2729049109229310E-002  0.15867974534674864        0.0000000000000000     
  -7.3907499329596824E-002  0.16635675156242047        0.0000000000000000     
   0.0000000000000000        0.0000000000000000        0.0000000000000000     
  -2.8799662215557133E-003   1.7449444777627584E-003   0.0000000000000000     
  -5.8724403588582318E-003   3.8648485952682511E-003   0.0000000000000000     
  -8.9774224119075537E-003   6.3597123525164770E-003   0.0000000000000000     
  -1.2194912380703683E-002   9.2295357495074375E-003   0.0000000000000000     
   0.0000000000000000        0.0000000000000000        0.0000000000000000     
  -3.2831178823410799E-003   1.9994222293819100E-003   0.0000000000000000     
  -6.6767588950491039E-003   4.3310942455750158E-003   0.0000000000000000     
  -1.0180923038124070E-002   6.9950160485793174E-003   0.0000000000000000     
  -1.3795610311565981E-002   9.9911876383948148E-003   0.0000000000000000     
   0.0000000000000000        0.0000000000000000        0.0000000000000000     
  -3.9534751924341603E-003   2.4251832428432499E-003   0.0000000000000000     
  -7.9104141672365434E-003   5.0630378553641504E-003   0.0000000000000000     
  -1.1870816924407149E-002   7.9135638375626999E-003   0.0000000000000000     
  -1.5834683463945974E-002   1.0976761189438900E-002   0.0000000000000000     
   0.0000000000000000        0.0000000000000000        0.0000000000000000     
  -4.8910381518349547E-003   3.0222275181467778E-003   0.0000000000000000     
  -9.5734061754205509E-003   6.0606794246356515E-003   0.0000000000000000     
  -1.4047104070756784E-002   9.1153557194666220E-003   0.0000000000000000     
  -1.8312131837843658E-002   1.2186256402639687E-002   0.0000000000000000     
   0.0000000000000000        0.0000000000000000        0.0000000000000000     
  -6.0958067605434620E-003   3.7905550552924929E-003   0.0000000000000000     
  -1.1665734919601123E-002   7.3240189533895208E-003   0.0000000000000000     
  -1.6709784477172980E-002   1.0600391694291084E-002   0.0000000000000000     
  -2.1227955433259039E-002   1.3619673277997180E-002   0.0000000000000000     
  -1.2194912380703683E-002   9.2295357495074375E-003   0.0000000000000000     
  -1.5427146806934864E-002   1.2372203624387202E-002   0.0000000000000000     
  -1.8576362232289350E-002   1.5685600815301844E-002   0.0000000000000000     
  -2.1642558656767140E-002   1.9169727322251369E-002   0.0000000000000000     
  -2.4625736080368239E-002   2.2824583145235763E-002   0.0000000000000000     
  -1.3795610311565981E-002   9.9911876383948148E-003   0.0000000000000000     
  -1.7403731996077719E-002   1.3221570741824892E-002   0.0000000000000000     
  -2.0888199372362162E-002   1.6588127085672942E-002   0.0000000000000000     
  -2.4249012440419306E-002   2.0090856669938956E-002   0.0000000000000000     
  -2.7486171200249158E-002   2.3729759494622936E-002   0.0000000000000000     
  -1.5834683463945974E-002   1.0976761189438900E-002   0.0000000000000000     
  -1.9730234538567443E-002   1.4211422457496712E-002   0.0000000000000000     
  -2.3485690900985956E-002   1.7576340188240103E-002   0.0000000000000000     
  -2.7101052551201522E-002   2.1071514381669074E-002   0.0000000000000000     
  -3.0576319489214149E-002   2.4696945037783628E-002   0.0000000000000000     
  -1.8312131837843658E-002   1.2186256402639687E-002   0.0000000000000000     
  -2.2406654434404028E-002   1.5341758771402656E-002   0.0000000000000000     
  -2.6368836818160744E-002   1.8650240123003332E-002   0.0000000000000000     
  -3.0198678989113797E-002   2.2111700457441732E-002   0.0000000000000000     
  -3.3896180947263203E-002   2.5726139774717830E-002   0.0000000000000000     
  -2.1227955433259039E-002   1.3619673277997180E-002   0.0000000000000000     
  -2.5432991683587487E-002   1.6612579683542725E-002   0.0000000000000000     
  -2.9537637123886518E-002   1.9809826889962637E-002   0.0000000000000000     
  -3.3541891754156131E-002   2.3211414897256914E-002   0.0000000000000000     
  -3.7445755574396333E-002   2.6817343705425555E-002   0.0000000000000000     
  -2.4625736080368239E-002   2.2824583145235763E-002   0.0000000000000000     
  -2.7530252241750767E-002   2.6672965009531219E-002   0.0000000000000000     
  -3.0360464879572863E-002   3.0737669640413912E-002   0.0000000000000000     
  -3.3116373993834519E-002   3.5018697037883836E-002   0.0000000000000000     
  -3.5797979584535747E-002   3.9516047201940997E-002   0.0000000000000000     
  -2.7486171200249158E-002   2.3729759494622936E-002   0.0000000000000000     
  -3.0622835072544666E-002   2.7547458077813107E-002   0.0000000000000000     
  -3.3682163477998767E-002   3.1586574937597707E-002   0.0000000000000000     
  -3.6664156416611478E-002   3.5847110073976701E-002   0.0000000000000000     
  -3.9568813888382792E-002   4.0329063486950131E-002   0.0000000000000000     
  -3.0576319489214149E-002   2.4696945037783628E-002   0.0000000000000000     
  -3.3940982291515938E-002   2.8497239094005578E-002   0.0000000000000000     
  -3.7224531534599023E-002   3.2517003487756761E-002   0.0000000000000000     
  -4.0426967218463394E-002   3.6756238219037167E-002   0.0000000000000000     
  -4.3548289343109066E-002   4.1214943287846799E-002   0.0000000000000000     
  -3.3896180947263203E-002   2.5726139774717830E-002   0.0000000000000000     
  -3.7484693898664601E-002   2.9522308058108630E-002   0.0000000000000000     
  -4.0987569049373618E-002   3.3528955290891081E-002   0.0000000000000000     
  -4.4404806399390283E-002   3.7746081473065220E-002   0.0000000000000000     
  -4.7736405948714582E-002   4.2173686604631014E-002   0.0000000000000000     
  -3.7445755574396333E-002   2.6817343705425555E-002   0.0000000000000000     
  -4.1253969893990633E-002   3.0622664970122247E-002   0.0000000000000000     
  -4.4971276022322565E-002   3.4622430347000681E-002   0.0000000000000000     
  -4.8597673959392136E-002   3.8816639836060852E-002   0.0000000000000000     
  -5.2133163705199326E-002   4.3205293437302755E-002   0.0000000000000000     
  -3.5797979584535747E-002   3.9516047201940997E-002   0.0000000000000000     
  -3.8404590888023962E-002   4.4220319352901105E-002   0.0000000000000000     
  -4.0935517140646568E-002   4.9122112711079885E-002   0.0000000000000000     
  -4.3390758342403586E-002   5.4221427276477337E-002   0.0000000000000000     
  -4.5770314493294995E-002   5.9518263049093453E-002   0.0000000000000000     
  -3.9568813888382792E-002   4.0329063486950131E-002   0.0000000000000000     
  -4.2392760880787889E-002   4.5018957351393954E-002   0.0000000000000000     
  -4.5132622381301959E-002   4.9903313842184174E-002   0.0000000000000000     
  -4.7788398389925005E-002   5.4982132959320792E-002   0.0000000000000000     
  -5.0360088906657018E-002   6.0255414702803795E-002   0.0000000000000000     
  -4.3548289343109066E-002   4.1214943287846799E-002   0.0000000000000000     
  -4.6583706695032985E-002   4.5880736341501124E-002   0.0000000000000000     
  -4.9528428060732106E-002   5.0741235027315590E-002   0.0000000000000000     
  -5.2382453440206436E-002   5.5796439345290195E-002   0.0000000000000000     
  -5.5145782833455975E-002   6.1046349295424955E-002   0.0000000000000000     
  -4.7736405948714582E-002   4.2173686604631014E-002   0.0000000000000000     
  -5.0977428330759245E-002   4.6805656323222609E-002   0.0000000000000000     
  -5.4122934178937002E-002   5.1635876266474118E-002   0.0000000000000000     
  -5.7172923493247881E-002   5.6664346434385560E-002   0.0000000000000000     
  -6.0127396273691860E-002   6.1891066826956914E-002   0.0000000000000000     
  -5.2133163705199326E-002   4.3205293437302755E-002   0.0000000000000000     
  -5.5573925787966674E-002   4.7793717296558402E-002   0.0000000000000000     
  -5.8916140735916674E-002   5.2587237559659758E-002   0.0000000000000000     
  -6.2159808549049338E-002   5.7585854226606857E-002   0.0000000000000000     
  -6.5304929227364666E-002   6.2789567297399679E-002   0.0000000000000000     
  -4.5770314493294995E-002   5.9518263049093453E-002   0.0000000000000000     
  -4.8077990744640420E-002   6.5003717634839808E-002   0.0000000000000000     
  -5.0317592247759460E-002   7.0668888639627975E-002   0.0000000000000000     
  -5.2489119002652136E-002   7.6513776063457953E-002   0.0000000000000000     
  -5.4592571009318414E-002   8.2538379906329756E-002   0.0000000000000000     
  -5.0360088906657018E-002   6.0255414702803795E-002   0.0000000000000000     
  -5.2853652899122125E-002   6.5716082098133149E-002   0.0000000000000000     
  -5.5275049334944412E-002   7.1357058170808799E-002   0.0000000000000000     
  -5.7624278214123893E-002   7.7178342920830770E-002   0.0000000000000000     
  -5.9901339536660582E-002   8.3179936348199007E-002   0.0000000000000000     
  -5.5145782833455975E-002   6.1046349295424955E-002   0.0000000000000000     
  -5.7825492233253548E-002   6.6483455844494485E-002   0.0000000000000000     
  -6.0428657632371992E-002   7.2100249959273485E-002   0.0000000000000000     
  -6.2955279030811301E-002   7.7896731639761879E-002   0.0000000000000000     
  -6.5405356428571468E-002   8.3872900885959750E-002   0.0000000000000000     
  -6.0127396273691860E-002   6.1891066826956914E-002   0.0000000000000000     
  -6.2993508747034702E-002   6.7305838873923857E-002   0.0000000000000000     
  -6.5778417140042192E-002   7.2898464005021993E-002   0.0000000000000000     
  -6.8482121452714317E-002   7.8668942220251392E-002   0.0000000000000000     
  -7.1104621685051092E-002   8.4617273519611971E-002   0.0000000000000000     
  -6.5304929227364666E-002   6.2789567297399679E-002   0.0000000000000000     
  -6.8357702440465587E-002   6.8183231186421195E-002   0.0000000000000000     
  -7.1324327857955019E-002   7.3751700308054363E-002   0.0000000000000000     
  -7.4204805479832991E-002   7.9494974662299198E-002   0.0000000000000000     
  -7.6999135306099462E-002   8.5413054249155684E-002   0.0000000000000000     
  -5.4592571009318414E-002   8.2538379906329756E-002   0.0000000000000000     
  -5.6620199064335942E-002   8.8733114951145997E-002   0.0000000000000000     
  -5.8564253964282345E-002   9.5088395980809315E-002   0.0000000000000000     
  -6.0424735709157601E-002  0.10160422299531972        0.0000000000000000     
  -6.2201644298961731E-002  0.10828059599467720        0.0000000000000000     
  -5.9901339536660582E-002   8.3179936348199007E-002   0.0000000000000000     
  -6.2096864946500359E-002   8.9352032160930975E-002   0.0000000000000000     
  -6.4201486087589174E-002   9.5684824067043969E-002   0.0000000000000000     
  -6.6215202959927041E-002  0.10217831206653810        0.0000000000000000     
  -6.8138015563513926E-002  0.10883249615941329        0.0000000000000000     
  -6.5405356428571468E-002   8.3872900885959750E-002   0.0000000000000000     
  -6.7768504101763924E-002   9.0019477838935408E-002   0.0000000000000000     
  -7.0034336326500093E-002   9.6327182639757231E-002   0.0000000000000000     
  -7.2202853102779976E-002  0.10279601528842522        0.0000000000000000     
  -7.4274054430603573E-002  0.10942597578493941        0.0000000000000000     
  -7.1104621685051092E-002   8.4617273519611971E-002   0.0000000000000000     
  -7.3635116530126651E-002   9.0735451985159338E-002   0.0000000000000000     
  -7.6062804681015075E-002   9.7015471698949085E-002   0.0000000000000000     
  -7.8387686137716420E-002  0.10345733266098116        0.0000000000000000     
  -8.0609760900230670E-002  0.11006103487125554        0.0000000000000000     
  -7.6999135306099462E-002   8.5413054249155684E-002   0.0000000000000000     
  -7.9696702231588493E-002   9.1499954599602792E-002   0.0000000000000000     
  -8.2286891151134120E-002   9.7749691244619491E-002   0.0000000000000000     
  -8.4769702064736344E-002  0.10416226418420581        0.0000000000000000     
  -8.7145134972395177E-002  0.11073767341836172        0.0000000000000000     
  -6.2201644298961731E-002  0.10828059599467720        0.0000000000000000     
  -6.3906386028527523E-002  0.11510183405305541        0.0000000000000000     
  -6.5550367192687753E-002  0.12205225624462793        0.0000000000000000     
  -6.7133587791442448E-002  0.12913186256939485        0.0000000000000000     
  -6.8656047824791594E-002  0.13634065302735610        0.0000000000000000     
  -6.8138015563513926E-002  0.10883249615941329        0.0000000000000000     
  -6.9983409768058086E-002  0.11563126271544319        0.0000000000000000     
  -7.1764871443267708E-002  0.12255849810440143        0.0000000000000000     
  -7.3482400589142766E-002  0.12961420232628801        0.0000000000000000     
  -7.5135997205683341E-002  0.13679837538110290        0.0000000000000000     
  -7.4274054430603573E-002  0.10942597578493941        0.0000000000000000     
  -7.6261612506518084E-002  0.11620089147523720        0.0000000000000000     
  -7.8179199527070684E-002  0.12310458970525609        0.0000000000000000     
  -8.0026815492261399E-002  0.13013707047499606        0.0000000000000000     
  -8.1804460402090204E-002  0.13729833378445708        0.0000000000000000     
  -8.0609760900230670E-002  0.11006103487125554        0.0000000000000000     
  -8.2740994243907517E-002  0.11681072033243745        0.0000000000000000     
  -8.4793351444096735E-002  0.12369053104719192        0.0000000000000000     
  -8.6766832500798322E-002  0.13070046701551899        0.0000000000000000     
  -8.8661437414012223E-002  0.13784052823741869        0.0000000000000000     
  -8.7145134972395177E-002  0.11073767341836172        0.0000000000000000     
  -8.9421554980226414E-002  0.11746074928704388        0.0000000000000000     
  -9.1607327194345833E-002  0.12431632213020892        0.0000000000000000     
  -9.3702451614753504E-002  0.13130439194785684        0.0000000000000000     
  -9.5706928241449343E-002  0.13842495873998767        0.0000000000000000     
  -6.8656047824791594E-002  0.13634065302735610        0.0000000000000000     
  -7.0103323356826702E-002  0.14367169607921645        0.0000000000000000     
  -7.1460990451639270E-002  0.15111806018568064        0.0000000000000000     
  -7.2729049109229310E-002  0.15867974534674864        0.0000000000000000     
  -7.3907499329596824E-002  0.16635675156242047        0.0000000000000000     
  -7.5135997205683341E-002  0.13679837538110290        0.0000000000000000     
  -7.6705276489165850E-002  0.14410816668426787        0.0000000000000000     
  -7.8169853635866801E-002  0.15154072565120480        0.0000000000000000     
  -7.9529728645786182E-002  0.15909605228191362        0.0000000000000000     
  -8.0784901518924007E-002  0.16677414657639428        0.0000000000000000     
  -8.1804460402090204E-002  0.13729833378445708        0.0000000000000000     
  -8.3493539610739062E-002  0.14458459273067334        0.0000000000000000     
  -8.5075458472389828E-002  0.15199206041067889        0.0000000000000000     
  -8.6550216987042503E-002  0.15952073682447374        0.0000000000000000     
  -8.7917815154697154E-002  0.16717062197205793        0.0000000000000000     
  -8.8661437414012223E-002  0.13784052823741869        0.0000000000000000     
  -9.0468112721546284E-002  0.14510097421843271        0.0000000000000000     
  -9.2177804961208323E-002  0.15247206446410283        0.0000000000000000     
  -9.3790514132998312E-002  0.15995379897442907        0.0000000000000000     
  -9.5306240236916279E-002  0.16754617774941141        0.0000000000000000     
  -9.5706928241449343E-002  0.13842495873998767        0.0000000000000000     
  -9.7628995821587572E-002  0.14565731114754604        0.0000000000000000     
  -9.9476893102322300E-002  0.15298073781147670        0.0000000000000000     
 -0.10125062008365357       0.16039523873177958        0.0000000000000000     
 -0.10295017676558138       0.16790081390845471        0.0000000000000000     
 </DataArray>
 <DataArray  type="Float64" Name="stress" NumberOfComponents="3" format="ascii">
   13416577459.383869        4024973237.8151608        2893970828.8275805     
   11766646045.107712        1890417247.7063515        1715839519.2568927     
   10314007879.793880        413505420.80530167        810753731.03332078     
   9058662963.4423771       -405762242.88798761        178713464.15686506     
   8000611296.0532007       -567385743.37351799       -180281281.37247381     
   10540023124.793659        3162006937.4380980        2225699524.9483862     
   9667768795.5213642        1589577794.8077145        1446691017.9196529     
   8944164978.0540924        512650358.19408464        863128551.66713798     
   8369211672.3918505       -68775372.402790546        475012126.19084090     
   7942908878.5346289       -154699396.98291492        282341741.49076420     
   8338103120.8123446        2501430936.2437034        1712273813.3765674     
   8021813074.9127741        1424614800.6024053        1275638248.8729360     
   7805530803.6609297        681157913.78685427        956849244.57462597     
   7689256307.0568066        271060275.79704952        755906800.48163617     
   7672989585.1004124        194321886.63299370        672810916.59396791     
   6810817447.4399233        2043245234.2319770        1353693694.1121235     
   6828778883.2819443        1395528265.0904236        1202681212.1167421     
   6898105356.6143913        919028087.58361173        1091915809.7557836     
   7018796867.4372559        613744701.71153879        1021397487.0292493     
   7190853415.7505436        479678107.47420669        991126243.93713772     
   5958166104.6763983        1787449831.4029193        1149959167.1550548     
   6088666220.6288757        1502318188.2717705        1227819907.6510706     
   6221888636.9144726        1226260879.5843549        1268328247.2106125     
   6357833353.5331907        959277905.34067380        1271484185.8336797     
   6496500370.4850273        701369265.54072523        1237287723.5202734     
   8000611296.0532007       -567385743.37351799       -180281281.37247381     
   7918002639.2879486       -200064566.53350067       -78400183.961385116     
   7793910694.5307217        28978983.666595936       -9062970.4141675178     
   7628335461.7815208        119744907.22678280        27730359.269180521     
   7421276941.0403442        72233204.147048473        31979805.088656355     
   7942908878.5346289       -154699396.98291492        282341741.49076420     
   7740067079.8480043        16402287.549372673        281048708.49270356     
   7513841193.9022179        109557014.55112600        265093948.41308853     
   7264231220.6972742        124764784.02235365        234477461.25191987     
   6991237160.2331686        62025595.963047504        189199247.00918847     
   7672989585.1004124        194321886.63299370        672810916.59396791     
   7401006521.0133104        184531641.81381845        589459487.37504566     
   7123738570.3998613        157125108.57349920        509328487.85688233     
   6841185733.2600737        112102286.91204000        432417918.03947717     
   6553348009.5939388        49463176.829431295        358727777.92282981     
   7190853415.7505436        479678107.47420669        991126243.93713772     
   6900820962.7838631        304323496.25984168        846832152.68563867     
   6623602824.0236559        171683265.73371911        723640647.91721284     
   6359198999.4699183        81757415.895837307        621551729.63185918     
   6107609489.1226578        34545946.746200085        540565397.82957876     
   6496500370.4850273        701369265.54072523        1237287723.5202734     
   6239510405.1596680        375777850.88743830        1053166704.4244825     
   6013433954.7735968        153231486.03178024        908030428.59407973     
   5818271019.3268156        33730170.973752975        801878896.02906215     
   5654021598.8193226        17273905.713351965        734712106.72943282     
   7421276941.0403442        72233204.147048473        31979805.088656355     
   7219630319.1071692       -18160752.960319042        15080710.006893137     
   7030122486.0428667       -68092080.504767418        2388745.4282605336     
   6852753441.8474388       -77560778.486299515       -6096088.6472485019     
   6687523186.5208931       -46566846.904902935       -10373792.219628206     
   6991237160.2331686        62025595.963047504        189199247.00918847     
   6809149754.2117386        2873353.5258202553        180875746.95519546     
   6634829918.4973421       -30386987.887960911        176181040.63707730     
   6468277653.0899744       -37755428.278302670        175115128.05483526     
   6309492957.9896393       -19231967.645206213        177678009.20846680     
   6553348009.5939388        49463176.829431295        358727777.92282981     
   6389167428.7206755        21056931.833270073        353880117.90778607     
   6228383199.5926027        3971859.3210740089        352082914.86136913     
   6070995322.2097187       -1792040.7071533203        353336168.78357238     
   5917003796.5720272        3765231.7485847473        357639879.67439860     
   6107609489.1226578        34545946.746200085        540565397.82957876     
   5959683342.6339846        36389981.962031126        534093822.86467063     
   5810782329.3286591        34984461.122353554        530094368.10113299     
   5660906449.2066765        30329384.227161646        528567033.53896755     
   5510055702.2680483        22424751.276463509        529511819.17817372     
   5654021598.8193226        17273905.713351965        734712106.72943282     
   5520697495.9516611        48872503.912105560        721516861.82584238     
   5382027307.7055025        62650817.515867233        710215400.35637140     
   5238011034.0808496        58608846.524643660        700807722.32101810     
   5088648675.0776978        36746590.938428640        693293827.71978521     
   6687523186.5208931       -46566846.904902935       -10373792.219628206     
   6509726743.5523100       -8454102.2212755680       -4586709.4101865906     
   6326970854.1729736        13127154.426518917        2883680.3038016460     
   6139255518.3829012        18176923.038512230        12037376.922319209     
   5946580736.1820755        6695203.6146724224        22874380.445376989     
   6309492957.9896393       -19231967.645206213        177678009.20846680     
   6132329912.4752464        999619.66599512100        174381441.08248246     
   5952160812.1278744        11211024.200607538        174015215.79497346     
   5768985656.9475250        11402245.958620310        176579333.34594047     
   5582804446.9341993        1573284.9400532246        182073793.73538801     
   5917003796.5720272        3765231.7485847473        357639879.67439860     
   5744037108.3230782        7184549.6307475567        347538617.45371413     
   5570017756.8189201        7094989.9955437183        341614734.00544482     
   5394945742.0595503        3496552.8429694176        339868229.32958615     
   5218821064.0449705       -3610761.8269715309        342299103.42614603     
   5510055702.2680483        22424751.276463509        529511819.17817372     
   5344848331.0957966        10100687.672959566        514884819.70351237     
   5180541688.2461023        779051.81131744385        505682234.93520892     
   5017135773.7189665       -5540156.3084702492        501904064.87325662     
   4854630587.5143833       -8856936.6864023209        503550309.51765490     
   5088648675.0776978        36746590.938428640        693293827.71978521     
   4934763580.7933989        9748033.7926383018        676420047.83188045     
   4783732606.4094286       -7736790.3520607948        666217718.58426750     
   4635555751.9257755       -15707881.495694876        662686839.97694802     
   4490233017.3424520       -14165239.638241768        665827412.00992107     
   5946580736.1820755        6695203.6146724224        22874380.445376989     
   5777283827.2861814       -1934305.1536123753        14643231.184388807     
   5610202748.5355644       -3177713.4376318455        10270090.781675383     
   5445337499.9302359        2964978.7626378536        9754959.2372508068     
   5282688081.4701920        16493771.447189331        13097836.551102269     
   5582804446.9341993        1573284.9400532246        182073793.73538801     
   5424781475.2801361       -2135301.2536129951        175831546.17635670     
   5268230208.9978161       -938202.87482094765        173267951.65863046     
   5113150648.0872335        5164580.0764427185        174383010.18218502     
   4959542792.5483894        16173047.600157976        179176721.74704686     
   5218821064.0449705       -3610761.8269715309        342299103.42614603     
   5071559584.4413557       -2552159.0034315586        337177611.99994648     
   4925025685.4359360        931712.48076081276        335555417.79805052     
   4779219367.0287066        6840852.6255872250        337432520.82046777     
   4634140629.2196703        15175261.431065083        342808921.06719685     
   4854630587.5143833       -8856936.6864023209        503550309.51765490     
   4717618154.7698307       -3184878.4030663967        498681428.65514803     
   4580589177.8499155        2432032.6290886402        497132489.19996041     
   4443543656.7546568        7993796.4100799561        498903491.15209174     
   4306481591.4840403        13500412.939892530        503994434.51154715     
   4490233017.3424520       -14165239.638241768        665827412.00992107     
   4362957186.2655544       -4033459.4525337219        660342996.14196086     
   4234920686.2397661        3562757.5701925755        657999165.86434495     
   4106123517.2650747        8623411.4299128056        658795921.17705679     
   3976565679.3414841        11148502.126635313        662733262.08010161     
   5282688081.4701920        16493771.447189331        13097836.551102269     
   5079414588.3022203        18223093.478734732        12495540.875791565     
   4874180925.4896450        13418516.694914818        14523109.481154531     
   4666987093.0324669        2080041.0957565308        19180542.367187325     
   4457833090.9306812       -15792333.318748236        26467839.533888664     
   4959542792.5483894        16173047.600157976        179176721.74704686     
   4763052687.5414782        14469269.550932407        176216477.67606705     
   4565191379.9765415        8194816.3082981110        176636614.08232954     
   4365958869.8535852       -2650312.1277256012        180437130.96583718     
   4165355157.1726069       -18066115.757171869        187618028.32657877     
   4634140629.2196703        15175261.431065083        342808921.06719685     
   4446578244.3640146        10681682.898128748        338177856.86823380     
   4258233624.0369272        3580652.7937479019        337677689.34307110     
   4069106768.2383947       -6127828.8821136951        341308418.49173594     
   3879197676.9684234       -18443762.129431725        349070044.31420106     
   4306481591.4840403        13500412.939892530        503994434.51154715     
   4129991258.7698426        6860333.5203113556        498379678.45227295     
   3953307657.6707926       -423973.84878158569        497646335.26338130     
   3776430788.1868830       -8352509.1674048901        501794404.94487524     
   3599360650.3181267       -16925272.435520649        510823887.49675238     
   3976565679.3414841        11148502.126635313        662733262.08010161     
   3813291730.7589517        3005221.4174735546        656821942.42820203     
   3650413480.8781481       -3819063.6192522049        656542551.84325838     
   3487930929.6990690       -9324352.9835691452        661895090.32526469     
   3325844077.2217197       -13510646.675446033        672879557.87422431     
   4457833090.9306812       -15792333.318748236        26467839.533888664     
   4280663967.5493102       -21774702.573350668        8907097.5166117586     
   4106967898.3469052       -16180224.564709425        1378421.2121969154     
   3936744883.3234739        991100.70716571808        3881810.6206479799     
   3769994922.4790282        29739273.242327213        16417265.741961109     
   4165355157.1726069       -18066115.757171869        187618028.32657877     
   4013383094.1830115       -17337974.816307545        174577948.46100557     
   3863807145.6170893       -8622785.7965288162        169339577.75421110     
   3716627311.4748425        8079451.3021483421        171902916.20620561     
   3571843591.7562666        32768736.479750156        182267963.81697500     
   3879197676.9684234       -18443762.129431725        349070044.31420106     
   3746050227.0732450       -12916845.182298422        339294196.88580489     
   3614221951.8464384       -2992679.3405919075        335089702.06211376     
   3483712851.2879982        11328735.395666838        336456559.84312820     
   3354522925.3979335        30047399.026505113        343394770.22884959     
   3599360650.3181267       -16925272.435520649        510823887.49675238     
   3478665366.2199893       -8511313.6713459492        503055842.79101372     
   3358212317.0349350        710094.80307936668        498628794.13591182     
   3238001502.7629404        10738952.987714887        497542741.53142613     
   3118032923.4040155        21575260.882589579        499797684.97757280     
   3325844077.2217197       -13510646.675446033        672879557.87422431     
   3211228511.6232710       -4121380.2834188938        665862886.17663670     
   3095778241.1825900        2485536.6345012188        659956853.97559261     
   2979493265.8996749        6310104.0783081055        655161461.27109504     
   2862373585.7745275        7352322.0480062962        651476708.06314743     
   3769994922.4790282        29739273.242327213        16417265.741961109     
   3621245698.0376153        50390301.768873215        33661016.678169318     
   3460124057.9252529        29799944.725555897        35360814.654625900     
   3286630002.1419358       -32031797.887583017        21516659.671341114     
   3100763530.6876621       -135104926.07059860       -7871448.2716927351     
   3571843591.7562666        32768736.479750156        182267963.81697500     
   3386911835.0265503        37009359.090741396        184476169.74545282     
   3194042699.1721029        14792051.285979271        178182628.23855928     
   2993236184.1929369       -33883186.934532642        163387339.29629692     
   2784492290.0890622       -109016355.57073772        140090302.91867602     
   3354522925.3979335        30047399.026505113        343394770.22884959     
   3153529223.5924320        23913791.885706663        335741640.45351619     
   2949033179.2084413        6105709.4832613468        326628968.76720923     
   2741034792.2459636       -23376848.180794954        316056755.16992259     
   2529534062.7049966       -64533881.106503367        304024999.66164935     
   3118032923.4040155        21575260.882589579        499797684.97757280     
   2921097863.7352648        11103600.153750420        487457428.80238080     
   2725095498.0342498        3740919.3173782825        480699836.24059117     
   2530025826.3009748       -512781.62652146816        479524907.29221070     
   2335888848.5354495       -1657502.6779330969        483932641.95722985     
   2862373585.7745275        7352322.0480062962        651476708.06314743     
   2689617755.4550390       -1421216.1051229239        639623534.79203737     
   2522229655.6495285        7697680.7883406878        640395230.65870523     
   2360209286.3579907        34709012.728379130        653791795.66316760     
   2203556647.5804372        79612779.715010524        679813229.80541492     
   5958166104.6763983        1787449831.4029193        1149959167.1550548     
   6088666220.6288757        1502318188.2717705        1227819907.6510706     
   6221888636.9144726        1226260879.5843549        1268328247.2106125     
   6357833353.5331907        959277905.34067380        1271484185.8336797     
   6496500370.4850273        701369265.54072523        1237287723.5202734     
   5434791965.8274460        1630437589.7482338        1033377532.0583098     
   5490090522.9116850        1372543808.7791455        1113765223.2005668     
   5547585115.8112593        1121970147.1945045        1167372301.8047934     
   5607275744.5261669        878716604.99430978        1194198767.8709888     
   5669162409.0564070        642783182.17856193        1194244621.3991537     
   4895337904.1987457        1468601371.2596238        936256088.37483692     
   4905640012.1245861        1247006985.3655481        1018556754.8925847     
   4917611891.3479729        1030978503.7966321        1084648597.2707455     
   4931253541.8689079        820515926.55287647        1134531615.5093186     
   4946564963.6873922        615619253.63428044        1168205809.6083047     
   4339803919.7902956        1301941175.9370885        858594836.10463631     
   4335314688.2675734        1125707718.0309768        942194502.72712481     
   4331968963.5246153        953285949.39073837        1020157133.6084689     
   4329766745.5614157        784675870.01637244        1092482728.7486696     
   4328708034.3779812        619877479.90788007        1159171288.1477261     
   3768190012.6020970        1130457003.7806292        800393775.24770796     
   3779114551.3406525        1008646006.7754326        884678466.70418632     
   3790656332.3411837        888892483.97682261        973897910.81796420     
   3802815355.6036916        771196435.38479865        1068052107.5890416     
   3815591621.1281748        655557860.99936116        1167141057.0174186     
   6496500370.4850273        701369265.54072523        1237287723.5202734     
   6239510405.1596680        375777850.88743830        1053166704.4244825     
   6013433954.7735968        153231486.03178024        908030428.59407973     
   5818271019.3268156        33730170.973752975        801878896.02906215     
   5654021598.8193226        17273905.713351965        734712106.72943282     
   5669162409.0564070        642783182.17856193        1194244621.3991537     
   5519069356.6233892        383205240.16474652        1073412312.8624568     
   5393120529.4020109        204108048.85640049        980589777.29152584     
   5291315927.3922758        105491608.25352097        915777014.68636370     
   5213655550.5941772        87355918.356108189        878974025.04696620     
   4946564963.6873922        615619253.63428044        1168205809.6083047     
   4872011766.1478024        412647666.86026382        1102764706.9484444     
   4814833504.0922022        267592531.69955349        1054358406.9547307     
   4775030177.5205936        180453848.15214682        1022986909.6271639     
   4752601786.4329786        151231616.21804833        1008650214.9657434     
   4328708034.3779812        619877479.90788007        1159171288.1477261     
   4298337633.7329025        464105130.97398722        1141223886.6824455     
   4278572878.8441672        343684934.56123829        1129336317.5836930     
   4269413769.7117772        258616890.66963434        1123508580.8514657     
   4270860306.3357258        208900999.29917169        1123740676.4857659     
   3815591621.1281748        655557860.99936116        1167141057.0174186     
   3798046959.3786945        537577632.50591743        1188789852.0644622     
   3784338653.6579094        432385257.44145691        1205523509.1784122     
   3774466703.9658184        339980735.80597579        1217342028.3592680     
   3768431110.3024216        260364067.59948003        1224245409.6070313     
   5654021598.8193226        17273905.713351965        734712106.72943282     
   5520697495.9516611        48872503.912105560        721516861.82584238     
   5382027307.7055025        62650817.515867233        710215400.35637140     
   5238011034.0808496        58608846.524643660        700807722.32101810     
   5088648675.0776978        36746590.938428640        693293827.71978521     
   5213655550.5941772        87355918.356108189        878974025.04696620     
   5077921195.8783522        85245855.664415836        855268602.26175475     
   4940096124.0262976        76166735.851954937        835594277.90316987     
   4800180335.0380144        60118558.918730736        819951051.97121263     
   4658173828.9134998        37101324.864731789        808338924.46588242     
   4752601786.4329786        151231616.21804833        1008650214.9657434     
   4620563794.1333017        117244876.91520572        978232543.91488755     
   4489690452.9396610        87140307.965814352        953983286.28316653     
   4359981762.8520565        60917909.369877815        935902442.07058191     
   4231437723.8704858        38577681.127390862        923990011.27713585     
   4270860306.3357258        208900999.29917169        1123740676.4857659     
   4148625290.7165084        144869567.66447282        1090408686.7852418     
   4030810294.4455924        95571533.857444763        1065382425.4963626     
   3917415317.5229783        61006897.878089428        1048661892.6191291     
   3808440359.9486661        41175659.726406097        1040247088.1535397     
   3768431110.3024216        260364067.59948003        1224245409.6070313     
   3662105685.6279716        168119927.91221488        1191797030.8728175     
   3563455648.5440907        101460413.52684271        1169791695.5427563     
   3472480999.0507774        60385524.443366051        1158229403.6168516     
   3389181737.1480317        44895260.661780119        1157110155.0950973     
   5088648675.0776978        36746590.938428640        693293827.71978521     
   4934763580.7933989        9748033.7926383018        676420047.83188045     
   4783732606.4094286       -7736790.3520607948        666217718.58426750     
   4635555751.9257755       -15707881.495694876        662686839.97694802     
   4490233017.3424520       -14165239.638241768        665827412.00992107     
   4658173828.9134998        37101324.864731789        808338924.46588242     
   4522423406.2634411        15980072.496500492        795290832.69542670     
   4388776331.5035238        1869979.7620596886        788164736.59312522     
   4257232604.6337404       -5228953.3385939598        786960636.15897214     
   4127792225.6540976       -5316726.8054487705        791678531.39296854     
   4231437723.8704858        38577681.127390862        923990011.27713585     
   4111680672.9342690        22691343.560590982        913891706.94557750     
   3993276197.8780026        11313592.260291815        908965943.31003046     
   3876224298.7016916        4444427.2265033722        909212720.37049329     
   3760524975.4053278        2083848.4592165947        914632038.12696779     
   3808440359.9486661        41175659.726406097        1040247088.1535397     
   3702535380.8058834        29881846.984919786        1032222670.5823290     
   3597232205.5328722        20594047.142649412        1028621338.7349892     
   3492530834.1296220        13312260.199593306        1029443092.6115184     
   3388431266.5961385        8036486.1557550430        1034687932.2119181     
   3389181737.1480317        44895260.661780119        1157110155.0950973     
   3294987529.8782887        37551582.769486904        1150283723.6056836     
   3200644354.4681234        29711344.409112811        1147130922.8679976     
   3106152210.9175386        21374545.580679536        1147651752.8820422     
   3011511099.2265310        12541186.284171343        1151846213.6478162     
   4490233017.3424520       -14165239.638241768        665827412.00992107     
   4362957186.2655544       -4033459.4525337219        660342996.14196086     
   4234920686.2397661        3562757.5701925755        657999165.86434495     
   4106123517.2650747        8623411.4299128056        658795921.17705679     
   3976565679.3414841        11148502.126635313        662733262.08010161     
   4127792225.6540976       -5316726.8054487705        791678531.39296854     
   4007899505.7970982        142205.12187600136        784104121.16247928     
   3887672058.4834032        4485378.8602178097        780146791.26273751     
   3767109883.7130094        7712794.4095656872        779806541.69375288     
   3646212981.4859242        9824451.7699363232        783083372.45551085     
   3760524975.4053278        2083848.4592165947        914632038.12696779     
   3649376780.3122683        3278356.1913657188        905464565.27484524     
   3538319799.2547154        4776910.7085421085        900390667.49389207     
   3427354032.2326679        6579512.0107357502        899410344.78410399     
   3316479479.2461309        8686160.0979607105        902523597.14548552     
   3388431266.5961385        8036486.1557550430        1034687932.2119181     
   3287389009.8110638        5374993.7559459209        1024424328.4790684     
   3186863908.5537024        4437353.1151658297        1018730794.5578039     
   3086855962.8240528        5223564.2334319353        1017607330.4481200     
   2987365172.6221104        7733627.1107236147        1021053936.1500210     
   3011511099.2265310        12541186.284171343        1151846213.6478162     
   2921936194.2934928        6432117.8156167269        1140983410.7751429     
   2833304386.3803692        3466706.0801095963        1135167172.4544680     
   2745615675.4871535        3644951.0776284933        1134397498.6857960     
   2658870061.6138535        6966852.8082056046        1138674389.4691207     
   3976565679.3414841        11148502.126635313        662733262.08010161     
   3813291730.7589517        3005221.4174735546        656821942.42820203     
   3650413480.8781481       -3819063.6192522049        656542551.84325838     
   3487930929.6990690       -9324352.9835691452        661895090.32526469     
   3325844077.2217197       -13510646.675446033        672879557.87422431     
   3646212981.4859242        9824451.7699363232        783083372.45551085     
   3497729980.2217102        3611524.2084691525        777630264.95997059     
   3349549560.1214290       -1592799.4732301235        777477414.06979072     
   3201671721.1850753       -5788519.2751632929        782624819.78497243     
   3054096463.4126501       -8975635.1973428726        793072482.10552454     
   3316479479.2461309        8686160.0979607105        902523597.14548552     
   3181839789.6956964        4119295.0028302670        897420064.67886841     
   3047409563.7713909        250641.99480295181        897285116.35602152     
   2913188801.4732146       -2919798.9261338711        902118752.17694831     
   2779177502.8011675       -5392027.7599653006        911920972.14165032     
   2987365172.6221104        7733627.1107236147        1021053936.1500210     
   2865621159.1809072        4528533.8005601168        1016191341.5848970     
   2743993491.8280358        1711260.7848408222        1015965658.7019509     
   2622482170.5634933       -718191.93644952774        1020376887.5011936     
   2501087195.3872800       -2759824.3633102179        1029425027.9826149     
   2658870061.6138535        6966852.8082056046        1138674389.4691207     
   2549074088.6773391        4839240.6016561985        1133944095.6780543     
   2439301344.2913589        2789056.8968788385        1133519041.1075821     
   2329551828.4559059        816301.69386410713        1137399225.7576981     
   2219825541.1709867       -1079025.0073733330        1145584649.6284056     
   3325844077.2217197       -13510646.675446033        672879557.87422431     
   3211228511.6232710       -4121380.2834188938        665862886.17663670     
   3095778241.1825900        2485536.6345012188        659956853.97559261     
   2979493265.8996749        6310104.0783081055        655161461.27109504     
   2862373585.7745275        7352322.0480062962        651476708.06314743     
   3054096463.4126501       -8975635.1973428726        793072482.10552454     
   2943046932.6215210       -1522938.3254913092        784644513.60246539     
   2831485212.7761250        4222461.6987993717        778295909.95930219     
   2719411303.8764563        8260564.8755190372        774026671.17603660     
   2606825205.9225183        10591371.204669237        771836797.25266051     
   2779177502.8011675       -5392027.7599653006        911920972.14165032     
   2674461793.5697799        954435.61745214462        902457975.25241673     
   2569556411.0720835        6668654.7738411427        896043068.58642530     
   2464461355.3080759        11750629.709188223        892676252.14366806     
   2359176626.2777543        16200360.423497319        892357525.92415071     
   2501087195.3872800       -2759824.3633102179        1029425027.9826149     
   2405473094.4680433        3310741.5453920364        1019303271.1264917     
   2309991836.0704594        9824115.8595982790        1013198329.8569525     
   2214643420.1945271        16780298.579310179        1011110204.1739942     
   2119427846.8402393        24179289.704507947        1013038894.0776166     
   2219825541.1709867       -1079025.0073733330        1145584649.6284056     
   2136080835.3163142        5545979.4583340883        1135180401.2246835     
   2052791487.7712569        13688844.956087708        1129761693.7708850     
   1969957498.5358074        23349571.485872984        1129328527.2670214     
   1887578867.6099687        34528159.047688365        1133880901.7130780     
   2862373585.7745275        7352322.0480062962        651476708.06314743     
   2689617755.4550390       -1421216.1051229239        639623534.79203737     
   2522229655.6495285        7697680.7883406878        640395230.65870523     
   2360209286.3579907        34709012.728379130        653791795.66316760     
   2203556647.5804372        79612779.715010524        679813229.80541492     
   2606825205.9225183        10591371.204669237        771836797.25266051     
   2463896227.0098286        7665493.9215033054        765830074.08281314     
   2324015380.4538274        14900057.827289462        768792753.42580271     
   2187182666.2545023        32295062.922003746        780724835.28162456     
   2053398084.4118567        59850509.205645323        801626319.65026665     
   2359176626.2777543        16200360.423497319        892357525.92415071     
   2235630308.4148383        15988886.903192282        889491055.00540042     
   2112812524.7513161        18205860.714184880        891938519.97452819     
   1990723275.2871706        22851281.856462240        899699920.83152485     
   1869362560.0224280        29925150.330038786        912775257.57639933     
   2119427846.8402393        24179289.704507947        1013038894.0776166     
   2004819999.6700816        23548962.839966416        1010606477.5597943     
   1888621088.5420108        17615089.449057341        1009832530.3048810     
   1770831113.4560316        6377669.5317915678        1010717052.3128855     
   1651450074.4121523       -10163296.911824942        1013260043.5838063     
   1887578867.6099687        34528159.047688365        1133880901.7130780     
   1771465300.7755322        30345721.731782675        1129176341.7459922     
   1651441071.8258920        13127744.031863213        1122474784.4168644     
   1527506180.7610605       -17125774.052037656        1113776229.7256973     
   1399660627.5810215       -60414832.519952118        1103080677.6724873     
   3768190012.6020970        1130457003.7806292        800393775.24770796     
   3779114551.3406525        1008646006.7754326        884678466.70418632     
   3790656332.3411837        888892483.97682261        973897910.81796420     
   3802815355.6036916        771196435.38479865        1068052107.5890416     
   3815591621.1281748        655557860.99936116        1167141057.0174186     
   3207674733.7219992        962302420.11659980        756511978.73354399     
   3235811330.0092092        868167188.32095027        852885892.07163930     
   3263674050.5608683        773119037.40679646        951178381.97227347     
   3291262895.3769765        677157967.37413859        1051389448.4354472     
   3318577864.4575329        580283978.22297621        1153519091.4611602     
   2685436634.2378521        805630990.27135563        721808519.49163651     
   2722167642.0886879        736586229.88974428        829232017.04756677     
   2757733656.2064443        663658157.06453788        935557915.07127607     
   2792134676.5911236        586846771.79573727        1040786213.5627643     
   2825370703.2427230        506152074.08334148        1144916912.5220313     
   2201475714.1496558        660442714.24489677        696283397.52198517     
   2238183487.5790863        613903131.48181438        813716841.63196909     
   2272835149.2779117        560509842.95004678        927036510.11497164     
   2305430699.2461309        500262848.64959407        1036242402.9709929     
   2335970137.4837456        433162148.58045602        1141334520.2000325     
   1755791973.4574106        526737592.03722316        679936612.82459033     
   1783858866.4804070        500117893.09716100        806340365.82484651     
   1808978529.7752712        463674095.06332338        925614167.10336053     
   1831150963.3420024        417406197.93571019        1037758016.6601326     
   1850376167.1806009        361314201.71432090        1142771914.4951637     
   3815591621.1281748        655557860.99936116        1167141057.0174186     
   3798046959.3786945        537577632.50591743        1188789852.0644622     
   3784338653.6579094        432385257.44145691        1205523509.1784122     
   3774466703.9658184        339980735.80597579        1217342028.3592680     
   3768431110.3024216        260364067.59948003        1224245409.6070313     
   3318577864.4575329        580283978.22297621        1153519091.4611602     
   3293819907.7468982        473027230.91582072        1181816345.0713878     
   3272790191.3309565        378197951.25764060        1207005398.6785247     
   3255488715.2097063        295796139.24843407        1229086252.2825699     
   3241915479.3831487        225821794.88820314        1248058905.8835227     
   2825370703.2427230        506152074.08334148        1144916912.5220313     
   2798562131.3709388        411167611.90247518        1179736489.6724415     
   2775373684.0598459        328250231.59057701        1213254804.7497618     
   2755805361.3094420        257399933.14764595        1245471857.7539923     
   2739857163.1197295        198616716.57368386        1276387648.6851330     
   2335970137.4837456        433162148.58045602        1141334520.2000325     
   2312273630.2508178        351998775.46588105        1182550285.8676229     
   2292089131.8445778        282542098.44026643        1224271727.3921237     
   2275416642.2650261        224792117.50361204        1266498844.7735376     
   2262256161.5121617        178748832.65591824        1309231638.0118632     
   1850376167.1806009        361314201.71432090        1142771914.4951637     
   1834954404.3865335        295520721.60603797        1190257733.6569304     
   1822936534.6851518        241073551.80670780        1240056166.6056106     
   1814322558.0764558        197972692.31633139        1292167213.3412046     
   1809112474.5604467        166218143.13491005        1346590873.8637137     
   3768431110.3024216        260364067.59948003        1224245409.6070313     
   3662105685.6279716        168119927.91221488        1191797030.8728175     
   3563455648.5440907        101460413.52684271        1169791695.5427563     
   3472480999.0507774        60385524.443366051        1158229403.6168516     
   3389181737.1480317        44895260.661780119        1157110155.0950973     
   3241915479.3831487        225821794.88820314        1248058905.8835227     
   3165015618.9072790        151671406.92672694        1230960578.1848824     
   3094160228.3302636        97669251.961429119        1221878775.2981224     
   3029349307.6521025        63815329.992317438        1220813497.2232397     
   2970582856.8727961        50109641.019386888        1227764743.9602373     
   2739857163.1197295        198616716.57368386        1276387648.6851330     
   2685449956.5787959        140480207.25889957        1272736634.7150679     
   2635456302.2450037        97055538.634587049        1274675626.9646089     
   2589876200.1183534        68342710.700749159        1282204625.4337535     
   2548709650.1988449        54341723.457380414        1295323630.1225021     
   2262256161.5121617        178748832.65591824        1309231638.0118632     
   2223408698.6425233        134546328.90873456        1317125200.4633756     
   2187343870.2883134        99619273.546315551        1328182250.5422175     
   2154061676.4495320        73967666.568655372        1342402788.2483909     
   2123562117.1261795        57591507.975760579        1359786813.5818925     
   1809112474.5604467        166218143.13491005        1346590873.8637137     
   1778891845.0984614        133869771.87623620        1364126275.4298043     
   1749822932.4601917        105360456.69661349        1382398646.0309494     
   1721905736.6456375        80690197.596044600        1401407985.6671510     
   1695140257.6547980        59858994.574523389        1421154294.3384075     
   3389181737.1480317        44895260.661780119        1157110155.0950973     
   3294987529.8782887        37551582.769486904        1150283723.6056836     
   3200644354.4681234        29711344.409112811        1147130922.8679976     
   3106152210.9175386        21374545.580679536        1147651752.8820422     
   3011511099.2265310        12541186.284171343        1151846213.6478162     
   2970582856.8727961        50109641.019386888        1227764743.9602373     
   2885277887.6251020        38234259.751507759        1220213756.4234097     
   2800384622.0470572        27731224.049121737        1216872791.2384899     
   2715903060.1386609        18600533.912234068        1217741848.4054756     
   2631833201.8999128        10842189.340839744        1222820927.9243629     
   2548709650.1988449        54341723.457380414        1295323630.1225021     
   2473826466.4022746        38394403.042635798        1287702203.6500118     
   2399915658.0854225        25688334.226953506        1284827191.1296043     
   2326977225.2482915        16223517.010339737        1286698592.5612776     
   2255011167.8908801        9999951.3927880526        1293316407.9450316     
   2123562117.1261795        57591507.975760579        1359786813.5818925     
   2060633266.2098081        38032012.642872334        1352749065.2854881     
   1999237462.5832257        23582674.942620516        1350994122.5413406     
   1939374706.2464330        14243494.874997377        1354521985.3494511     
   1881044997.1994324        10014472.440011501        1363332653.7098219     
   1695140257.6547980        59858994.574523389        1421154294.3384075     
   1645698287.0477002        37147088.552218974        1415354341.3298364     
   1598350035.5404632        21414246.196114898        1415373585.4736996     
   1553095503.1330857        12660467.506210744        1421212026.7699983     
   1509934689.8255684        10885752.482506752        1432869665.2187290     
   3011511099.2265310        12541186.284171343        1151846213.6478162     
   2921936194.2934928        6432117.8156167269        1140983410.7751429     
   2833304386.3803692        3466706.0801095963        1135167172.4544680     
   2745615675.4871535        3644951.0776284933        1134397498.6857960     
   2658870061.6138535        6966852.8082056046        1138674389.4691207     
   2631833201.8999128        10842189.340839744        1222820927.9243629     
   2555582679.9534783        7084675.9566192627        1213711071.6385407     
   2480011683.1062813        5592246.2365208864        1209261509.6171107     
   2405120211.3583131        6364900.1805218458        1209472241.8600678     
   2330908264.7095842        9402637.7886518240        1214343268.3674078     
   2255011167.8908801        9999951.3927880526        1293316407.9450316     
   2190981399.5378757        8262904.2749477625        1285651997.6719401     
   2127367584.3634288        7912367.7522978783        1282261611.3756237     
   2064169722.3675377        8948341.8248329163        1283145249.0560851     
   2001387813.5502055        11370826.492567182        1288302910.7133262     
   1881044997.1994324        10014472.440011501        1363332653.7098219     
   1828132353.0466821        9966802.7705954313        1356806188.8753324     
   1775372090.1518130        10427070.627449989        1354167477.7300093     
   1722764208.5148225        11395276.010562897        1355416520.2738535     
   1670308708.1357117        12871418.919943392        1360553316.5068622     
   1509934689.8255684        10885752.482506752        1432869665.2187290     
   1467035540.4799023        12196371.443572938        1427173645.2487195     
   1424025200.4714370        13136354.861977339        1424979108.6802676     
   1380903669.8001702        13705702.737709165        1426286055.5133684     
   1337670948.4661083        13904415.070793629        1431094485.7480245     
   2658870061.6138535        6966852.8082056046        1138674389.4691207     
   2549074088.6773391        4839240.6016561985        1133944095.6780543     
   2439301344.2913589        2789056.8968788385        1133519041.1075821     
   2329551828.4559059        816301.69386410713        1137399225.7576981     
   2219825541.1709867       -1079025.0073733330        1145584649.6284056     
   2330908264.7095842        9402637.7886518240        1214343268.3674078     
   2232520071.7223873        6333677.9909397364        1209316428.5293477     
   2134208074.4023521        3518703.7504379749        1208976798.8758190     
   2035972272.7494817        957715.06714761257        1213324379.4068253     
   1937812666.7637708       -1349288.0589398146        1222359170.1223648     
   2001387813.5502055        11370826.492567182        1288302910.7133262     
   1915498746.1235893        7687922.7870774269        1283041319.7976708     
   1829738841.4807637        4435561.6942327023        1282848910.0304887     
   1744108099.6217313        1613743.2140297890        1287725681.4117851     
   1658606520.5464957       -777532.65351712704        1297671633.9415593     
   1670308708.1357117        12871418.919943392        1360553316.5068622     
   1598010111.8809385        8901974.9900550842        1355118769.4830148     
   1525893645.5265865        5539630.7282388210        1355135374.5715878     
   1453959309.0726662        2784386.1345241666        1360603131.7725785     
   1382207102.5191686        636241.20888656378        1371522041.0859878     
   1337670948.4661083        13904415.070793629        1431094485.7480245     
   1280054168.9944413        9975834.5998790264        1425548777.5853920     
   1222672486.5398293        6830910.8524827361        1425836192.4991193     
   1165525901.1022720        4469643.8286061883        1431956730.4892087     
   1108614412.6817803        2892033.5282752514        1443910391.5556567     
   2219825541.1709867       -1079025.0073733330        1145584649.6284056     
   2136080835.3163142        5545979.4583340883        1135180401.2246835     
   2052791487.7712569        13688844.956087708        1129761693.7708850     
   1969957498.5358074        23349571.485872984        1129328527.2670214     
   1887578867.6099687        34528159.047688365        1133880901.7130780     
   1937812666.7637708       -1349288.0589398146        1222359170.1223648     
   1866785970.1650805        5434143.9222249985        1213411776.6480918     
   1796309822.2670233        14052738.238832951        1209225366.0710797     
   1726384223.0695896        24506494.890850425        1209799938.3913326     
   1657009172.5727844        36795413.878301263        1215135493.6088450     
   1658606520.5464957       -777532.65351712704        1297671633.9415593     
   1599656238.7675991        5971848.5122466683        1290292150.8529265     
   1541351696.0803499        14873693.316840172        1287449092.6088912     
   1483692892.4847453        25928001.760246634        1289142459.2094479     
   1426679827.9807851        39134773.842468083        1295372250.6545985     
   1382207102.5191686        636241.20888656378        1371522041.0859878     
   1334691641.1238728        7159093.2283955812        1365821523.8391831     
   1287917109.2112389        16151710.190105855        1364432873.3843086     
   1241883506.7812755        27614092.094051778        1367356089.7213635     
   1196590833.8339708        41546238.940191090        1374591172.8503437     
   1108614412.6817803        2892033.5282752514        1443910391.5556567     
   1071892177.2338958        8995878.0706593394        1439999895.6068676     
   1036006061.6596961        17886788.858660281        1440176708.3973393     
   1000956065.9591806        29564765.892275751        1444440829.9270756     
   966742190.13233781        44029809.171465278        1452792260.1960711     
   1887578867.6099687        34528159.047688365        1133880901.7130780     
   1771465300.7755322        30345721.731782675        1129176341.7459922     
   1651441071.8258920        13127744.031863213        1122474784.4168644     
   1527506180.7610605       -17125774.052037656        1113776229.7256973     
   1399660627.5810215       -60414832.519952118        1103080677.6724873     
   1657009172.5727844        36795413.878301263        1215135493.6088450     
   1540104024.5902224        32657149.010549366        1208766223.9560075     
   1421218775.4172606        21918546.841468036        1203774849.4478500     
   1300353425.0539052        4579607.3710757494        1200161370.0843675     
   1177507973.5001559       -19359669.400634289        1197925785.8655705     
   1426679827.9807851        39134773.842468083        1295372250.6545985     
   1318625648.8693027        37933446.428623140        1289590592.3949466     
   1210521929.4922314        36566984.796149731        1288561721.7866993     
   1102368669.8495669        35035388.945040703        1292285638.8298483     
   994165869.94131517        33338658.875290811        1300762343.5244079     
   1196590833.8339708        41546238.940191090        1374591172.8503437     
   1107030173.6127791        46174613.986027479        1371649447.0628140     
   1019350534.0508028        57073057.895913482        1376835401.4334128     
   933551915.14803457        74241570.669834137        1390149035.9621313     
   849634316.90449059        97680152.307820797        1411590350.6489804     
   966742190.13233781        44029809.171465278        1452792260.1960711     
   905317598.82064521        57380651.682738632        1454942787.9596074     
   847704589.09297490        83436766.140753239        1468595888.3879855     
   793903160.94931948        122198152.54548839        1493751561.4812205     
   743913314.38968849        173664810.89695749        1530409807.2393029     
   1755791973.4574106        526737592.03722316        679936612.82459033     
   1783858866.4804070        500117893.09716100        806340365.82484651     
   1808978529.7752712        463674095.06332338        925614167.10336053     
   1831150963.3420024        417406197.93571019        1037758016.6601326     
   1850376167.1806009        361314201.71432090        1142771914.4951637     
   1326129466.9630337        397838840.08891010        669650325.88668251     
   1339327400.6048877        375533303.34691250        791779112.66439152     
   1350319162.9170325        345873862.17254961        908604614.20956433     
   1359104753.8994675        308860516.56582141        1020126830.5222001     
   1365684173.5521927        264493266.52672824        1126345761.6023004     
   890232249.46844304        267069674.84053290        662306697.19549215     
   893780270.84116983        250644014.43020433        781025085.88214803     
   895863179.28261018        229334644.24892089        896266855.82547271     
   896480974.79276419        203141564.29668286        1008032007.0254664     
   895633657.37163138        172064774.57348984        1116320539.4821284     
   448100320.97363842        134430096.29209152        657905726.75101924     
   447217477.18925309        125450026.34703651        774078285.47811580     
   445610578.87200439        114056441.29243723        888600891.95108616     
   443279626.02189243        100249341.12829344        1001473546.1699305     
   440224618.63891727        84028725.854605928        1112696248.1346490     
  -266318.52138010360       -79895.556414031074        656447414.55326402     
  -360980.35086246382       -48660.902590874117        770938711.45229435     
  -438638.31478498678        39253.303098233882        885606722.58640420     
  -499292.41314765514        183847.06065361027        1000451447.9555933     
  -542942.64595054905        385120.37007507496        1115472887.5598621     
   1850376167.1806009        361314201.71432090        1142771914.4951637     
   1834954404.3865335        295520721.60603797        1190257733.6569304     
   1822936534.6851518        241073551.80670780        1240056166.6056106     
   1814322558.0764558        197972692.31633139        1292167213.3412046     
   1809112474.5604467        166218143.13491005        1346590873.8637137     
   1365684173.5521927        264493266.52672824        1126345761.6023004     
   1359972011.1559675        216949972.53311929        1181741396.7496340     
   1356803227.1181350        177884606.40082026        1238081760.0819321     
   1356177821.4386947        147297168.12982887        1295366851.5991924     
   1358095794.1176474        125187657.72014773        1353596671.3014169     
   895633657.37163138        172064774.57348984        1116320539.4821284     
   895722850.79624748        141599193.32145479        1178622056.7583542     
   897494907.84496260        116743157.48308426        1240500416.6175931     
   900949828.51777744        97496667.058379024        1301955619.0598452     
   906087612.81469107        83859722.047337711        1362987664.0851104     
   440224618.63891727        84028725.854605928        1112696248.1346490     
   442206923.30737329        69468383.971044108        1180899713.6830914     
   445011576.86563528        57649205.053502321        1247312136.2125967     
   448638579.31370389        48571189.101982638        1311933515.7231636     
   453087930.65157831        42234336.116482392        1374763852.2147944     
  -542942.64595054905        385120.37007507496        1115472887.5598621     
  -575771.31065495696        557544.48188705579        1188574367.5238450     
  -646765.81984665676        602749.11207490321        1258516918.8669403     
  -755926.17352540675        520734.26063907705        1325300541.5891476     
  -903252.37169172964        311499.92757818109        1388925235.6904676     
   1809112474.5604467        166218143.13491005        1346590873.8637137     
   1778891845.0984614        133869771.87623620        1364126275.4298043     
   1749822932.4601917        105360456.69661349        1382398646.0309494     
   1721905736.6456375        80690197.596044600        1401407985.6671510     
   1695140257.6547980        59858994.574523389        1421154294.3384075     
   1358095794.1176474        125187657.72014773        1353596671.3014169     
   1332747911.0158830        100127275.08174556        1372280596.8462858     
   1308304265.7131963        78081018.440269053        1392293976.2592826     
   1284764858.2095866        59048887.795716047        1413636809.5404088     
   1262129688.5050535        43030883.148086607        1436309096.6896646     
   906087612.81469107        83859722.047337711        1362987664.0851104     
   887305289.88193083        66595172.171844691        1382531388.0800114     
   869179725.72360957        51519818.211147189        1403997050.7761164     
   851710920.33972633        38633660.165244699        1427384652.1734238     
   834898873.73028219        27936698.034137875        1452694192.2719340     
   453087930.65157831        42234336.116482392        1374763852.2147944     
   442563981.69660389        33273463.146529570        1394878649.1309831     
   432449312.49143046        25676856.009246781        1417507869.5814497     
   422743923.03605622        19444514.704627886        1442651513.5661917     
   413447813.33048326        14576439.232680365        1470309581.0852127     
  -903252.37169172964        311499.92757818109        1388925235.6904676     
  -1476013.5400972669        162148.00580242719        1409322379.9992001     
  -1886973.9833396734        552131.83457009646        1432826432.6752841     
  -2136133.7014212534        1481451.4138736809        1459437393.7187190     
  -2223492.6943406286        2950106.7437186409        1489155263.1295030     
   1695140257.6547980        59858994.574523389        1421154294.3384075     
   1645698287.0477002        37147088.552218974        1415354341.3298364     
   1598350035.5404632        21414246.196114898        1415373585.4736996     
   1553095503.1330857        12660467.506210744        1421212026.7699983     
   1509934689.8255684        10885752.482506752        1432869665.2187290     
   1262129688.5050535        43030883.148086607        1436309096.6896646     
   1228723736.7489431        27276941.831862390        1434115927.4928110     
   1196718139.2466450        16190848.028344095        1436833276.0967247     
   1166112895.9981596        9772601.7375369668        1444461142.5014055     
   1136908007.0034852        8022202.9594303370        1456999526.7068560     
   834898873.73028219        27936698.034137875        1452694192.2719340     
   814932714.10611463        18361853.408286482        1453298881.2330723     
   795673543.88971031        11143640.141644835        1457905408.6433122     
   777121363.08106804        6282058.2342109978        1466513774.5026550     
   759276171.68018866        3777107.6859867871        1479123978.8110983     
   413447813.33048326        14576439.232680365        1470309581.0852127     
   404325219.11921209        10401823.281485617        1472903202.5506203     
   395216249.46965468        6272622.5360027254        1478589983.1134632     
   386120904.38181192        2188836.9962368906        1487369922.7737420     
   377039183.85568196       -1849533.3378207088        1499243021.5314581     
  -2223492.6943406286        2950106.7437186409        1489155263.1295030     
  -3098748.2117619431        3396851.4514662432        1492928891.4454563     
  -4653744.0135184061        1577795.2114303659        1498886999.5071790     
  -6888480.0996093526       -2507061.9763871268        1507029587.3146708     
  -9802956.4700352196       -8857720.1119880304        1517356654.8679333     
   1509934689.8255684        10885752.482506752        1432869665.2187290     
   1467035540.4799023        12196371.443572938        1427173645.2487195     
   1424025200.4714370        13136354.861977339        1424979108.6802676     
   1380903669.8001702        13705702.737709165        1426286055.5133684     
   1337670948.4661083        13904415.070793629        1431094485.7480245     
   1136908007.0034852        8022202.9594303370        1456999526.7068560     
   1102884983.6917341        6946712.6136464477        1449813219.0995700     
   1068859638.2541556        5863481.8484337330        1446503857.9568591     
   1034831970.6907508        4772510.6638017297        1447071443.2787240     
   1000801981.0015190        3673799.0597481728        1451515975.0651655     
   759276171.68018866        3777107.6859867871        1479123978.8110983     
   735202026.01098752        637333.51594418287        1470574396.8596668     
   711234426.75293040       -2147285.9502847791        1466277224.4358332     
   687373373.90601873       -4576750.7126963139        1466232461.5395980     
   663618867.47025216       -6651060.7712904811        1470440108.1709592     
   377039183.85568196       -1849533.3378207088        1499243021.5314581     
   363986667.43766165       -6731765.8495323956        1489457178.5290143     
   351149565.96775800       -10895948.534189850        1484299208.1171925     
   338527879.44597143       -14342081.391790509        1483769110.2959878     
   326121607.87229896       -17070164.422343493        1487866885.0654032     
  -9802956.4700352196       -8857720.1119880304        1517356654.8679333     
  -10761092.028241472       -15160585.482778016        1506461564.1076143     
  -11394944.101361362       -20382505.903281163        1500569809.0009356     
  -11704512.689390277       -24523481.373480365        1499681389.5478973     
  -11689797.792332165       -27583511.893389829        1503796305.7484987     
   1337670948.4661083        13904415.070793629        1431094485.7480245     
   1280054168.9944413        9975834.5998790264        1425548777.5853920     
   1222672486.5398293        6830910.8524827361        1425836192.4991193     
   1165525901.1022720        4469643.8286061883        1431956730.4892087     
   1108614412.6817803        2892033.5282752514        1443910391.5556567     
   1000801981.0015190        3673799.0597481728        1451515975.0651655     
   958266027.01848316        395905.30998033285        1446034235.9008155     
   915978070.20023561       -2055331.2238219380        1446169850.1772466     
   873938110.54677558       -3679910.5416679382        1451922817.8944609     
   832146148.05810595       -4477832.6435471177        1463293139.0524559     
   663618867.47025216       -6651060.7712904811        1470440108.1709592     
   635547254.30276322       -9463213.2018402219        1465037388.1772454     
   607736538.44779444       -11405707.923990905        1465036251.9887338     
   580186719.90535069       -12478544.937723845        1470436699.6054280     
   552897798.67542648       -12681724.243059218        1481238731.0273254     
   326121607.87229896       -17070164.422343493        1487866885.0654032     
   311897850.84727693       -19601520.935600653        1482558234.4146805     
   297947891.28251082       -21220219.248004243        1482435397.9335837     
   284271729.17800057       -21926259.359555677        1487498375.6221116     
   270869364.53373981       -21719641.270274401        1497747167.4802647     
  -11689797.792332165       -27583511.893389829        1503796305.7484987     
  -12682183.347969502       -30019017.891279124        1498596774.6131222     
  -13387871.295617506       -31498865.195871007        1498367288.0117919     
  -13806861.635281730       -32023053.807183784        1503107845.9445078     
  -13939154.366956968       -31591583.725199249        1512818448.4112740     
   1108614412.6817803        2892033.5282752514        1443910391.5556567     
   1071892177.2338958        8995878.0706593394        1439999895.6068676     
   1036006061.6596961        17886788.858660281        1440176708.3973393     
   1000956065.9591806        29564765.892275751        1444440829.9270756     
   966742190.13233781        44029809.171465278        1452792260.1960711     
   832146148.05810595       -4477832.6435471177        1463293139.0524559     
   804971153.99667406       -466509.47426602244        1458741973.4102290     
   777827825.23834121        3650364.7053413093        1457930420.4121180     
   750716161.78311336        7872789.8952978849        1460858480.0581102     
   723636163.63098705        12200766.095595539        1467526152.3482163     
   552897798.67542648       -12681724.243059218        1481238731.0273254     
   534276628.58572030       -11060947.671332598        1475108365.3593194     
   514882669.22853893       -12016135.324524403        1472369916.2402773     
   494715920.60388523       -15547287.202624798        1473023383.6701949     
   473776382.71175545       -21654403.305643499        1477068767.6490676     
   270869364.53373981       -21719641.270274401        1497747167.4802647     
   259808601.00104597       -22787436.520501211        1489099071.4541440     
   247170593.63029563       -29112711.230916142        1483495195.8818302     
   232955342.42149845       -40695465.401486829        1480935540.7633240     
   217162847.37464201       -57535699.032254562        1481420106.0986288     
  -13939154.366956968       -31591583.725199249        1512818448.4112740     
  -18432928.757357076       -35645976.021796770        1500714091.6946938     
  -25308401.556390900       -47639363.013840020        1491306259.3367691     
  -34565572.764054261       -67571744.701315060        1484594951.3375034     
  -46204442.380344898       -95443121.084214345        1480580167.6968927     
   966742190.13233781        44029809.171465278        1452792260.1960711     
   905317598.82064521        57380651.682738632        1454942787.9596074     
   847704589.09297490        83436766.140753239        1468595888.3879855     
   793903160.94931948        122198152.54548839        1493751561.4812205     
   743913314.38968849        173664810.89695749        1530409807.2393029     
   723636163.63098705        12200766.095595539        1467526152.3482163     
   686087978.31280398        16725658.017198414        1469500461.1189494     
   650708592.66149640        28479882.161714584        1480375421.2020721     
   617498006.67705834        47463438.529137969        1500151032.5975883     
   586456220.35948443        73676327.119433001        1528827295.3054869     
   473776382.71175545       -21654403.305643499        1477068767.6490676     
   452670542.38006514       -28185680.275792688        1476950278.5236585     
   432090719.79809272       -32963564.746881217        1483130519.3581779     
   412036914.96583724       -35988056.718911886        1495609490.1526322     
   392509127.88330209       -37259156.191878393        1514387190.9070165     
   217162847.37464201       -57535699.032254562        1481420106.0986288     
   205065291.02241635       -77353363.196272686        1477292240.1737299     
   191850970.50275952       -100893574.58506276        1476861182.8563011     
   177519885.81566611       -128156333.19863769        1480126934.1463461     
   162072036.96114153       -159141639.03698659        1487089494.0438640     
  -46204442.380344898       -95443121.084214345        1480580167.6968927     
  -56727775.760134369       -130777390.74421990        1470526346.0691650     
  -70010655.224504709       -175310147.35282692        1461567411.6964507     
  -86053080.773460120       -229041390.91005084        1453703364.5787466     
  -104855052.40699887       -291971121.41588867        1446934204.7160559     
  -266318.52138010360       -79895.556414031074        656447414.55326402     
  -360980.35086246382       -48660.902590874117        770938711.45229435     
  -438638.31478498678        39253.303098233882        885606722.58640420     
  -499292.41314765514        183847.06065361027        1000451447.9555933     
  -542942.64595054905        385120.37007507496        1115472887.5598621     
  -448628273.16040516       -134588481.94812155        657940278.44202757     
  -447915793.39222085       -125522129.63326189        774150272.30327082     
  -446462504.72113395       -113986414.30872747        888719402.92893898     
  -444268407.14714468       -99981335.974518210        1001647670.3190322     
  -441333500.67025310       -83506894.630634278        1112935074.4735506     
  -890746147.08722949       -267223844.12616885        662392836.25711191     
  -894419604.20896244       -250680297.69654793        781165966.29080093     
  -896628447.39045024       -229254704.79944342        896480655.61826074     
  -897372676.63169301       -202947065.43485558        1008336904.2394906     
  -896652291.93269062       -171757379.60278404        1116734712.1544919     
  -1326619940.3018527       -397985982.09055585        669805087.99851668     
  -1339872412.8010874       -375523165.09244889        791985793.41488457     
  -1350936466.3227336       -345765618.16904956        908890480.65436852     
  -1359812100.8667922       -308713341.32035798        1020519149.7169689     
  -1366499316.4332638       -264366334.54637480        1126871800.6026852     
  -1756249652.8042758       -526874895.84128273        680177033.66624212     
  -1784274219.1685951       -500050731.82096475        806609753.67552185     
  -1809386561.5179839       -463519154.41754580        925948878.03726339     
  -1831586679.8524427       -417280163.63102615        1038194406.7514666     
  -1850874574.1719713       -361333759.46140552        1143346339.8181319     
  -542942.64595054905        385120.37007507496        1115472887.5598621     
  -575771.31065495696        557544.48188705579        1188574367.5238450     
  -646765.81984665676        602749.11207490321        1258516918.8669403     
  -755926.17352540675        520734.26063907705        1325300541.5891476     
  -903252.37169172964        311499.92757818109        1388925235.6904676     
  -441333500.67025310       -83506894.630634278        1112935074.4735506     
  -443414704.46453398       -68724620.583332613        1181110559.3639219     
  -446360234.22670454       -56823433.095663249        1247497795.8673165     
  -450170089.95676494       -47803332.167626306        1312096783.9837356     
  -454844271.65471476       -41664317.799221173        1374907523.7131772     
  -896652291.93269062       -171757379.60278404        1116734712.1544919     
  -896865641.61680138       -141190386.84806794        1179020348.4939485     
  -898769477.39220452       -116258347.73099363        1240888416.6803398     
  -902363799.25889993       -96961262.251559883        1302338916.7136664     
  -907648607.21688771       -83299130.409767598        1363371848.5939274     
  -1366499316.4332638       -264366334.54637480        1126871800.6026852     
  -1360928582.7674575       -216839754.31232074        1182303734.9139245     
  -1357874495.3163471       -177701994.79391664        1238688781.3060095     
  -1357337054.0799315       -146953055.99116290        1296026939.7789409     
  -1359316259.0582108       -124592937.90405929        1354318210.3327186     
  -1850874574.1719713       -361333759.46140552        1143346339.8181319     
  -1835603527.9165027       -295672722.97608972        1190960718.6238503     
  -1823675287.9991319       -241154374.28443331        1240898889.7443264     
  -1815089854.4198582       -197778713.38643432        1293160853.1795590     
  -1809847227.1786823       -165545740.28209382        1347746608.9295495     
  -903252.37169172964        311499.92757818109        1388925235.6904676     
  -1476013.5400972669        162148.00580242719        1409322379.9992001     
  -1886973.9833396734        552131.83457009646        1432826432.6752841     
  -2136133.7014212534        1481451.4138736809        1459437393.7187190     
  -2223492.6943406286        2950106.7437186409        1489155263.1295030     
  -454844271.65471476       -41664317.799221173        1374907523.7131772     
  -445365380.99620122       -32929409.132080421        1395400459.8773077     
  -436110094.52905107       -24939847.769484997        1418468313.5588903     
  -427078412.25326377       -17695633.711431727        1444111084.7579257     
  -418270334.16883993       -11196766.957924068        1472328773.4744134     
  -907648607.21688771       -83299130.409767598        1363371848.5939274     
  -889638038.58830678       -66135953.310763836        1383510937.5441759     
  -872236479.06761444       -51002806.571389914        1405692953.1619778     
  -855443928.65481210       -37899690.191648930        1429917895.4473341     
  -839260387.34989715       -26826604.171533316        1456185764.4002447     
  -1359316259.0582108       -124592937.90405929        1354318210.3327186     
  -1334293986.3164144       -99457484.530248225        1373653812.9998043     
  -1310266127.5990334       -77636744.571155667        1394500351.4845462     
  -1287232682.9060655       -59130718.026775897        1416857825.7869437     
  -1265193652.2375133       -43939404.897110641        1440726235.9069977     
  -1809847227.1786823       -165545740.28209382        1347746608.9295495     
  -1779333224.1805232       -132894002.79053193        1365829086.2441936     
  -1750199040.1233048       -104841661.76877403        1384890508.5265956     
  -1722444675.0070267       -81388717.216816485        1404930875.7767549     
  -1696070128.8316865       -62535169.134653449        1425950187.9946725     
  -2223492.6943406286        2950106.7437186409        1489155263.1295030     
  -3098748.2117619431        3396851.4514662432        1492928891.4454563     
  -4653744.0135184061        1577795.2114303659        1498886999.5071790     
  -6888480.0996093526       -2507061.9763871268        1507029587.3146708     
  -9802956.4700352196       -8857720.1119880304        1517356654.8679333     
  -418270334.16883993       -11196766.957924068        1472328773.4744134     
  -410904137.76606709       -6694330.8542218655        1474022056.3890045     
  -404345457.70729721       -4883615.8971963227        1478934509.1742935     
  -398594293.99253130       -5764622.0868514925        1487066131.8302794     
  -393650646.62176949       -9337349.4231856167        1498416924.3569648     
  -839260387.34989715       -26826604.171533316        1456185764.4002447     
  -820696481.52713442       -17381599.421935052        1455649629.8438594     
  -803067868.10804415       -11054236.017913491        1459367355.2831004     
  -786374547.09262657       -7844513.9594661891        1467338940.7179687     
  -770616518.48088193       -7752433.2465957701        1479564386.1484611     
  -1265193652.2375133       -43939404.897110641        1440726235.9069977     
  -1232475779.4949658       -28664954.251679242        1437811611.8100228     
  -1200820975.2157600       -16934065.150721252        1440185537.8336027     
  -1170229239.3998950       -8746737.5942320824        1447848013.9777369     
  -1140700572.0473728       -4102971.5822191238        1460799040.2424250     
  -1696070128.8316865       -62535169.134653449        1425950187.9946725     
  -1646242031.6695595       -40544395.343448758        1420508002.2874937     
  -1597604779.0304439       -22523103.295618653        1421389056.8257978     
  -1550158370.9143367       -8471292.9911512733        1428593351.6095846     
  -1503902807.3212426        1611035.5699439049        1442120886.6388547     
  -9802956.4700352196       -8857720.1119880304        1517356654.8679333     
  -10761092.028241472       -15160585.482778016        1506461564.1076143     
  -11394944.101361362       -20382505.903281163        1500569809.0009356     
  -11704512.689390277       -24523481.373480365        1499681389.5478973     
  -11689797.792332165       -27583511.893389829        1503796305.7484987     
  -393650646.62176949       -9337349.4231856167        1498416924.3569648     
  -381018487.66930217       -11588646.120318070        1489968005.1713388     
  -368228343.91260362       -13313326.803346008        1486034845.6463625     
  -355280215.35166383       -14511391.472235784        1486617445.7820361     
  -342174101.98649192       -15182840.127020389        1491715805.5783563     
  -770616518.48088193       -7752433.2465957701        1479564386.1484611     
  -745787139.28343332       -6370083.5497846603        1473367623.4098687     
  -720966073.96260178       -5015446.7750307620        1471199044.3389344     
  -696153322.51838648       -3688522.9223292470        1473058648.9356592     
  -671348884.95078862       -2389311.9916869998        1478946437.2000394     
  -1140700572.0473728       -4102971.5822191238        1460799040.2424250     
  -1105067046.8706319        495102.22883117199        1456660418.8232055     
  -1069608134.2513599        4511134.1816514134        1456062405.0786502     
  -1034323834.1895561        7945124.2762432098        1459004999.0087631     
  -999214146.68522096        10797072.512608230        1465488200.6135390     
  -1503902807.3212426        1611035.5699439049        1442120886.6388547     
  -1458858210.4308977        9006911.2155285478        1439846391.4113450     
  -1414154524.7788746        15266416.066711128        1440624927.8655107     
  -1369791750.3651741        20389550.123483896        1444456496.0013514     
  -1325769887.1897936        24376313.385854602        1451341095.8188648     
  -11689797.792332165       -27583511.893389829        1503796305.7484987     
  -12682183.347969502       -30019017.891279124        1498596774.6131222     
  -13387871.295617506       -31498865.195871007        1498367288.0117919     
  -13806861.635281730       -32023053.807183784        1503107845.9445078     
  -13939154.366956968       -31591583.725199249        1512818448.4112740     
  -342174101.98649192       -15182840.127020389        1491715805.5783563     
  -329288273.43892640       -15562424.827802613        1487317870.6210663     
  -316324419.10266864       -15681923.566277564        1488150997.0636284     
  -303282538.97771430       -15541336.342430562        1494215184.9060459     
  -290162633.06406462       -15140663.156265408        1505510434.1483128     
  -671348884.95078862       -2389311.9916869998        1478946437.2000394     
  -643839079.82628942       -489246.65324789286        1475106647.9649909     
  -616459920.73238754        975331.91653224826        1476758936.9956055     
  -589211407.66908765        2004423.7176403999        1483903304.2918770     
  -562093540.63638484        2598028.7500930429        1496539749.8538089     
  -999214146.68522096        10797072.512608230        1465488200.6135390     
  -956334602.51005673        15200516.632385492        1461963106.6448956     
  -913794376.18478346        18472901.252527237        1464191107.8077159     
  -871593467.70939958        20614226.373036444        1472172204.1020048     
  -829731877.08391070        21624491.993897259        1485906395.5277586     
  -1325769887.1897936        24376313.385854602        1451341095.8188648     
  -1266774841.4902313        31506865.029096723        1447887246.6607809     
  -1208327785.4598505        36810784.441728473        1450447509.4999669     
  -1150428719.0986590        40288071.623733521        1459021884.3364272     
  -1093077642.4066486        41938726.575131178        1473610371.1701603     
  -13939154.366956968       -31591583.725199249        1512818448.4112740     
  -18432928.757357076       -35645976.021796770        1500714091.6946938     
  -25308401.556390900       -47639363.013840020        1491306259.3367691     
  -34565572.764054261       -67571744.701315060        1484594951.3375034     
  -46204442.380344898       -95443121.084214345        1480580167.6968927     
  -290162633.06406462       -15140663.156265408        1505510434.1483128     
  -286809271.14699596       -19395173.150707886        1493154787.5574903     
  -284671442.69881415       -27701461.374772027        1484185056.3132617     
  -283749147.71952254       -40059527.828471906        1478601240.4156189     
  -284042386.20911616       -56469372.511788309        1476403339.8645732     
  -562093540.63638484        2598028.7500930429        1496539749.8538089     
  -548923353.87489033       -1265692.3810981810        1485293339.1517780     
  -535802535.64254206       -5293975.2761058211        1478122234.7842720     
  -522731085.93933898       -9486819.9349333048        1475026436.7512887     
  -509709004.76527923       -13844226.357569844        1476005945.0528338     
  -829731877.08391070        21624491.993897259        1485906395.5277586     
  -804775176.94103909        18742466.287041485        1477129746.4775517     
  -778701680.38757133        19583095.282173425        1473117794.7498026     
  -751511387.42350578        24146378.979296923        1473870540.3445089     
  -723204298.04884171        32432317.378417104        1479387983.2616777     
  -1093077642.4066486        41938726.575131178        1473610371.1701603     
  -1054364740.3454458        40629302.853693724        1468664009.5348082     
  -1013368876.9339000        46929750.300069630        1469171736.2098517     
  -970090052.17202032        60840068.914223671        1475133551.1952844     
  -924528266.05979300        82360258.696204185        1486549454.4911113     
  -46204442.380344898       -95443121.084214345        1480580167.6968927     
  -56727775.760134369       -130777390.74421990        1470526346.0691650     
  -70010655.224504709       -175310147.35282692        1461567411.6964507     
  -86053080.773460120       -229041390.91005084        1453703364.5787466     
  -104855052.40699887       -291971121.41588867        1446934204.7160559     
  -284042386.20911616       -56469372.511788309        1476403339.8645732     
  -283490999.55770844       -76294426.877549082        1469672904.7314837     
  -284142934.75043875       -100130554.05710220        1466787548.0687056     
  -285998191.78730381       -127977754.05043736        1467747269.8762414     
  -289056770.66830164       -159836026.85755041        1472552070.1540916     
  -509709004.76527923       -13844226.357569844        1476005945.0528338     
  -490225208.89611626       -15802758.673143357        1474414491.3615780     
  -470388510.63063580       -16584949.667659700        1479418307.3559313     
  -450198909.96884352       -16190799.341134310        1491017393.0358965     
  -429656406.91073149       -14620307.693543598        1509211748.4014707     
  -723204298.04884171        32432317.378417104        1479387983.2616777     
  -676930403.77535212        50697613.869018137        1484751105.9594481     
  -628747382.86509538        75326665.815505713        1499459689.5581276     
  -578655235.31807649        106319473.21786821        1523513734.0577083     
  -526653961.13428986        143676036.07612467        1556913239.4582064     
  -924528266.05979300        82360258.696204185        1486549454.4911113     
  -843606584.19541454        123206690.74893159        1500682748.5250969     
  -759219551.45381665        175604292.39239171        1526911694.6752880     
  -671367167.83501065        239553063.62654683        1565236292.9416890     
  -580049433.33898067        315053004.45144653        1615656543.3242953     
  -1756249652.8042758       -526874895.84128273        680177033.66624212     
  -1784274219.1685951       -500050731.82096475        806609753.67552185     
  -1809386561.5179839       -463519154.41754580        925948878.03726339     
  -1831586679.8524427       -417280163.63102615        1038194406.7514666     
  -1850874574.1719713       -361333759.46140552        1143346339.8181319     
  -2201871395.4773493       -660561418.64320481        696601471.62287617     
  -2238477746.2113390       -613869362.51475644        814038809.41160381     
  -2273052309.1555800       -560404680.42048132        927383472.07701647     
  -2305595084.3100729       -500167372.36037898        1036635459.6191145     
  -2336106071.6748180       -433157438.33445078        1141794772.0378981     
  -2685721279.2039261       -805716383.76117790        722171200.23100674     
  -2722335355.6669469       -736584217.93240750        829585980.20313644     
  -2757798080.5654016       -663614213.55508447        935909005.57617462     
  -2792109453.8992910       -586806370.62920845        1041140276.3501217     
  -2825269475.6686134       -506160689.15477991        1145279792.5249767     
  -3207799303.9840059       -962339791.19520175        756886219.49063373     
  -3235847047.5354199       -868195298.07391810        853251266.05011988     
  -3263623875.7474504       -773147753.82135582        951525478.53473771     
  -3291129788.6200976       -677197158.43751431        1051708856.9444873     
  -3318364786.1533613       -580343511.92239475        1153801401.2793686     
  -3768105469.8175883       -1130431640.9452765        800746529.40175760     
  -3779012821.8167577       -1008702602.9392881        885034666.95255387     
  -3790529694.7017260       -889005301.21929502        974232890.95270514     
  -3802656088.4724932       -771339735.78529716        1068341201.4022117     
  -3815392003.1290593       -655705906.63729525        1167359598.3010736     
  -1850874574.1719713       -361333759.46140552        1143346339.8181319     
  -1835603527.9165027       -295672722.97608972        1190960718.6238503     
  -1823675287.9991319       -241154374.28443331        1240898889.7443264     
  -1815089854.4198582       -197778713.38643432        1293160853.1795590     
  -1809847227.1786823       -165545740.28209382        1347746608.9295495     
  -2336106071.6748180       -433157438.33445078        1141794772.0378981     
  -2312516802.5742521       -352104233.21389383        1183156229.1989465     
  -2292401171.2711053       -282629820.75139779        1225040488.0871799     
  -2275759177.7653761       -224734200.94696140        1267447548.7025976     
  -2262590822.0570645       -178417373.80058551        1310377411.0451994     
  -2825269475.6686134       -506160689.15477991        1145279792.5249767     
  -2798507671.1160178       -411259021.61690348        1180235691.3388152     
  -2775350335.8201594       -328372251.60148811        1213913401.2922654     
  -2755797469.7810402       -257500379.10853350        1246312922.3853276     
  -2739849072.9986582       -198643404.13803816        1277434254.6180015     
  -3318364786.1533613       -580343511.92239475        1153801401.2793686     
  -3293576133.5417991       -473137088.18511772        1182199105.0434566     
  -3272522781.6462946       -378381666.83470190        1207517629.3595834     
  -3255204730.4668493       -296077247.87114775        1229756974.2277496     
  -3241621980.0034623       -226223831.29445589        1248917139.6479542     
  -3815392003.1290593       -655705906.63729525        1167359598.3010736     
  -3797722189.8515959       -537738432.91853619        1189046470.3128707     
  -3783918508.7495112       -432658066.45104027        1205853172.2891338     
  -3773980959.8228049       -340464807.23480737        1217779704.2298636     
  -3767909543.0714769       -261158655.26983488        1224826066.1350596     
  -1809847227.1786823       -165545740.28209382        1347746608.9295495     
  -1779333224.1805232       -132894002.79053193        1365829086.2441936     
  -1750199040.1233048       -104841661.76877403        1384890508.5265956     
  -1722444675.0070267       -81388717.216816485        1404930875.7767549     
  -1696070128.8316865       -62535169.134653449        1425950187.9946725     
  -2262590822.0570645       -178417373.80058551        1310377411.0451994     
  -2222957566.0280685       -133900512.39080238        1318514623.4962034     
  -2186272278.2452617       -99210211.801646590        1329949595.4835806     
  -2152534958.7086406       -74346472.033114791        1344682327.0073309     
  -2121745607.4182076       -59309293.085206151        1362712818.0674541     
  -2739849072.9986582       -198643404.13803816        1277434254.6180015     
  -2684471379.4570680       -140273863.46550798        1273796694.6825764     
  -2633609803.4669118       -96958047.964427352        1275775708.8521404     
  -2587264345.0281901       -68695957.634793520        1283371297.1266935     
  -2545435004.1409030       -55487592.476606727        1296583459.5062356     
  -3241621980.0034623       -226223831.29445589        1248917139.6479542     
  -3163874664.4675179       -152014056.01464987        1231675299.8033130     
  -3092211615.7882547       -98085170.257115722        1222368848.6322768     
  -3026632833.9656739       -64437174.021854639        1220997786.1348441     
  -2967138318.9997725       -51070067.308860302        1227562112.3110158     
  -3767909543.0714769       -261158655.26983488        1224826066.1350596     
  -3661167421.0594201       -169121090.03822589        1192150438.8584132     
  -3562077715.2092919       -102591578.67971325        1169729014.8239868     
  -3470640425.5210905       -61570121.194293261        1157561794.0317810     
  -3386855551.9948192       -46056717.581968546        1155648776.4817955     
  -1696070128.8316865       -62535169.134653449        1425950187.9946725     
  -1646242031.6695595       -40544395.343448758        1420508002.2874937     
  -1597604779.0304439       -22523103.295618653        1421389056.8257978     
  -1550158370.9143367       -8471292.9911512733        1428593351.6095846     
  -1503902807.3212426        1611035.5699439049        1442120886.6388547     
  -2121745607.4182076       -59309293.085206151        1362712818.0674541     
  -2057295141.8754601       -40019070.738413095        1356354910.7353172     
  -1993750746.0272818       -23749080.706847787        1355544943.0145769     
  -1931112419.8736725       -10499322.990515709        1360282914.9052334     
  -1869380163.4146304       -269797.58940458298        1370568826.4072859     
  -2545435004.1409030       -55487592.476606727        1296583459.5062356     
  -2468577314.8863521       -39562464.974870563        1289642067.8489892     
  -2392340920.4979305       -25708320.360226870        1287473315.1690538     
  -2316725820.9756336       -13925158.632663727        1290077201.4664280     
  -2241732016.3194618       -4212979.7921885252        1297453726.7411137     
  -2967138318.9997725       -51070067.308860302        1227562112.3110158     
  -2880088550.7022395       -39174578.052829742        1220369473.6285093     
  -2793375302.4423885       -28400822.255741954        1217174173.2892284     
  -2706998574.2202229       -18748799.917604685        1217976211.2931712     
  -2620958366.0357404       -10218511.038407445        1222775587.6403394     
  -3386855551.9948192       -46056717.581968546        1155648776.4817955     
  -3291828849.3231163       -38855409.972281337        1148537128.0738788     
  -3196853891.8606577       -31826586.393407106        1144647517.3751018     
  -3101930679.6074371       -24970246.845325708        1143979944.3854616     
  -3007059212.5634604       -18286391.328056693        1146534409.1049612     
  -1503902807.3212426        1611035.5699439049        1442120886.6388547     
  -1458858210.4308977        9006911.2155285478        1439846391.4113450     
  -1414154524.7788746        15266416.066711128        1440624927.8655107     
  -1369791750.3651741        20389550.123483896        1444456496.0013514     
  -1325769887.1897936        24376313.385854602        1451341095.8188648     
  -1869380163.4146304       -269797.58940458298        1370568826.4072859     
  -1816145201.4300780        5355334.6045506001        1365728894.9436603     
  -1763359249.8815982        9483765.3449281454        1364544845.7442794     
  -1711022308.7691917        12115494.631729126        1367016678.8091478     
  -1659134378.0928588        13250522.464953065        1373144394.1382570     
  -2241732016.3194618       -4212979.7921885252        1297453726.7411137     
  -2178584259.0047846        158138.02091062069        1289922243.3106606     
  -2115993611.3239298        2672223.7212644815        1286649492.7270253     
  -2053960073.2769041        3329277.3088591099        1287635474.9902067     
  -1992483644.8636999        2129298.7837101221        1292880190.1002066     
  -2620958366.0357404       -10218511.038407445        1222775587.6403394     
  -2546175383.1550159       -6584678.5353865623        1212426436.5123477     
  -2472057609.1058683       -5168208.8042804003        1206938868.8137443     
  -2398605043.8883023       -5969101.8451116085        1206312884.5445321     
  -2325817687.5023069       -8987357.6578599215        1210548483.7047055     
  -3007059212.5634604       -18286391.328056693        1146534409.1049612     
  -2918918573.8807735       -14873115.064336300        1133241474.5487218     
  -2831551243.2274141       -14037532.231708765        1125412974.0044403     
  -2744957220.6033878       -15779642.830191374        1123048907.4721224     
  -2659136506.0086908       -20099446.859762907        1126149274.9517603     
  -1325769887.1897936        24376313.385854602        1451341095.8188648     
  -1266774841.4902313        31506865.029096723        1447887246.6607809     
  -1208327785.4598505        36810784.441728473        1450447509.4999669     
  -1150428719.0986590        40288071.623733521        1459021884.3364272     
  -1093077642.4066486        41938726.575131178        1473610371.1701603     
  -1659134378.0928588        13250522.464953065        1373144394.1382570     
  -1585368688.3111176        19591471.175458491        1368874068.9692245     
  -1512048981.6236320        24445809.571779907        1370133881.7736869     
  -1439175258.0304024        27813537.653908610        1376923832.5516469     
  -1366747517.5314314        29694655.421854317        1389243921.3031025     
  -1992483644.8636999        2129298.7837101221        1292880190.1002066     
  -1905330093.9248521        7265809.6839656830        1287912396.5909722     
  -1818520519.5053318        11255732.186458826        1287990767.0314593     
  -1732054921.6051407        14099066.291188359        1293115301.4216654     
  -1645933300.2242799        15795811.998152733        1303285999.7615926     
  -2325817687.5023069       -8987357.6578599215        1210548483.7047055     
  -2226659058.3314261       -5470119.4453737736        1205002229.5260227     
  -2127742399.1049485       -2759447.7142338753        1204018165.2732825     
  -2029067709.8228724       -855342.46443140507        1207596290.9464872     
  -1930634990.4851961        242196.30403995514        1215736606.5456374     
  -2659136506.0086908       -20099446.859762907        1126149274.9517603     
  -2549355581.5308518       -18616316.212577343        1120143567.7743762     
  -2439714620.4224901       -17599730.130316496        1118216076.4991598     
  -2330213622.6835980       -17049688.612950087        1120366801.1261101     
  -2220852588.3141837       -16966191.660507441        1126595741.6552293     
  -1093077642.4066486        41938726.575131178        1473610371.1701603     
  -1054364740.3454458        40629302.853693724        1468664009.5348082     
  -1013368876.9339000        46929750.300069630        1469171736.2098517     
  -970090052.17202032        60840068.914223671        1475133551.1952844     
  -924528266.05979300        82360258.696204185        1486549454.4911113     
  -1366747517.5314314        29694655.421854317        1389243921.3031025     
  -1314677738.4641714        27119156.728402674        1384423046.2239547     
  -1261073555.2247720        29658338.608755708        1384714774.7556949     
  -1205934967.8132303        37312201.062915862        1390119106.8983166     
  -1149261976.2295470        50080744.090880096        1400636042.6518300     
  -1645933300.2242799        15795811.998152733        1303285999.7615926     
  -1581482314.7209847        11661537.161678672        1297717294.5307531     
  -1516245482.2237451        10146752.305018187        1296919708.2112899     
  -1450222802.7325635        11251457.428164423        1300893240.8032088     
  -1383414276.2474353        14975652.531127393        1309637892.3065028     
  -1930634990.4851961        242196.30403995514        1215736606.5456374     
  -1854778469.1158831       -5743555.8464725018        1208546754.4552045     
  -1778884657.9308250       -11605008.611158013        1205786536.5766442     
  -1702953556.9300222       -17342161.990031362        1207455952.9099548     
  -1626985166.1134663       -22955015.983070672        1213555003.4551439     
  -2220852588.3141837       -16966191.660507441        1126595741.6552293     
  -2134566201.6488650       -25096122.296038866        1116911425.9973054     
  -2048991082.3460050       -35596944.139759421        1111315259.8517525     
  -1964127230.4055939       -48468657.191644907        1109807243.2185619     
  -1879974645.8276372       -63711261.451710582        1112387376.0977411     
  -924528266.05979300        82360258.696204185        1486549454.4911113     
  -843606584.19541454        123206690.74893159        1500682748.5250969     
  -759219551.45381665        175604292.39239171        1526911694.6752880     
  -671367167.83501065        239553063.62654683        1565236292.9416890     
  -580049433.33898067        315053004.45144653        1615656543.3242953     
  -1149261976.2295470        50080744.090880096        1400636042.6518300     
  -1045122095.3807710        80943403.546817958        1412067940.7822111     
  -939975487.06779325        115161821.21675533        1431568287.3836441     
  -833822151.29062045        152735997.10068345        1459137082.4561267     
  -726662088.04924643        193665931.19860646        1494774325.9996636     
  -1383414276.2474353        14975652.531127393        1309637892.3065028     
  -1267562492.5432804        32402650.551564991        1315500000.5514348     
  -1153162604.7879446        44989995.409273624        1325403353.6222575     
  -1040214612.9814299        52737687.104248643        1339347951.5189703     
  -928718517.12372971        55645725.636501133        1357333794.2415891     
  -1626985166.1134663       -22955015.983070672        1213555003.4551439     
  -1510927775.6829529       -22415568.236846864        1210978927.8327591     
  -1398780904.6142678       -34911185.030056655        1208416893.3911157     
  -1290544552.9074275       -60441866.362733603        1205868900.1302085     
  -1186218720.5624163       -99007612.234865189        1203334948.0500431     
  -1879974645.8276372       -63711261.451710582        1112387376.0977411     
  -1775217944.7997766       -83511252.818390727        1098504722.6261950     
  -1676830386.5467710       -124541720.10124749        1080608906.6902335     
  -1584811971.0686162       -186802663.30028975        1058699928.2898558     
  -1499162698.3653169       -270294082.41549563        1032777787.4250526     
  -3768105469.8175883       -1130431640.9452765        800746529.40175760     
  -3779012821.8167577       -1008702602.9392881        885034666.95255387     
  -3790529694.7017260       -889005301.21929502        974232890.95270514     
  -3802656088.4724932       -771339735.78529716        1068341201.4022117     
  -3815392003.1290593       -655705906.63729525        1167359598.3010736     
  -4339521716.3691597       -1301856514.9107478        858907571.95217359     
  -4335071754.3471460       -1125729255.6647716        942501470.00903082     
  -4331755506.8351927       -953381044.78566170        1020445164.4235995     
  -4329572973.8333006       -784811882.27341795        1092738655.1958792     
  -4328524155.3414669       -620021768.12804079        1159381942.3258703     
  -4894929983.3032055       -1468478994.9909616        936524789.12967789     
  -4905294964.6647062       -1247005191.7264068        1018812888.4642915     
  -4917317854.1605291       -1031057748.9095891        1084890494.0649724     
  -4930998651.7906733       -820636666.54050910        1134757605.9317207     
  -4946337357.5551376       -615741944.61916554        1168414224.0645368     
  -5434330270.6197271       -1630299081.1859181        1033598180.9342703     
  -5489682452.7694378       -1372530411.1241932        1113968922.3183351     
  -5547216736.6777334       -1122035413.5910771        1167568879.8768237     
  -5606933122.3446093       -878814088.58656871        1194398053.6097355     
  -5668831609.7700682       -642866436.11066794        1194456443.5170712     
  -5957722578.3187227       -1787316773.4956167        1150127747.3659508     
  -6088234218.6613417       -1502304913.8581316        1227969571.5711625     
  -6221452154.3868055       -1226314038.8301251        1268480321.8591535     
  -6357376385.4951134       -959344148.41159880        1271659998.2299247     
  -6496006911.9862652       -701395242.60255098        1237508600.6834755     
  -3815392003.1290593       -655705906.63729525        1167359598.3010736     
  -3797722189.8515959       -537738432.91853619        1189046470.3128707     
  -3783918508.7495112       -432658066.45104027        1205853172.2891338     
  -3773980959.8228049       -340464807.23480737        1217779704.2298636     
  -3767909543.0714769       -261158655.26983488        1224826066.1350596     
  -4328524155.3414669       -620021768.12804079        1159381942.3258703     
  -4297951103.4686136       -464221750.21897614        1141449825.4478669     
  -4278011831.3168774       -343867664.71363366        1129592859.6348574     
  -4268706338.8862572       -258959511.61201644        1123811044.8868415     
  -4270034626.1767564       -209497290.91412163        1124104381.2038193     
  -4946337357.5551376       -615741944.61916554        1168414224.0645368     
  -4871560149.6568165       -412719107.29077125        1102967529.4933715     
  -4814184369.0253487       -267701027.51856041        1054551307.0877270     
  -4774210015.6607399       -180687705.30253530        1023165556.8476042     
  -4751637089.5629835       -151679140.64269400        1008810278.7730026     
  -5668831609.7700682       -642866436.11066794        1194456443.5170712     
  -5518549328.4162006       -383230504.13392043        1073599582.4493829     
  -5392436121.8749256       -204158154.86581707        980728514.64774334     
  -5290491990.1462460       -105649388.30636168        915843240.11215234     
  -5212716933.2301598       -87704204.455550671        878943758.84260964     
  -6496006911.9862652       -701395242.60255098        1237508600.6834755     
  -6238918639.7467709       -375755940.74842572        1053345984.3159022     
  -6012767089.8656082       -153239046.75540781        908124482.31490481     
  -5817552262.3427792       -33844560.623495340        801844094.68048429     
  -5653274157.1782818       -17572482.352690458        734504821.41263998     
  -3767909543.0714769       -261158655.26983488        1224826066.1350596     
  -3661167421.0594201       -169121090.03822589        1192150438.8584132     
  -3562077715.2092919       -102591578.67971325        1169729014.8239868     
  -3470640425.5210905       -61570121.194293261        1157561794.0317810     
  -3386855551.9948192       -46056717.581968546        1155648776.4817955     
  -4270034626.1767564       -209497290.91412163        1124104381.2038193     
  -4147808044.3319607       -145732995.81312013        1090558924.9965744     
  -4029957168.2632890       -96554386.632524967        1065194989.2947402     
  -3916481997.9707375       -61961463.372339010        1048012574.0983171     
  -3807382533.4543085       -41954226.032556057        1039011679.4073044     
  -4751637089.5629835       -151679140.64269400        1008810278.7730026     
  -4619847998.5620480       -117964700.87527561        978217822.41859877     
  -4489157902.9514256       -87913579.075577974        953734203.83279669     
  -4359566802.7311201       -61525775.243602037        935359423.01559794     
  -4231074697.9011331       -38801289.379346848        923093479.96699917     
  -5212716933.2301598       -87704204.455550671        878943758.84260964     
  -5077287283.7496786       -85816205.224694729        855127131.12448859     
  -4939679919.2737074       -76669156.008873463        835346658.43815792     
  -4799894839.8022470       -60263056.808088779        819602340.78362107     
  -4657932045.3352995       -36597907.622339010        807894178.16087747     
  -5653274157.1782818       -17572482.352690458        734504821.41263998     
  -5520125899.8948526       -49287508.861377716        721286851.11424005     
  -5381523217.2301311       -62821117.432413340        710032353.11082351     
  -5237466109.1841125       -58173308.065801859        700741327.40238988     
  -5087954575.7567987       -35344080.761532307        693413773.98894131     
  -3386855551.9948192       -46056717.581968546        1155648776.4817955     
  -3291828849.3231163       -38855409.972281337        1148537128.0738788     
  -3196853891.8606577       -31826586.393407106        1144647517.3751018     
  -3101930679.6074371       -24970246.845325708        1143979944.3854616     
  -3007059212.5634604       -18286391.328056693        1146534409.1049612     
  -3807382533.4543085       -41954226.032556057        1039011679.4073044     
  -3701599142.3583136       -30767407.799869776        1030759965.7893729     
  -3596599779.8252969       -22194018.110445261        1026640856.9526036     
  -3492384445.8552532       -16234056.964265823        1026654352.8969985     
  -3388953140.4481888       -12887524.361344814        1030800453.6225551     
  -4231074697.9011331       -38801289.379346848        923093479.96699917     
  -4111932998.1750646       -22848474.461927176        912847370.55969310     
  -3994307610.3657026       -11950032.600209951        907644433.00557590     
  -3878198534.4730549       -6105963.7942042351        907484667.30464768     
  -3763605770.4971213       -5316268.0439000130        912368073.45690453     
  -4657932045.3352995       -36597907.622339010        807894178.16087747     
  -4522830416.7733631       -15098609.958447695        794799342.38484097     
  -4389977383.4818773       -1094629.8627099991        787658245.53401423     
  -4259372945.4608374        5414032.6648659706        786470887.60840404     
  -4131017102.7102451        4427377.6242904663        791237268.60800183     
  -5087954575.7567987       -35344080.761532307        693413773.98894131     
  -4934291398.1532192       -7517814.2894349098        676615881.26481295     
  -4783609099.1738186        10372190.102065802        666682294.53792417     
  -4635907678.8186054        18325932.412939787        663613013.80827057     
  -4491187137.0875692        16343412.643220901        667408039.07585526     
  -3007059212.5634604       -18286391.328056693        1146534409.1049612     
  -2918918573.8807735       -14873115.064336300        1133241474.5487218     
  -2831551243.2274141       -14037532.231708765        1125412974.0044403     
  -2744957220.6033878       -15779642.830191374        1123048907.4721224     
  -2659136506.0086908       -20099446.859762907        1126149274.9517603     
  -3388953140.4481888       -12887524.361344814        1030800453.6225551     
  -3288230807.7281628       -12134685.049044967        1019044878.9562291     
  -3187898733.1382370       -12682706.170412660        1012117043.4493001     
  -3087956916.6784205       -14531587.725468755        1010016947.1017687     
  -2988405358.3487034       -17681329.714196324        1012744589.9136329     
  -3763605770.4971213       -5316268.0439000130        912368073.45690453     
  -3652120871.8899345       -7769604.1280670166        902596750.22958767     
  -3540643181.5136213       -10246967.648485184        897016471.30910611     
  -3429172699.3681898       -12748358.605167150        895627236.69545817     
  -3317709425.4536309       -15273776.998102188        898429046.38864470     
  -4131017102.7102451        4427377.6242904663        791237268.60800183     
  -4010588766.3660774       -1777872.3013963699        783897088.36879504     
  -3889784588.3535609       -6730316.6659243107        780111257.58385742     
  -3768604568.6726980       -10429955.469285727        779879776.25319159     
  -3647048707.3234825       -12876788.711490154        783202644.37679720     
  -4491187137.0875692        16343412.643220901        667408039.07585526     
  -4363634491.1566019        5840510.4309532642        662945893.37385333     
  -4235322953.6580601       -2132753.2227301598        661401402.27355754     
  -4106252524.5919433       -7576378.3178300858        662774565.77497005     
  -3976423203.9582515       -10490364.854345798        667065383.87809002     
  -2659136506.0086908       -20099446.859762907        1126149274.9517603     
  -2549355581.5308518       -18616316.212577343        1120143567.7743762     
  -2439714620.4224901       -17599730.130316496        1118216076.4991598     
  -2330213622.6835980       -17049688.612950087        1120366801.1261101     
  -2220852588.3141837       -16966191.660507441        1126595741.6552293     
  -2988405358.3487034       -17681329.714196324        1012744589.9136329     
  -2867136609.3521934       -15064785.796553016        1006793935.1141087     
  -2745971363.5181098       -12793252.420331359        1005340295.5951364     
  -2624909620.8464494       -10866729.585521817        1008383671.3567115     
  -2503951381.3372159       -9285217.2921314240        1015924062.3988388     
  -3317709425.4536309       -15273776.998102188        898429046.38864470     
  -3183756282.2859330       -11164848.914247274        892575980.87520540     
  -3049870182.0736094       -7279397.3483172655        891638730.02069974     
  -2916051124.8166585       -3617422.3002976179        895617293.82512617     
  -2782299110.5150914       -178923.77021181583        904511672.28848469     
  -3647048707.3234825       -12876788.711490154        783202644.37679720     
  -3499214600.3320718       -6916505.5656571388        777489705.05766737     
  -3351411076.0889878       -1058164.9142618179        777111379.77585196     
  -3203638134.5942273        4698233.2427203655        782067668.53135037     
  -3055895775.8478007        10352688.905262828        792358571.32416260     
  -3976423203.9582515       -10490364.854345798        667065383.87809002     
  -3813511563.4906082       -2319755.7507958412        661535107.66149259     
  -3650594045.5642443        5870444.8818237782        661758244.86058879     
  -3487670650.1791558        14080237.043524504        667734795.47538388     
  -3324741377.3353543        22309620.734273911        679464759.50587583     
  -2220852588.3141837       -16966191.660507441        1126595741.6552293     
  -2134566201.6488650       -25096122.296038866        1116911425.9973054     
  -2048991082.3460050       -35596944.139759421        1111315259.8517525     
  -1964127230.4055939       -48468657.191644907        1109807243.2185619     
  -1879974645.8276372       -63711261.451710582        1112387376.0977411     
  -2503951381.3372159       -9285217.2921314240        1015924062.3988388     
  -2407629356.9192653       -16355768.858164787        1006712488.4191155     
  -2312035389.3380313       -25853176.546577454        1000888014.1822428     
  -2217169478.5935216       -37777440.357401490        998450639.68821895     
  -2123031624.6857233       -52128560.290600896        999400364.93704796     
  -2782299110.5150914       -178923.77021181583        904511672.28848469     
  -2677944447.6859789       -6790996.0691678524        895753252.26698244     
  -2574334631.1678534       -15885889.404743314        889680882.21881747     
  -2471469660.9607081       -27463603.776915550        886294562.14398527     
  -2369349537.0645423       -41524139.185701013        885594292.04248869     
  -3055895775.8478007        10352688.905262828        792358571.32416260     
  -2945511473.9490056        3598196.0709216595        784033717.54090834     
  -2835888807.8354592       -5695082.7142448425        777693863.96147299     
  -2727027777.5071549       -17527147.450221181        773339010.58585680     
  -2618928382.9640980       -31897998.137020588        770969157.41405797     
  -3324741377.3353543        22309620.734273911        679464759.50587583     
  -3210330435.7083468        14811807.562126875        671553884.24089241     
  -3096697919.3408527        4719243.5249272585        664926959.41021442     
  -2983843828.2328672       -7968071.3772929907        659583985.01383317     
  -2871768162.3843975       -23250137.144573212        655524961.05175793     
  -1879974645.8276372       -63711261.451710582        1112387376.0977411     
  -1775217944.7997766       -83511252.818390727        1098504722.6261950     
  -1676830386.5467710       -124541720.10124749        1080608906.6902335     
  -1584811971.0686162       -186802663.30028975        1058699928.2898558     
  -1499162698.3653169       -270294082.41549563        1032777787.4250526     
  -2123031624.6857233       -52128560.290600896        999400364.93704796     
  -2021621320.2331715       -69779213.604048967        981455657.37415493     
  -1923096982.1595128       -97049754.847138703        964453959.97469437     
  -1827458610.4647424       -133940184.01986235        948395272.73867178     
  -1734706205.1488614       -180450501.12222016        933279595.66608024     
  -2369349537.0645423       -41524139.185701013        885594292.04248869     
  -2257125135.9648638       -52777306.479199648        867651236.18353343     
  -2144303524.8481133       -62039773.715784311        855607363.11586344     
  -2030884703.7142951       -69311540.895467997        849462672.83948731     
  -1916868672.5633965       -74592608.018241644        849217165.35439384     
  -2618928382.9640980       -31897998.137020588        770969157.41405797     
  -2481729391.9948649       -32505531.443841338        757091459.05433452     
  -2340450014.6125851       -19511776.707192898        754069116.11374950     
  -2195090250.8172793        7083266.0728862286        761902128.59230602     
  -2045650100.6089358        47279596.896432042        780590496.49000430     
  -2871768162.3843975       -23250137.144573212        655524961.05175793     
  -2695434088.3231630       -8963888.4979755878        649776325.98655462     
  -2511536451.4529228        30534236.178637743        659839218.96834457     
  -2320075251.7736869        95244236.885234833        685713639.99712956     
  -2121050489.2854540        185166113.62181866        727399589.07290447     
  -5957722578.3187227       -1787316773.4956167        1150127747.3659508     
  -6088234218.6613417       -1502304913.8581316        1227969571.5711625     
  -6221452154.3868055       -1226314038.8301251        1268480321.8591535     
  -6357376385.4951134       -959344148.41159880        1271659998.2299247     
  -6496006911.9862652       -701395242.60255098        1237508600.6834755     
  -6810422119.7171507       -2043126635.9151452        1353819571.1825078     
  -6828329422.9713821       -1395469612.4141428        1202800716.8110411     
  -6897598288.6198368       -919017796.89388847        1092044311.6870508     
  -7018228716.6625195       -613771189.35438228        1021550355.8105377     
  -7190220707.0994234       -479729789.79562426        991318849.18150055     
  -8337744108.1319714       -2501323232.4395914        1712379735.1417296     
  -8021351293.8272524       -1424512310.9339037        1275735724.0136402     
  -7804975308.9281368       -681090820.78023171        956947685.29772401     
  -7688616153.4346285       -271058761.97857809        756015618.99398196     
  -7672273827.3467226       -194416134.52894020        672939525.10241318     
  -10539688543.563183       -3161906563.0689549        2225808239.2436161     
  -9667299831.2289524       -1589433009.4174120        1446774593.1789596     
  -8943583215.3117027       -512533110.48915482        863190442.69117415     
  -8368538695.8114424        68793133.715816021        475055787.78025955     
  -7942166272.7281647        154545723.19750023        282370628.44621438     
  -13416255426.010788       -4024876627.8032365        2894105083.4881668     
  -11766175035.176479       -1890231707.8646698        1715917324.3069999     
  -10313422007.770535       -413344666.02065802        810772583.86740017     
  -9057996343.7929573        405784497.72879934        178670862.16936764     
  -7999898043.2437496        567155783.38369989       -180387840.78709620     
  -6496006911.9862652       -701395242.60255098        1237508600.6834755     
  -6238918639.7467709       -375755940.74842572        1053345984.3159022     
  -6012767089.8656082       -153239046.75540781        908124482.31490481     
  -5817552262.3427792       -33844560.623495340        801844094.68048429     
  -5653274157.1782818       -17572482.352690458        734504821.41263998     
  -7190220707.0994234       -479729789.79562426        991318849.18150055     
  -6900209312.5591116       -304412713.98260522        846960633.46912658     
  -6623006908.9689083       -171792274.66994452        723676526.55413759     
  -6358613496.3288126       -81868471.857644558        621466528.43653429     
  -6107029074.6388226       -34641305.545700073        540330639.11631656     
  -7672273827.3467226       -194416134.52894020        672939525.10241318     
  -7400387897.8461399       -184735860.95919085        589534730.02149832     
  -7123183227.8874378       -157326452.52905226        509337038.16878098     
  -6840659817.4706192       -112187909.23852301        432346449.54425555     
  -6552817666.5956850       -49320231.087606907        358562964.14792621     
  -7942166272.7281647        154545723.19750023        282370628.44621438     
  -7739454395.6078539       -16725381.678182125        281068273.97302330     
  -7513296046.6211996       -109841580.33272839        265106017.15883586     
  -7263691225.7682047       -124802872.76613855        234483858.00365150     
  -6990639933.0488701       -61609258.978409767        189201796.50747183     
  -7999898043.2437496        567155783.38369989       -180387840.78709620     
  -7917408805.8442526        199618723.86042023       -78438734.676303193     
  -7793345365.1701927       -29337658.080972195       -9016536.4756962974     
  -7627707721.2215633       -119713362.44048166        27878753.814720720     
  -7420495873.9983759       -71508389.218108177        32247136.194952957     
  -5653274157.1782818       -17572482.352690458        734504821.41263998     
  -5520125899.8948526       -49287508.861377716        721286851.11424005     
  -5381523217.2301311       -62821117.432413340        710032353.11082351     
  -5237466109.1841125       -58173308.065801859        700741327.40238988     
  -5087954575.7567987       -35344080.761532307        693413773.98894131     
  -6107029074.6388226       -34641305.545700073        540330639.11631656     
  -5959078736.6055069       -36420499.886267424        533939222.10815656     
  -5810132244.2520895       -34879179.826488972        530062279.80459207     
  -5660189597.5785704       -30017345.366370678        528699812.20561928     
  -5509250796.5849438       -21834996.505905628        529851819.31124210     
  -6552817666.5956850       -49320231.087606907        358562964.14792621     
  -6388490955.2135992       -20691305.480385065        353796784.19195092     
  -6227626360.5725994       -3602769.0101323128        352096081.35017937     
  -6070223882.6726894        1945378.3231632710        353460855.62261063     
  -5916283521.5138721       -4046863.4805152416        357891107.00924665     
  -6990639933.0488701       -61609258.978409767        189201796.50747183     
  -6808362555.7191238       -2099925.6437363625        180859537.36562240     
  -6634005566.1916599        31008115.016661644        176133757.74758452     
  -6467568964.4664755        37714863.002794743        175024457.65336269     
  -6309052750.5435801        18020318.314638853        177531637.08295479     
  -7420495873.9983759       -71508389.218108177        32247136.194952957     
  -7218693538.1220884        19353639.623679638        15127481.629166713     
  -7029269861.1092710        68953472.253893375        2175308.9968122053     
  -6852224842.9599285        77291108.672523499       -6609381.7021261780     
  -6687558483.6740656        44366548.879562855       -11226590.467636829     
  -5087954575.7567987       -35344080.761532307        693413773.98894131     
  -4934291398.1532192       -7517814.2894349098        676615881.26481295     
  -4783609099.1738186        10372190.102065802        666682294.53792417     
  -4635907678.8186054        18325932.412939787        663613013.80827057     
  -4491187137.0875692        16343412.643220901        667408039.07585526     
  -5509250796.5849438       -21834996.505905628        529851819.31124210     
  -5344017648.8852701       -9204985.6095602512        515126602.42154753     
  -5179675584.2810440        454748.30196142197        505943884.74140209     
  -5016224602.7722569        7144205.2286744118        502303666.27080488     
  -4853664704.3589182        10863385.170566082        504205947.00975615     
  -5916283521.5138721       -4046863.4805152416        357891107.00924665     
  -5743256994.5400753       -7746085.4065234661        347676660.73751587     
  -5569031755.1329823       -7449599.2215554714        341682906.88764000     
  -5393607803.2925949       -3157404.9256074429        339909845.45962524     
  -5216985139.0189190        5130497.4813141823        342357476.45346743     
  -6309052750.5435801        18020318.314638853        177531637.08295479     
  -6132009435.1176281       -3141113.6803147793        174266056.21270925     
  -5951677611.7296371       -13340852.468482256        173899360.97663289     
  -5768057280.3796196       -12578898.049888611        176431551.37472805     
  -5581148441.0675688       -855250.42452526093        181862627.40699610     
  -6687558483.6740656        44366548.879562855       -11226590.467636829     
  -6510274970.6179218        4609929.5690944195       -5105211.1528636897     
  -6327613154.0710144       -17219011.438838243        2593247.0083843525     
  -6139573034.0333319       -21120274.144183397        11868784.016119309     
  -5946154610.5048847       -7093858.5469741821        22721399.870332051     
  -4491187137.0875692        16343412.643220901        667408039.07585526     
  -4363634491.1566019        5840510.4309532642        662945893.37385333     
  -4235322953.6580601       -2132753.2227301598        661401402.27355754     
  -4106252524.5919433       -7576378.3178300858        662774565.77497005     
  -3976423203.9582515       -10490364.854345798        667065383.87809002     
  -4853664704.3589182        10863385.170566082        504205947.00975615     
  -4716700447.0058775        5538547.1667382717        499990884.69853640     
  -4579745321.2569265        183270.48259782791        498902930.98525894     
  -4442799327.1120682       -5202444.8818507195        500942085.86992055     
  -4305862464.5713053       -10618598.926607370        506108349.35252488     
  -5216985139.0189190        5130497.4813141823        342357476.45346743     
  -5070010830.2545643        5163255.6826996803        337493470.49942607     
  -4923813676.2659760        2605497.9648706913        335966027.13954914     
  -4778393677.0531406       -2542775.6721456051        337775146.37384719     
  -4633750832.6160717       -10281565.228376150        342920828.20232046     
  -5581148441.0675688       -855250.42452526093        181862627.40699610     
  -5423565640.9026718        4714635.9788415432        175453650.77650562     
  -5267528018.6852055        5133929.2240996361        172590690.73642492     
  -5113035574.4151611        402629.31127691269        173273747.28674960     
  -4960088308.0925541       -9479263.7596659660        177502820.42748049     
  -5946154610.5048847       -7093858.5469741821        22721399.870332051     
  -5777364878.9502029        4192688.0551393032        13871425.529794862     
  -5610888348.5146208        7768564.2602655888        8776921.7758899946     
  -5446725019.1981316        3633770.0683989525        7437888.6086218497     
  -5284874891.0007458       -8211694.5204625130        9854326.0279983543     
  -3976423203.9582515       -10490364.854345798        667065383.87809002     
  -3813511563.4906082       -2319755.7507958412        661535107.66149259     
  -3650594045.5642443        5870444.8818237782        661758244.86058879     
  -3487670650.1791558        14080237.043524504        667734795.47538388     
  -3324741377.3353543        22309620.734273911        679464759.50587583     
  -4305862464.5713053       -10618598.926607370        506108349.35252488     
  -4129305689.2396965       -3883334.4940886497        500892066.98473859     
  -3952564763.8600116        3465763.4319913387        500749862.17454362     
  -3775639688.4322701        11428694.851611614        505681734.92194736     
  -3598530462.9564600        20005459.764781952        515687685.22694498     
  -4633750832.6160717       -10281565.228376150        342920828.20232046     
  -4445489882.0150604       -5563933.3452565670        338226524.37090909     
  -4256866508.7766433        361773.99588632584        337926962.23899353     
  -4067880712.9008131        7495556.7950770855        342022141.80657297     
  -3878532494.3875699        15837415.052296877        350512063.07364762     
  -4960088308.0925541       -9479263.7596659660        177502820.42748049     
  -4762064141.8167114       -7361552.3043024540        173538479.82001320     
  -4563499280.3141279       -3441523.4264624119        173289545.05394602     
  -4364393723.5847769        2280822.8739295006        176756016.12926853     
  -4164747471.6286812        9805486.5968072414        183937893.04598922     
  -5284874891.0007458       -8211694.5204625130        9854326.0279983543     
  -5079028468.6446581       -9276191.3712639809        6827933.3320486741     
  -4872463078.4724703       -7944128.8350772858        6837610.6193957804     
  -4665178720.4841757       -4215506.9118771553        9883357.8900345489     
  -4457175394.6797905        1909674.3983180523        15965175.143967541     
  -3324741377.3353543        22309620.734273911        679464759.50587583     
  -3210330435.7083468        14811807.562126875        671553884.24089241     
  -3096697919.3408527        4719243.5249272585        664926959.41021442     
  -2983843828.2328672       -7968071.3772929907        659583985.01383317     
  -2871768162.3843975       -23250137.144573212        655524961.05175793     
  -3598530462.9564600        20005459.764781952        515687685.22694498     
  -3478300117.5552082        11605090.027991056        506132480.12218744     
  -3358196869.8685746        2781061.2424640656        499978071.30900490     
  -3238220719.8965650       -6466626.5918098688        497224458.78738803     
  -3118371667.6391783       -16137973.474814534        497871642.55735576     
  -3878532494.3875699        15837415.052296877        350512063.07364762     
  -3746434614.1913037        8348928.0570781231        340072410.26482397     
  -3613812504.1647525        2607873.8294441700        335150399.60484558     
  -3480666164.3079357       -1385747.6306152344        335746031.09371340     
  -3346995594.6208439       -3631936.3231029510        341859304.73142171     
  -4164747471.6286812        9805486.5968072414        183937893.04598922     
  -4014733925.6166153        5043321.6494004726        173373674.66880971     
  -3863544822.2293768        4199681.2859003544        170443944.29774231     
  -3711180161.4669805        7274565.5062534809        175148701.93279493     
  -3557639943.3294125        14267974.310521841        187487947.57396564     
  -4457175394.6797905        1909674.3983180523        15965175.143967541     
  -4283198051.8311529        1688270.8049683571        6036273.3341372367     
  -4107393824.0624523        7556483.6118128300        5858705.3876912445     
  -3929762711.3736978        19514312.818843842        15432471.304636769     
  -3750304713.7648768        37561758.426098108        34757571.084976532     
  -2871768162.3843975       -23250137.144573212        655524961.05175793     
  -2695434088.3231630       -8963888.4979755878        649776325.98655462     
  -2511536451.4529228        30534236.178637743        659839218.96834457     
  -2320075251.7736869        95244236.885234833        685713639.99712956     
  -2121050489.2854540        185166113.62181866        727399589.07290447     
  -3118371667.6391783       -16137973.474814534        497871642.55735576     
  -2911635095.9962029        2890256.5997384787        499249482.90075856     
  -2703035170.9406934        28129664.716105103        507108028.39204890     
  -2492571892.4726248        59580250.874298930        521447279.03123754     
  -2280245260.5920119        97242015.074335337        542267234.81831229     
  -3346995594.6208439       -3631936.3231029510        341859304.73142171     
  -3136516019.3935866        12140426.980118036        343713376.18757516     
  -2929873300.1502237        15123270.337041736        342717329.89251810     
  -2727067436.8907619        5316593.7476181984        338871165.84625030     
  -2528098429.6151953       -17279602.788129210        332174884.04877180     
  -3557639943.3294125        14267974.310521841        187487947.57396564     
  -3370076858.5152917        18786622.643240213        183168005.84700656     
  -3192050839.0815148       -8484946.9585386515        166667123.46973902     
  -3023561885.0280857       -67546734.494832516        137985300.44215679     
  -2864609996.3550143       -158398739.96558440        97122536.764266282     
  -3750304713.7648768        37561758.426098108        34757571.084976532     
  -3612317613.3613348        22828843.589034081        17613371.879048150     
  -3489567787.7345762       -42694987.170661449       -21042590.876282051     
  -3382055236.8846211       -159009733.85302508       -81210317.181023851     
  -3289779960.8114600       -326115396.45803428       -162889807.03519276     
 </DataArray>
 <DataArray  type="Float64" Name="VM" NumberOfComponents="1" format="ascii">
   12935563248.115498     
   11340903035.361797     
   10210622505.318449     
   9273375684.7990189     
   8304736269.2147675     
   10130348672.592796     
   9322209241.9498329     
   8826700451.1747475     
   8443988351.4083967     
   8036270723.8429174     
   7982454266.8300228     
   7735164996.9934816     
   7669430851.2902365     
   7669945864.6398659     
   7666780546.2825146     
   6491792891.8978090     
   6587054920.1966515     
   6757644409.8268480     
   6961479807.8408489     
   7171900910.5168524     
   5657916179.1064453     
   5891037892.9646549     
   6116528831.8132553     
   6331930676.6235924     
   6537020188.8358154     
   8304736269.2147675     
   8021056237.1129742     
   7779477520.8491459     
   7569325819.1591949     
   7385632984.5778990     
   8036270723.8429174     
   7747187732.2887182     
   7473783688.4713078     
   7214100101.8319578     
   6968141618.7534370     
   7666780546.2825146     
   7381437328.0739861     
   7101497577.8670330     
   6827036865.3851862     
   6558256184.7832623     
   7171900910.5168524     
   6911239749.3345575     
   6658482943.7605238     
   6409770992.0381861     
   6161958032.1430187     
   6537020188.8358154     
   6328942218.1433773     
   6143043071.1048937     
   5965416447.6764784     
   5787054279.2563419     
   7385632984.5778990     
   7228774997.4426956     
   7064415862.9560566     
   6891869252.0771217     
   6710951836.8544397     
   6968141618.7534370     
   6814918315.3210258     
   6657073169.9473085     
   6494324428.8427715     
   6326620238.7052536     
   6558256184.7832623     
   6408046580.4437437     
   6256190688.5563498     
   6102655670.1951065     
   5947469047.0541420     
   6161958032.1430187     
   6013156046.6018925     
   5865673722.6123466     
   5719548864.9261389     
   5574836623.8726463     
   5787054279.2563419     
   5636704604.5694256     
   5490553014.0244303     
   5348513363.1923523     
   5210630878.6639452     
   6710951836.8544397     
   6513962753.7004480     
   6320419474.6170998     
   6130222723.5871420     
   5943368019.9602013     
   6326620238.7052536     
   6139264436.2400026     
   5954196678.6098213     
   5771402508.1241379     
   5590919175.3118505     
   5947469047.0541420     
   5771922978.6722956     
   5597832688.5831728     
   5425229885.7006121     
   5254184645.0823679     
   5574836623.8726463     
   5413763773.5073557     
   5253676850.3952417     
   5094624701.8478851     
   4936719810.2538872     
   5210630878.6639452     
   5067199879.9800768     
   4924703685.4507990     
   4783189330.4370737     
   4642841463.8580980     
   5943368019.9602013     
   5778306885.6801348     
   5611820472.7605591     
   5443881836.2352438     
   5274509325.1152916     
   5590919175.3118505     
   5434389786.7774458     
   5277239660.3873348     
   5119487987.0625639     
   4961192220.6034813     
   5254184645.0823679     
   5106342407.6937284     
   4958737992.4365377     
   4811431464.5865507     
   4664517041.8251247     
   4936719810.2538872     
   4797604166.6331749     
   4659622852.1342735     
   4522868274.3791504     
   4387465994.0782700     
   4642841463.8580980     
   4512335105.7458677     
   4383875753.6092930     
   4257575848.6572104     
   4133583465.9875226     
   5274509325.1152916     
   5070373793.8892441     
   4867550537.4882011     
   4666065688.3258972     
   4465985500.4274635     
   4961192220.6034813     
   4765618439.5993958     
   4571348823.5266762     
   4378452661.1398964     
   4187047089.7783866     
   4664517041.8251247     
   4479706243.8781481     
   4296440134.2822151     
   4114860452.2133098     
   3935176168.3663292     
   4387465994.0782700     
   4215885275.4673910     
   4046390161.6154881     
   3879231213.7401066     
   3714757979.6828966     
   4133583465.9875226     
   3977937689.4837718     
   3825260604.8590293     
   3675947108.5518718     
   3530532023.0815616     
   4465985500.4274635     
   4291620478.8652406     
   4115082560.6212788     
   3936255168.7330251     
   3755321265.9654264     
   4187047089.7783866     
   4033430398.7209740     
   3879229881.0607047     
   3724514381.5487356     
   3569560262.0711699     
   3935176168.3663292     
   3798263808.0568266     
   3662005025.3911653     
   3526545981.4629540     
   3392151547.1728482     
   3714757979.6828966     
   3590263044.3446541     
   3467145489.3658719     
   3345540711.1625218     
   3225634140.3323193     
   3530532023.0815616     
   3413994783.6915989     
   3298906420.8566551     
   3185330225.7931080     
   3073346256.4770164     
   3755321265.9654264     
   3596787888.7552385     
   3445865085.7089782     
   3302972657.3112178     
   3170505026.1686711     
   3569560262.0711699     
   3383679713.8919487     
   3201582151.4554491     
   3023593486.8652430     
   2850914407.6669893     
   3392151547.1728482     
   3195007502.2351055     
   2999814574.5404978     
   2806701013.8231635     
   2615958992.0162678     
   3225634140.3323193     
   3035349329.3935866     
   2847662568.3494825     
   2663111095.2406940     
   2482503496.0507731     
   3073346256.4770164     
   2909505631.0590773     
   2751836573.2206249     
   2602345709.7477736     
   2464347156.1596036     
   5657916179.1064453     
   5891037892.9646549     
   6116528831.8132553     
   6331930676.6235924     
   6537020188.8358154     
   5151486067.4982500     
   5311402791.8391008     
   5467958212.3923130     
   5618256841.1475277     
   5760832494.8041935     
   4643441570.0126972     
   4755558492.5550051     
   4868804676.4999170     
   4980544324.7418652     
   5088851129.2072544     
   4134045808.5168991     
   4224342025.8041196     
   4320563133.1897345     
   4421050592.5352745     
   4524348233.1907644     
   3624817623.4832072     
   3719576955.2641621     
   3825591559.0818572     
   3942795561.2323456     
   4071094347.6754417     
   6537020188.8358154     
   6328942218.1433773     
   6143043071.1048937     
   5965416447.6764784     
   5787054279.2563419     
   5760832494.8041935     
   5652316206.7627163     
   5559793050.6222696     
   5474203678.8753681     
   5390007198.3458920     
   5088851129.2072544     
   5054168819.3910255     
   5029992932.3038473     
   5011118724.2745161     
   4994344487.6378069     
   4524348233.1907644     
   4539096310.3122950     
   4558511350.0554838     
   4580114486.8638163     
   4602182060.9193249     
   4071094347.6754417     
   4112428632.9566441     
   4151113658.6415029     
   4186251864.7121410     
   4217111439.9879198     
   5787054279.2563419     
   5636704604.5694256     
   5490553014.0244303     
   5348513363.1923523     
   5210630878.6639452     
   5390007198.3458920     
   5249202981.0404358     
   5111627283.1165590     
   4977321041.3439989     
   4846377096.2027330     
   4994344487.6378069     
   4867487589.4468346     
   4743831059.3098135     
   4623341987.5044746     
   4506061142.0700102     
   4602182060.9193249     
   4494223264.9024096     
   4390495867.5568094     
   4290681828.1509500     
   4194691928.9890676     
   4217111439.9879198     
   4133370284.3305764     
   4056130979.6221285     
   3984541274.5122395     
   3918306007.3711491     
   5210630878.6639452     
   5067199879.9800768     
   4924703685.4507990     
   4783189330.4370737     
   4642841463.8580980     
   4846377096.2027330     
   4719932488.9295416     
   4595298164.1996260     
   4472609841.1488981     
   4352115343.2018976     
   4506061142.0700102     
   4395307435.2728157     
   4287174098.3444781     
   4181854885.4091229     
   4079628826.7930298     
   4194691928.9890676     
   4098228092.7475781     
   4005072741.0597286     
   3915445646.0504522     
   3829626261.6327510     
   3918306007.3711491     
   3834589793.0346789     
   3754682365.2112751     
   3678798645.5164380     
   3607192476.1662202     
   4642841463.8580980     
   4512335105.7458677     
   4383875753.6092930     
   4257575848.6572104     
   4133583465.9875226     
   4352115343.2018976     
   4231683629.8836403     
   4113692200.2772832     
   3998301657.7691631     
   3885717731.2921767     
   4079628826.7930298     
   3970591380.6691799     
   3864574704.3193293     
   3761790204.1625996     
   3662506060.6274610     
   3829626261.6327510     
   3733312377.9457183     
   3640798994.2585053     
   3552345234.8258319     
   3468279218.4132972     
   3607192476.1662202     
   3524838675.5712323     
   3447262255.5652823     
   3374756901.3793850     
   3307695977.7052855     
   4133583465.9875226     
   3977937689.4837718     
   3825260604.8590293     
   3675947108.5518718     
   3530532023.0815616     
   3885717731.2921767     
   3746414607.0737762     
   3610849393.3783340     
   3479478851.9680371     
   3352892797.4495387     
   3662506060.6274610     
   3539364744.7813635     
   3420716744.1161828     
   3307058840.2501645     
   3199006353.0071006     
   3468279218.4132972     
   3361065694.3030872     
   3259043752.7189984     
   3162720928.8698425     
   3072701580.3114271     
   3307695977.7052855     
   3216046358.7079415     
   3130174392.3498096     
   3050564171.9147348     
   2977770040.3479228     
   3530532023.0815616     
   3413994783.6915989     
   3298906420.8566551     
   3185330225.7931080     
   3073346256.4770164     
   3352892797.4495387     
   3242377319.8227324     
   3134103392.0196581     
   3028226224.4026270     
   2924933521.0795979     
   3199006353.0071006     
   3097335207.2238822     
   2999034624.3910093     
   2904369389.3357382     
   2813656545.5337939     
   3072701580.3114271     
   2982496495.4039030     
   2897098157.7100673     
   2816877032.1311655     
   2742272083.2984309     
   2977770040.3479228     
   2901194419.9645929     
   2831099501.3378215     
   2767928621.2955589     
   2712200075.5232000     
   3073346256.4770164     
   2909505631.0590773     
   2751836573.2206249     
   2602345709.7477736     
   2464347156.1596036     
   2924933521.0795979     
   2794895973.5253177     
   2672034511.3618975     
   2557883810.9072204     
   2454575956.1750388     
   2813656545.5337939     
   2708530282.4692025     
   2610077703.4051347     
   2519204359.2816191     
   2436995476.4703298     
   2742272083.2984309     
   2652663324.0033264     
   2567726016.5052152     
   2487817640.2064705     
   2413350899.9090242     
   2712200075.5232000     
   2628758530.9192839     
   2546683957.7492218     
   2466013102.1186600     
   2386969005.0673413     
   3624817623.4832072     
   3719576955.2641621     
   3825591559.0818572     
   3942795561.2323456     
   4071094347.6754417     
   3137735028.2991133     
   3255335165.6421509     
   3382350330.3058677     
   3518310501.3316121     
   3662757138.5113454     
   2694468936.6315651     
   2830286550.7531638     
   2973407215.5385613     
   3122748435.5036044     
   3277399350.2589025     
   2298513217.6663589     
   2449228413.6286044     
   2604648632.8336806     
   2762851290.0519471     
   2922407491.6765351     
   1955085087.9395328     
   2119123635.2099602     
   2284492342.7023139     
   2448230611.3999367     
   2608381810.7001109     
   4071094347.6754417     
   4112428632.9566441     
   4151113658.6415029     
   4186251864.7121410     
   4217111439.9879198     
   3662757138.5113454     
   3702027479.1247072     
   3739921507.0462961     
   3775539720.9109302     
   3808132007.1323652     
   3277399350.2589025     
   3320491718.8721476     
   3363835892.2386956     
   3406607439.1700673     
   3448127133.6667914     
   2922407491.6765351     
   2975209325.1583543     
   3030249946.7969055     
   3086845418.5800762     
   3144461938.6073532     
   2608381810.7001109     
   2676240559.2487388     
   2748630599.1794634     
   2825041863.7247386     
   2905121347.7569094     
   4217111439.9879198     
   4133370284.3305764     
   4056130979.6221285     
   3984541274.5122395     
   3918306007.3711491     
   3808132007.1323652     
   3755805845.2051549     
   3709464342.8643160     
   3668632917.5037117     
   3633213102.0115838     
   3448127133.6667914     
   3422528190.6033258     
   3402007926.1508350     
   3386336723.1569128     
   3375494415.5193009     
   3144461938.6073532     
   3141170778.3632240     
   3141448689.8820767     
   3145195978.5497317     
   3152395000.2581272     
   2905121347.7569094     
   2920061463.8801951     
   2936272641.8269296     
   2953703164.9481182     
   2972314382.0627260     
   3918306007.3711491     
   3834589793.0346789     
   3754682365.2112751     
   3678798645.5164380     
   3607192476.1662202     
   3633213102.0115838     
   3561283296.4145327     
   3493938054.5420175     
   3431420084.0226293     
   3374018640.5995660     
   3375494415.5193009     
   3316751621.9192634     
   3263579009.9361024     
   3216226711.3854785     
   3175000371.2520833     
   3152395000.2581272     
   3107905397.8935137     
   3070165234.0817413     
   3039398473.5586462     
   3015894671.8807645     
   2972314382.0627260     
   2942491052.2793589     
   2920753516.5182533     
   2907255387.6887546     
   2902228613.3865561     
   3607192476.1662202     
   3524838675.5712323     
   3447262255.5652823     
   3374756901.3793850     
   3307695977.7052855     
   3374018640.5995660     
   3306392482.4191275     
   3244003788.7592864     
   3187131108.7655568     
   3136111251.5733404     
   3175000371.2520833     
   3121068258.8641000     
   3072703605.9331803     
   3030147027.7571821     
   2993676370.5530133     
   3015894671.8807645     
   2974342903.1171436     
   2938511787.5112967     
   2908586740.5136399     
   2884772710.6246037     
   2902228613.3865561     
   2871397457.5478897     
   2846227365.4008412     
   2826841395.0561619     
   2813370158.4484525     
   3307695977.7052855     
   3216046358.7079415     
   3130174392.3498096     
   3050564171.9147348     
   2977770040.3479228     
   3136111251.5733404     
   3058984242.4913793     
   2988682241.5279837     
   2925696887.9721298     
   2870578381.0735455     
   2993676370.5530133     
   2931391039.9370685     
   2876969231.7809777     
   2830867961.6727672     
   2793585657.1609025     
   2884772710.6246037     
   2836993259.5968771     
   2798053764.2951164     
   2768335183.4040818     
   2748242272.7069564     
   2813370158.4484525     
   2778927227.5453448     
   2754205738.0392599     
   2739481949.6001992     
   2735042922.2115550     
   2977770040.3479228     
   2901194419.9645929     
   2831099501.3378215     
   2767928621.2955589     
   2712200075.5232000     
   2870578381.0735455     
   2809248907.4157023     
   2754698049.3596826     
   2707312893.0007596     
   2667531774.0660367     
   2793585657.1609025     
   2746624172.3488817     
   2706591247.9575000     
   2673801134.8951826     
   2648599983.5715518     
   2748242272.7069564     
   2714461853.2149220     
   2687604973.1981673     
   2667907743.0198908     
   2655625075.6316667     
   2735042922.2115550     
   2712967056.9598818     
   2697670204.0020933     
   2689316274.2759476     
   2688081037.8381157     
   2712200075.5232000     
   2628758530.9192839     
   2546683957.7492218     
   2466013102.1186600     
   2386969005.0673413     
   2667531774.0660367     
   2589602062.4505806     
   2517223439.5227618     
   2450744139.5321283     
   2390559464.8249717     
   2648599983.5715518     
   2584438859.9430628     
   2530535374.5263543     
   2487534676.0624332     
   2456070257.4074860     
   2655625075.6316667     
   2611665718.6959462     
   2582863248.6219735     
   2570071138.1533771     
   2574138580.0440879     
   2688081037.8381157     
   2668617681.2778482     
   2669298912.6223783     
   2691111721.9776616     
   2735111963.9030566     
   1955085087.9395328     
   2119123635.2099602     
   2284492342.7023139     
   2448230611.3999367     
   2608381810.7001109     
   1653663803.1253729     
   1820055931.7439494     
   1988124116.1255820     
   2155171224.1635914     
   2319439588.7499719     
   1393569558.8182826     
   1570874111.3609669     
   1749169969.4667974     
   1926452093.1733656     
   2101469384.0546050     
   1207123446.4727027     
   1399010118.9283669     
   1590467710.6132433     
   1780717849.0240958     
   1969300853.0108457     
   1137000299.1434007     
   1335305060.8592176     
   1533915907.8753610     
   1732832846.5363958     
   1932055884.5038877     
   2608381810.7001109     
   2676240559.2487388     
   2748630599.1794634     
   2825041863.7247386     
   2905121347.7569094     
   2319439588.7499719     
   2406467007.3821826     
   2495945283.1013770     
   2587485154.9697599     
   2680811658.7882776     
   2101469384.0546050     
   2205217898.9631343     
   2308868453.5818000     
   2412186122.6138663     
   2515004786.6875849     
   1969300853.0108457     
   2086438549.3898382     
   2200696904.6580505     
   2312002049.0947514     
   2420302355.5261130     
   1932055884.5038877     
   2058671427.1079524     
   2179815514.3665371     
   2295488142.6038060     
   2405689324.3462596     
   2905121347.7569094     
   2920061463.8801951     
   2936272641.8269296     
   2953703164.9481182     
   2972314382.0627260     
   2680811658.7882776     
   2702269445.9054193     
   2725995325.8600850     
   2751972140.8376708     
   2780191345.2255435     
   2515004786.6875849     
   2542997141.7482381     
   2574290360.7750783     
   2608884853.1602564     
   2646785506.8952074     
   2420302355.5261130     
   2453426930.2985940     
   2490894106.7529769     
   2532706187.4549756     
   2578867147.1587067     
   2405689324.3462596     
   2441018467.0625553     
   2481729168.5229726     
   2527821679.0148067     
   2579296493.1758528     
   2972314382.0627260     
   2942491052.2793589     
   2920753516.5182533     
   2907255387.6887546     
   2902228613.3865561     
   2780191345.2255435     
   2765331030.3428326     
   2757986612.8632793     
   2758246328.6722121     
   2766233274.2960386     
   2646785506.8952074     
   2643051593.4666901     
   2645905971.7179203     
   2655383796.7368827     
   2671529512.7776294     
   2578867147.1587067     
   2582191490.4819651     
   2590837934.2937946     
   2604814167.9596639     
   2624128088.7770438     
   2579296493.1758528     
   2585834815.2125459     
   2596154502.5866613     
   2610258799.0076356     
   2628155509.0086408     
   2902228613.3865561     
   2871397457.5478897     
   2846227365.4008412     
   2826841395.0561619     
   2813370158.4484525     
   2766233274.2960386     
   2741280217.3197861     
   2722746462.8336215     
   2710721033.9067874     
   2705297993.6057754     
   2671529512.7776294     
   2651003777.1474457     
   2637668087.7292352     
   2631570240.7874937     
   2632760973.2829657     
   2624128088.7770438     
   2605845341.4921246     
   2595512139.1787724     
   2593139859.8739100     
   2598741473.5070047     
   2628155509.0086408     
   2609302939.9437156     
   2599123369.2993240     
   2597611243.3976693     
   2604761993.6134009     
   2813370158.4484525     
   2778927227.5453448     
   2754205738.0392599     
   2739481949.6001992     
   2735042922.2115550     
   2705297993.6057754     
   2681592733.2207065     
   2667419051.1592374     
   2662937660.5998883     
   2668312932.6023726     
   2632760973.2829657     
   2617064735.5949774     
   2610631937.8100042     
   2613534865.4139690     
   2625847107.9279594     
   2598741473.5070047     
   2587994381.0857887     
   2586192160.3665943     
   2593352742.0999174     
   2609495137.7563572     
   2604761993.6134009     
   2595776984.0961614     
   2595392706.3557630     
   2603607796.3376346     
   2620421901.4855170     
   2735042922.2115550     
   2712967056.9598818     
   2697670204.0020933     
   2689316274.2759476     
   2688081037.8381157     
   2668312932.6023726     
   2651818006.2051744     
   2641755747.2117991     
   2638190478.7265568     
   2641186904.3888197     
   2625847107.9279594     
   2611382303.4757366     
   2602893574.6891279     
   2600398184.3666210     
   2603917961.8334551     
   2609495137.7563572     
   2593489595.5520759     
   2582907401.9486856     
   2577773218.5420122     
   2578135230.6328588     
   2620421901.4855170     
   2599496432.7280221     
   2583348103.7947130     
   2572059791.6950984     
   2565772250.7271209     
   2688081037.8381157     
   2668617681.2778482     
   2669298912.6223783     
   2691111721.9776616     
   2735111963.9030566     
   2641186904.3888197     
   2633973425.1531281     
   2642013405.5883350     
   2665634511.5893512     
   2705196823.8664227     
   2603917961.8334551     
   2600501923.7413387     
   2607884324.4112692     
   2626107615.5578418     
   2655217865.0807767     
   2578135230.6328588     
   2571201060.7783751     
   2570933623.9506803     
   2577404678.5072947     
   2590693209.5350614     
   2565772250.7271209     
   2549557855.6735115     
   2536118975.5461683     
   2525849518.6196008     
   2519222667.5803366     
   1137000299.1434007     
   1335305060.8592176     
   1533915907.8753610     
   1732832846.5363958     
   1932055884.5038877     
   1207334841.1677015     
   1399316601.4296312     
   1590879487.0006602     
   1781248523.5421536     
   1969966423.5990458     
   1393951749.6776247     
   1571392525.1416140     
   1749850479.3308623     
   1927323537.4902067     
   2102562373.3890274     
   1654162548.2011223     
   1820672153.8333995     
   1988899578.6201916     
   2156149054.3011241     
   2320662338.6846027     
   1955660639.6129634     
   2119744201.2406363     
   2285210795.6860223     
   2449099955.0711861     
   2609451640.7077293     
   1932055884.5038877     
   2058671427.1079524     
   2179815514.3665371     
   2295488142.6038060     
   2405689324.3462596     
   1969966423.5990458     
   2087087115.2415192     
   2201330255.1918440     
   2312620277.8963218     
   2420904902.4777303     
   2102562373.3890274     
   2206341053.4295874     
   2310027123.3106012     
   2413385079.4195476     
   2516248555.3351531     
   2320662338.6846027     
   2407814160.5393891     
   2497429444.1058722     
   2589121808.0335155     
   2682617440.2205038     
   2609451640.7077293     
   2677552441.5635881     
   2750209060.9671702     
   2826919956.3459558     
   2907336004.7429023     
   2405689324.3462596     
   2441018467.0625553     
   2481729168.5229726     
   2527821679.0148067     
   2579296493.1758528     
   2420904902.4777303     
   2454831232.4901266     
   2493209690.5195160     
   2536044589.0950069     
   2583340514.9497681     
   2516248555.3351531     
   2545446971.9782243     
   2578144543.8484936     
   2614344125.1828833     
   2654052392.0193377     
   2682617440.2205038     
   2705235868.3769274     
   2730383431.5795097     
   2758044184.6404958     
   2788212698.7190428     
   2907336004.7429023     
   2922959476.7431793     
   2940146227.6763535     
   2958841752.4948878     
   2979010290.8263402     
   2579296493.1758528     
   2585834815.2125459     
   2596154502.5866613     
   2610258799.0076356     
   2628155509.0086408     
   2583340514.9497681     
   2585412803.4832454     
   2592930056.5667715     
   2605899065.1808400     
   2624334620.7448425     
   2654052392.0193377     
   2648835093.3748746     
   2650551287.5941567     
   2659234558.9369040     
   2674933285.8849416     
   2788212698.7190428     
   2772435041.2544665     
   2764837453.9215126     
   2765514220.6867609     
   2774587514.4485254     
   2979010290.8263402     
   2949328693.2376137     
   2928806216.7531152     
   2917630508.6092291     
   2916039616.5451465     
   2628155509.0086408     
   2609302939.9437156     
   2599123369.2993240     
   2597611243.3976693     
   2604761993.6134009     
   2624334620.7448425     
   2607855031.5438514     
   2599185584.1928744     
   2598340488.0665641     
   2605334257.6059928     
   2674933285.8849416     
   2657804501.8087282     
   2647542474.0185418     
   2644197539.0994563     
   2647821494.0805793     
   2774587514.4485254     
   2754505268.0403609     
   2740302946.6564355     
   2732067625.7689061     
   2729890304.3383679     
   2916039616.5451465     
   2891532656.1444016     
   2871908024.8386278     
   2857278130.8785877     
   2847762333.8191867     
   2604761993.6134009     
   2595776984.0961614     
   2595392706.3557630     
   2603607796.3376346     
   2620421901.4855170     
   2605334257.6059928     
   2596130154.0745583     
   2595982791.8669415     
   2604907958.4604259     
   2622921146.4716296     
   2647821494.0805793     
   2634773780.1508403     
   2631173865.8186111     
   2637093509.7995892     
   2652604362.1382461     
   2729890304.3383679     
   2709492956.8588881     
   2698853209.0229654     
   2698136456.8759193     
   2707511511.6370516     
   2847762333.8191867     
   2816869844.8203926     
   2795940717.9078393     
   2785263452.1698380     
   2785139574.8771863     
   2620421901.4855170     
   2599496432.7280221     
   2583348103.7947130     
   2572059791.6950984     
   2565772250.7271209     
   2622921146.4716296     
   2601077983.0869846     
   2585021321.0778165     
   2574788607.2836814     
   2570433745.0650358     
   2652604362.1382461     
   2630382594.2789330     
   2615112211.9116774     
   2606815624.4005270     
   2605517041.7400298     
   2707511511.6370516     
   2684927317.6143847     
   2670624890.4494696     
   2664654161.5938163     
   2667076661.4980850     
   2785139574.8771863     
   2761719712.2438812     
   2748103491.8633399     
   2744422261.7013183     
   2750848588.3567152     
   2565772250.7271209     
   2549557855.6735115     
   2536118975.5461683     
   2525849518.6196008     
   2519222667.5803366     
   2570433745.0650358     
   2558197518.5220227     
   2552784573.6067543     
   2554294033.5203104     
   2562836023.6925426     
   2605517041.7400298     
   2598945526.3545461     
   2603800035.7430286     
   2620124180.1319685     
   2647960909.2779350     
   2667076661.4980850     
   2666192287.8475375     
   2682069518.8349071     
   2714949414.8376884     
   2765069846.7202034     
   2750848588.3567152     
   2754439338.2752872     
   2781178055.5959311     
   2831755915.4062600     
   2906802410.7934122     
   1955660639.6129634     
   2119744201.2406363     
   2285210795.6860223     
   2449099955.0711861     
   2609451640.7077293     
   2299101687.2153249     
   2449788329.0464568     
   2605208507.1925039     
   2763438417.3600616     
   2923046548.9238143     
   2694984558.5992899     
   2830737631.0012369     
   2973801787.8433270     
   3123092782.6816001     
   3277697868.6322227     
   3138106369.0911255     
   3255646658.9194121     
   3382593234.7295637     
   3518474398.8499141     
   3662830188.9058299     
   3624981915.8260045     
   3719728197.5767927     
   3825706990.4051433     
   3942851422.5714989     
   4071065781.3634892     
   2609451640.7077293     
   2677552441.5635881     
   2750209060.9671702     
   2826919956.3459558     
   2907336004.7429023     
   2923046548.9238143     
   2976078020.7762604     
   3031378301.3433156     
   3088270428.9023108     
   3146224936.8102384     
   3277697868.6322227     
   3320954155.4613414     
   3364492089.5899816     
   3407491004.8291593     
   3449274419.7510004     
   3662830188.9058299     
   3702157965.5667210     
   3740135277.3608756     
   3775862042.3808270     
   3808587691.5572901     
   4071065781.3634892     
   4112319272.6475682     
   4150943873.0339046     
   4186036680.9404707     
   4216861469.7896094     
   2907336004.7429023     
   2922959476.7431793     
   2940146227.6763535     
   2958841752.4948878     
   2979010290.8263402     
   3146224936.8102384     
   3142810361.3781390     
   3143091851.1156325     
   3146968771.3665347     
   3154432033.8752170     
   3449274419.7510004     
   3423036112.9104991     
   3401876360.5148129     
   3385564499.8551416     
   3374087161.8016424     
   3808587691.5572901     
   3755440037.8190727     
   3708186899.4097838     
   3666352080.1542063     
   3629836390.3804479     
   4216861469.7896094     
   4132461277.4557872     
   4054415051.4453726     
   3981870918.6097655     
   3914523800.5937605     
   2979010290.8263402     
   2949328693.2376137     
   2928806216.7531152     
   2917630508.6092291     
   2916039616.5451465     
   3154432033.8752170     
   3109795767.9921780     
   3072582396.9975486     
   3043047628.0688734     
   3021498740.3034630     
   3374087161.8016424     
   3314710565.6672196     
   3261167818.8413992     
   3213728243.3776269     
   3172710880.2425423     
   3629836390.3804479     
   3556898003.9096103     
   3488403207.1864357     
   3424593111.2340302     
   3365751817.2993040     
   3914523800.5937605     
   3829772076.8100038     
   3748305831.7096596     
   3670314948.2052603     
   3596022065.0390892     
   2916039616.5451465     
   2891532656.1444016     
   2871908024.8386278     
   2857278130.8785877     
   2847762333.8191867     
   3021498740.3034630     
   2983920974.3192644     
   2951643098.2479291     
   2924838082.4141130     
   2903698234.9625158     
   3172710880.2425423     
   3120620466.6631584     
   3074002482.7038870     
   3033086978.4310660     
   2998142051.3085856     
   3365751817.2993040     
   3297911503.5496793     
   3235494355.1767478     
   3178772812.7698154     
   3128080661.8261895     
   3596022065.0390892     
   3511353322.8083458     
   3431879163.0335546     
   3357892380.8347750     
   3289772080.3848896     
   2847762333.8191867     
   2816869844.8203926     
   2795940717.9078393     
   2785263452.1698380     
   2785139574.8771863     
   2903698234.9625158     
   2857671439.9434967     
   2820576810.4867048     
   2792809569.8381672     
   2774790382.0745783     
   2998142051.3085856     
   2936040590.4094286     
   2881730903.3265042     
   2835678920.5760050     
   2798393821.6340165     
   3128080661.8261895     
   3049910082.7288337     
   2978322206.2975330     
   2913802903.5273285     
   2856897899.3462954     
   3289772080.3848896     
   3196289360.4845419     
   3108182819.8986325     
   3025908476.7636752     
   2949991280.5575013     
   2785139574.8771863     
   2761719712.2438812     
   2748103491.8633399     
   2744422261.7013183     
   2750848588.3567152     
   2774790382.0745783     
   2741285732.8377357     
   2716779802.9151769     
   2701473825.3446069     
   2695591036.8204613     
   2798393821.6340165     
   2751704080.6708350     
   2713022387.4727898     
   2682640409.1656551     
   2660870362.9257641     
   2856897899.3462954     
   2794877261.5844946     
   2739650497.0600696     
   2691592150.7261057     
   2651114375.5509186     
   2949991280.5575013     
   2871568691.6214266     
   2798527933.9685907     
   2731293233.9535713     
   2670356766.6348362     
   2750848588.3567152     
   2754439338.2752872     
   2781178055.5959311     
   2831755915.4062600     
   2906802410.7934122     
   2695591036.8204613     
   2676795729.3203530     
   2674552062.4343338     
   2689458197.9779868     
   2722007500.0020003     
   2660870362.9257641     
   2615426875.8877439     
   2579490457.9089222     
   2553672849.6806474     
   2538574173.3497415     
   2651114375.5509186     
   2578555174.3830853     
   2507944950.6867805     
   2439982572.4275522     
   2375608904.8447776     
   2670356766.6348362     
   2574929141.3914056     
   2474183152.5351114     
   2369179971.2380466     
   2261685821.6402168     
   3624981915.8260045     
   3719728197.5767927     
   3825706990.4051433     
   3942851422.5714989     
   4071065781.3634892     
   4134006669.7664590     
   4224325204.8144879     
   4320550034.1365747     
   4421025312.8600082     
   4524297583.1305962     
   4643264399.0732784     
   4755412858.6037722     
   4868677277.8020887     
   4980427533.7334833     
   5088742419.3816795     
   5151234078.9493599     
   5311165345.5280161     
   5467728471.2559547     
   5618035381.7383852     
   5760625494.4319983     
   5657650004.9709768     
   5890743550.5359602     
   6116206822.3003473     
   6331589162.3321600     
   6536671580.6467657     
   4071065781.3634892     
   4112319272.6475682     
   4150943873.0339046     
   4186036680.9404707     
   4216861469.7896094     
   4524297583.1305962     
   4538877201.4255419     
   4558124652.4513483     
   4579557349.9409208     
   4601451522.8219204     
   5088742419.3816795     
   5053856103.0680037     
   5029464012.6649590     
   5010358424.1327991     
   4993338752.5682669     
   5760625494.4319983     
   5651922156.0944433     
   5559192686.9065657     
   5473375244.7488756     
   5388929305.1039200     
   6536671580.6467657     
   6328475398.2045164     
   6142436797.5053101     
   5964648282.6460161     
   5786101228.4637012     
   4216861469.7896094     
   4132461277.4557872     
   4054415051.4453726     
   3981870918.6097655     
   3914523800.5937605     
   4601451522.8219204     
   4493220837.3286514     
   4389155793.6274605     
   4288938163.9178424     
   4192472055.4308233     
   4993338752.5682669     
   4866483590.5942287     
   4742829991.8313522     
   4622345092.2559299     
   4505067391.7057581     
   5388929305.1039200     
   5248259167.2319269     
   5110871441.6707554     
   4976807185.8196602     
   4846161242.5110474     
   5786101228.4637012     
   5635859306.2445774     
   5489909211.9797211     
   5348165094.0260544     
   5210678446.9438934     
   3914523800.5937605     
   3829772076.8100038     
   3748305831.7096596     
   3670314948.2052603     
   3596022065.0390892     
   4192472055.4308233     
   4095887273.2276545     
   4002271092.4577460     
   3911824967.3508086     
   3824806267.7534685     
   4505067391.7057581     
   4394819063.8502388     
   4286998860.9333010     
   4181789841.6734977     
   4079460114.4916229     
   4846161242.5110474     
   4720492821.5714989     
   4596554553.2093391     
   4474478400.4058676     
   4354512684.8989697     
   5210678446.9438934     
   5067900964.4406576     
   4926056835.2920704     
   4785193817.7476015     
   4645506517.4839916     
   3596022065.0390892     
   3511353322.8083458     
   3431879163.0335546     
   3357892380.8347750     
   3289772080.3848896     
   3824806267.7534685     
   3726669403.9362068     
   3632570815.5201068     
   3542769943.1059690     
   3457599607.8153796     
   4079460114.4916229     
   3969094906.5013556     
   3861851101.7915502     
   3757940398.7797456     
   3657633035.2132368     
   4354512684.8989697     
   4233341355.7745261     
   4114609420.2901754     
   3998477234.8214521     
   3885149541.0253015     
   4645506517.4839916     
   4515010266.8055878     
   4386489213.0870113     
   4260054817.6925926     
   4135851314.2535539     
   3289772080.3848896     
   3196289360.4845419     
   3108182819.8986325     
   3025908476.7636752     
   2949991280.5575013     
   3457599607.8153796     
   3349389282.9793611     
   3246154620.7194843     
   3148373755.8245025     
   3056618082.8456378     
   3657633035.2132368     
   3534254971.8265834     
   3415350461.4944201     
   3301395109.7856803     
   3192978961.5433431     
   3885149541.0253015     
   3746173920.7329564     
   3611110253.7533154     
   3480410941.8989253     
   3354659330.8350792     
   4135851314.2535539     
   3980818446.8484993     
   3829108758.2733302     
   3681135873.3339663     
   3537455829.0870752     
   2949991280.5575013     
   2871568691.6214266     
   2798527933.9685907     
   2731293233.9535713     
   2670356766.6348362     
   3056618082.8456378     
   2966138584.9675899     
   2879536945.4111090     
   2797180666.9838557     
   2719506086.1259909     
   3192978961.5433431     
   3091984530.8705401     
   2993518293.9190025     
   2897860456.2201328     
   2805349894.9794374     
   3354659330.8350792     
   3245115703.4404297     
   3136968342.3927789     
   3030404322.5480447     
   2925652937.3373294     
   3537455829.0870752     
   3421541399.8693981     
   3306139429.9946661     
   3191357877.2527184     
   3077330477.4470959     
   2670356766.6348362     
   2574929141.3914056     
   2474183152.5351114     
   2369179971.2380466     
   2261685821.6402168     
   2719506086.1259909     
   2615438849.8522892     
   2512289571.2424693     
   2410629706.8073001     
   2311227338.1427050     
   2805349894.9794374     
   2690117161.2725949     
   2581675098.4958305     
   2480583302.1548276     
   2387566692.9551115     
   2925652937.3373294     
   2792656420.6858883     
   2671756227.2558789     
   2564274624.6945400     
   2472165402.2705498     
   3077330477.4470959     
   2916832447.4689851     
   2773373202.1496739     
   2650170565.0124540     
   2552100865.9884129     
   5657650004.9709768     
   5890743550.5359602     
   6116206822.3003473     
   6331589162.3321600     
   6536671580.6467657     
   6491543988.7941265     
   6586720020.4321318     
   6757227435.5076046     
   6960988305.8406878     
   7171345104.0823107     
   7982226177.8276367     
   7734811125.5012350     
   7668955199.8294830     
   7669348295.6449013     
   7666062373.0784750     
   10130145323.930685     
   9321852177.8141708     
   8826198593.6954041     
   8443334910.1262960     
   8035453741.3901100     
   12935389492.822691     
   11340554242.523670     
   10210121737.580526     
   9272719296.4374790     
   8303905234.6433887     
   6536671580.6467657     
   6328475398.2045164     
   6142436797.5053101     
   5964648282.6460161     
   5786101228.4637012     
   7171345104.0823107     
   6910649112.6099615     
   6657858125.9363003     
   6409115384.3726578     
   6161275864.3876934     
   7666062373.0784750     
   7380745554.5409451     
   7100851950.1617508     
   6826459104.0965767     
   6557771540.1672258     
   8035453741.3901100     
   7746417680.1435843     
   7473102029.7247839     
   7213543129.9385357     
   6967750439.5374498     
   8303905234.6433887     
   8020232588.9697561     
   7778733706.1478815     
   7568715181.9349098     
   7385212548.8698416     
   5786101228.4637012     
   5635859306.2445774     
   5489909211.9797211     
   5348165094.0260544     
   5210678446.9438934     
   6161275864.3876934     
   6012502515.1049576     
   5865074480.9367218     
   5719030855.8223934     
   5574428713.8802805     
   6557771540.1672258     
   6407540486.8458805     
   6255623175.9186993     
   6101986101.3933182     
   5946658122.4874477     
   6967750439.5374498     
   6814516751.8652163     
   6656558319.8024569     
   6493588752.0544310     
   6325560443.6554384     
   7385212548.8698416     
   7228437277.5921774     
   7064000008.6265469     
   6891204997.7287922     
   6709879943.9760389     
   5210678446.9438934     
   5067900964.4406576     
   4926056835.2920704     
   4785193817.7476015     
   4645506517.4839916     
   5574428713.8802805     
   5413453981.2738037     
   5253506681.9593487     
   5094636803.7975626     
   4936960321.4578457     
   5946658122.4874477     
   5770893373.5814314     
   5596688731.5767183     
   5424076088.1666183     
   5253127822.2517300     
   6325560443.6554384     
   6137865607.4637299     
   5952643688.5298767     
   5769876211.0553246     
   5589603511.7754831     
   6709879943.9760389     
   6512587162.0376444     
   6319022840.0787659     
   6129074664.6377401     
   5942741167.2719202     
   4645506517.4839916     
   4515010266.8055878     
   4386489213.0870113     
   4260054817.6925926     
   4135851314.2535539     
   4936960321.4578457     
   4798269490.6113968     
   4660645768.2315903     
   4524180415.0571728     
   4388995223.9385996     
   5253127822.2517300     
   5106164878.6763363     
   4959374598.4642277     
   4812813975.6216660     
   4666572013.9263887     
   5589603511.7754831     
   5434428081.9042072     
   5278568322.9909496     
   5122036995.1644812     
   4964883649.0851793     
   5942741167.2719202     
   5779512303.0595980     
   5614797241.2054186     
   5448558043.3680086     
   5280801415.5521593     
   4135851314.2535539     
   3980818446.8484993     
   3829108758.2733302     
   3681135873.3339663     
   3537455829.0870752     
   4388995223.9385996     
   4217561341.4103642     
   4048299661.8146429     
   3881478887.8597136     
   3717474052.8642869     
   4666572013.9263887     
   4481168194.1683550     
   4297096289.7584372     
   4114503389.8563156     
   3933607400.5578742     
   4964883649.0851793     
   4767871612.2508125     
   4571643023.5864029     
   4376256419.9745464     
   4181812342.8737965     
   5280801415.5521593     
   5074410513.0541782     
   4868510279.8061104     
   4663103817.5988636     
   4458216298.0263100     
   3537455829.0870752     
   3421541399.8693981     
   3306139429.9946661     
   3191357877.2527184     
   3077330477.4470959     
   3717474052.8642869     
   3592712434.1104236     
   3469404490.3449497     
   3347666556.1340947     
   3227662716.2474594     
   3933607400.5578742     
   3796586423.1892385     
   3661427229.1530557     
   3528227846.2352748     
   3397181181.3905034     
   4181812342.8737965     
   4028465814.2174177     
   3876902797.5987220     
   3727189227.3837824     
   3579555984.7888727     
   4458216298.0263100     
   4284055194.4948835     
   4111189797.8317904     
   3939646796.1573954     
   3769706704.4677353     
   3077330477.4470959     
   2916832447.4689851     
   2773373202.1496739     
   2650170565.0124540     
   2552100865.9884129     
   3227662716.2474594     
   3038715649.2344408     
   2855643805.4899001     
   2679681753.2202954     
   2512542808.3565493     
   3397181181.3905034     
   3198495807.1718731     
   2996841844.1479816     
   2792118332.4367404     
   2584359916.6139250     
   3579555984.7888727     
   3394368113.0378580     
   3200860815.7313495     
   2999896186.7826619     
   2793855461.4666247     
   3769706704.4677353     
   3623914378.4444370     
   3468608874.9076576     
   3308411607.4870996     
   3152103236.5536180     
 </DataArray>
 <DataArray  type="Float64" Name="strain" NumberOfComponents="3" format="ascii">
  0.20348475813398870        0.0000000000000000       0.12540540258252850     
  0.18665868117993009       -2.7326276097099363E-002   7.4353045834465351E-002
  0.16983260422587149       -4.4678282385547705E-002   3.5132661678110570E-002
  0.15300652727181288       -5.2056018865345013E-002   7.7442501134641524E-003
  0.13618045031775428       -4.9459485536491307E-002  -7.8121888594738648E-003
  0.15985701739270383        0.0000000000000000        9.6446979414430076E-002
  0.15318159095131748       -2.1845880730811573E-002   6.2689944109851625E-002
  0.14650616450993112       -3.6176652253702382E-002   3.7402237238909314E-002
  0.13983073806854479       -4.2992314568672425E-002   2.0583858801603107E-002
  0.13315531162715841       -4.2292867675721726E-002   1.2234808797933115E-002
  0.12646123066565390        0.0000000000000000        7.4198531912984589E-002
  0.12657381057886755       -1.6365485364523785E-002   5.5277657451160561E-002
  0.12668639049208122       -2.7675022121857074E-002   4.1463467264900460E-002
  0.12679897040529486       -3.3928610271999872E-002   3.2755961354204235E-002
  0.12691155031850856       -3.5126249814952167E-002   2.9155139719071941E-002
  0.10329739795283883        0.0000000000000000        5.8660060078192022E-002
  0.10683534006258029       -1.0885089998235994E-002   5.2116185858392158E-002
  0.11037328217232178       -1.9173391990011758E-002   4.7316351756083952E-002
  0.11391122428206323       -2.4864905975327294E-002   4.4260557771267472E-002
  0.11744916639180469       -2.7959631954182610E-002   4.2948803903942637E-002
   9.0365519254258703E-002   0.0000000000000000        4.9831563910052376E-002
   9.3966179402455746E-002  -5.4046946319482045E-003   5.3205529331546396E-002
   9.7566839550652776E-002  -1.0671761858166449E-002   5.4960890712459881E-002
  0.10116749969884981       -1.5801201678654724E-002   5.5097648052792783E-002
  0.10476815984704682       -2.0793014093413047E-002   5.3615801352545185E-002
  0.13618045031775428       -4.9459485536491307E-002  -7.8121888594738648E-003
  0.13296703348746666       -4.2924422638664757E-002  -3.3973413049933551E-003
  0.12975361665717905       -3.8486570411543672E-002  -3.9272871794725911E-004
  0.12654019982689144       -3.6145928855127893E-002   1.2016489016644892E-003
  0.12332678299660382       -3.5902497969417579E-002   1.3857915538417753E-003
  0.13315531162715841       -4.2292867675721726E-002   1.2234808797933115E-002
  0.12891910655971989       -3.8426963940083811E-002   1.2178777368017153E-002
  0.12468290149228134       -3.5743255726992322E-002   1.1487404431233837E-002
  0.12044669642484281       -3.4241743036447142E-002   1.0160689987583195E-002
  0.11621049135740424       -3.3922425868448389E-002   8.1986340370648336E-003
  0.12691155031850856       -3.5126249814952167E-002   2.9155139719071941E-002
  0.12242745047448608       -3.3929505241502914E-002   2.5543244452918647E-002
  0.11794335063046353       -3.2999941042440993E-002   2.2070901140464901E-002
  0.11345925078644103       -3.2337557217766370E-002   1.8738109781710678E-002
  0.10897515094241850       -3.1942353767479170E-002   1.5544870376655959E-002
  0.11744916639180469       -2.7959631954182610E-002   4.2948803903942637E-002
  0.11349206523176518       -2.9432046542921954E-002   3.6696059949711007E-002
  0.10953496407172567       -3.0256626357889626E-002   3.1357761409745888E-002
  0.10557786291168612       -3.0433371399085637E-002   2.6933908284047233E-002
  0.10162076175164662       -2.9962281666509952E-002   2.3424500572615078E-002
  0.10476815984704682       -2.0793014093413047E-002   5.3615801352545185E-002
  0.10211295083155728       -2.4934587844341036E-002   4.5637223858394242E-002
   9.9457741816067716E-002  -2.7513311673338314E-002   3.9347985239076788E-002
   9.6802532800578170E-002  -2.8529185580404865E-002   3.4748085494592691E-002
   9.4147323785088610E-002  -2.7982209565540747E-002   3.1837524624942090E-002
  0.12332678299660382       -3.5902497969417579E-002   1.3857915538417753E-003
  0.12041797574992108       -3.6400830811541163E-002   6.5349743363203594E-004
  0.11750916850323828       -3.6285480438627130E-002   1.0351230189128979E-004
  0.11460036125655548       -3.5556446850675522E-002  -2.6416384138076843E-004
  0.11169155400987274       -3.4213730047686186E-002  -4.4953099618388892E-004
  0.11621049135740424       -3.3922425868448389E-002   8.1986340370648336E-003
  0.11347146246923320       -3.3997859545628353E-002   7.8379490347251363E-003
  0.11073243358106216       -3.3680599390619390E-002   7.6345117609400159E-003
  0.10799340469289109       -3.2970645403421588E-002   7.5883222157095281E-003
  0.10525437580472002       -3.1867997584034968E-002   7.6993803990335619E-003
  0.10897515094241850       -3.1942353767479170E-002   1.5544870376655959E-002
  0.10638083915284491       -3.1594888279715544E-002   1.5334805109337397E-002
  0.10378652736327135       -3.1075718342611781E-002   1.5256926310659329E-002
  0.10119221557369776       -3.0384843956167820E-002   1.5311233980621470E-002
   9.8597903784124197E-002  -2.9522265120383723E-002   1.5497728119223939E-002
  0.10162076175164662       -2.9962281666509952E-002   2.3424500572615078E-002
   9.9146105800756251E-002  -2.9191917013802735E-002   2.3144065657469060E-002
   9.6671449849865879E-002  -2.8470837294604066E-002   2.2970755951049096E-002
   9.4196793898975478E-002  -2.7799042508914025E-002   2.2904571453355262E-002
   9.1722137948085161E-002  -2.7176532656732519E-002   2.2945512164387529E-002
   9.4147323785088610E-002  -2.7982209565540747E-002   3.1837524624942090E-002
   9.1767262412967149E-002  -2.6788945747889877E-002   3.1265730679119835E-002
   8.9387201040845701E-002  -2.5865956246596388E-002   3.0776000682109429E-002
   8.7007139668724282E-002  -2.5213241061660192E-002   3.0368334633910785E-002
   8.4627078296602820E-002  -2.4830800193081343E-002   3.0042732534524025E-002
  0.11169155400987274       -3.4213730047686186E-002  -4.4953099618388892E-004
  0.10853771623697822       -3.2689535421449478E-002  -1.9875740777475226E-004
  0.10538387846408365       -3.1416068363756225E-002   1.2495947983140465E-004
  0.10223004069118913       -3.0393328874605972E-002   5.2161966663383241E-004
   9.9076202918294554E-002  -2.9621316953999166E-002   9.9122315263300287E-004
  0.10525437580472002       -3.1867997584034968E-002   7.6993803990335619E-003
  0.10220050044292414       -3.0644989234609649E-002   7.5565291135742396E-003
   9.9146625081128203E-002  -2.9573953657295912E-002   7.5406593511155168E-003
   9.6092749719332307E-002  -2.8654890852093950E-002   7.6517711116574211E-003
   9.3038874357536383E-002  -2.7887800819003439E-002   7.8898643952001468E-003
   9.8597903784124197E-002  -2.9522265120383723E-002   1.5497728119223939E-002
   9.5698029057230891E-002  -2.8600443047769597E-002   1.5060006756327612E-002
   9.2798154330337612E-002  -2.7731838950835537E-002   1.4803305140235944E-002
   8.9898279603444320E-002  -2.6916452829581591E-002   1.4727623270948734E-002
   8.6998404876551028E-002  -2.6154284684007711E-002   1.4832961148466328E-002
   9.1722137948085161E-002  -2.7176532656732519E-002   2.2945512164387529E-002
   8.9030302079898482E-002  -2.6555896860929656E-002   2.2311675520485536E-002
   8.6338466211711790E-002  -2.5889724244375221E-002   2.1912896847192387E-002
   8.3646630343525125E-002  -2.5178014807069334E-002   2.1749176144507786E-002
   8.0954794475338404E-002  -2.4420768549011956E-002   2.1820513412431713E-002
   8.4627078296602820E-002  -2.4830800193081343E-002   3.0042732534524025E-002
   8.2197319510926792E-002  -2.4511350674089688E-002   2.9311535406048153E-002
   7.9767560725250777E-002  -2.4047609537914821E-002   2.8869434471984923E-002
   7.7337801939574735E-002  -2.3439576784557124E-002   2.8716429732334417E-002
   7.4908043153898735E-002  -2.2687252414016285E-002   2.8852521187096580E-002
   9.9076202918294554E-002  -2.9621316953999166E-002   9.9122315263300287E-004
   9.6297735313871091E-002  -2.8918657555657784E-002   6.3454001799018167E-004
   9.3519267709447573E-002  -2.8103975633305023E-002   4.4503726720593328E-004
   9.0740800105024083E-002  -2.7177271186940549E-002   4.2271490028086833E-004
   8.7962332500600593E-002  -2.6138544216564474E-002   5.6757291721443170E-004
   9.3038874357536383E-002  -2.7887800819003439E-002   7.8898643952001468E-003
   9.0423701094270337E-002  -2.7159495730627564E-002   7.6193670009754577E-003
   8.7808527831004374E-002  -2.6356787759569428E-002   7.5082779052073195E-003
   8.5193354567738341E-002  -2.5479676905828787E-002   7.5565971078946845E-003
   8.2578181304472364E-002  -2.4528163169405981E-002   7.7643246090386975E-003
   8.6998404876551028E-002  -2.6154284684007711E-002   1.4832961148466328E-002
   8.4538753869039751E-002  -2.5400333905597303E-002   1.4611029853331015E-002
   8.2079102861528461E-002  -2.4609599885833666E-002   1.4540734771248856E-002
   7.9619451854017170E-002  -2.3782082624717080E-002   1.4622075902220269E-002
   7.7159800846505838E-002  -2.2917782122247266E-002   1.4855053246245198E-002
   8.0954794475338404E-002  -2.4420768549011956E-002   2.1820513412431713E-002
   7.8642893638179168E-002  -2.3641172080566923E-002   2.1609528575056415E-002
   7.6330992801019806E-002  -2.2862412012098099E-002   2.1542407865331618E-002
   7.4019091963860556E-002  -2.2084488343605289E-002   2.1619151283257310E-002
   7.1707191126701209E-002  -2.1307401075088661E-002   2.1839758828833711E-002
   7.4908043153898735E-002  -2.2687252414016285E-002   2.8852521187096580E-002
   7.2736120401688587E-002  -2.1882010255536669E-002   2.8614863166151638E-002
   7.0564197649478480E-002  -2.1115224138362289E-002   2.8513297187454947E-002
   6.8392274897268346E-002  -2.0386894062493492E-002   2.8547823251005792E-002
   6.6220352145058226E-002  -1.9697020027930168E-002   2.8718441356804403E-002
   8.7962332500600593E-002  -2.6138544216564474E-002   5.6757291721443170E-004
   8.4565794337643330E-002  -2.5093354716865524E-002   5.4147343795096781E-004
   8.1169256174686177E-002  -2.4147262682532977E-002   6.2933474418336299E-004
   7.7772718011728997E-002  -2.3300268113566391E-002   8.3115683591145073E-004
   7.4376179848771762E-002  -2.2552371009965877E-002   1.1469397131351755E-003
   8.2578181304472364E-002  -2.4528163169405981E-002   7.7643246090386975E-003
   7.9311865111269975E-002  -2.3574108945191852E-002   7.6360473659629058E-003
   7.6045548918067529E-002  -2.2689376628077740E-002   7.6542532769009464E-003
   7.2779232724865056E-002  -2.1873966218063354E-002   7.8189423418529441E-003
   6.9512916531662639E-002  -2.1127877715149235E-002   8.1301145608184133E-003
   7.7159800846505838E-002  -2.2917782122247266E-002   1.4855053246245198E-002
   7.4056228991576267E-002  -2.2054863173517930E-002   1.4654373797623466E-002
   7.0952657136646710E-002  -2.1231490573622169E-002   1.4632699871533081E-002
   6.7849085281717153E-002  -2.0447664322560538E-002   1.4790031467975223E-002
   6.4745513426787554E-002  -1.9703384420332648E-002   1.5126368586948713E-002
   7.1707191126701209E-002  -2.1307401075088661E-002   2.1839758828833711E-002
   6.8798885978562485E-002  -2.0535617401844022E-002   2.1596452732931828E-002
   6.5890580830423776E-002  -1.9773604519166987E-002   2.1564674528079857E-002
   6.2982275682285080E-002  -1.9021362427057834E-002   2.1744424214277927E-002
   6.0073970534146384E-002  -1.8278891125515978E-002   2.2135701791525936E-002
   6.6220352145058226E-002  -1.9697020027930168E-002   2.8718441356804403E-002
   6.3539836072228489E-002  -1.9016371630170198E-002   2.8462284171888758E-002
   6.0859319999398725E-002  -1.8315718464711611E-002   2.8450177246541197E-002
   5.8178803926569003E-002  -1.7595060531554831E-002   2.8682120580761472E-002
   5.5498287853739225E-002  -1.6854397830699364E-002   2.9158114174549721E-002
   7.4376179848771762E-002  -2.2552371009965877E-002   1.1469397131351755E-003
   7.1453272972021920E-002  -2.1766231547302395E-002   3.8597422571984286E-004
   6.8530366095271966E-002  -2.0804509901146351E-002   5.9731585861866332E-005
   6.5607459218522068E-002  -1.9667206071497939E-002   1.6821179356141247E-004
   6.2684552341772171E-002  -1.8354320058356355E-002   7.1141484881831474E-004
   6.9512916531662639E-002  -2.1127877715149235E-002   8.1301145608184133E-003
   6.6976408110465069E-002  -2.0355881717853519E-002   7.5650444333102418E-003
   6.4439899689267471E-002  -1.9462748824694259E-002   7.3380483693491483E-003
   6.1903391268069971E-002  -1.8448479035671740E-002   7.4491263689355769E-003
   5.9366882846872360E-002  -1.7313072350785497E-002   7.8982784320689170E-003
   6.4745513426787554E-002  -1.9703384420332648E-002   1.5126368586948713E-002
   6.2498754677132243E-002  -1.8945531888404532E-002   1.4702748531718213E-002
   6.0251995927476931E-002  -1.8120987748242057E-002   1.4520553756024929E-002
   5.8005237177821634E-002  -1.7229751999845541E-002   1.4579784259868889E-002
   5.5758478428166364E-002  -1.6271824643214583E-002   1.4880440043250148E-002
   6.0073970534146384E-002  -1.8278891125515978E-002   2.2135701791525936E-002
   5.8020312672023219E-002  -1.7535182058955712E-002   2.1799086520943929E-002
   5.5966654809900186E-002  -1.6779226671790021E-002   2.1607247745889513E-002
   5.3912996947777098E-002  -1.6011024964019453E-002   2.1560185466361799E-002
   5.1859339085653981E-002  -1.5230576935643586E-002   2.1657899682361488E-002
   5.5498287853739225E-002  -1.6854397830699364E-002   2.9158114174549721E-002
   5.3541082095138276E-002  -1.6124832229506669E-002   2.8854058400987592E-002
   5.1583876336537327E-002  -1.5437465595337929E-002   2.8598130338942346E-002
   4.9626670577936377E-002  -1.4792297928193240E-002   2.8390329988414120E-002
   4.7669464819335428E-002  -1.4189329228072534E-002   2.8230657349403054E-002
   6.2684552341772171E-002  -1.8354320058356355E-002   7.1141484881831474E-004
   6.0102143458449220E-002  -1.7266390127373521E-002   1.4586440560540037E-003
   5.7519734575126436E-002  -1.6803954544200334E-002   1.5323019683671224E-003
   5.4937325691803512E-002  -1.6967013308836064E-002   9.3238858575811490E-004
   5.2354916808480700E-002  -1.7755566421281621E-002  -3.4109609177335187E-004
   5.9366882846872360E-002  -1.7313072350785497E-002   7.8982784320689170E-003
   5.6263483788322133E-002  -1.6317736523620396E-002   7.9939673556362889E-003
   5.3160084729771823E-002  -1.5723679307760863E-002   7.7212472236709018E-003
   5.0056685671221610E-002  -1.5530900703206896E-002   7.0801180361728666E-003
   4.6953286612671397E-002  -1.5739400709957607E-002   6.0705797931426275E-003
   5.5758478428166364E-002  -1.6271824643214583E-002   1.4880440043250148E-002
   5.2439251433778672E-002  -1.5369082919867050E-002   1.4548804419652367E-002
   4.9120024439391050E-002  -1.4643404071321184E-002   1.4153921979912401E-002
   4.5800797445003365E-002  -1.4094788097576399E-002   1.3695792724029980E-002
   4.2481570450615791E-002  -1.3723234998633371E-002   1.3174416652004806E-002
   5.1859339085653981E-002  -1.5230576935643586E-002   2.1657899682361488E-002
   4.8629446394818990E-002  -1.4420429316113814E-002   2.1123155248103168E-002
   4.5399553703983936E-002  -1.3563128834881609E-002   2.0830326237092283E-002
   4.2169661013148854E-002  -1.2658675491946899E-002   2.0779412649329129E-002
   3.8939768322313828E-002  -1.1707069287309468E-002   2.0970414484813293E-002
   4.7669464819335428E-002  -1.4189329228072534E-002   2.8230657349403054E-002
   4.4834068671442934E-002  -1.3471775712360579E-002   2.7717019840988288E-002
   4.1998672523550440E-002  -1.2482853598441965E-002   2.7750459995210558E-002
   3.9163276375657946E-002  -1.1222562886316966E-002   2.8330977812070599E-002
   3.6327880227765563E-002  -9.6909035759853435E-003   2.9458573291567980E-002
   9.0365519254258703E-002   0.0000000000000000        4.9831563910052376E-002
   9.3966179402455746E-002  -5.4046946319482045E-003   5.3205529331546396E-002
   9.7566839550652776E-002  -1.0671761858166449E-002   5.4960890712459881E-002
  0.10116749969884981       -1.5801201678654724E-002   5.5097648052792783E-002
  0.10476815984704682       -2.0793014093413047E-002   5.3615801352545185E-002
   8.2427678148382935E-002   0.0000000000000000        4.4779693055860090E-002
   8.4638789671299022E-002  -4.5747224682393325E-003   4.8263159672024561E-002
   8.6849901194215137E-002  -9.0384231258145535E-003   5.0586133078207710E-002
   8.9061012717131224E-002  -1.3391101972725666E-002   5.1748613274409522E-002
   9.1272124240047312E-002  -1.7632759008972668E-002   5.1750600260629998E-002
   7.4245958213680976E-002   0.0000000000000000        4.0571097162909603E-002
   7.5525631941915361E-002  -3.7447503045304610E-003   4.4137459378678669E-002
   7.6805305670149718E-002  -7.4050843934626628E-003   4.7001439215065638E-002
   7.8084979398384088E-002  -1.0981002266796602E-002   4.9163036672070469E-002
   7.9364653126618473E-002  -1.4472503924532289E-002   5.0622251749693203E-002
   6.5820359450152813E-002   0.0000000000000000        3.7205776231200909E-002
   6.6626706214304679E-002  -2.9147781408215894E-003   4.0828428451508740E-002
   6.7433052978456559E-002  -5.7717456611107703E-003   4.4206809123033652E-002
   6.8239399742608411E-002  -8.5709025608675417E-003   4.7340918245775687E-002
   6.9045746506760292E-002  -1.1312248840091908E-002   5.0230755819734796E-002
   5.7150881857798472E-002   0.0000000000000000        3.4683730260734014E-002
   5.7942012488467046E-002  -2.0848059771127175E-003   3.8336066890514740E-002
   5.8733143119135620E-002  -4.1384069287588761E-003   4.2202242802111781E-002
   5.9524273749804200E-002  -6.1608028549384793E-003   4.6282257995525135E-002
   6.0315404380472781E-002  -8.1519937556515255E-003   5.0576112470754803E-002
  0.10476815984704682       -2.0793014093413047E-002   5.3615801352545185E-002
  0.10211295083155728       -2.4934587844341036E-002   4.5637223858394242E-002
   9.9457741816067716E-002  -2.7513311673338314E-002   3.9347985239076788E-002
   9.6802532800578170E-002  -2.8529185580404865E-002   3.4748085494592691E-002
   9.4147323785088610E-002  -2.7982209565540747E-002   3.1837524624942090E-002
   9.1272124240047312E-002  -1.7632759008972668E-002   5.1750600260629998E-002
   9.0068463076232758E-002  -2.1208592780371172E-002   4.6514533557373131E-002
   8.8864801912418176E-002  -2.3563801832736712E-002   4.2492223682632786E-002
   8.7661140748603650E-002  -2.4698386166069362E-002   3.9683670636409096E-002
   8.6457479584789082E-002  -2.4612345780369083E-002   3.8088874418701867E-002
   7.9364653126618473E-002  -1.4472503924532289E-002   5.0622251749693203E-002
   7.9136957768162056E-002  -1.7482597716401281E-002   4.7786470634432587E-002
   7.8909262409705611E-002  -1.9614291992135123E-002   4.5688864301371666E-002
   7.8681567051249166E-002  -2.0867586751733856E-002   4.4329432750510434E-002
   7.8453871692792748E-002  -2.1242481995197425E-002   4.3708175981848882E-002
   6.9045746506760292E-002  -1.1312248840091908E-002   5.0230755819734796E-002
   6.9318434907345100E-002  -1.3756602652431390E-002   4.9453035089572640E-002
   6.9591123307929922E-002  -1.5664782151533527E-002   4.8937907095293366E-002
   6.9863811708514786E-002  -1.7036787337398315E-002   4.8685371836896849E-002
   7.0136500109099567E-002  -1.7872618210025764E-002   4.8695429314383191E-002
   6.0315404380472781E-002  -8.1519937556515255E-003   5.0576112470754803E-002
   6.0612894493781988E-002  -1.0030607588461516E-002   5.1514226922793366E-002
   6.0910384607091209E-002  -1.1715272310931932E-002   5.2239352064397858E-002
   6.1207874720400422E-002  -1.3205987923062826E-002   5.2751487895568279E-002
   6.1505364833709629E-002  -1.4502754424854110E-002   5.3050634416304691E-002
   9.4147323785088610E-002  -2.7982209565540747E-002   3.1837524624942090E-002
   9.1767262412967149E-002  -2.6788945747889877E-002   3.1265730679119835E-002
   8.9387201040845701E-002  -2.5865956246596388E-002   3.0776000682109429E-002
   8.7007139668724282E-002  -2.5213241061660192E-002   3.0368334633910785E-002
   8.4627078296602820E-002  -2.4830800193081343E-002   3.0042732534524025E-002
   8.6457479584789082E-002  -2.4612345780369083E-002   3.8088874418701867E-002
   8.4205790652983781E-002  -2.3968841718318160E-002   3.7061639431342705E-002
   8.1954101721178521E-002  -2.3431035022598905E-002   3.6209085375804029E-002
   7.9702412789373261E-002  -2.2998925693211228E-002   3.5531212252085879E-002
   7.7450723857568002E-002  -2.2672513730155303E-002   3.5028020060188236E-002
   7.8453871692792748E-002  -2.1242481995197425E-002   4.3708175981848882E-002
   7.6423172184312327E-002  -2.1148737688746411E-002   4.2390076902978462E-002
   7.4392472675831947E-002  -2.0996113798601397E-002   4.1339275738937219E-002
   7.2361773167351540E-002  -2.0784610324762316E-002   4.0555772489725216E-002
   7.0331073658871146E-002  -2.0514227267229249E-002   4.0039567155342556E-002
   7.0136500109099567E-002  -1.7872618210025764E-002   4.8695429314383191E-002
   6.8419407006952773E-002  -1.8328633659174663E-002   4.7251043094027147E-002
   6.6702313904805993E-002  -1.8561192574603886E-002   4.6166571771509048E-002
   6.4985220802659199E-002  -1.8570294956313405E-002   4.5442015346828929E-002
   6.3268127700512405E-002  -1.8355940804303229E-002   4.5077373819986721E-002
   6.1505364833709629E-002  -1.4502754424854110E-002   5.3050634416304691E-002
   6.0194495120905127E-002  -1.5508529629602946E-002   5.1644538004488760E-002
   5.8883625408100632E-002  -1.6126271350606410E-002   5.0690973473519446E-002
   5.7572755695296129E-002  -1.6355979587864455E-002   5.0189940823396902E-002
   5.6261885982491627E-002  -1.6197654341377155E-002   5.0141440054120884E-002
   8.4627078296602820E-002  -2.4830800193081343E-002   3.0042732534524025E-002
   8.2197319510926792E-002  -2.4511350674089688E-002   2.9311535406048153E-002
   7.9767560725250777E-002  -2.4047609537914821E-002   2.8869434471984923E-002
   7.7337801939574735E-002  -2.3439576784557124E-002   2.8716429732334417E-002
   7.4908043153898735E-002  -2.2687252414016285E-002   2.8852521187096580E-002
   7.7450723857568002E-002  -2.2672513730155303E-002   3.5028020060188236E-002
   7.5293823075241517E-002  -2.2345782489708865E-002   3.4462602750135157E-002
   7.3136922292915102E-002  -2.1912715328149958E-002   3.4153805252368760E-002
   7.0980021510588645E-002  -2.1373312245478601E-002   3.4101627566888795E-002
   6.8823120728262202E-002  -2.0727573241694636E-002   3.4306069693695304E-002
   7.0331073658871146E-002  -2.0514227267229249E-002   4.0039567155342556E-002
   6.8414554497768204E-002  -2.0180214305328167E-002   3.9601973967641695E-002
   6.6498035336665262E-002  -1.9777821118385150E-002   3.9388524210101319E-002
   6.4581516175562348E-002  -1.9307047706400068E-002   3.9399217882721375E-002
   6.2664997014459378E-002  -1.8767894069373028E-002   3.9634054985501939E-002
   6.3268127700512405E-002  -1.8355940804303229E-002   4.5077373819986721E-002
   6.1559513778506797E-002  -1.8014646120947421E-002   4.4729649058567592E-002
   5.9850899856501286E-002  -1.7642926908620203E-002   4.4573591345182864E-002
   5.8142285934495733E-002  -1.7240783167321555E-002   4.4609200679832463E-002
   5.6433672012490201E-002  -1.6808214897051442E-002   4.4836477062516450E-002
   5.6261885982491627E-002  -1.6197654341377155E-002   5.0141440054120884E-002
   5.4728700917457379E-002  -1.5849077936566661E-002   4.9845628022912952E-002
   5.3195515852423159E-002  -1.5508032698855402E-002   4.9709006657613228E-002
   5.1662330787388910E-002  -1.5174518628243034E-002   4.9731575958221828E-002
   5.0129145722354662E-002  -1.4848535724729800E-002   4.9913335924738705E-002
   7.4908043153898735E-002  -2.2687252414016285E-002   2.8852521187096580E-002
   7.2736120401688587E-002  -2.1882010255536669E-002   2.8614863166151638E-002
   7.0564197649478480E-002  -2.1115224138362289E-002   2.8513297187454947E-002
   6.8392274897268346E-002  -2.0386894062493492E-002   2.8547823251005792E-002
   6.6220352145058226E-002  -1.9697020027930168E-002   2.8718441356804403E-002
   6.8823120728262202E-002  -2.0727573241694636E-002   3.4306069693695304E-002
   6.6797614071008926E-002  -2.0037127443620892E-002   3.3977845250374103E-002
   6.4772107413755636E-002  -1.9363603978080055E-002   3.3806360954718624E-002
   6.2746600756502333E-002  -1.8707002845072287E-002   3.3791616806729291E-002
   6.0721094099249057E-002  -1.8067324044597349E-002   3.3933612806405472E-002
   6.2664997014459378E-002  -1.8767894069373028E-002   3.9634054985501939E-002
   6.0806554557580980E-002  -1.8192244631705247E-002   3.9236797828576628E-002
   5.8948112100702540E-002  -1.7611983817797872E-002   3.9016928924735322E-002
   5.7089669643824122E-002  -1.7027111627651078E-002   3.8974448273977842E-002
   5.5231227186945717E-002  -1.6437628061264642E-002   3.9109355876304375E-002
   5.6433672012490201E-002  -1.6808214897051442E-002   4.4836477062516450E-002
   5.4762941861404665E-002  -1.6347361819789550E-002   4.4391720900759629E-002
   5.3092211710319206E-002  -1.5860363657515746E-002   4.4145001097504834E-002
   5.1421481559233720E-002  -1.5347220410229732E-002   4.4096317652751869E-002
   4.9750751408148219E-002  -1.4807932077931824E-002   4.4245670566500910E-002
   5.0129145722354662E-002  -1.4848535724729800E-002   4.9913335924738705E-002
   4.8666775982480134E-002  -1.4502479007873853E-002   4.9442614466922857E-002
   4.7204406242605607E-002  -1.4108743497233352E-002   4.9190577473026950E-002
   4.5742036502731079E-002  -1.3667329192808624E-002   4.9157224943051157E-002
   4.4279666762856523E-002  -1.3178236094599172E-002   4.9342556876995236E-002
   6.6220352145058226E-002  -1.9697020027930168E-002   2.8718441356804403E-002
   6.3539836072228489E-002  -1.9016371630170198E-002   2.8462284171888758E-002
   6.0859319999398725E-002  -1.8315718464711611E-002   2.8450177246541197E-002
   5.8178803926569003E-002  -1.7595060531554831E-002   2.8682120580761472E-002
   5.5498287853739225E-002  -1.6854397830699364E-002   2.9158114174549721E-002
   6.0721094099249057E-002  -1.8067324044597349E-002   3.3933612806405472E-002
   5.8277442049319492E-002  -1.7428457830967400E-002   3.3697311481598727E-002
   5.5833789999389968E-002  -1.6774294458494314E-002   3.3690687943024267E-002
   5.3390137949460403E-002  -1.6104833927178097E-002   3.3913742190682140E-002
   5.0946485899530880E-002  -1.5420076237018965E-002   3.4366474224572729E-002
   5.5231227186945717E-002  -1.6437628061264642E-002   3.9109355876304375E-002
   5.3010066686580787E-002  -1.5840544031764645E-002   3.8888202802750967E-002
   5.0788906186215836E-002  -1.5232870452276906E-002   3.8882355042094266E-002
   4.8567745685850913E-002  -1.4614607322801638E-002   3.9091812594334426E-002
   4.6346585185485956E-002  -1.3985754643338594E-002   3.9516575459471515E-002
   4.9750751408148219E-002  -1.4807932077931824E-002   4.4245670566500910E-002
   4.7737709984012319E-002  -1.4252630232561868E-002   4.4034958135345539E-002
   4.5724668559876391E-002  -1.3691446446059498E-002   4.4025178543751209E-002
   4.3711627135740470E-002  -1.3124380718424958E-002   4.4216331791718390E-002
   4.1698585711604549E-002  -1.2551433049658237E-002   4.4608417879246645E-002
   4.4279666762856523E-002  -1.3178236094599172E-002   4.9342556876995236E-002
   4.2460371941614033E-002  -1.2664716433359091E-002   4.9137577479382355E-002
   4.0641077120371585E-002  -1.2150022439842145E-002   4.9119158447995220E-002
   3.8821782299129109E-002  -1.1634154114048459E-002   4.9287299782833582E-002
   3.7002487477886647E-002  -1.1117111455977824E-002   4.9642001483897580E-002
   5.5498287853739225E-002  -1.6854397830699364E-002   2.9158114174549721E-002
   5.3541082095138276E-002  -1.6124832229506669E-002   2.8854058400987592E-002
   5.1583876336537327E-002  -1.5437465595337929E-002   2.8598130338942346E-002
   4.9626670577936377E-002  -1.4792297928193240E-002   2.8390329988414120E-002
   4.7669464819335428E-002  -1.4189329228072534E-002   2.8230657349403054E-002
   5.0946485899530880E-002  -1.5420076237018965E-002   3.4366474224572729E-002
   4.9058396901986143E-002  -1.4740616968532461E-002   3.4001262256106835E-002
   4.7170307904441419E-002  -1.4087051702233969E-002   3.3726156098236426E-002
   4.5282218906896675E-002  -1.3459380438123631E-002   3.3541155750961588E-002
   4.3394129909351958E-002  -1.2857603176201438E-002   3.3446261214281958E-002
   4.6346585185485956E-002  -1.3985754643338594E-002   3.9516575459471515E-002
   4.4569591048075737E-002  -1.3356401707558030E-002   3.9106512260938059E-002
   4.2792596910665517E-002  -1.2736637809129731E-002   3.8828532972078431E-002
   4.1015602773255326E-002  -1.2126462948053911E-002   3.8682637592892283E-002
   3.9238608635845079E-002  -1.1525877124330480E-002   3.8668826123379865E-002
   4.1698585711604549E-002  -1.2551433049658237E-002   4.4608417879246645E-002
   4.0074664533407092E-002  -1.1972186446583682E-002   4.4169808415481307E-002
   3.8450743355209663E-002  -1.1386223916025659E-002   4.3905260960467943E-002
   3.6826822177012240E-002  -1.0793545457984135E-002   4.3814775514206414E-002
   3.5202900998814783E-002  -1.0194151072459398E-002   4.3898352076696720E-002
   3.7002487477886647E-002  -1.1117111455977824E-002   4.9642001483897580E-002
   3.5573617357980231E-002  -1.0587971185609335E-002   4.9191150719736287E-002
   3.4144747238073841E-002  -1.0035810022921490E-002   4.8956340063405018E-002
   3.2715877118167425E-002  -9.4606279679144874E-003   4.8937569514904258E-002
   3.1287006998261035E-002  -8.8624250205883714E-003   4.9134839074233383E-002
   4.7669464819335428E-002  -1.4189329228072534E-002   2.8230657349403054E-002
   4.4834068671442934E-002  -1.3471775712360579E-002   2.7717019840988288E-002
   4.1998672523550440E-002  -1.2482853598441965E-002   2.7750459995210558E-002
   3.9163276375657946E-002  -1.1222562886316966E-002   2.8330977812070599E-002
   3.6327880227765563E-002  -9.6909035759853435E-003   2.9458573291567980E-002
   4.3394129909351958E-002  -1.2857603176201438E-002   3.3446261214281958E-002
   4.1026609647222961E-002  -1.2191722903024088E-002   3.3185969876921906E-002
   3.8659089385094006E-002  -1.1371742605147644E-002   3.3314352648451451E-002
   3.6291569122965016E-002  -1.0397662282572447E-002   3.3831409528870399E-002
   3.3924048860836054E-002  -9.2694819352985292E-003   3.4737140518178222E-002
   3.9238608635845079E-002  -1.1525877124330480E-002   3.8668826123379865E-002
   3.7180560705731343E-002  -1.0911670093687653E-002   3.8544612383567350E-002
   3.5122512775617676E-002  -1.0260631611853498E-002   3.8650669198896224E-002
   3.3064464845503870E-002  -9.5727616788281508E-003   3.8986996569366078E-002
   3.1006416915390272E-002  -8.8480602946114928E-003   3.9553594494977307E-002
   3.5202900998814783E-002  -1.0194151072459398E-002   4.3898352076696720E-002
   3.3295921846968196E-002  -9.6316172843509684E-003   4.3792947360924421E-002
   3.1388942695121561E-002  -9.1495206185590976E-003   4.3759409646544845E-002
   2.9481963543274904E-002  -8.7478610750836329E-003   4.3797738933558372E-002
   2.7574984391428331E-002  -8.4266386539245119E-003   4.3907935221964942E-002
   3.1287006998261035E-002  -8.8624250205883714E-003   4.9134839074233383E-002
   2.9372693070933292E-002  -8.3515644750146167E-003   4.8930974808993000E-002
   2.7458379143605549E-002  -8.0384096252650722E-003   4.8640573991397457E-002
   2.5544065216277861E-002  -7.9229604713392625E-003   4.8263636621446879E-002
   2.3629751288950118E-002  -8.0052170132376421E-003   4.7800162699141113E-002
   5.7150881857798472E-002   0.0000000000000000        3.4683730260734014E-002
   5.7942012488467046E-002  -2.0848059771127175E-003   3.8336066890514740E-002
   5.8733143119135620E-002  -4.1384069287588761E-003   4.2202242802111781E-002
   5.9524273749804200E-002  -6.1608028549384793E-003   4.6282257995525135E-002
   6.0315404380472781E-002  -8.1519937556515255E-003   5.0576112470754803E-002
   4.8649733461450323E-002   0.0000000000000000        3.2782185745120242E-002
   4.9589352891882071E-002  -1.7096035113635432E-003   3.6958388656437705E-002
   5.0528972322313820E-002  -3.4330529626910664E-003   4.1217729885465182E-002
   5.1468591752745582E-002  -5.1703483539825741E-003   4.5560209432202715E-002
   5.2408211183177331E-002  -6.9214896852380584E-003   4.9985827296650277E-002
   4.0729122285940757E-002   0.0000000000000000        3.1278369177970916E-002
   4.1686529552029408E-002  -1.3344010456143680E-003   3.5933387405394562E-002
   4.2643936818118046E-002  -2.7276989966232550E-003   4.0540842986421965E-002
   4.3601344084206704E-002  -4.1798938530266628E-003   4.5100735921053119E-002
   4.4558751350295342E-002  -5.6909856148245905E-003   4.9613066209288022E-002
   3.3389048331269780E-002   0.0000000000000000        3.0172280559286026E-002
   3.4233542468909035E-002  -9.5919857986519370E-004   3.5261063137385328E-002
   3.5078036606548291E-002  -2.0223450305554445E-003   4.0171582104982104E-002
   3.5922530744187553E-002  -3.1894393520707563E-003   4.4903837462076358E-002
   3.6767024881826815E-002  -4.4604815444111278E-003   4.9457829208668071E-002
   2.6629511597437393E-002   0.0000000000000000        2.9463919889065583E-002
   2.7230391642520980E-002  -5.8399611411601854E-004   3.4941415852410014E-002
   2.7831271687604568E-002  -1.3169910644876322E-003   4.0109947241145624E-002
   2.8432151732688156E-002  -2.1989848511148428E-003   4.4969514055272414E-002
   2.9033031777771744E-002  -3.2299774739976556E-003   4.9520116294790424E-002
   6.0315404380472781E-002  -8.1519937556515255E-003   5.0576112470754803E-002
   6.0612894493781988E-002  -1.0030607588461516E-002   5.1514226922793366E-002
   6.0910384607091209E-002  -1.1715272310931932E-002   5.2239352064397858E-002
   6.1207874720400422E-002  -1.3205987923062826E-002   5.2751487895568279E-002
   6.1505364833709629E-002  -1.4502754424854110E-002   5.3050634416304691E-002
   5.2408211183177331E-002  -6.9214896852380584E-003   4.9985827296650277E-002
   5.2531862307869201E-002  -8.5853123568041464E-003   5.1212041619760139E-002
   5.2655513432561071E-002  -1.0060651769027439E-002   5.2303567276069406E-002
   5.2779164557252942E-002  -1.1347507921907966E-002   5.3260404265578029E-002
   5.2902815681944791E-002  -1.2445880815445690E-002   5.4082552588285981E-002
   4.4558751350295342E-002  -5.6909856148245905E-003   4.9613066209288022E-002
   4.4586864130003276E-002  -7.1400171251467751E-003   5.1121914552472468E-002
   4.4614976909711217E-002  -8.4060312271229468E-003   5.2574374872489678E-002
   4.4643089689419137E-002  -9.4890279207531115E-003   5.3970447169339665E-002
   4.4671202469127078E-002  -1.0389007206037252E-002   5.5310131443022430E-002
   3.6767024881826815E-002  -4.4604815444111278E-003   4.9457829208668071E-002
   3.6777899960184220E-002  -5.6947218934894029E-003   5.1243845720930326E-002
   3.6788775038541631E-002  -6.7514106852184490E-003   5.3051774853658695E-002
   3.6799650116899035E-002  -7.6305479195982609E-003   5.4881616606853298E-002
   3.6810525195256433E-002  -8.3321335966288369E-003   5.6733370980514071E-002
   2.9033031777771744E-002  -3.2299774739976556E-003   4.9520116294790424E-002
   2.9104969798412036E-002  -4.2494266618320342E-003   5.1577835125133649E-002
   2.9176907819052324E-002  -5.0967901433139617E-003   5.3735767219576465E-002
   2.9248845839692610E-002  -5.7720679184434243E-003   5.5993912578118865E-002
   2.9320783860332898E-002  -6.2752599872204010E-003   5.8352271200760926E-002
   6.1505364833709629E-002  -1.4502754424854110E-002   5.3050634416304691E-002
   6.0194495120905127E-002  -1.5508529629602946E-002   5.1644538004488760E-002
   5.8883625408100632E-002  -1.6126271350606410E-002   5.0690973473519446E-002
   5.7572755695296129E-002  -1.6355979587864455E-002   5.0189940823396902E-002
   5.6261885982491627E-002  -1.6197654341377155E-002   5.0141440054120884E-002
   5.2902815681944791E-002  -1.2445880815445690E-002   5.4082552588285981E-002
   5.1991903280487681E-002  -1.3297221312424279E-002   5.3341625054678238E-002
   5.1080990879030577E-002  -1.3842980275627498E-002   5.2948080262918640E-002
   5.0170078477573453E-002  -1.4083157705055221E-002   5.2901918213007049E-002
   4.9259166076116336E-002  -1.4017753600707533E-002   5.3203138904943617E-002
   4.4671202469127078E-002  -1.0389007206037252E-002   5.5310131443022430E-002
   4.4055098240018770E-002  -1.1085912995245653E-002   5.5151920837652940E-002
   4.3438994010910462E-002  -1.1559689200648569E-002   5.5235943835133056E-002
   4.2822889781802147E-002  -1.1810335822245948E-002   5.5562200435462651E-002
   4.2206785552693846E-002  -1.1837852860037884E-002   5.6130690638641755E-002
   3.6810525195256433E-002  -8.3321335966288369E-003   5.6733370980514071E-002
   3.6384079999498387E-002  -8.8746046780670412E-003   5.7075425353412944E-002
   3.5957634803740313E-002  -9.2763981256696413E-003   5.7554564190162763E-002
   3.5531189607982253E-002  -9.5375139394367359E-003   5.8170787490763605E-002
   3.5104744412224186E-002  -9.6579521193682211E-003   5.8924095255215338E-002
   2.9320783860332898E-002  -6.2752599872204010E-003   5.8352271200760926E-002
   2.8978848558926511E-002  -6.6632963608883704E-003   5.9112138601958186E-002
   2.8636913257520127E-002  -6.9931070506907330E-003   5.9903941328007804E-002
   2.8294977956113736E-002  -7.2646920566274437E-003   6.0727679378909875E-002
   2.7953042654707348E-002  -7.4780513786985997E-003   6.1583352754664325E-002
   5.6261885982491627E-002  -1.6197654341377155E-002   5.0141440054120884E-002
   5.4728700917457379E-002  -1.5849077936566661E-002   4.9845628022912952E-002
   5.3195515852423159E-002  -1.5508032698855402E-002   4.9709006657613228E-002
   5.1662330787388910E-002  -1.5174518628243034E-002   4.9731575958221828E-002
   5.0129145722354662E-002  -1.4848535724729800E-002   4.9913335924738705E-002
   4.9259166076116336E-002  -1.4017753600707533E-002   5.3203138904943617E-002
   4.7896793494994164E-002  -1.3789151775600382E-002   5.2875929445014423E-002
   4.6534420913872013E-002  -1.3539736042749925E-002   5.2731154287001224E-002
   4.5172048332749841E-002  -1.3269506402156069E-002   5.2768813430903949E-002
   4.3809675751627683E-002  -1.2978462853818901E-002   5.2988906876722391E-002
   4.2206785552693846E-002  -1.1837852860037884E-002   5.6130690638641755E-002
   4.1038469091491399E-002  -1.1729225614634110E-002   5.5800428824833839E-002
   3.9870152630288945E-002  -1.1571439386644556E-002   5.5675844948949518E-002
   3.8701836169086498E-002  -1.1364494176069131E-002   5.5756939010988694E-002
   3.7533519707884058E-002  -1.1108389982907932E-002   5.6043711010951368E-002
   3.5104744412224186E-002  -9.6579521193682211E-003   5.8924095255215338E-002
   3.4153727706949105E-002  -9.6692994536678352E-003   5.8619126162371152E-002
   3.3202711001673990E-002  -9.6031427305391191E-003   5.8543078643458098E-002
   3.2251694296398896E-002  -9.4594819499822080E-003   5.8695952698476217E-002
   3.1300677591123816E-002  -9.2383171119969701E-003   5.9077748327425614E-002
   2.7953042654707348E-002  -7.4780513786985997E-003   6.1583352754664325E-002
   2.7242569341367241E-002  -7.6093732927015184E-003   6.1332021457626243E-002
   2.6532096028027145E-002  -7.6348460744337342E-003   6.1332855370526983E-002
   2.5821622714687041E-002  -7.5544697238952496E-003   6.1585854493366593E-002
   2.5111149401346941E-002  -7.3682442410860638E-003   6.2091018826144928E-002
   5.0129145722354662E-002  -1.4848535724729800E-002   4.9913335924738705E-002
   4.8666775982480134E-002  -1.4502479007873853E-002   4.9442614466922857E-002
   4.7204406242605607E-002  -1.4108743497233352E-002   4.9190577473026950E-002
   4.5742036502731079E-002  -1.3667329192808624E-002   4.9157224943051157E-002
   4.4279666762856523E-002  -1.3178236094599172E-002   4.9342556876995236E-002
   4.3809675751627683E-002  -1.2978462853818901E-002   5.2988906876722391E-002
   4.2557621286108210E-002  -1.2659835467157071E-002   5.2594146437670103E-002
   4.1305566820588752E-002  -1.2306854311589392E-002   5.2401332083408136E-002
   4.0053512355069279E-002  -1.1919519387116202E-002   5.2410463813936277E-002
   3.8801457889549806E-002  -1.1497830693737054E-002   5.2621541629254337E-002
   3.7533519707884058E-002  -1.1108389982907932E-002   5.6043711010951368E-002
   3.6475042137589855E-002  -1.0817191926440248E-002   5.5711586565784073E-002
   3.5416564567295659E-002  -1.0504965125945512E-002   5.5564669826277030E-002
   3.4358086997001464E-002  -1.0171709581423806E-002   5.5602960792430350E-002
   3.3299609426707261E-002  -9.8174252928749095E-003   5.5826459464244138E-002
   3.1300677591123816E-002  -9.2383171119969701E-003   5.9077748327425614E-002
   3.0419038536925059E-002  -8.9745483857234867E-003   5.8794934851264399E-002
   2.9537399482726302E-002  -8.7030759403015651E-003   5.8680590701633735E-002
   2.8655760428527560E-002  -8.4238997757313978E-003   5.8734715878533655E-002
   2.7774121374328810E-002  -8.1370198920128339E-003   5.8957310381964029E-002
   2.5111149401346941E-002  -7.3682442410860638E-003   6.2091018826144928E-002
   2.4389610484113838E-002  -7.1319048450066286E-003   6.1844191294111173E-002
   2.3668071566880729E-002  -6.9011867546575623E-003   6.1749094709478258E-002
   2.2946532649647623E-002  -6.6760899700390314E-003   6.1805729072245963E-002
   2.2224993732414502E-002  -6.4566144911506473E-003   6.2014094382414398E-002
   4.4279666762856523E-002  -1.3178236094599172E-002   4.9342556876995236E-002
   4.2460371941614033E-002  -1.2664716433359091E-002   4.9137577479382355E-002
   4.0641077120371585E-002  -1.2150022439842145E-002   4.9119158447995220E-002
   3.8821782299129109E-002  -1.1634154114048459E-002   4.9287299782833582E-002
   3.7002487477886647E-002  -1.1117111455977824E-002   4.9642001483897580E-002
   3.8801457889549806E-002  -1.1497830693737054E-002   5.2621541629254337E-002
   3.7176999472085095E-002  -1.1057039058762944E-002   5.2403711902938396E-002
   3.5552541054620343E-002  -1.0612395309504460E-002   5.2388994617952156E-002
   3.3928082637155625E-002  -1.0163899445961615E-002   5.2577389774295769E-002
   3.2303624219690880E-002  -9.7115514681345161E-003   5.2968897371969137E-002
   3.3299609426707261E-002  -9.8174252928749095E-003   5.5826459464244138E-002
   3.1886539488124435E-002  -9.4493616841666572E-003   5.5598457191232409E-002
   3.0473469549541568E-002  -9.0747681791666091E-003   5.5590119434654514E-002
   2.9060399610958708E-002  -8.6936447778748274E-003   5.5801446194510690E-002
   2.7647329672375848E-002  -8.3059914802910972E-003   5.6232437470800908E-002
   2.7774121374328810E-002  -8.1370198920128339E-003   5.8957310381964029E-002
   2.6588991989732032E-002  -7.8416843095704403E-003   5.8721813344263976E-002
   2.5403862605135247E-002  -7.5371410488289520E-003   5.8722532898102135E-002
   2.4218733220538483E-002  -7.2233901097879284E-003   5.8959469043478402E-002
   2.3033603835941711E-002  -6.9004314924477339E-003   5.9432621780392811E-002
   2.2224993732414502E-002  -6.4566144911506473E-003   6.2014094382414398E-002
   2.1284356976907962E-002  -6.2340069349742233E-003   6.1773780362033653E-002
   2.0343720221401407E-002  -5.9995139184911006E-003   6.1786235008295165E-002
   1.9403083465894838E-002  -5.7531354417012584E-003   6.2051458321199043E-002
   1.8462446710388297E-002  -5.4948715046043151E-003   6.2569450300745122E-002
   3.7002487477886647E-002  -1.1117111455977824E-002   4.9642001483897580E-002
   3.5573617357980231E-002  -1.0587971185609335E-002   4.9191150719736287E-002
   3.4144747238073841E-002  -1.0035810022921490E-002   4.8956340063405018E-002
   3.2715877118167425E-002  -9.4606279679144874E-003   4.8937569514904258E-002
   3.1287006998261035E-002  -8.8624250205883714E-003   4.9134839074233383E-002
   3.2303624219690880E-002  -9.7115514681345161E-003   5.2968897371969137E-002
   3.1085928783140218E-002  -9.2433607854549849E-003   5.2581176988083983E-002
   2.9868233346589557E-002  -8.7473368073545665E-003   5.2399765863080122E-002
   2.8650537910038909E-002  -8.2234795338337746E-003   5.2424663996957749E-002
   2.7432842473488234E-002  -7.6717889648922344E-003   5.2655871389716613E-002
   2.7647329672375848E-002  -8.3059914802910972E-003   5.6232437470800908E-002
   2.6631078070232087E-002  -7.8987503853005514E-003   5.5912659870293480E-002
   2.5614826468088298E-002  -7.4588635917877469E-003   5.5789460679718621E-002
   2.4598574865944522E-002  -6.9863310997529491E-003   5.5862839899076075E-002
   2.3582323263800747E-002  -6.4811529091961251E-003   5.6132797528365933E-002
   2.3033603835941711E-002  -6.9004314924477339E-003   5.9432621780392811E-002
   2.2209065219255902E-002  -6.5541399851461041E-003   5.9185599366364597E-002
   2.1384526602570120E-002  -6.1703903762210972E-003   5.9125424513320042E-002
   2.0559987985884331E-002  -5.7491826656721800E-003   5.9252097221259091E-002
   1.9735449369198556E-002  -5.2905168535000019E-003   5.9565617490181563E-002
   1.8462446710388297E-002  -5.4948715046043151E-003   6.2569450300745122E-002
   1.7819890230211632E-002  -5.2095295849918233E-003   6.2399995476297598E-002
   1.7177333750034968E-002  -4.8819171606541423E-003   6.2407657363884705E-002
   1.6534777269858296E-002  -4.5120342315913067E-003   6.2592435963506610E-002
   1.5892220789681638E-002  -4.0998807978039342E-003   6.2954331275163089E-002
   3.1287006998261035E-002  -8.8624250205883714E-003   4.9134839074233383E-002
   2.9372693070933292E-002  -8.3515644750146167E-003   4.8930974808993000E-002
   2.7458379143605549E-002  -8.0384096252650722E-003   4.8640573991397457E-002
   2.5544065216277861E-002  -7.9229604713392625E-003   4.8263636621446879E-002
   2.3629751288950118E-002  -8.0052170132376421E-003   4.7800162699141113E-002
   2.7432842473488234E-002  -7.6717889648922344E-003   5.2655871389716613E-002
   2.5505114664784292E-002  -7.1562343061086220E-003   5.2379869704760329E-002
   2.3577386856080337E-002  -6.7407847630618356E-003   5.2163576809406836E-002
   2.1649659047376375E-002  -6.4254403357515977E-003   5.2006992703655927E-002
   1.9721931238672441E-002  -6.2102010241780192E-003   5.1910117387508059E-002
   2.3582323263800747E-002  -6.4811529091961251E-003   5.6132797528365933E-002
   2.1787426915678594E-002  -5.9609041372027938E-003   5.5882259003781021E-002
   1.9992530567556441E-002  -5.4431599008586615E-003   5.5837674610756970E-002
   1.8197634219434246E-002  -4.9279202001638236E-003   5.5999044349293425E-002
   1.6402737871312134E-002  -4.4151850351183963E-003   5.6366368219391005E-002
   1.9735449369198556E-002  -5.2905168535000019E-003   5.9565617490181563E-002
   1.8219629823616183E-002  -4.7655739682967713E-003   5.9438142706055269E-002
   1.6703810278033814E-002  -4.1455350386554561E-003   5.9662867395447884E-002
   1.5187990732451405E-002  -3.4304000645762707E-003   6.0239791558359020E-002
   1.3672171186869073E-002  -2.6201690460587734E-003   6.1168915194789147E-002
   1.5892220789681638E-002  -4.0998807978039342E-003   6.2954331275163089E-002
   1.4801723388597060E-002  -3.5702437993909153E-003   6.3047520811582991E-002
   1.3711225987512482E-002  -2.8479101764523201E-003   6.3639155163479372E-002
   1.2620728586427883E-002  -1.9328799289884575E-003   6.4729234330852883E-002
   1.1530231185343354E-002  -8.2515305699915054E-004   6.6317758313703123E-002
   2.6629511597437393E-002   0.0000000000000000        2.9463919889065583E-002
   2.7230391642520980E-002  -5.8399611411601854E-004   3.4941415852410014E-002
   2.7831271687604568E-002  -1.3169910644876322E-003   4.0109947241145624E-002
   2.8432151732688156E-002  -2.1989848511148428E-003   4.4969514055272414E-002
   2.9033031777771744E-002  -3.2299774739976556E-003   4.9520116294790424E-002
   2.0112963582272679E-002   0.0000000000000000        2.9018180788422911E-002
   2.0444456826680234E-002  -4.3774861390923070E-004   3.4310428215456969E-002
   2.0775950071087793E-002  -9.8703144504266871E-004   3.9372866615747786E-002
   2.1107443315495349E-002  -1.6478484934003140E-003   4.4205495989295338E-002
   2.1438936559902904E-002  -2.4201997589821597E-003   4.8808316336099680E-002
   1.3501855783604719E-002   0.0000000000000000        2.8699956878471329E-002
   1.3643117775201809E-002  -2.9150111370244373E-004   3.3844420388226416E-002
   1.3784379766798898E-002  -6.5707182559770257E-004   3.8838230419103816E-002
   1.3925641758395989E-002  -1.0967121356857731E-003   4.3681386971103547E-002
   1.4066903749993075E-002  -1.6104220439666604E-003   4.8373890044225563E-002
   6.7961882014335165E-003   0.0000000000000000        2.8509248159210836E-002
   6.8263744880857026E-003  -1.4525361349565676E-004   3.3543392370718350E-002
   6.8565607747378878E-003  -3.2711220615273514E-004   3.8506038651213735E-002
   6.8867470613900731E-003  -5.4557577797123818E-004   4.3397187000696988E-002
   6.9169333480422583E-003  -8.0064432895115417E-004   4.8216837419168129E-002
  -4.0391642409315712E-006   0.0000000000000000        2.8446054630641440E-002
  -5.7730346680866934E-006   9.9388671113108396E-007   3.3407344162932756E-002
  -7.5069050952409483E-006   2.8474132922288314E-006   3.8376291312077516E-002
  -9.2407755223956368E-006   5.5605797432984466E-006   4.3352896078075714E-002
  -1.0974645949551193E-005   9.1333860643373274E-006   4.8337158460927364E-002
   2.9033031777771744E-002  -3.2299774739976556E-003   4.9520116294790424E-002
   2.9104969798412036E-002  -4.2494266618320342E-003   5.1577835125133649E-002
   2.9176907819052324E-002  -5.0967901433139617E-003   5.3735767219576465E-002
   2.9248845839692610E-002  -5.7720679184434243E-003   5.5993912578118865E-002
   2.9320783860332898E-002  -6.2752599872204010E-003   5.8352271200760926E-002
   2.1438936559902904E-002  -2.4201997589821597E-003   4.8808316336099680E-002
   2.1581450323267196E-002  -3.1840271802278490E-003   5.1208793859150809E-002
   2.1723964086631482E-002  -3.8192726955770043E-003   5.3650209603550388E-002
   2.1866477849995770E-002  -4.3259363050296602E-003   5.6132563569298341E-002
   2.2008991613360052E-002  -4.7040180085857752E-003   5.8655855756394731E-002
   1.4066903749993075E-002  -1.6104220439666604E-003   4.8373890044225563E-002
   1.4220718213330184E-002  -2.1186276986236569E-003   5.1073622459528678E-002
   1.4374532676667287E-002  -2.5417552478400746E-003   5.3755018053429034E-002
   1.4528347140004396E-002  -2.8798046916159031E-003   5.6418076825926623E-002
   1.4682161603341496E-002  -3.1327760299511599E-003   5.9062798777021454E-002
   6.9169333480422583E-003  -8.0064432895115417E-004   4.8216837419168129E-002
   7.0227734686010013E-003  -1.0532282170194647E-003   5.1172320926267292E-002
   7.1286135891597434E-003  -1.2642378001031379E-003   5.4050192569212521E-002
   7.2344537097184854E-003  -1.4336730782021426E-003   5.6850452348003760E-002
   7.3402938302772266E-003  -1.5615340513165186E-003   5.9573100262641093E-002
  -1.0974645949551193E-005   9.1333860643373274E-006   4.8337158460927364E-002
  -1.2383910920351227E-005   1.2171264584725713E-005   5.1504889259366617E-002
  -1.3793175891152129E-005   1.3279647633815004E-005   5.4535733150900746E-002
  -1.5202440861952164E-005   1.2458535211611651E-005   5.7429690135529725E-002
  -1.6611705832753065E-005   9.7079273180949999E-006   6.0186760213253601E-002
   2.9320783860332898E-002  -6.2752599872204010E-003   5.8352271200760926E-002
   2.8978848558926511E-002  -6.6632963608883704E-003   5.9112138601958186E-002
   2.8636913257520127E-002  -6.9931070506907330E-003   5.9903941328007804E-002
   2.8294977956113736E-002  -7.2646920566274437E-003   6.0727679378909875E-002
   2.7953042654707348E-002  -7.4780513786985997E-003   6.1583352754664325E-002
   2.2008991613360052E-002  -4.7040180085857752E-003   5.8655855756394731E-002
   2.1711828808189323E-002  -4.9949516370503232E-003   5.9465492530005715E-002
   2.1414666003018591E-002  -5.2401710212281634E-003   6.0332738971235582E-002
   2.1117503197847862E-002  -5.4396761611193315E-003   6.1257595080084382E-002
   2.0820340392677127E-002  -5.5934670567238248E-003   6.2240060856552135E-002
   1.4682161603341496E-002  -3.1327760299511599E-003   5.9062798777021454E-002
   1.4455445637172958E-002  -3.3266069132122430E-003   5.9909693483467155E-002
   1.4228729671004425E-002  -3.4872349917655946E-003   6.0839872200298378E-002
   1.4002013704835883E-002  -3.6146602656112201E-003   6.1853334927515033E-002
   1.3775297738667347E-002  -3.7088827347491124E-003   6.2950081665117147E-002
   7.3402938302772266E-003  -1.5615340513165186E-003   5.9573100262641093E-002
   7.2096990458774173E-003  -1.6582621893741932E-003   6.0444741462342605E-002
   7.0791042614776071E-003  -1.7342989623030393E-003   6.1425341015196158E-002
   6.9485094770777977E-003  -1.7896443701031499E-003   6.2514898921201642E-002
   6.8179146926779857E-003  -1.8242984127744104E-003   6.3713415180359223E-002
  -1.6611705832753065E-005   9.7079273180949999E-006   6.0186760213253601E-002
  -2.5410965697299920E-005   1.0082534463860121E-005   6.1070636466632008E-002
  -3.4210225561845040E-005   1.8637067159533310E-005   6.2089145415928977E-002
  -4.3009485426389292E-005   3.5371525405000943E-005   6.3242287061144487E-002
  -5.1808745290937014E-005   6.0285909200347154E-005   6.4530061402278460E-002
   2.7953042654707348E-002  -7.4780513786985997E-003   6.1583352754664325E-002
   2.7242569341367241E-002  -7.6093732927015184E-003   6.1332021457626243E-002
   2.6532096028027145E-002  -7.6348460744337342E-003   6.1332855370526983E-002
   2.5821622714687041E-002  -7.5544697238952496E-003   6.1585854493366593E-002
   2.5111149401346941E-002  -7.3682442410860638E-003   6.2091018826144928E-002
   2.0820340392677127E-002  -5.5934670567238248E-003   6.2240060856552135E-002
   2.0342344236656408E-002  -5.6890029865470093E-003   6.2145023524688481E-002
   1.9864348080635696E-002  -5.7137432290941571E-003   6.2262775297524740E-002
   1.9386351924614978E-002  -5.6676877843651824E-003   6.2593316175060906E-002
   1.8908355768594266E-002  -5.5508366523602526E-003   6.3136646157297097E-002
   1.3775297738667347E-002  -3.7088827347491124E-003   6.2950081665117147E-002
   1.3490402634727146E-002  -3.7686326803924655E-003   6.2976284853433137E-002
   1.3205507530786947E-002  -3.7926403837544708E-003   6.3175901041210195E-002
   1.2920612426846747E-002  -3.7809058448351573E-003   6.3548930228448389E-002
   1.2635717322906543E-002  -3.7334290636344969E-003   6.4095372415147595E-002
   6.8179146926779857E-003  -1.8242984127744104E-003   6.3713415180359223E-002
   6.6867445355794398E-003  -1.8482623742379668E-003   6.3825805443860212E-002
   6.5555743784808974E-003  -1.8715375384148946E-003   6.4072232601583401E-002
   6.4244042213823472E-003  -1.8941239053051112E-003   6.4452696653528818E-002
   6.2932340642838031E-003  -1.9160214749087551E-003   6.4967197599696519E-002
  -5.1808745290937014E-005   6.0285909200347154E-005   6.4530061402278460E-002
  -6.8630060786696936E-005   7.2107931916580437E-005   6.4693585295969774E-002
  -8.5451376282458594E-005   4.9565306924764796E-005   6.4951769978644422E-002
  -1.0227269177822025E-004  -7.3419657750720124E-006   6.5304615450302403E-002
  -1.1909400727398017E-004  -9.8613886182957744E-005   6.5752121710943773E-002
   2.5111149401346941E-002  -7.3682442410860638E-003   6.2091018826144928E-002
   2.4389610484113838E-002  -7.1319048450066286E-003   6.1844191294111173E-002
   2.3668071566880729E-002  -6.9011867546575623E-003   6.1749094709478258E-002
   2.2946532649647623E-002  -6.6760899700390314E-003   6.1805729072245963E-002
   2.2224993732414502E-002  -6.4566144911506473E-003   6.2014094382414398E-002
   1.8908355768594266E-002  -5.5508366523602526E-003   6.3136646157297097E-002
   1.8346682831794005E-002  -5.3986463748978974E-003   6.2825239494314705E-002
   1.7785009894993757E-002  -5.2465734937968828E-003   6.2681833844797225E-002
   1.7223336958193506E-002  -5.0946180090570593E-003   6.2706429208744710E-002
   1.6661664021393241E-002  -4.9427799206784584E-003   6.2899025586157176E-002
   1.2635717322906543E-002  -3.7334290636344969E-003   6.4095372415147595E-002
   1.2250180432603404E-002  -3.6653879047892010E-003   6.3724890530585568E-002
   1.1864643542300263E-002  -3.5919602329360645E-003   6.3538679725552771E-002
   1.1479106651997126E-002  -3.5131460480750318E-003   6.3536740000049247E-002
   1.1093569761693990E-002  -3.4289453502061029E-003   6.3719071354074897E-002
   6.2932340642838031E-003  -1.9160214749087551E-003   6.4967197599696519E-002
   6.1001032865420236E-003  -1.9321294346805150E-003   6.4543144402923955E-002
   5.9069725088002501E-003  -1.9373469720752878E-003   6.4319632351745010E-002
   5.7138417310584758E-003  -1.9316740870930320E-003   6.4296661446159475E-002
   5.5207109533166997E-003  -1.9151107797338862E-003   6.4474231686167477E-002
  -1.1909400727398017E-004  -9.8613886182957744E-005   6.5752121710943773E-002
  -1.0354860639013447E-004  -1.9887096457175957E-004   6.5280001111329949E-002
  -8.8003205506283558E-005  -2.8273371121454588E-004   6.5024691723373870E-002
  -7.2457804622436117E-005  -3.5020212611105474E-004   6.4986193547075549E-002
  -5.6912403738586942E-005  -4.0127620926150298E-004   6.5164506582434945E-002
   2.2224993732414502E-002  -6.4566144911506473E-003   6.2014094382414398E-002
   2.1284356976907962E-002  -6.2340069349742233E-003   6.1773780362033653E-002
   2.0343720221401407E-002  -5.9995139184911006E-003   6.1786235008295165E-002
   1.9403083465894838E-002  -5.7531354417012584E-003   6.2051458321199043E-002
   1.8462446710388297E-002  -5.4948715046043151E-003   6.2569450300745122E-002
   1.6661664021393241E-002  -4.9427799206784584E-003   6.2899025586157176E-002
   1.5969120923758150E-002  -4.7847317132594103E-003   6.2661483555702002E-002
   1.5276577826123038E-002  -4.6141458713982106E-003   6.2667360174347347E-002
   1.4584034728487932E-002  -4.4310223950950103E-003   6.2916655442093308E-002
   1.3891491630852834E-002  -4.2353612843496480E-003   6.3409369358939760E-002
   1.1093569761693990E-002  -3.4289453502061029E-003   6.3719071354074897E-002
   1.0639770304388587E-002  -3.3354564915444862E-003   6.3484953487680629E-002
   1.0185970847083194E-002  -3.2287778243054871E-003   6.3484904252845129E-002
   9.7321713897777981E-003  -3.1089093484888176E-003   6.3718923649568548E-002
   9.2783719324724054E-003  -2.9758510640947866E-003   6.4187011677850764E-002
   5.5207109533166997E-003  -1.9151107797338862E-003   6.4474231686167477E-002
   5.2963051187992849E-003  -1.8861812698297287E-003   6.4244190157969491E-002
   5.0718992842818684E-003  -1.8434097772126248E-003   6.4238867243788633E-002
   4.8474934497644544E-003  -1.7867963018825973E-003   6.4458262943624833E-002
   4.6230876152470353E-003  -1.7163408438399391E-003   6.4902377257478133E-002
  -5.6912403738586942E-005  -4.0127620926150298E-004   6.5164506582434945E-002
  -6.1274633009762713E-005  -4.3690604811480460E-004   6.4939193566568632E-002
  -6.5636862280936750E-005  -4.5804173011976257E-004   6.4929249147177653E-002
  -6.9999091552109920E-005  -4.6468325527665444E-004   6.5134673324262010E-002
  -7.4361320823286559E-005  -4.5683062358520266E-004   6.5555466097821868E-002
   1.8462446710388297E-002  -5.4948715046043151E-003   6.2569450300745122E-002
   1.7819890230211632E-002  -5.2095295849918233E-003   6.2399995476297598E-002
   1.7177333750034968E-002  -4.8819171606541423E-003   6.2407657363884705E-002
   1.6534777269858296E-002  -4.5120342315913067E-003   6.2592435963506610E-002
   1.5892220789681638E-002  -4.0998807978039342E-003   6.2954331275163089E-002
   1.3891491630852834E-002  -4.2353612843496480E-003   6.3409369358939760E-002
   1.3418518447315897E-002  -4.0326309278878036E-003   6.3212152181109926E-002
   1.2945545263778981E-002  -3.8282997144360176E-003   6.3176984884525111E-002
   1.2472572080242068E-002  -3.6223676439939359E-003   6.3303867469184774E-002
   1.1999598896705141E-002  -3.4148347165616766E-003   6.3592799935089372E-002
   9.2783719324724054E-003  -2.9758510640947866E-003   6.4187011677850764E-002
   8.9599152147853342E-003  -2.8557322707841448E-003   6.3921362498903844E-002
   8.6414584970982700E-003  -2.7746822682181010E-003   6.3802696370412013E-002
   8.3230017794112109E-003  -2.7327010563965061E-003   6.3831013292375116E-002
   8.0045450617241415E-003  -2.7297886353195022E-003   6.4006313264792933E-002
   4.6230876152470353E-003  -1.7163408438399391E-003   6.4902377257478133E-002
   4.4440805326199390E-003  -1.6788336136802501E-003   6.4527626429679574E-002
   4.2650734499928410E-003  -1.7210648220000804E-003   6.4284791821545978E-002
   4.0860663673657413E-003  -1.8430344687989392E-003   6.4173873433077372E-002
   3.9070592847386398E-003  -2.0447425540774528E-003   6.4194871264273909E-002
  -7.4361320823286559E-005  -4.5683062358520266E-004   6.5555466097821868E-002
  -1.2898559918030073E-004  -5.0193495657649412E-004   6.5030943973436728E-002
  -1.8360987753731489E-004  -6.6744737578204594E-004   6.4623271237926661E-002
  -2.3823415589432906E-004  -9.5336788120164648E-004   6.4332447891291819E-002
  -2.9285843425134322E-004  -1.3596964728351812E-003   6.4158473933532023E-002
   1.5892220789681638E-002  -4.0998807978039342E-003   6.2954331275163089E-002
   1.4801723388597060E-002  -3.5702437993909153E-003   6.3047520811582991E-002
   1.3711225987512482E-002  -2.8479101764523201E-003   6.3639155163479372E-002
   1.2620728586427883E-002  -1.9328799289884575E-003   6.4729234330852883E-002
   1.1530231185343354E-002  -8.2515305699915054E-004   6.6317758313703123E-002
   1.1999598896705141E-002  -3.4148347165616766E-003   6.3592799935089372E-002
   1.1351171348460740E-002  -3.1516789246107124E-003   6.3678353315154479E-002
   1.0702743800216366E-002  -2.7788782606122386E-003   6.4149601585423127E-002
   1.0054316251971947E-002  -2.2964327245663246E-003   6.5006544745895498E-002
   9.4058887037275773E-003  -1.7043423164735394E-003   6.6249182796571104E-002
   8.0045450617241415E-003  -2.7297886353195022E-003   6.4006313264792933E-002
   7.6854374410467163E-003  -2.7331140498302042E-003   6.4001178736025205E-002
   7.3663298203692842E-003  -2.7098463447718171E-003   6.4268989172187707E-002
   7.0472221996918469E-003  -2.6599855201443843E-003   6.4809744573280731E-002
   6.7281145790144270E-003  -2.5835315759478172E-003   6.5623444939304054E-002
   3.9070592847386398E-003  -2.0447425540774528E-003   6.4194871264273909E-002
   3.8045216663549694E-003  -2.3145491750499597E-003   6.4015997074194961E-002
   3.7019840479713059E-003  -2.6408144289315101E-003   6.3997317923773042E-002
   3.5994464295876238E-003  -3.0235383157222922E-003   6.4138833813008334E-002
   3.4969088112039581E-003  -3.4627208354221506E-003   6.4440544741900779E-002
  -2.9285843425134322E-004  -1.3596964728351812E-003   6.4158473933532023E-002
  -2.9157597561447340E-004  -1.8959843002696597E-003   6.3722808329663816E-002
  -2.9029351697761052E-004  -2.5717825130912586E-003   6.3334587840179535E-002
  -2.8901105834074764E-004  -3.3870911113002139E-003   6.2993812465079013E-002
  -2.8772859970387088E-004  -4.3419100948964839E-003   6.2700482204362418E-002
  -4.0391642409315712E-006   0.0000000000000000        2.8446054630641440E-002
  -5.7730346680866934E-006   9.9388671113108396E-007   3.3407344162932756E-002
  -7.5069050952409483E-006   2.8474132922288314E-006   3.8376291312077516E-002
  -9.2407755223956368E-006   5.5605797432984466E-006   4.3352896078075714E-002
  -1.0974645949551193E-005   9.1333860643373274E-006   4.8337158460927364E-002
  -6.8041954762661453E-003   0.0000000000000000        2.8510745399154529E-002
  -6.8376525750373715E-003   1.4754347307340595E-004   3.3546511799808401E-002
  -6.8711096738085951E-003   3.3253895179354530E-004   3.8511174126920691E-002
  -6.9045667725798204E-003   5.5498643616041978E-004   4.3404732380491397E-002
  -6.9380238713510466E-003   8.1488592617402766E-004   4.8227186560520524E-002
  -1.3509649897489647E-002   0.0000000000000000        2.8703689571141517E-002
  -1.3653591914999968E-002   2.9409305943567995E-004   3.3850525205934706E-002
  -1.3797533932510287E-002   6.6223049029486090E-004   3.8847495076791298E-002
  -1.3941475950020606E-002   1.1044122925775385E-003   4.3694599183711262E-002
  -1.4085417967530923E-002   1.6206384662837184E-003   4.8391837526694646E-002
  -2.0120402427911434E-002   0.0000000000000000        2.9024887146602389E-002
  -2.0453591054555877E-002   4.4064264579795481E-004   3.4319384381311664E-002
  -2.0786779681200313E-002   9.9192202879617606E-004   3.9385254161689302E-002
  -2.1119968307844749E-002   1.6538381489946620E-003   4.4222496487735317E-002
  -2.1453156934489188E-002   2.4263910063934057E-003   4.8831111359449696E-002
  -2.6636453067531516E-002   0.0000000000000000        2.9474338125537160E-002
  -2.7237649993705093E-002   5.8719223216022881E-004   3.4953089325939282E-002
  -2.7838846919878674E-002   1.3216135672974912E-003   4.0124451381614745E-002
  -2.8440043846052251E-002   2.2032640054117786E-003   4.4988424292563556E-002
  -2.9041240772225828E-002   3.2321435465030978E-003   4.9545008058785721E-002
  -1.0974645949551193E-005   9.1333860643373274E-006   4.8337158460927364E-002
  -1.2383910920351227E-005   1.2171264584725713E-005   5.1504889259366617E-002
  -1.3793175891152129E-005   1.3279647633815004E-005   5.4535733150900746E-002
  -1.5202440861952164E-005   1.2458535211611651E-005   5.7429690135529725E-002
  -1.6611705832753065E-005   9.7079273180949999E-006   6.0186760213253601E-002
  -6.9380238713510466E-003   8.1488592617402766E-004   4.8227186560520524E-002
  -7.0466219714922368E-003   1.0716631792671264E-003   5.1181457572436619E-002
  -7.1552200716334252E-003   1.2847439528724681E-003   5.4058237820917052E-002
  -7.2638181717746171E-003   1.4541282469900528E-003   5.6857527305961872E-002
  -7.3724162719158073E-003   1.5798160616198875E-003   5.9579326027571017E-002
  -1.4085417967530923E-002   1.6206384662837184E-003   4.8391837526694646E-002
  -1.4241808759373016E-002   2.1311550939495409E-003   5.1090881768071097E-002
  -1.4398199551215107E-002   2.5562082581111283E-003   5.3771831389481398E-002
  -1.4554590343057198E-002   2.8957979587685011E-003   5.6434686390925547E-002
  -1.4710981134899291E-002   3.1499241959216454E-003   5.9079446772403524E-002
  -2.1453156934489188E-002   2.4263910063934057E-003   4.8831111359449696E-002
  -2.1597944274562686E-002   3.1906470086319415E-003   5.1233161846270060E-002
  -2.1742731614636201E-002   3.8276725633497916E-003   5.3676513856593749E-002
  -2.1887518954709709E-002   4.3374676705469420E-003   5.6161167390420777E-002
  -2.2032306294783217E-002   4.7200323302233997E-003   5.8687122447751143E-002
  -2.9041240772225828E-002   3.2321435465030978E-003   4.9545008058785721E-002
  -2.9115028517061263E-002   4.2501389233143509E-003   5.1608297807033514E-002
  -2.9188816261896698E-002   5.0991368685884379E-003   5.3772285222254142E-002
  -2.9262604006732133E-002   5.7791373823253859E-003   5.6036970304447556E-002
  -2.9336391751567572E-002   6.2901404645251818E-003   5.8402353053613812E-002
  -1.6611705832753065E-005   9.7079273180949999E-006   6.0186760213253601E-002
  -2.5410965697299920E-005   1.0082534463860121E-005   6.1070636466632008E-002
  -3.4210225561845040E-005   1.8637067159533310E-005   6.2089145415928977E-002
  -4.3009485426389292E-005   3.5371525405000943E-005   6.3242287061144487E-002
  -5.1808745290937014E-005   6.0285909200347154E-005   6.4530061402278460E-002
  -7.3724162719158073E-003   1.5798160616198875E-003   5.9579326027571017E-002
  -7.2581093042762852E-003   1.6780034194463327E-003   6.0467353261349999E-002
  -7.1438023366367596E-003   1.7648863431538389E-003   6.1466960254218578E-002
  -7.0294953689972375E-003   1.8404648327424566E-003   6.2578147006176782E-002
  -6.9151884013577119E-003   1.9047388882121319E-003   6.3800913517224583E-002
  -1.4710981134899291E-002   3.1499241959216454E-003   5.9079446772403524E-002
  -1.4496620876584628E-002   3.3459243044288035E-003   5.9952140626914292E-002
  -1.4282260618269958E-002   3.5111356191482399E-003   6.0913361303685708E-002
  -1.4067900359955291E-002   3.6455581400799118E-003   6.1963108802717812E-002
  -1.3853540101640621E-002   3.7491918672239305E-003   6.3101383124010604E-002
  -2.2032306294783217E-002   4.7200323302233997E-003   5.8687122447751143E-002
  -2.1740945682622331E-002   5.0138451894112682E-003   5.9524998563324848E-002
  -2.1449585070461442E-002   5.2573848951425724E-003   6.0428348564330339E-002
  -2.1158224458300543E-002   5.4506514474173947E-003   6.1397172450767562E-002
  -2.0866863846139668E-002   5.5936448462357222E-003   6.2431470222636572E-002
  -2.9336391751567572E-002   6.2901404645251818E-003   5.8402353053613812E-002
  -2.8991083722389392E-002   6.6817660743937503E-003   5.9185927070581720E-002
  -2.8645775693211209E-002   7.0036341711369569E-003   6.0011922036152472E-002
  -2.8300467664033029E-002   7.2557447547548599E-003   6.0880337950326047E-002
  -2.7955159634854843E-002   7.4380978252475416E-003   6.1791174813102479E-002
  -5.1808745290937014E-005   6.0285909200347154E-005   6.4530061402278460E-002
  -6.8630060786696936E-005   7.2107931916580437E-005   6.4693585295969774E-002
  -8.5451376282458594E-005   4.9565306924764796E-005   6.4951769978644422E-002
  -1.0227269177822025E-004  -7.3419657750720124E-006   6.5304615450302403E-002
  -1.1909400727398017E-004  -9.8613886182957744E-005   6.5752121710943773E-002
  -6.9151884013577119E-003   1.9047388882121319E-003   6.3800913517224583E-002
  -6.8149306418300096E-003   1.9429485079266381E-003   6.3874289110190191E-002
  -6.7146728823023047E-003   1.9403336902498805E-003   6.4087162064219383E-002
  -6.6144151227745980E-003   1.8968944351817982E-003   6.4439532379312103E-002
  -6.5141573632468974E-003   1.8126307427224209E-003   6.4931400055468477E-002
  -1.3853540101640621E-002   3.7491918672239305E-003   6.3101383124010604E-002
  -1.3591366695009231E-002   3.8137890839367548E-003   6.3078150626567242E-002
  -1.3329193288377835E-002   3.8311020735749962E-003   6.3239252062267687E-002
  -1.3067019881746444E-002   3.8011308361386963E-003   6.3584687431111980E-002
  -1.2804846475115053E-002   3.7238753716278133E-003   6.4114456733099984E-002
  -2.0866863846139668E-002   5.5936448462357222E-003   6.2431470222636572E-002
  -2.0397938220324367E-002   5.6846296599468420E-003   6.2305169845100990E-002
  -1.9929012594509059E-002   5.7218704569001119E-003   6.2408039972789445E-002
  -1.9460086968693759E-002   5.7053672370956082E-003   6.2740080605701937E-002
  -1.8991161342878454E-002   5.6351200005332128E-003   6.3301291743838417E-002
  -2.7955159634854843E-002   7.4380978252475416E-003   6.1791174813102479E-002
  -2.7234645217775414E-002   7.5554702359569847E-003   6.1555346765791399E-002
  -2.6514130800695972E-002   7.6126388402252415E-003   6.1593525795784573E-002
  -2.5793616383616522E-002   7.6096036380524958E-003   6.1905711903082000E-002
  -2.5073101966537097E-002   7.5463646294386122E-003   6.2491905087683708E-002
  -1.1909400727398017E-004  -9.8613886182957744E-005   6.5752121710943773E-002
  -1.0354860639013447E-004  -1.9887096457175957E-004   6.5280001111329949E-002
  -8.8003205506283558E-005  -2.8273371121454588E-004   6.5024691723373870E-002
  -7.2457804622436117E-005  -3.5020212611105474E-004   6.4986193547075549E-002
  -5.6912403738586942E-005  -4.0127620926150298E-004   6.5164506582434945E-002
  -6.5141573632468974E-003   1.8126307427224209E-003   6.4931400055468477E-002
  -6.2923648972201124E-003   1.7119483363412097E-003   6.4565280224091345E-002
  -6.0705724311933308E-003   1.6192529395072514E-003   6.4394843311342376E-002
  -5.8487799651665510E-003   1.5345445522210559E-003   6.4420089317221568E-002
  -5.6269874991397642E-003   1.4578231744821202E-003   6.4641018241728770E-002
  -1.2804846475115053E-002   3.7238753716278133E-003   6.4114456733099984E-002
  -1.2397935236974965E-002   3.6227676372540887E-003   6.3845930347760982E-002
  -1.1991023998834876E-002   3.5212395902291631E-003   6.3751958588020491E-002
  -1.1584112760694796E-002   3.4192912305531118E-003   6.3832541453878566E-002
  -1.1177201522554709E-002   3.3169225582258266E-003   6.4087678945335042E-002
  -1.8991161342878454E-002   5.6351200005332128E-003   6.3301291743838417E-002
  -1.8420259625654689E-002   5.5335869381670129E-003   6.3121951482338901E-002
  -1.7849357908430924E-002   5.4232262409509898E-003   6.3096037553408174E-002
  -1.7278456191207152E-002   5.3040379088851678E-003   6.3223549957046404E-002
  -1.6707554473983390E-002   5.1760219419695747E-003   6.3504488693253355E-002
  -2.5073101966537097E-002   7.5463646294386122E-003   6.2491905087683708E-002
  -2.4359338063259274E-002   7.4444062390799648E-003   6.2393343627824949E-002
  -2.3645574159981468E-002   7.3252128916728929E-003   6.2427080207505467E-002
  -2.2931810256703655E-002   7.1887845872172697E-003   6.2593114826725221E-002
  -2.2218046353425835E-002   7.0351213257132117E-003   6.2891447485484142E-002
  -5.6912403738586942E-005  -4.0127620926150298E-004   6.5164506582434945E-002
  -6.1274633009762713E-005  -4.3690604811480460E-004   6.4939193566568632E-002
  -6.5636862280936750E-005  -4.5804173011976257E-004   6.4929249147177653E-002
  -6.9999091552109920E-005  -4.6468325527665444E-004   6.5134673324262010E-002
  -7.4361320823286559E-005  -4.5683062358520266E-004   6.5555466097821868E-002
  -5.6269874991397642E-003   1.4578231744821202E-003   6.4641018241728770E-002
  -5.4103257665097607E-003   1.3870676200645887E-003   6.4450441060246208E-002
  -5.1936640338797573E-003   1.3202567027420509E-003   6.4486543206090569E-002
  -4.9770023012497520E-003   1.2573904225147287E-003   6.4749324679261991E-002
  -4.7603405686197503E-003   1.1984687793825666E-003   6.5238785479760225E-002
  -1.1177201522554709E-002   3.3169225582258266E-003   6.4087678945335042E-002
  -1.0728205097171917E-002   3.2110412882439821E-003   6.3921288078482935E-002
  -1.0279208671789121E-002   3.0985551356041419E-003   6.3992887269809576E-002
  -9.8302122464063290E-003   2.9794641003061118E-003   6.4302476519314672E-002
  -9.3812158210235461E-003   2.8537681823501415E-003   6.4850055826998390E-002
  -1.6707554473983390E-002   5.1760219419695747E-003   6.3504488693253355E-002
  -1.6014912624996207E-002   5.0350149564233754E-003   6.3351734621278813E-002
  -1.5322270776009029E-002   4.8768535684660386E-003   6.3448281338334356E-002
  -1.4629628927021842E-002   4.7015377780976059E-003   6.3794128844420206E-002
  -1.3936987078034665E-002   4.5090675853178414E-003   6.4389277139536211E-002
  -2.2218046353425835E-002   7.0351213257132117E-003   6.2891447485484142E-002
  -2.1270448349982672E-002   6.8589886246027687E-003   6.2741780688633841E-002
  -2.0322850346539485E-002   6.6551520013280602E-003   6.2852725411665228E-002
  -1.9375252343096318E-002   6.4236114558888537E-003   6.3224281654578510E-002
  -1.8427654339653134E-002   6.1643669882854302E-003   6.3856449417373617E-002
  -7.4361320823286559E-005  -4.5683062358520266E-004   6.5555466097821868E-002
  -1.2898559918030073E-004  -5.0193495657649412E-004   6.5030943973436728E-002
  -1.8360987753731489E-004  -6.6744737578204594E-004   6.4623271237926661E-002
  -2.3823415589432906E-004  -9.5336788120164648E-004   6.4332447891291819E-002
  -2.9285843425134322E-004  -1.3596964728351812E-003   6.4158473933532023E-002
  -4.7603405686197503E-003   1.1984687793825666E-003   6.5238785479760225E-002
  -4.6831786533630595E-003   1.1107934698898481E-003   6.4703374127491248E-002
  -4.6060167381063756E-003   9.6166619058120351E-004   6.4314685773574673E-002
  -4.5288548228496830E-003   7.5108694145641433E-004   6.4072720418010154E-002
  -4.4516929075929940E-003   4.7905572251577544E-004   6.3977478060798176E-002
  -9.3812158210235461E-003   2.8537681823501415E-003   6.4850055826998390E-002
  -9.1423941026760151E-003   2.7235218963561486E-003   6.4362711363243716E-002
  -8.9035723843285050E-003   2.5907797569442795E-003   6.4051963507318455E-002
  -8.6647506659809845E-003   2.4555417641144734E-003   6.3917812259222509E-002
  -8.4259289476334709E-003   2.3178079178668987E-003   6.3960257618956129E-002
  -1.3936987078034665E-002   4.5090675853178414E-003   6.4389277139536211E-002
  -1.3506631947119192E-002   4.3362503228225532E-003   6.4008955680693910E-002
  -1.3076276816203724E-002   4.2198933233074144E-003   6.3835104439158116E-002
  -1.2645921685288247E-002   4.1599965867724778E-003   6.3867723414928718E-002
  -1.2215566554372783E-002   4.1565601132178276E-003   6.4106812608006034E-002
  -1.8427654339653134E-002   6.1643669882854302E-003   6.3856449417373617E-002
  -1.7775892186692566E-002   5.9489787492887913E-003   6.3642107079841692E-002
  -1.7124130033732015E-002   5.8490068896706604E-003   6.3664108569093575E-002
  -1.6472367880771457E-002   5.8644514094304961E-003   6.3922453885128988E-002
  -1.5820605727810903E-002   5.9953123085690341E-003   6.4417143027948154E-002
  -2.9285843425134322E-004  -1.3596964728351812E-003   6.4158473933532023E-002
  -2.9157597561447340E-004  -1.8959843002696597E-003   6.3722808329663816E-002
  -2.9029351697761052E-004  -2.5717825130912586E-003   6.3334587840179535E-002
  -2.8901105834074764E-004  -3.3870911113002139E-003   6.2993812465079013E-002
  -2.8772859970387088E-004  -4.3419100948964839E-003   6.2700482204362418E-002
  -4.4516929075929940E-003   4.7905572251577544E-004   6.3977478060798176E-002
  -4.3433778582407292E-003   1.4588121649605768E-004   6.3685825871697632E-002
  -4.2350628088884679E-003  -2.4812789386617629E-004   6.3560793749643907E-002
  -4.1267477595362100E-003  -7.0297160857077032E-004   6.3602381694637125E-002
  -4.0184327101839418E-003  -1.2186499276176654E-003   6.3810589706677301E-002
  -8.4259289476334709E-003   2.3178079178668987E-003   6.3960257618956129E-002
  -8.0914063549028872E-003   2.1877467332615252E-003   6.3891294625668379E-002
  -7.7568837621722984E-003   2.0755267253588505E-003   6.4108126652090355E-002
  -7.4223611694417199E-003   1.9811478941586455E-003   6.4610753698222181E-002
  -7.0878385767111397E-003   1.9046102396612641E-003   6.5399175764063733E-002
  -1.2215566554372783E-002   4.1565601132178276E-003   6.4106812608006034E-002
  -1.1535661465600958E-002   4.2296122500270622E-003   6.4339214591576085E-002
  -1.0855756376829118E-002   4.3991813445839051E-003   6.4976586547518866E-002
  -1.0175851288057284E-002   4.6652673968881862E-003   6.6018928475834029E-002
  -9.4959461992854544E-003   5.0278704069401936E-003   6.7466240376522282E-002
  -1.5820605727810903E-002   5.9953123085690341E-003   6.4417143027948154E-002
  -1.4676143190334900E-002   6.2714777667925992E-003   6.5029585769420861E-002
  -1.3531680652858903E-002   6.7228359638089458E-003   6.6166173435929149E-002
  -1.2387218115382913E-002   7.3493868996175014E-003   6.7826906027473197E-002
  -1.1242755577906910E-002   8.1511305742190121E-003   7.0011783544052797E-002
  -2.6636453067531516E-002   0.0000000000000000        2.9474338125537160E-002
  -2.7237649993705093E-002   5.8719223216022881E-004   3.4953089325939282E-002
  -2.7838846919878674E-002   1.3216135672974912E-003   4.0124451381614745E-002
  -2.8440043846052251E-002   2.2032640054117786E-003   4.4988424292563556E-002
  -2.9041240772225828E-002   3.2321435465030978E-003   4.9545008058785721E-002
  -3.3395049498073134E-002   0.0000000000000000        3.0186063770324633E-002
  -3.4238615624281862E-002   9.6123268914408578E-004   3.5275015074502834E-002
  -3.5082181750490590E-002   2.0251835387698784E-003   4.0186617123337383E-002
  -3.5925747876699318E-002   3.1918525488773804E-003   4.4920869916828296E-002
  -3.6769314002908046E-002   4.4612397194665771E-003   4.9477773454975581E-002
  -4.0733439401259550E-002   0.0000000000000000        3.1294085343343624E-002
  -4.1689334838120408E-002   1.3352731461279414E-003   3.5948725808802581E-002
  -4.2645230274981273E-002   2.7287535102422681E-003   4.0556056908300900E-002
  -4.3601125711842138E-002   4.1804410923429805E-003   4.5116078641838607E-002
  -4.4557021148702997E-002   5.6903358924300712E-003   4.9628791009415661E-002
  -4.8651622777090758E-002   0.0000000000000000        3.2798402844594128E-002
  -4.9589807635220744E-002   1.7093136031117982E-003   3.6974221528838530E-002
  -5.0527992493350729E-002   3.4323234817146566E-003   4.1232770736505303E-002
  -5.1466177351480721E-002   5.1690296358085815E-003   4.5574050467594454E-002
  -5.2404362209610721E-002   6.9194320653935618E-003   4.9998060722105976E-002
  -5.7149599625566753E-002   0.0000000000000000        3.4699016274076164E-002
  -5.7940034015582856E-002   2.0833540600956549E-003   3.8351502234610667E-002
  -5.8730468405598958E-002   4.1358934531870468E-003   4.2216758607950558E-002
  -5.9520902795615067E-002   6.1576181792741807E-003   4.6294785394095837E-002
  -6.0311337185631184E-002   8.1485282383570428E-003   5.0585582593046519E-002
  -2.9041240772225828E-002   3.2321435465030978E-003   4.9545008058785721E-002
  -2.9115028517061263E-002   4.2501389233143509E-003   5.1608297807033514E-002
  -2.9188816261896698E-002   5.0991368685884379E-003   5.3772285222254142E-002
  -2.9262604006732133E-002   5.7791373823253859E-003   5.6036970304447556E-002
  -2.9336391751567572E-002   6.2901404645251818E-003   5.8402353053613812E-002
  -3.6769314002908046E-002   4.4612397194665771E-003   4.9477773454975581E-002
  -3.6781425543501403E-002   5.6941801259730307E-003   5.1270103265287685E-002
  -3.6793537084094767E-002   6.7515088438322296E-003   5.3085087817111125E-002
  -3.6805648624688131E-002   7.6332258730441912E-003   5.4922727110445893E-002
  -3.6817760165281488E-002   8.3393312136088998E-003   5.6783021145291976E-002
  -4.4557021148702997E-002   5.6903358924300712E-003   4.9628791009415661E-002
  -4.4585499410515775E-002   7.1382213286316958E-003   5.1143546624681992E-002
  -4.4613977672328553E-002   8.4038808190759953E-003   5.2602914055998172E-002
  -4.4642455934141338E-002   9.4873143637629765E-003   5.4006893303364195E-002
  -4.4670934195954110E-002   1.0388521962692653E-002   5.5355484366780061E-002
  -5.2404362209610721E-002   6.9194320653935618E-003   4.9998060722105976E-002
  -5.2527250118104392E-002   8.5822625312903644E-003   5.1228627885216448E-002
  -5.2650138026598070E-002   1.0056252794319777E-002   5.2325763938915276E-002
  -5.2773025935091748E-002   1.1341402854481784E-002   5.3289468883202483E-002
  -5.2895913843585426E-002   1.2437712711776381E-002   5.4119742718078019E-002
  -6.0311337185631184E-002   8.1485282383570428E-003   5.0585582593046519E-002
  -6.0606677666267247E-002   1.0026303733949044E-002   5.1525347046891067E-002
  -6.0902018146903318E-002   1.1708624769563553E-002   5.2253637465862465E-002
  -6.1197358627539382E-002   1.3195491345200570E-002   5.2770453849960763E-002
  -6.1492699108175446E-002   1.4486903460860137E-002   5.3075796199185912E-002
  -2.9336391751567572E-002   6.2901404645251818E-003   5.8402353053613812E-002
  -2.8991083722389392E-002   6.6817660743937503E-003   5.9185927070581720E-002
  -2.8645775693211209E-002   7.0036341711369569E-003   6.0011922036152472E-002
  -2.8300467664033029E-002   7.2557447547548599E-003   6.0880337950326047E-002
  -2.7955159634854843E-002   7.4380978252475416E-003   6.1791174813102479E-002
  -3.6817760165281488E-002   8.3393312136088998E-003   5.6783021145291976E-002
  -3.6379790205180465E-002   8.8831126236269715E-003   5.7135633684835485E-002
  -3.5941820245079456E-002   9.2778578611988627E-003   5.7631149137621823E-002
  -3.5503850284978440E-002   9.5235669263246253E-003   5.8269567503651004E-002
  -3.5065880324877431E-002   9.6202398190042698E-003   5.9050888782923014E-002
  -4.4670934195954110E-002   1.0388521962692653E-002   5.5355484366780061E-002
  -4.4039820340290255E-002   1.1084459172860205E-002   5.5197856769578307E-002
  -4.3408706484626393E-002   1.1552081551260770E-002   5.5283614050259423E-002
  -4.2777592628962538E-002   1.1791389097894392E-002   5.5612756208823381E-002
  -4.2146478773298676E-002   1.1802381812761067E-002   5.6185283245270209E-002
  -5.2895913843585426E-002   1.2437712711776381E-002   5.4119742718078019E-002
  -5.1971174127718713E-002   1.3285805722093424E-002   5.3372596324810236E-002
  -5.1046434411851999E-002   1.3826305241322678E-002   5.2969316774065328E-002
  -5.0121694695985299E-002   1.4059211269464128E-002   5.2909904065843248E-002
  -4.9196954980118578E-002   1.3984523806517858E-002   5.3194358200144023E-002
  -6.1492699108175446E-002   1.4486903460860137E-002   5.3075796199185912E-002
  -6.0173851567465873E-002   1.5487152271326670E-002   5.1659852350531235E-002
  -5.8855004026756294E-002   1.6100528931384573E-002   5.0688257309039426E-002
  -5.7536156486046708E-002   1.6327033441033898E-002   5.0161011074710507E-002
  -5.6217308945337142E-002   1.6166665800274621E-002   5.0078113647544470E-002
  -2.7955159634854843E-002   7.4380978252475416E-003   6.1791174813102479E-002
  -2.7234645217775414E-002   7.5554702359569847E-003   6.1555346765791399E-002
  -2.6514130800695972E-002   7.6126388402252415E-003   6.1593525795784573E-002
  -2.5793616383616522E-002   7.6096036380524958E-003   6.1905711903082000E-002
  -2.5073101966537097E-002   7.5463646294386122E-003   6.2491905087683708E-002
  -3.5065880324877431E-002   9.6202398190042698E-003   5.9050888782923014E-002
  -3.4088157010898935E-002   9.6194911970704164E-003   5.8775379465197085E-002
  -3.3110433696920460E-002   9.5729357183556123E-003   5.8740280863965003E-002
  -3.2132710382941965E-002   9.4805733828597673E-003   5.8945592979226781E-002
  -3.1154987068963483E-002   9.3424041905830757E-003   5.9391315810982392E-002
  -4.2146478773298676E-002   1.1802381812761067E-002   5.6185283245270209E-002
  -4.0945142923231516E-002   1.1683512158183917E-002   5.5884489606789531E-002
  -3.9743807073164376E-002   1.1533232596485872E-002   5.5790510323992328E-002
  -3.8542471223097244E-002   1.1351543127667106E-002   5.5903345396878551E-002
  -3.7341135373030084E-002   1.1138443751727498E-002   5.6222994825448257E-002
  -4.9196954980118578E-002   1.3984523806517858E-002   5.3194358200144023E-002
  -4.7805602954773180E-002   1.3747533119297370E-002   5.2882677190568737E-002
  -4.6414250929427768E-002   1.3493529474616243E-002   5.2744214175866569E-002
  -4.5022898904082356E-002   1.3222512872474369E-002   5.2778969156037414E-002
  -4.3631546878736972E-002   1.2934483312871912E-002   5.2986942131081370E-002
  -5.6217308945337142E-002   1.6166665800274621E-002   5.0078113647544470E-002
  -5.4669537105523865E-002   1.5811554080410892E-002   4.9769942216534746E-002
  -5.3121765265710594E-002   1.5453826352746503E-002   4.9601392419587748E-002
  -5.1573993425897330E-002   1.5093482617281759E-002   4.9572464256703336E-002
  -5.0026221586084052E-002   1.4730522874016355E-002   4.9683157727881649E-002
  -2.5073101966537097E-002   7.5463646294386122E-003   6.2491905087683708E-002
  -2.4359338063259274E-002   7.4444062390799648E-003   6.2393343627824949E-002
  -2.3645574159981468E-002   7.3252128916728929E-003   6.2427080207505467E-002
  -2.2931810256703655E-002   7.1887845872172697E-003   6.2593114826725221E-002
  -2.2218046353425835E-002   7.0351213257132117E-003   6.2891447485484142E-002
  -3.1154987068963483E-002   9.3424041905830757E-003   5.9391315810982392E-002
  -3.0295863363524054E-002   9.1699815838929000E-003   5.9181585447558610E-002
  -2.9436739658084611E-002   8.9748590051567934E-003   5.9130276648918775E-002
  -2.8577615952645175E-002   8.7570364543747767E-003   5.9237389415063076E-002
  -2.7718492247205743E-002   8.5165139315468430E-003   5.9502923745991143E-002
  -3.7341135373030084E-002   1.1138443751727498E-002   5.6222994825448257E-002
  -3.6310528340184292E-002   1.0895556928705766E-002   5.5896630543461959E-002
  -3.5279921307338487E-002   1.0624505118640725E-002   5.5754811351504424E-002
  -3.4249314274492702E-002   1.0325288321532174E-002   5.5797537249575625E-002
  -3.3218707241646883E-002   9.9979065373803355E-003   5.6024808237675625E-002
  -4.3631546878736972E-002   1.2934483312871912E-002   5.2986942131081370E-002
  -4.2403332993240006E-002   1.2621132273518638E-002   5.2538478915535071E-002
  -4.1175119107743074E-002   1.2274151232124669E-002   5.2300684315262254E-002
  -3.9946905222246150E-002   1.1893540188689654E-002   5.2273558330263058E-002
  -3.8718691336749149E-002   1.1479299143213870E-002   5.2457100960537240E-002
  -5.0026221586084052E-002   1.4730522874016355E-002   4.9683157727881649E-002
  -4.8574277322691206E-002   1.4346707618331594E-002   4.9107130563777940E-002
  -4.7122333059298360E-002   1.3923797345608592E-002   4.8767895540192410E-002
  -4.5670388795905514E-002   1.3461792055847086E-002   4.8665452657125303E-002
  -4.4218444532512696E-002   1.2960691749047404E-002   4.8799801914576280E-002
  -2.2218046353425835E-002   7.0351213257132117E-003   6.2891447485484142E-002
  -2.1270448349982672E-002   6.8589886246027687E-003   6.2741780688633841E-002
  -2.0322850346539485E-002   6.6551520013280602E-003   6.2852725411665228E-002
  -1.9375252343096318E-002   6.4236114558888537E-003   6.3224281654578510E-002
  -1.8427654339653134E-002   6.1643669882854302E-003   6.3856449417373617E-002
  -2.7718492247205743E-002   8.5165139315468430E-003   5.9502923745991143E-002
  -2.6520768827729253E-002   8.2533679611465627E-003   5.9317876321999724E-002
  -2.5323045408252767E-002   7.9676750676478253E-003   5.9372468210193097E-002
  -2.4125321988776250E-002   7.6594352510504886E-003   5.9666699410571372E-002
  -2.2927598569299795E-002   7.3286485113547295E-003   6.0200569923134439E-002
  -3.3218707241646883E-002   9.9979065373803355E-003   5.6024808237675625E-002
  -3.1791830613834032E-002   9.6477472976903567E-003   5.5809537185608799E-002
  -3.0364953986021157E-002   9.2801981339676390E-003   5.5812933238029903E-002
  -2.8938077358208285E-002   8.8952590462121773E-003   5.6034996394938835E-002
  -2.7511200730395431E-002   8.4929300344239456E-003   5.6475726656335684E-002
  -3.8718691336749149E-002   1.1479299143213870E-002   5.2457100960537240E-002
  -3.7083633708296898E-002   1.1042126634234234E-002   5.2216763279460982E-002
  -3.5448576079844640E-002   1.0592721200287512E-002   5.2174120495175579E-002
  -3.3813518451392383E-002   1.0131082841373838E-002   5.2329172607681107E-002
  -3.2178460822940139E-002   9.6572115574933143E-003   5.2681919616977615E-002
  -4.4218444532512696E-002   1.2960691749047404E-002   4.8799801914576280E-002
  -4.2396178111117983E-002   1.2436505970777972E-002   4.8539554603556301E-002
  -4.0573911689723255E-002   1.1905244266607176E-002   4.8456029981630261E-002
  -3.8751645268328555E-002   1.1366906636535491E-002   4.8549228048798104E-002
  -3.6929378846933855E-002   1.0821493080562461E-002   4.8819148805059942E-002
  -1.8427654339653134E-002   6.1643669882854302E-003   6.3856449417373617E-002
  -1.7775892186692566E-002   5.9489787492887913E-003   6.3642107079841692E-002
  -1.7124130033732015E-002   5.8490068896706604E-003   6.3664108569093575E-002
  -1.6472367880771457E-002   5.8644514094304961E-003   6.3922453885128988E-002
  -1.5820605727810903E-002   5.9953123085690341E-003   6.4417143027948154E-002
  -2.2927598569299795E-002   7.3286485113547295E-003   6.0200569923134439E-002
  -2.2046891424711536E-002   7.0253746377942350E-003   5.9991665336371375E-002
  -2.1166184280123311E-002   6.7996734196031222E-003   6.0004306906080107E-002
  -2.0285477135535083E-002   6.6515448567814155E-003   6.0238494632260386E-002
  -1.9404769990946851E-002   6.5809889493290696E-003   6.0694228514912629E-002
  -2.7511200730395431E-002   8.4929300344239456E-003   5.6475726656335684E-002
  -2.6416346264491471E-002   8.1017705262995676E-003   5.6234416096332632E-002
  -2.5321491798587510E-002   7.7503399495356950E-003   5.6199854022489226E-002
  -2.4226637332683546E-002   7.4386383041322238E-003   5.6372040434805717E-002
  -2.3131782866779558E-002   7.1666655900892995E-003   5.6750975333281786E-002
  -3.2178460822940139E-002   9.6572115574933143E-003   5.2681919616977615E-002
  -3.0884256706032353E-002   9.1781664148048725E-003   5.2370359359725532E-002
  -2.9590052589124626E-002   8.7010064794681569E-003   5.2250749918321245E-002
  -2.8295848472216879E-002   8.2257317514829210E-003   5.2323091292764703E-002
  -2.7001644355309086E-002   7.7523422308494877E-003   5.2587383483056235E-002
  -3.6929378846933855E-002   1.0821493080562461E-002   4.8819148805059942E-002
  -3.5450622749334221E-002   1.0254562303310344E-002   4.8399495126549896E-002
  -3.3971866651734621E-002   9.6516730094007019E-003   4.8156994593575947E-002
  -3.2493110554135007E-002   9.0128251988338889E-003   4.8091647206137678E-002
  -3.1014354456535401E-002   8.3380188716096759E-003   4.8203452964235449E-002
  -1.5820605727810903E-002   5.9953123085690341E-003   6.4417143027948154E-002
  -1.4676143190334900E-002   6.2714777667925992E-003   6.5029585769420861E-002
  -1.3531680652858903E-002   6.7228359638089458E-003   6.6166173435929149E-002
  -1.2387218115382913E-002   7.3493868996175014E-003   6.7826906027473197E-002
  -1.1242755577906910E-002   8.1511305742190121E-003   7.0011783544052797E-002
  -1.9404769990946851E-002   6.5809889493290696E-003   6.0694228514912629E-002
  -1.7823418607413606E-002   6.5746672026841535E-003   6.1189610767229147E-002
  -1.6242067223880330E-002   6.6192411222848885E-003   6.2034625786624581E-002
  -1.4660715840347092E-002   6.7147107081311601E-003   6.3229273573098821E-002
  -1.3079364456813805E-002   6.8610759602230065E-003   6.4773554126652089E-002
  -2.3131782866779558E-002   7.1666655900892995E-003   5.6750975333281786E-002
  -2.1288054795145832E-002   6.8778566385758189E-003   5.7005000023895511E-002
  -1.9444326723512109E-002   6.5156462807609491E-003   5.7434145323631162E-002
  -1.7600598651878407E-002   6.0800345166446262E-003   5.8038411232488707E-002
  -1.5756870580244667E-002   5.5710213462270008E-003   5.8817797750468859E-002
  -2.7001644355309086E-002   7.7523422308494877E-003   5.2587383483056235E-002
  -2.5070051753531650E-002   7.1810460744673177E-003   5.2475753539419565E-002
  -2.3138459151754182E-002   6.4120514392370619E-003   5.2364732046948345E-002
  -2.1206866549976791E-002   5.4453583251582440E-003   5.2254319005642369E-002
  -1.9275273948199279E-002   4.2809667322309952E-003   5.2144514415501872E-002
  -3.1014354456535401E-002   8.3380188716096759E-003   4.8203452964235449E-002
  -2.9169409482570990E-002   7.4842355103590386E-003   4.7601871313801780E-002
  -2.7324464508606615E-002   6.3084565977130636E-003   4.6826385956576788E-002
  -2.5479519534642153E-002   4.8106821336715844E-003   4.5876996892560418E-002
  -2.3634574560677801E-002   2.9909121182349896E-003   4.4753704121752280E-002
  -5.7149599625566753E-002   0.0000000000000000        3.4699016274076164E-002
  -5.7940034015582856E-002   2.0833540600956549E-003   3.8351502234610667E-002
  -5.8730468405598958E-002   4.1358934531870468E-003   4.2216758607950558E-002
  -5.9520902795615067E-002   6.1576181792741807E-003   4.6294785394095837E-002
  -6.0311337185631184E-002   8.1485282383570428E-003   5.0585582593046519E-002
  -6.5816079364932251E-002   0.0000000000000000        3.7219328117927525E-002
  -6.6622549627461905E-002   2.9132045106562039E-003   4.0841730367058002E-002
  -6.7429019889991573E-002   5.7690934544149374E-003   4.4219290458355980E-002
  -6.8235490152521242E-002   8.5676668312761987E-003   4.7352008391821437E-002
  -6.9041960415050910E-002   1.1308924641239988E-002   5.0239884167454382E-002
  -7.4239771413431951E-002   0.0000000000000000        4.0582740862286040E-002
  -7.5519890119113073E-002   3.7430549612167520E-003   4.4148558500119298E-002
  -7.6800008824794208E-002   7.4022934556428272E-003   4.7011921409482134E-002
  -7.8080127530475343E-002   1.0977715483278215E-002   4.9172829590374570E-002
  -7.9360246236156465E-002   1.4469321044122928E-002   5.0631283042796592E-002
  -8.2420675771065863E-002   0.0000000000000000        4.4789254507151710E-002
  -8.4632055490536331E-002   4.5729054117773019E-003   4.8271986633794520E-002
  -8.6843435210006828E-002   9.0354934568707135E-003   5.0594651461329028E-002
  -8.9054814929477311E-002   1.3387764135280235E-002   5.1757248989755207E-002
  -9.1266194648947807E-002   1.7629717447005876E-002   5.1759779219073085E-002
  -9.0358792437833957E-002   0.0000000000000000        4.9838869052524534E-002
  -9.3959045741731709E-002   5.4027558623378508E-003   5.3212014768083703E-002
  -9.7559299045629461E-002   1.0668693458098608E-002   5.4967480613896655E-002
 -0.10115955234952723        1.5797812787282255E-002   5.5105266589963404E-002
 -0.10475980565342499        2.0790113849888808E-002   5.3625372696283938E-002
  -6.0311337185631184E-002   8.1485282383570428E-003   5.0585582593046519E-002
  -6.0606677666267247E-002   1.0026303733949044E-002   5.1525347046891067E-002
  -6.0902018146903318E-002   1.1708624769563553E-002   5.2253637465862465E-002
  -6.1197358627539382E-002   1.3195491345200570E-002   5.2770453849960763E-002
  -6.1492699108175446E-002   1.4486903460860137E-002   5.3075796199185912E-002
  -6.9041960415050910E-002   1.1308924641239988E-002   5.0239884167454382E-002
  -6.9311409640048671E-002   1.3752726347026798E-002   4.9462825769407567E-002
  -6.9580858865046460E-002   1.5658931411357161E-002   4.8949023917510485E-002
  -6.9850308090044208E-002   1.7027539834231015E-002   4.8698478611763130E-002
  -7.0119757315041997E-002   1.7858551615648421E-002   4.8711189852165507E-002
  -7.9360246236156465E-002   1.4469321044122928E-002   5.0631283042796592E-002
  -7.9129073624493090E-002   1.7479148960104565E-002   4.7795259611379433E-002
  -7.8897901012829688E-002   1.9609238053150742E-002   4.5697223307134834E-002
  -7.8666728401166314E-002   2.0859588323261444E-002   4.4337174130062849E-002
  -7.8435555789502925E-002   2.1230199770436685E-002   4.3715112080163446E-002
  -9.1266194648947807E-002   1.7629717447005876E-002   5.1759779219073085E-002
  -9.0059669619600408E-002   2.1205571573182331E-002   4.6522648572806594E-002
  -8.8853144590253008E-002   2.3559544694944343E-002   4.2498235634735544E-002
  -8.7646619560905636E-002   2.4691636812291872E-002   3.9686540404859937E-002
  -8.6440094531558237E-002   2.4601847925224952E-002   3.8087562883179750E-002
 -0.10475980565342499        2.0790113849888808E-002   5.3625372696283938E-002
 -0.10210319762537071        2.4931994186260090E-002   4.5644992653689098E-002
  -9.9446589597316434E-002   2.7509851336737914E-002   3.9352060900312541E-002
  -9.6789981569262176E-002   2.8523685301322304E-002   3.4746577436154322E-002
  -9.4133373541207904E-002   2.7973496080013233E-002   3.1828542261214399E-002
  -6.1492699108175446E-002   1.4486903460860137E-002   5.3075796199185912E-002
  -6.0173851567465873E-002   1.5487152271326670E-002   5.1659852350531235E-002
  -5.8855004026756294E-002   1.6100528931384573E-002   5.0688257309039426E-002
  -5.7536156486046708E-002   1.6327033441033898E-002   5.0161011074710507E-002
  -5.6217308945337142E-002   1.6166665800274621E-002   5.0078113647544470E-002
  -7.0119757315041997E-002   1.7858551615648421E-002   4.8711189852165507E-002
  -6.8401469093133743E-002   1.8310156958107802E-002   4.7257553416518223E-002
  -6.6683180871225531E-002   1.8540546064107696E-002   4.6158449536105407E-002
  -6.4964892649317263E-002   1.8549718933648037E-002   4.5413878210927079E-002
  -6.3246604427409023E-002   1.8337675566728939E-002   4.5023839440983190E-002
  -7.8435555789502925E-002   2.1230199770436685E-002   4.3715112080163446E-002
  -7.6407643138324419E-002   2.1133161644888980E-002   4.2389438971472612E-002
  -7.4379730487145870E-002   2.0980563196830830E-002   4.1328482166087858E-002
  -7.2351817835967322E-002   2.0772404426262232E-002   4.0532241664009247E-002
  -7.0323905184788815E-002   2.0508685333183216E-002   4.0000717465236632E-002
  -8.6440094531558237E-002   2.4601847925224952E-002   3.8087562883179750E-002
  -8.4192373703037837E-002   2.3956166331670147E-002   3.7055509015394505E-002
  -8.1944652874517424E-002   2.3420580329553981E-002   3.6198355198986842E-002
  -7.9696932045997010E-002   2.2995089918876423E-002   3.5516101433956913E-002
  -7.7449211217476624E-002   2.2679695099637513E-002   3.5008747720304691E-002
  -9.4133373541207904E-002   2.7973496080013233E-002   3.1828542261214399E-002
  -9.1755660787273985E-002   2.6779171018451300E-002   3.1255763548283737E-002
  -8.9377948033340107E-002   2.5860597462277098E-002   3.0768068634802352E-002
  -8.7000235279406202E-002   2.5217775411490534E-002   3.0365457520770231E-002
  -8.4622522525472310E-002   2.4850704866091783E-002   3.0047930206187456E-002
  -5.6217308945337142E-002   1.6166665800274621E-002   5.0078113647544470E-002
  -5.4669537105523865E-002   1.5811554080410892E-002   4.9769942216534746E-002
  -5.3121765265710594E-002   1.5453826352746503E-002   4.9601392419587748E-002
  -5.1573993425897330E-002   1.5093482617281759E-002   4.9572464256703336E-002
  -5.0026221586084052E-002   1.4730522874016355E-002   4.9683157727881649E-002
  -6.3246604427409023E-002   1.8337675566728939E-002   4.5023839440983190E-002
  -6.1539482000305880E-002   1.7995205581793738E-002   4.4666265184206161E-002
  -5.9832359573202716E-002   1.7613098597285728E-002   4.4487770467946157E-002
  -5.8125237146099559E-002   1.7191354613205170E-002   4.4488355292203269E-002
  -5.6418114718996416E-002   1.6729973629551864E-002   4.4668019656977392E-002
  -7.0323905184788815E-002   2.0508685333183216E-002   4.0000717465236632E-002
  -6.8417974263941445E-002   2.0178857083176537E-002   3.9556719390920037E-002
  -6.6512043343093991E-002   1.9772370841825010E-002   3.9331258763574954E-002
  -6.4606112422246564E-002   1.9289226609128539E-002   3.9324335583201399E-002
  -6.2700181501399194E-002   1.8729424385087276E-002   3.9535949849799197E-002
  -7.7449211217476624E-002   2.2679695099637513E-002   3.5008747720304691E-002
  -7.5305013896430489E-002   2.2362508584559359E-002   3.4441304836676442E-002
  -7.3160816575384410E-002   2.1931643086364222E-002   3.4131857306473952E-002
  -7.1016619254338290E-002   2.1387098605051957E-002   3.4080405129697511E-002
  -6.8872421933292211E-002   2.0728875140622736E-002   3.4286948306346744E-002
  -8.4622522525472310E-002   2.4850704866091783E-002   3.0047930206187456E-002
  -8.2200600897773146E-002   2.4546160085942181E-002   2.9320021521475226E-002
  -7.9778679270073968E-002   2.4090915330903524E-002   2.8889566096643379E-002
  -7.7356757642374790E-002   2.3484970600975361E-002   2.8756563931691723E-002
  -7.4934836014675599E-002   2.2728325896158197E-002   2.8921015026620395E-002
  -5.0026221586084052E-002   1.4730522874016355E-002   4.9683157727881649E-002
  -4.8574277322691206E-002   1.4346707618331594E-002   4.9107130563777940E-002
  -4.7122333059298360E-002   1.3923797345608592E-002   4.8767895540192410E-002
  -4.5670388795905514E-002   1.3461792055847086E-002   4.8665452657125303E-002
  -4.4218444532512696E-002   1.2960691749047404E-002   4.8799801914576280E-002
  -5.6418114718996416E-002   1.6729973629551864E-002   4.4668019656977392E-002
  -5.4743173370224156E-002   1.6238909287823400E-002   4.4158611421436594E-002
  -5.3068232021451889E-002   1.5728115229517642E-002   4.3858405216136334E-002
  -5.1393290672679670E-002   1.5197591454634292E-002   4.3767401041076646E-002
  -4.9718349323907410E-002   1.4647337963173579E-002   4.3885598896257427E-002
  -6.2700181501399194E-002   1.8729424385087276E-002   3.9535949849799197E-002
  -6.0829833177525237E-002   1.8131110957315219E-002   3.9112525843282134E-002
  -5.8959484853651267E-002   1.7532433113426688E-002   3.8870713756727931E-002
  -5.7089136529777325E-002   1.6933390853421496E-002   3.8810513590136521E-002
  -5.5218788205903334E-002   1.6333984177299782E-002   3.8931925343507937E-002
  -6.8872421933292211E-002   2.0728875140622736E-002   3.4286948306346744E-002
  -6.6834256744594311E-002   2.0023312626807115E-002   3.3968873829314454E-002
  -6.4796091555896398E-002   1.9336750997335735E-002   3.3804821161967154E-002
  -6.2757926367198541E-002   1.8669190252208732E-002   3.3794790304304968E-002
  -6.0719761178500600E-002   1.8020630391425915E-002   3.3938781256327877E-002
  -7.4934836014675599E-002   2.2728325896158197E-002   2.8921015026620395E-002
  -7.2756444071431475E-002   2.1915514296298899E-002   2.8727655379533645E-002
  -7.0578052128187352E-002   2.1141068881244798E-002   2.8660727431854160E-002
  -6.8399660184943242E-002   2.0404989650995884E-002   2.8720231183582037E-002
  -6.6221268241699133E-002   1.9707276605552160E-002   2.8906166634717234E-002
  -4.4218444532512696E-002   1.2960691749047404E-002   4.8799801914576280E-002
  -4.2396178111117983E-002   1.2436505970777972E-002   4.8539554603556301E-002
  -4.0573911689723255E-002   1.1905244266607176E-002   4.8456029981630261E-002
  -3.8751645268328555E-002   1.1366906636535491E-002   4.8549228048798104E-002
  -3.6929378846933855E-002   1.0821493080562461E-002   4.8819148805059942E-002
  -4.9718349323907410E-002   1.4647337963173579E-002   4.3885598896257427E-002
  -4.7710286226887125E-002   1.4084603283485084E-002   4.3627737188278046E-002
  -4.5702223129866840E-002   1.3516635943918359E-002   4.3564746142455910E-002
  -4.3694160032846548E-002   1.2943435944473551E-002   4.3696625758790832E-002
  -4.1686096935826270E-002   1.2365003285150555E-002   4.4023376037283013E-002
  -5.5218788205903334E-002   1.6333984177299782E-002   3.8931925343507937E-002
  -5.3006780460194310E-002   1.5732700596192209E-002   3.8678292504592232E-002
  -5.0794772714485237E-002   1.5128027621229424E-002   3.8637678300896990E-002
  -4.8582764968776150E-002   1.4519965252411665E-002   3.8810082732422133E-002
  -4.6370757223067133E-002   1.3908513489738594E-002   3.9195505799167668E-002
  -6.0719761178500600E-002   1.8020630391425915E-002   3.3938781256327877E-002
  -5.8285660811039579E-002   1.7380797908899411E-002   3.3691220552498923E-002
  -5.5851560443578495E-002   1.6739419298540576E-002   3.3674826456953584E-002
  -5.3417460076117390E-002   1.6096494560349808E-002   3.3889598969691848E-002
  -5.0983359708656327E-002   1.5452023694326716E-002   3.4335538090713713E-002
  -6.6221268241699133E-002   1.9707276605552160E-002   2.8906166634717234E-002
  -6.3546927279422821E-002   1.9028895221606446E-002   2.8666521331998013E-002
  -6.0872586317146524E-002   1.8350810975851617E-002   2.8676190610625513E-002
  -5.8198245354870219E-002   1.7673023868287854E-002   2.8935174470599970E-002
  -5.5523904392593942E-002   1.6995533898914672E-002   2.9443472911921287E-002
  -3.6929378846933855E-002   1.0821493080562461E-002   4.8819148805059942E-002
  -3.5450622749334221E-002   1.0254562303310344E-002   4.8399495126549896E-002
  -3.3971866651734621E-002   9.6516730094007019E-003   4.8156994593575947E-002
  -3.2493110554135007E-002   9.0128251988338889E-003   4.8091647206137678E-002
  -3.1014354456535401E-002   8.3380188716096759E-003   4.8203452964235449E-002
  -4.1686096935826270E-002   1.2365003285150555E-002   4.4023376037283013E-002
  -4.0045377104363601E-002   1.1765550636960248E-002   4.3624207831495010E-002
  -3.8404657272900967E-002   1.1129290670913866E-002   4.3371813947897186E-002
  -3.6763937441438355E-002   1.0456223387010917E-002   4.3266194386489487E-002
  -3.5123217609975721E-002   9.7463487852519348E-003   4.3307349147272078E-002
  -4.6370757223067133E-002   1.3908513489738594E-002   3.9195505799167668E-002
  -4.4598452481087139E-002   1.3276538970610430E-002   3.8815974264902575E-002
  -4.2826147739107166E-002   1.2606908332426878E-002   3.8552838229482092E-002
  -4.1053842997127221E-002   1.1899621575188282E-002   3.8406097692906031E-002
  -3.9281538255147200E-002   1.1154678698894360E-002   3.8375752655174511E-002
  -5.0983359708656327E-002   1.5452023694326716E-002   3.4335538090713713E-002
  -4.9109848879504703E-002   1.4787527304260389E-002   3.3974794426772696E-002
  -4.7236338050353099E-002   1.4084525993939882E-002   3.3700067438330497E-002
  -4.5362827221201482E-002   1.3343019763365422E-002   3.3511357125387130E-002
  -4.3489316392049865E-002   1.2563008612536813E-002   3.3408663487942511E-002
  -5.5523904392593942E-002   1.6995533898914672E-002   2.9443472911921287E-002
  -5.3579566299616410E-002   1.6298515637910516E-002   2.9100668317105338E-002
  -5.1635228206638850E-002   1.5562143655453053E-002   2.8813501574442624E-002
  -4.9690890113661318E-002   1.4786417951542785E-002   2.8581972683932769E-002
  -4.7746552020683758E-002   1.3971338526179100E-002   2.8406081645576176E-002
  -3.1014354456535401E-002   8.3380188716096759E-003   4.8203452964235449E-002
  -2.9169409482570990E-002   7.4842355103590386E-003   4.7601871313801780E-002
  -2.7324464508606615E-002   6.3084565977130636E-003   4.6826385956576788E-002
  -2.5479519534642153E-002   4.8106821336715844E-003   4.5876996892560418E-002
  -2.3634574560677801E-002   2.9909121182349896E-003   4.4753704121752280E-002
  -3.5123217609975721E-002   9.7463487852519348E-003   4.3307349147272078E-002
  -3.3344792602532612E-002   8.9451197077650424E-003   4.2529745152880050E-002
  -3.1566367595089517E-002   7.9979889966785844E-003   4.1793004932236755E-002
  -2.9787942587646395E-002   6.9049566519926719E-003   4.1097128485342443E-002
  -2.8009517580203258E-002   5.6660226737073049E-003   4.0442115812196811E-002
  -3.9281538255147200E-002   1.1154678698894360E-002   3.8375752655174511E-002
  -3.7354865733685065E-002   1.0406003905170991E-002   3.7598220234619784E-002
  -3.5428193212222965E-002   9.6875213956441608E-003   3.7076319068354083E-002
  -3.3501520690760914E-002   8.9992311703136763E-003   3.6810049156377783E-002
  -3.1574848169298730E-002   8.3411332291796203E-003   3.6799410498690399E-002
  -4.3489316392049865E-002   1.2563008612536813E-002   3.3408663487942511E-002
  -4.1199628876028536E-002   1.1866888102576967E-002   3.2807296559021162E-002
  -3.8909941360007118E-002   1.1377053794609709E-002   3.2676328364929147E-002
  -3.6620253843985755E-002   1.1093505688634500E-002   3.3015758905666596E-002
  -3.4330566327964426E-002   1.1016243784651880E-002   3.3825588181233518E-002
  -4.7746552020683758E-002   1.3971338526179100E-002   2.8406081645576176E-002
  -4.4879082029562839E-002   1.3327772299982887E-002   2.8156974126084033E-002
  -4.2011612038441906E-002   1.3066586193575244E-002   2.8593032821961600E-002
  -3.9144142047320953E-002   1.3187780206955681E-002   2.9714257733208946E-002
  -3.6276672056199999E-002   1.3691354340124251E-002   3.1520648859825862E-002
  -9.0358792437833957E-002   0.0000000000000000        4.9838869052524534E-002
  -9.3959045741731709E-002   5.4027558623378508E-003   5.3212014768083703E-002
  -9.7559299045629461E-002   1.0668693458098608E-002   5.4967480613896655E-002
 -0.10115955234952723        1.5797812787282255E-002   5.5105266589963404E-002
 -0.10475980565342499        2.0790113849888808E-002   5.3625372696283938E-002
 -0.10329140214904345        0.0000000000000000        5.8665514751242001E-002
 -0.10682814232078566        1.0883820241287864E-002   5.2121364395145114E-002
 -0.11036488249252785        1.9171028161534383E-002   4.7321920173105540E-002
 -0.11390162266427008        2.4861623760739561E-002   4.4267182085123299E-002
 -0.11743836283601226        2.7955607038903381E-002   4.2957150131198357E-002
 -0.12645578564000157        0.0000000000000000        7.4203121856141613E-002
 -0.12656662667578469        1.6364884620237871E-002   5.5281881373924403E-002
 -0.12667746771156779        2.7673362864970154E-002   4.1467733029568042E-002
 -0.12678830874735092        3.3925434734196847E-002   3.2760676823072550E-002
 -0.12689914978313402        3.5121100227917944E-002   2.9160712754437903E-002
 -0.15985194291070828        0.0000000000000000        9.6451690367223356E-002
 -0.15317449880672881        2.1845948999187896E-002   6.2693565704421583E-002
 -0.14649705470274926        3.6175697568405933E-002   3.7404919183284216E-002
 -0.13981961059876979        4.2989245707654153E-002   2.0585750803811247E-002
 -0.13314216649479027        4.2286593416932500E-002   1.2236060566002623E-002
 -0.20347987396116363        0.0000000000000000       0.12541122028448723     
 -0.18665175871361797        2.7327013378137900E-002   7.4356417386636661E-002
 -0.16982364346607232        4.4678032271841715E-002   3.5133478634254006E-002
 -0.15299552821852663        5.2053056681111445E-002   7.7424040273392641E-003
 -0.13616741297098098        4.9452086605947077E-002  -7.8168064341075025E-003
 -0.10475980565342499        2.0790113849888808E-002   5.3625372696283938E-002
 -0.10210319762537071        2.4931994186260090E-002   4.5644992653689098E-002
  -9.9446589597316434E-002   2.7509851336737914E-002   3.9352060900312541E-002
  -9.6789981569262176E-002   2.8523685301322304E-002   3.4746577436154322E-002
  -9.4133373541207904E-002   2.7973496080013233E-002   3.1828542261214399E-002
 -0.11743836283601226        2.7955607038903381E-002   4.2957150131198357E-002
 -0.11348142497273883        2.9427501329752141E-002   3.6701627450328816E-002
 -0.10952448710946541        3.0251829967012131E-002   3.1359316150679294E-002
 -0.10556754924619198        3.0428592950683318E-002   2.6930216232249820E-002
 -0.10161061138291853        2.9957790280765777E-002   2.3414327695040385E-002
 -0.12689914978313402        3.5121100227917944E-002   2.9160712754437903E-002
 -0.12241611899263971        3.3923008473244184E-002   2.5546504967598263E-002
 -0.11793308820214538        3.2993808597286317E-002   2.2071271653980509E-002
 -0.11345005741165104        3.2333500600044383E-002   1.8735012813584407E-002
 -0.10896702662115672        3.1942084481518307E-002   1.5537728446410135E-002
 -0.13314216649479027        4.2286593416932500E-002   1.2236060566002623E-002
 -0.12890727968507332        3.8418515616736232E-002   1.2179625205497676E-002
 -0.12467239287535635        3.5735787227560524E-002   1.1487927410216221E-002
 -0.12043750606563938        3.4238408249405376E-002   1.0160967180158232E-002
 -0.11620261925592246        3.3926378682270858E-002   8.1987445153237793E-003
 -0.13616741297098098        4.9452086605947077E-002  -7.8168064341075025E-003
 -0.13295490705003965        4.2914022760228265E-002  -3.3990118359731383E-003
 -0.12974240112909835        3.8477765857834759E-002  -3.9071658061350621E-004
 -0.12652989520815699        3.6143315898766459E-002   1.2080793319712312E-003
 -0.12331738928721572        3.5910672883023409E-002   1.3973759017812948E-003
  -9.4133373541207904E-002   2.7973496080013233E-002   3.1828542261214399E-002
  -9.1755660787273985E-002   2.6779171018451300E-002   3.1255763548283737E-002
  -8.9377948033340107E-002   2.5860597462277098E-002   3.0768068634802352E-002
  -8.7000235279406202E-002   2.5217775411490534E-002   3.0365457520770231E-002
  -8.4622522525472310E-002   2.4850704866091783E-002   3.0047930206187456E-002
 -0.10161061138291853        2.9957790280765777E-002   2.3414327695040385E-002
  -9.9135876443993784E-002   2.9188385351589744E-002   2.3137366291353451E-002
  -9.6661141505069048E-002   2.8469341557485629E-002   2.2969365458198991E-002
  -9.4186406566144312E-002   2.7800658898453338E-002   2.2910325195576835E-002
  -9.1711671627219549E-002   2.7182337374492965E-002   2.2960245503487159E-002
 -0.10896702662115672        3.1942084481518307E-002   1.5537728446410135E-002
 -0.10637139272615806        3.1597599684728243E-002   1.5331193981651206E-002
 -0.10377575883115935        3.1078085652694130E-002   1.5257496858507774E-002
 -0.10118012493616065        3.0383542385416171E-002   1.5316637076979793E-002
  -9.8584491041161959E-002   2.9513969882894106E-002   1.5508614637067354E-002
 -0.11620261925592246        3.3926378682270858E-002   8.1987445153237793E-003
 -0.11346220963376671        3.4006814017866677E-002   7.8372466191769709E-003
 -0.11072180001161097        3.3686829747902658E-002   7.6324628357286621E-003
 -0.10798139038945524        3.2966425872378961E-002   7.5843931649790496E-003
 -0.10524098076729953        3.1845602391295212E-002   7.6930376069280406E-003
 -0.12331738928721572        3.5910672883023409E-002   1.3973759017812948E-003
 -0.12040832716681987        3.6416028351005103E-002   6.5552420393055755E-004
 -0.11749926504642398        3.6295573843111245E-002   9.4263389861862223E-005
 -0.11459020292602809        3.5549309359341703E-002  -2.8640654042546773E-004
 -0.11168114080563224        3.4177234899696374E-002  -4.8648558693092925E-004
  -8.4622522525472310E-002   2.4850704866091783E-002   3.0047930206187456E-002
  -8.2200600897773146E-002   2.4546160085942181E-002   2.9320021521475226E-002
  -7.9778679270073968E-002   2.4090915330903524E-002   2.8889566096643379E-002
  -7.7356757642374790E-002   2.3484970600975361E-002   2.8756563931691723E-002
  -7.4934836014675599E-002   2.2728325896158197E-002   2.8921015026620395E-002
  -9.1711671627219549E-002   2.7182337374492965E-002   2.2960245503487159E-002
  -8.9020935886706704E-002   2.6566671817600349E-002   2.2322152771600393E-002
  -8.6330200146193872E-002   2.5905957059771244E-002   2.1924235005460757E-002
  -8.3639464405680986E-002   2.5200193101005859E-002   2.1766492205068211E-002
  -8.0948728665168140E-002   2.4449379941304028E-002   2.1848924370422768E-002
  -9.8584491041161959E-002   2.9513969882894106E-002   1.5508614637067354E-002
  -9.5682219481968644E-002   2.8587183549258322E-002   1.5065988631959022E-002
  -9.2779947922775260E-002   2.7720998788638988E-002   1.4806259298464401E-002
  -8.9877676363581877E-002   2.6915415601036184E-002   1.4729426636583760E-002
  -8.6975404804388562E-002   2.6170433986449831E-002   1.4835490646316923E-002
 -0.10524098076729953        3.1845602391295212E-002   7.6930376069280406E-003
 -0.10218445168355889        3.0607695280916225E-002   7.5515291025507348E-003
  -9.9127922599818202E-002   2.9536040517506815E-002   7.5356389756540921E-003
  -9.6071393516077561E-002   2.8630638101066624E-002   7.6453672262382158E-003
  -9.3014864432336863E-002   2.7891488031595760E-002   7.8807138543031639E-003
 -0.11168114080563224        3.4177234899696374E-002  -4.8648558693092925E-004
 -0.10852763249147751        3.2628207012574517E-002  -2.2122581662409324E-004
 -0.10537412417732273        3.1351082246374437E-002   1.1237403702998860E-004
 -0.10222061586316794        3.0345860601096935E-002   5.1431397403183671E-004
  -9.9067107549013211E-002   2.9612542076741522E-002   9.8459399438105555E-004
  -7.4934836014675599E-002   2.2728325896158197E-002   2.8921015026620395E-002
  -7.2756444071431475E-002   2.1915514296298899E-002   2.8727655379533645E-002
  -7.0578052128187352E-002   2.1141068881244798E-002   2.8660727431854160E-002
  -6.8399660184943242E-002   2.0404989650995884E-002   2.8720231183582037E-002
  -6.6221268241699133E-002   1.9707276605552160E-002   2.8906166634717234E-002
  -8.0948728665168140E-002   2.4449379941304028E-002   2.1848924370422768E-002
  -7.8639366852598314E-002   2.3675811354475024E-002   2.1666271670269910E-002
  -7.6330005040028431E-002   2.2901781114327932E-002   2.1619127009361222E-002
  -7.4020643227458563E-002   2.2127289220862833E-002   2.1707490387696558E-002
  -7.1711281414888722E-002   2.1352335674079737E-002   2.1931361805276078E-002
  -8.6975404804388562E-002   2.6170433986449831E-002   1.4835490646316923E-002
  -8.4525996782656238E-002   2.5436108412651148E-002   1.4624717054975131E-002
  -8.2076588760923955E-002   2.4662493347411059E-002   1.4558527842713796E-002
  -7.9627180739191616E-002   2.3849588790729945E-002   1.4636923009533377E-002
  -7.7177772717459320E-002   2.2997394742607424E-002   1.4859902555433888E-002
  -9.3014864432336863E-002   2.7891488031595760E-002   7.8807138543031639E-003
  -9.0416333861605400E-002   2.7196405470827384E-002   7.6029915336485766E-003
  -8.7817803290873922E-002   2.6423205580494356E-002   7.4789299319117462E-003
  -8.5219272720142403E-002   2.5571888360597088E-002   7.5085290490924826E-003
  -8.2620742149410897E-002   2.4642453811135001E-002   7.6917888851908214E-003
  -9.9067107549013211E-002   2.9612542076741522E-002   9.8459399438105555E-004
  -9.6310378089445758E-002   2.8956702529003342E-002   6.0109510629111074E-004
  -9.3553648629878333E-002   2.8183917813577528E-002   3.8033327695523311E-004
  -9.0796919170310866E-002   2.7294187930463978E-002   3.2230850637361350E-004
  -8.8040189710743455E-002   2.6287512879662689E-002   4.2702079454659536E-004
  -6.6221268241699133E-002   1.9707276605552160E-002   2.8906166634717234E-002
  -6.3546927279422821E-002   1.9028895221606446E-002   2.8666521331998013E-002
  -6.0872586317146524E-002   1.8350810975851617E-002   2.8676190610625513E-002
  -5.8198245354870219E-002   1.7673023868287854E-002   2.8935174470599970E-002
  -5.5523904392593942E-002   1.6995533898914672E-002   2.9443472911921287E-002
  -7.1711281414888722E-002   2.1352335674079737E-002   2.1931361805276078E-002
  -6.8802344814857821E-002   2.0581806204630335E-002   2.1705322902672006E-002
  -6.5893408214826824E-002   1.9820586543166582E-002   2.1699160694230224E-002
  -6.2984471614795895E-002   1.9068676689688212E-002   2.1912875179951052E-002
  -6.0075535014764911E-002   1.8326076644195333E-002   2.2346466359834283E-002
  -7.7177772717459320E-002   2.2997394742607424E-002   1.4859902555433888E-002
  -7.4063678366858066E-002   2.2134717187654362E-002   1.4656482722739395E-002
  -7.0949584016256825E-002   2.1290362110481326E-002   1.4643501697023054E-002
  -6.7835489665655599E-002   2.0464329511088682E-002   1.4820959478284830E-002
  -6.4721395315054317E-002   1.9656619389476132E-002   1.5188856066524731E-002
  -8.2620742149410897E-002   2.4642453811135001E-002   7.6917888851908214E-003
  -7.9330927935423678E-002   2.3687628170678515E-002   7.5200007922005714E-003
  -7.6041113721436487E-002   2.2760137677796263E-002   7.5092136190043277E-003
  -7.2751299507449255E-002   2.1859982332489373E-002   7.6594273656016357E-003
  -6.9461485293462064E-002   2.0987162134756862E-002   7.9706420319928667E-003
  -8.8040189710743455E-002   2.6287512879662689E-002   4.2702079454659536E-004
  -8.4604093520554646E-002   2.5240539153702224E-002   2.9587711105544257E-004
  -8.1167997330365782E-002   2.4229913245111062E-002   2.9629646017381717E-004
  -7.7731901140176890E-002   2.3255635153889599E-002   4.2827884190149712E-004
  -7.4295804949988109E-002   2.2317704880037592E-002   6.9182425623859345E-004
  -5.5523904392593942E-002   1.6995533898914672E-002   2.9443472911921287E-002
  -5.3579566299616410E-002   1.6298515637910516E-002   2.9100668317105338E-002
  -5.1635228206638850E-002   1.5562143655453053E-002   2.8813501574442624E-002
  -4.9690890113661318E-002   1.4786417951542785E-002   2.8581972683932769E-002
  -4.7746552020683758E-002   1.3971338526179100E-002   2.8406081645576176E-002
  -6.0075535014764911E-002   1.8326076644195333E-002   2.2346466359834283E-002
  -5.8029694076060095E-002   1.7584918754909223E-002   2.1932407471961457E-002
  -5.5983853137355231E-002   1.6837335370050610E-002   2.1665716423390213E-002
  -5.3938012198650367E-002   1.6083326489619326E-002   2.1546393214120149E-002
  -5.1892171259945566E-002   1.5322892113615649E-002   2.1574437844152083E-002
  -6.4721395315054317E-002   1.9656619389476132E-002   1.5188856066524731E-002
  -6.2482321543473787E-002   1.8871321871907820E-002   1.4736471111475705E-002
  -6.0243247771893098E-002   1.8112527084647834E-002   1.4523183982876643E-002
  -5.8004174000312519E-002   1.7380235027696089E-002   1.4548994680727581E-002
  -5.5765100228731886E-002   1.6674445701052504E-002   1.4813903205028275E-002
  -6.9461485293462064E-002   2.0987162134756862E-002   7.9706420319928667E-003
  -6.6937448701857249E-002   2.0157724988906417E-002   7.5128592356484211E-003
  -6.4413412110252449E-002   1.9387718799245224E-002   7.3859042529021667E-003
  -6.1889375518647614E-002   1.8677143565772464E-002   7.5897770837544468E-003
  -5.9365338927042814E-002   1.8025999288489095E-002   8.1244777282051782E-003
  -7.4295804949988109E-002   2.2317704880037592E-002   6.9182425623859345E-004
  -7.1395075551210718E-002   2.1444128105905236E-002   2.6157184447928028E-004
  -6.8494346152433272E-002   2.0662910513842475E-002   2.5387723346662061E-004
  -6.5593616753655853E-002   1.9974052103849220E-002   6.6874042320092669E-004
  -6.2692887354878435E-002   1.9377552875926018E-002   1.5061614136823165E-003
  -4.7746552020683758E-002   1.3971338526179100E-002   2.8406081645576176E-002
  -4.4879082029562839E-002   1.3327772299982887E-002   2.8156974126084033E-002
  -4.2011612038441906E-002   1.3066586193575244E-002   2.8593032821961600E-002
  -3.9144142047320953E-002   1.3187780206955681E-002   2.9714257733208946E-002
  -3.6276672056199999E-002   1.3691354340124251E-002   3.1520648859825862E-002
  -5.1892171259945566E-002   1.5322892113615649E-002   2.1574437844152083E-002
  -4.8541702882935411E-002   1.4606346423309990E-002   2.1634144259032873E-002
  -4.5191234505925416E-002   1.3984003599971886E-002   2.1974681230322118E-002
  -4.1840766128915241E-002   1.3455863643601438E-002   2.2596048758020293E-002
  -3.8490297751905211E-002   1.3021926554198981E-002   2.3498246842126869E-002
  -5.5765100228731886E-002   1.6674445701052504E-002   1.4813903205028275E-002
  -5.2335969124793699E-002   1.5884920546636566E-002   1.4894246301461592E-002
  -4.8906838020855603E-002   1.4901421006368480E-002   1.4851084295342452E-002
  -4.5477706916917458E-002   1.3723947080247446E-002   1.4684417186670847E-002
  -4.2048575812979272E-002   1.2352498768273823E-002   1.4394244975446779E-002
  -5.9365338927042814E-002   1.8025999288489095E-002   8.1244777282051782E-003
  -5.6261880755137730E-002   1.7163494669963794E-002   7.9372802533702845E-003
  -5.3158422583232556E-002   1.5818838412765265E-002   7.2222420170220247E-003
  -5.0054964411327264E-002   1.3992030516893218E-002   5.9793630191601272E-003
  -4.6951506239422319E-002   1.1683070982348664E-002   4.2086432597848722E-003
  -6.2692887354878435E-002   1.9377552875926018E-002   1.5061614136823165E-003
  -6.0319437773967421E-002   1.8442068793290578E-002   7.6324611475875326E-004
  -5.7945988193056297E-002   1.6736255819161855E-002  -9.1184560463888897E-004
  -5.5572538612145228E-002   1.4260113953539356E-002  -3.5191137445110335E-003
  -5.3199089031234159E-002   1.1013643196423395E-002  -7.0585583048583533E-003
 </DataArray>
 </PointData>
 </Piece>
 <Piece  NumberOfPoints="          1600 "  NumberOfCells="         1024 ">
 <Points>
 <DataArray  type="Float64" NumberOfComponents="3"  format="ascii" >
  0.50000000000000000        0.0000000000000000        0.0000000000000000     
  0.53125000000000000        0.0000000000000000        0.0000000000000000     
  0.56250000000000000        0.0000000000000000        0.0000000000000000     
  0.59375000000000000        0.0000000000000000        0.0000000000000000     
  0.62500000000000000        0.0000000000000000        0.0000000000000000     
  0.50000000000000000        3.1250000000000000E-002   0.0000000000000000     
  0.53125000000000000        3.1250000000000000E-002   0.0000000000000000     
  0.56250000000000000        3.1250000000000000E-002   0.0000000000000000     
  0.59375000000000000        3.1250000000000000E-002   0.0000000000000000     
  0.62500000000000000        3.1250000000000000E-002   0.0000000000000000     
  0.50000000000000000        6.2500000000000000E-002   0.0000000000000000     
  0.53125000000000000        6.2500000000000000E-002   0.0000000000000000     
  0.56250000000000000        6.2500000000000000E-002   0.0000000000000000     
  0.59375000000000000        6.2500000000000000E-002   0.0000000000000000     
  0.62500000000000000        6.2500000000000000E-002   0.0000000000000000     
  0.50000000000000000        9.3750000000000000E-002   0.0000000000000000     
  0.53125000000000000        9.3750000000000000E-002   0.0000000000000000     
  0.56250000000000000        9.3750000000000000E-002   0.0000000000000000     
  0.59375000000000000        9.3750000000000000E-002   0.0000000000000000     
  0.62500000000000000        9.3750000000000000E-002   0.0000000000000000     
  0.50000000000000000       0.12500000000000000        0.0000000000000000     
  0.53125000000000000       0.12500000000000000        0.0000000000000000     
  0.56250000000000000       0.12500000000000000        0.0000000000000000     
  0.59375000000000000       0.12500000000000000        0.0000000000000000     
  0.62500000000000000       0.12500000000000000        0.0000000000000000     
  0.62500000000000000        0.0000000000000000        0.0000000000000000     
  0.65625000000000000        0.0000000000000000        0.0000000000000000     
  0.68750000000000000        0.0000000000000000        0.0000000000000000     
  0.71875000000000000        0.0000000000000000        0.0000000000000000     
  0.75000000000000000        0.0000000000000000        0.0000000000000000     
  0.62500000000000000        3.1250000000000000E-002   0.0000000000000000     
  0.65625000000000000        3.1250000000000000E-002   0.0000000000000000     
  0.68750000000000000        3.1250000000000000E-002   0.0000000000000000     
  0.71875000000000000        3.1250000000000000E-002   0.0000000000000000     
  0.75000000000000000        3.1250000000000000E-002   0.0000000000000000     
  0.62500000000000000        6.2500000000000000E-002   0.0000000000000000     
  0.65625000000000000        6.2500000000000000E-002   0.0000000000000000     
  0.68750000000000000        6.2500000000000000E-002   0.0000000000000000     
  0.71875000000000000        6.2500000000000000E-002   0.0000000000000000     
  0.75000000000000000        6.2500000000000000E-002   0.0000000000000000     
  0.62500000000000000        9.3750000000000000E-002   0.0000000000000000     
  0.65625000000000000        9.3750000000000000E-002   0.0000000000000000     
  0.68750000000000000        9.3750000000000000E-002   0.0000000000000000     
  0.71875000000000000        9.3750000000000000E-002   0.0000000000000000     
  0.75000000000000000        9.3750000000000000E-002   0.0000000000000000     
  0.62500000000000000       0.12500000000000000        0.0000000000000000     
  0.65625000000000000       0.12500000000000000        0.0000000000000000     
  0.68750000000000000       0.12500000000000000        0.0000000000000000     
  0.71875000000000000       0.12500000000000000        0.0000000000000000     
  0.75000000000000000       0.12500000000000000        0.0000000000000000     
  0.75000000000000000        0.0000000000000000        0.0000000000000000     
  0.78125000000000000        0.0000000000000000        0.0000000000000000     
  0.81250000000000000        0.0000000000000000        0.0000000000000000     
  0.84375000000000000        0.0000000000000000        0.0000000000000000     
  0.87500000000000000        0.0000000000000000        0.0000000000000000     
  0.75000000000000000        3.1250000000000000E-002   0.0000000000000000     
  0.78125000000000000        3.1250000000000000E-002   0.0000000000000000     
  0.81250000000000000        3.1250000000000000E-002   0.0000000000000000     
  0.84375000000000000        3.1250000000000000E-002   0.0000000000000000     
  0.87500000000000000        3.1250000000000000E-002   0.0000000000000000     
  0.75000000000000000        6.2500000000000000E-002   0.0000000000000000     
  0.78125000000000000        6.2500000000000000E-002   0.0000000000000000     
  0.81250000000000000        6.2500000000000000E-002   0.0000000000000000     
  0.84375000000000000        6.2500000000000000E-002   0.0000000000000000     
  0.87500000000000000        6.2500000000000000E-002   0.0000000000000000     
  0.75000000000000000        9.3750000000000000E-002   0.0000000000000000     
  0.78125000000000000        9.3750000000000000E-002   0.0000000000000000     
  0.81250000000000000        9.3750000000000000E-002   0.0000000000000000     
  0.84375000000000000        9.3750000000000000E-002   0.0000000000000000     
  0.87500000000000000        9.3750000000000000E-002   0.0000000000000000     
  0.75000000000000000       0.12500000000000000        0.0000000000000000     
  0.78125000000000000       0.12500000000000000        0.0000000000000000     
  0.81250000000000000       0.12500000000000000        0.0000000000000000     
  0.84375000000000000       0.12500000000000000        0.0000000000000000     
  0.87500000000000000       0.12500000000000000        0.0000000000000000     
  0.87500000000000000        0.0000000000000000        0.0000000000000000     
  0.90625000000000000        0.0000000000000000        0.0000000000000000     
  0.93750000000000000        0.0000000000000000        0.0000000000000000     
  0.96875000000000000        0.0000000000000000        0.0000000000000000     
   1.0000000000000000        0.0000000000000000        0.0000000000000000     
  0.87500000000000000        3.1250000000000000E-002   0.0000000000000000     
  0.90625000000000000        3.1250000000000000E-002   0.0000000000000000     
  0.93750000000000000        3.1250000000000000E-002   0.0000000000000000     
  0.96875000000000000        3.1250000000000000E-002   0.0000000000000000     
   1.0000000000000000        3.1250000000000000E-002   0.0000000000000000     
  0.87500000000000000        6.2500000000000000E-002   0.0000000000000000     
  0.90625000000000000        6.2500000000000000E-002   0.0000000000000000     
  0.93750000000000000        6.2500000000000000E-002   0.0000000000000000     
  0.96875000000000000        6.2500000000000000E-002   0.0000000000000000     
   1.0000000000000000        6.2500000000000000E-002   0.0000000000000000     
  0.87500000000000000        9.3750000000000000E-002   0.0000000000000000     
  0.90625000000000000        9.3750000000000000E-002   0.0000000000000000     
  0.93750000000000000        9.3750000000000000E-002   0.0000000000000000     
  0.96875000000000000        9.3750000000000000E-002   0.0000000000000000     
   1.0000000000000000        9.3750000000000000E-002   0.0000000000000000     
  0.87500000000000000       0.12500000000000000        0.0000000000000000     
  0.90625000000000000       0.12500000000000000        0.0000000000000000     
  0.93750000000000000       0.12500000000000000        0.0000000000000000     
  0.96875000000000000       0.12500000000000000        0.0000000000000000     
   1.0000000000000000       0.12500000000000000        0.0000000000000000     
   1.0000000000000000        0.0000000000000000        0.0000000000000000     
   1.0312500000000000        0.0000000000000000        0.0000000000000000     
   1.0625000000000000        0.0000000000000000        0.0000000000000000     
   1.0937500000000000        0.0000000000000000        0.0000000000000000     
   1.1250000000000000        0.0000000000000000        0.0000000000000000     
   1.0000000000000000        3.1250000000000000E-002   0.0000000000000000     
   1.0312500000000000        3.1250000000000000E-002   0.0000000000000000     
   1.0625000000000000        3.1250000000000000E-002   0.0000000000000000     
   1.0937500000000000        3.1250000000000000E-002   0.0000000000000000     
   1.1250000000000000        3.1250000000000000E-002   0.0000000000000000     
   1.0000000000000000        6.2500000000000000E-002   0.0000000000000000     
   1.0312500000000000        6.2500000000000000E-002   0.0000000000000000     
   1.0625000000000000        6.2500000000000000E-002   0.0000000000000000     
   1.0937500000000000        6.2500000000000000E-002   0.0000000000000000     
   1.1250000000000000        6.2500000000000000E-002   0.0000000000000000     
   1.0000000000000000        9.3750000000000000E-002   0.0000000000000000     
   1.0312500000000000        9.3750000000000000E-002   0.0000000000000000     
   1.0625000000000000        9.3750000000000000E-002   0.0000000000000000     
   1.0937500000000000        9.3750000000000000E-002   0.0000000000000000     
   1.1250000000000000        9.3750000000000000E-002   0.0000000000000000     
   1.0000000000000000       0.12500000000000000        0.0000000000000000     
   1.0312500000000000       0.12500000000000000        0.0000000000000000     
   1.0625000000000000       0.12500000000000000        0.0000000000000000     
   1.0937500000000000       0.12500000000000000        0.0000000000000000     
   1.1250000000000000       0.12500000000000000        0.0000000000000000     
   1.1250000000000000        0.0000000000000000        0.0000000000000000     
   1.1562500000000000        0.0000000000000000        0.0000000000000000     
   1.1875000000000000        0.0000000000000000        0.0000000000000000     
   1.2187500000000000        0.0000000000000000        0.0000000000000000     
   1.2500000000000000        0.0000000000000000        0.0000000000000000     
   1.1250000000000000        3.1250000000000000E-002   0.0000000000000000     
   1.1562500000000000        3.1250000000000000E-002   0.0000000000000000     
   1.1875000000000000        3.1250000000000000E-002   0.0000000000000000     
   1.2187500000000000        3.1250000000000000E-002   0.0000000000000000     
   1.2500000000000000        3.1250000000000000E-002   0.0000000000000000     
   1.1250000000000000        6.2500000000000000E-002   0.0000000000000000     
   1.1562500000000000        6.2500000000000000E-002   0.0000000000000000     
   1.1875000000000000        6.2500000000000000E-002   0.0000000000000000     
   1.2187500000000000        6.2500000000000000E-002   0.0000000000000000     
   1.2500000000000000        6.2500000000000000E-002   0.0000000000000000     
   1.1250000000000000        9.3750000000000000E-002   0.0000000000000000     
   1.1562500000000000        9.3750000000000000E-002   0.0000000000000000     
   1.1875000000000000        9.3750000000000000E-002   0.0000000000000000     
   1.2187500000000000        9.3750000000000000E-002   0.0000000000000000     
   1.2500000000000000        9.3750000000000000E-002   0.0000000000000000     
   1.1250000000000000       0.12500000000000000        0.0000000000000000     
   1.1562500000000000       0.12500000000000000        0.0000000000000000     
   1.1875000000000000       0.12500000000000000        0.0000000000000000     
   1.2187500000000000       0.12500000000000000        0.0000000000000000     
   1.2500000000000000       0.12500000000000000        0.0000000000000000     
   1.2500000000000000        0.0000000000000000        0.0000000000000000     
   1.2812500000000000        0.0000000000000000        0.0000000000000000     
   1.3125000000000000        0.0000000000000000        0.0000000000000000     
   1.3437500000000000        0.0000000000000000        0.0000000000000000     
   1.3750000000000000        0.0000000000000000        0.0000000000000000     
   1.2500000000000000        3.1250000000000000E-002   0.0000000000000000     
   1.2812500000000000        3.1250000000000000E-002   0.0000000000000000     
   1.3125000000000000        3.1250000000000000E-002   0.0000000000000000     
   1.3437500000000000        3.1250000000000000E-002   0.0000000000000000     
   1.3750000000000000        3.1250000000000000E-002   0.0000000000000000     
   1.2500000000000000        6.2500000000000000E-002   0.0000000000000000     
   1.2812500000000000        6.2500000000000000E-002   0.0000000000000000     
   1.3125000000000000        6.2500000000000000E-002   0.0000000000000000     
   1.3437500000000000        6.2500000000000000E-002   0.0000000000000000     
   1.3750000000000000        6.2500000000000000E-002   0.0000000000000000     
   1.2500000000000000        9.3750000000000000E-002   0.0000000000000000     
   1.2812500000000000        9.3750000000000000E-002   0.0000000000000000     
   1.3125000000000000        9.3750000000000000E-002   0.0000000000000000     
   1.3437500000000000        9.3750000000000000E-002   0.0000000000000000     
   1.3750000000000000        9.3750000000000000E-002   0.0000000000000000     
   1.2500000000000000       0.12500000000000000        0.0000000000000000     
   1.2812500000000000       0.12500000000000000        0.0000000000000000     
   1.3125000000000000       0.12500000000000000        0.0000000000000000     
   1.3437500000000000       0.12500000000000000        0.0000000000000000     
   1.3750000000000000       0.12500000000000000        0.0000000000000000     
   1.3750000000000000        0.0000000000000000        0.0000000000000000     
   1.4062500000000000        0.0000000000000000        0.0000000000000000     
   1.4375000000000000        0.0000000000000000        0.0000000000000000     
   1.4687500000000000        0.0000000000000000        0.0000000000000000     
   1.5000000000000000        0.0000000000000000        0.0000000000000000     
   1.3750000000000000        3.1250000000000000E-002   0.0000000000000000     
   1.4062500000000000        3.1250000000000000E-002   0.0000000000000000     
   1.4375000000000000        3.1250000000000000E-002   0.0000000000000000     
   1.4687500000000000        3.1250000000000000E-002   0.0000000000000000     
   1.5000000000000000        3.1250000000000000E-002   0.0000000000000000     
   1.3750000000000000        6.2500000000000000E-002   0.0000000000000000     
   1.4062500000000000        6.2500000000000000E-002   0.0000000000000000     
   1.4375000000000000        6.2500000000000000E-002   0.0000000000000000     
   1.4687500000000000        6.2500000000000000E-002   0.0000000000000000     
   1.5000000000000000        6.2500000000000000E-002   0.0000000000000000     
   1.3750000000000000        9.3750000000000000E-002   0.0000000000000000     
   1.4062500000000000        9.3750000000000000E-002   0.0000000000000000     
   1.4375000000000000        9.3750000000000000E-002   0.0000000000000000     
   1.4687500000000000        9.3750000000000000E-002   0.0000000000000000     
   1.5000000000000000        9.3750000000000000E-002   0.0000000000000000     
   1.3750000000000000       0.12500000000000000        0.0000000000000000     
   1.4062500000000000       0.12500000000000000        0.0000000000000000     
   1.4375000000000000       0.12500000000000000        0.0000000000000000     
   1.4687500000000000       0.12500000000000000        0.0000000000000000     
   1.5000000000000000       0.12500000000000000        0.0000000000000000     
  0.50000000000000000       0.12500000000000000        0.0000000000000000     
  0.53125000000000000       0.12500000000000000        0.0000000000000000     
  0.56250000000000000       0.12500000000000000        0.0000000000000000     
  0.59375000000000000       0.12500000000000000        0.0000000000000000     
  0.62500000000000000       0.12500000000000000        0.0000000000000000     
  0.50000000000000000       0.15625000000000000        0.0000000000000000     
  0.53125000000000000       0.15625000000000000        0.0000000000000000     
  0.56250000000000000       0.15625000000000000        0.0000000000000000     
  0.59375000000000000       0.15625000000000000        0.0000000000000000     
  0.62500000000000000       0.15625000000000000        0.0000000000000000     
  0.50000000000000000       0.18750000000000000        0.0000000000000000     
  0.53125000000000000       0.18750000000000000        0.0000000000000000     
  0.56250000000000000       0.18750000000000000        0.0000000000000000     
  0.59375000000000000       0.18750000000000000        0.0000000000000000     
  0.62500000000000000       0.18750000000000000        0.0000000000000000     
  0.50000000000000000       0.21875000000000000        0.0000000000000000     
  0.53125000000000000       0.21875000000000000        0.0000000000000000     
  0.56250000000000000       0.21875000000000000        0.0000000000000000     
  0.59375000000000000       0.21875000000000000        0.0000000000000000     
  0.62500000000000000       0.21875000000000000        0.0000000000000000     
  0.50000000000000000       0.25000000000000000        0.0000000000000000     
  0.53125000000000000       0.25000000000000000        0.0000000000000000     
  0.56250000000000000       0.25000000000000000        0.0000000000000000     
  0.59375000000000000       0.25000000000000000        0.0000000000000000     
  0.62500000000000000       0.25000000000000000        0.0000000000000000     
  0.62500000000000000       0.12500000000000000        0.0000000000000000     
  0.65625000000000000       0.12500000000000000        0.0000000000000000     
  0.68750000000000000       0.12500000000000000        0.0000000000000000     
  0.71875000000000000       0.12500000000000000        0.0000000000000000     
  0.75000000000000000       0.12500000000000000        0.0000000000000000     
  0.62500000000000000       0.15625000000000000        0.0000000000000000     
  0.65625000000000000       0.15625000000000000        0.0000000000000000     
  0.68750000000000000       0.15625000000000000        0.0000000000000000     
  0.71875000000000000       0.15625000000000000        0.0000000000000000     
  0.75000000000000000       0.15625000000000000        0.0000000000000000     
  0.62500000000000000       0.18750000000000000        0.0000000000000000     
  0.65625000000000000       0.18750000000000000        0.0000000000000000     
  0.68750000000000000       0.18750000000000000        0.0000000000000000     
  0.71875000000000000       0.18750000000000000        0.0000000000000000     
  0.75000000000000000       0.18750000000000000        0.0000000000000000     
  0.62500000000000000       0.21875000000000000        0.0000000000000000     
  0.65625000000000000       0.21875000000000000        0.0000000000000000     
  0.68750000000000000       0.21875000000000000        0.0000000000000000     
  0.71875000000000000       0.21875000000000000        0.0000000000000000     
  0.75000000000000000       0.21875000000000000        0.0000000000000000     
  0.62500000000000000       0.25000000000000000        0.0000000000000000     
  0.65625000000000000       0.25000000000000000        0.0000000000000000     
  0.68750000000000000       0.25000000000000000        0.0000000000000000     
  0.71875000000000000       0.25000000000000000        0.0000000000000000     
  0.75000000000000000       0.25000000000000000        0.0000000000000000     
  0.75000000000000000       0.12500000000000000        0.0000000000000000     
  0.78125000000000000       0.12500000000000000        0.0000000000000000     
  0.81250000000000000       0.12500000000000000        0.0000000000000000     
  0.84375000000000000       0.12500000000000000        0.0000000000000000     
  0.87500000000000000       0.12500000000000000        0.0000000000000000     
  0.75000000000000000       0.15625000000000000        0.0000000000000000     
  0.78125000000000000       0.15625000000000000        0.0000000000000000     
  0.81250000000000000       0.15625000000000000        0.0000000000000000     
  0.84375000000000000       0.15625000000000000        0.0000000000000000     
  0.87500000000000000       0.15625000000000000        0.0000000000000000     
  0.75000000000000000       0.18750000000000000        0.0000000000000000     
  0.78125000000000000       0.18750000000000000        0.0000000000000000     
  0.81250000000000000       0.18750000000000000        0.0000000000000000     
  0.84375000000000000       0.18750000000000000        0.0000000000000000     
  0.87500000000000000       0.18750000000000000        0.0000000000000000     
  0.75000000000000000       0.21875000000000000        0.0000000000000000     
  0.78125000000000000       0.21875000000000000        0.0000000000000000     
  0.81250000000000000       0.21875000000000000        0.0000000000000000     
  0.84375000000000000       0.21875000000000000        0.0000000000000000     
  0.87500000000000000       0.21875000000000000        0.0000000000000000     
  0.75000000000000000       0.25000000000000000        0.0000000000000000     
  0.78125000000000000       0.25000000000000000        0.0000000000000000     
  0.81250000000000000       0.25000000000000000        0.0000000000000000     
  0.84375000000000000       0.25000000000000000        0.0000000000000000     
  0.87500000000000000       0.25000000000000000        0.0000000000000000     
  0.87500000000000000       0.12500000000000000        0.0000000000000000     
  0.90625000000000000       0.12500000000000000        0.0000000000000000     
  0.93750000000000000       0.12500000000000000        0.0000000000000000     
  0.96875000000000000       0.12500000000000000        0.0000000000000000     
   1.0000000000000000       0.12500000000000000        0.0000000000000000     
  0.87500000000000000       0.15625000000000000        0.0000000000000000     
  0.90625000000000000       0.15625000000000000        0.0000000000000000     
  0.93750000000000000       0.15625000000000000        0.0000000000000000     
  0.96875000000000000       0.15625000000000000        0.0000000000000000     
   1.0000000000000000       0.15625000000000000        0.0000000000000000     
  0.87500000000000000       0.18750000000000000        0.0000000000000000     
  0.90625000000000000       0.18750000000000000        0.0000000000000000     
  0.93750000000000000       0.18750000000000000        0.0000000000000000     
  0.96875000000000000       0.18750000000000000        0.0000000000000000     
   1.0000000000000000       0.18750000000000000        0.0000000000000000     
  0.87500000000000000       0.21875000000000000        0.0000000000000000     
  0.90625000000000000       0.21875000000000000        0.0000000000000000     
  0.93750000000000000       0.21875000000000000        0.0000000000000000     
  0.96875000000000000       0.21875000000000000        0.0000000000000000     
   1.0000000000000000       0.21875000000000000        0.0000000000000000     
  0.87500000000000000       0.25000000000000000        0.0000000000000000     
  0.90625000000000000       0.25000000000000000        0.0000000000000000     
  0.93750000000000000       0.25000000000000000        0.0000000000000000     
  0.96875000000000000       0.25000000000000000        0.0000000000000000     
   1.0000000000000000       0.25000000000000000        0.0000000000000000     
   1.0000000000000000       0.12500000000000000        0.0000000000000000     
   1.0312500000000000       0.12500000000000000        0.0000000000000000     
   1.0625000000000000       0.12500000000000000        0.0000000000000000     
   1.0937500000000000       0.12500000000000000        0.0000000000000000     
   1.1250000000000000       0.12500000000000000        0.0000000000000000     
   1.0000000000000000       0.15625000000000000        0.0000000000000000     
   1.0312500000000000       0.15625000000000000        0.0000000000000000     
   1.0625000000000000       0.15625000000000000        0.0000000000000000     
   1.0937500000000000       0.15625000000000000        0.0000000000000000     
   1.1250000000000000       0.15625000000000000        0.0000000000000000     
   1.0000000000000000       0.18750000000000000        0.0000000000000000     
   1.0312500000000000       0.18750000000000000        0.0000000000000000     
   1.0625000000000000       0.18750000000000000        0.0000000000000000     
   1.0937500000000000       0.18750000000000000        0.0000000000000000     
   1.1250000000000000       0.18750000000000000        0.0000000000000000     
   1.0000000000000000       0.21875000000000000        0.0000000000000000     
   1.0312500000000000       0.21875000000000000        0.0000000000000000     
   1.0625000000000000       0.21875000000000000        0.0000000000000000     
   1.0937500000000000       0.21875000000000000        0.0000000000000000     
   1.1250000000000000       0.21875000000000000        0.0000000000000000     
   1.0000000000000000       0.25000000000000000        0.0000000000000000     
   1.0312500000000000       0.25000000000000000        0.0000000000000000     
   1.0625000000000000       0.25000000000000000        0.0000000000000000     
   1.0937500000000000       0.25000000000000000        0.0000000000000000     
   1.1250000000000000       0.25000000000000000        0.0000000000000000     
   1.1250000000000000       0.12500000000000000        0.0000000000000000     
   1.1562500000000000       0.12500000000000000        0.0000000000000000     
   1.1875000000000000       0.12500000000000000        0.0000000000000000     
   1.2187500000000000       0.12500000000000000        0.0000000000000000     
   1.2500000000000000       0.12500000000000000        0.0000000000000000     
   1.1250000000000000       0.15625000000000000        0.0000000000000000     
   1.1562500000000000       0.15625000000000000        0.0000000000000000     
   1.1875000000000000       0.15625000000000000        0.0000000000000000     
   1.2187500000000000       0.15625000000000000        0.0000000000000000     
   1.2500000000000000       0.15625000000000000        0.0000000000000000     
   1.1250000000000000       0.18750000000000000        0.0000000000000000     
   1.1562500000000000       0.18750000000000000        0.0000000000000000     
   1.1875000000000000       0.18750000000000000        0.0000000000000000     
   1.2187500000000000       0.18750000000000000        0.0000000000000000     
   1.2500000000000000       0.18750000000000000        0.0000000000000000     
   1.1250000000000000       0.21875000000000000        0.0000000000000000     
   1.1562500000000000       0.21875000000000000        0.0000000000000000     
   1.1875000000000000       0.21875000000000000        0.0000000000000000     
   1.2187500000000000       0.21875000000000000        0.0000000000000000     
   1.2500000000000000       0.21875000000000000        0.0000000000000000     
   1.1250000000000000       0.25000000000000000        0.0000000000000000     
   1.1562500000000000       0.25000000000000000        0.0000000000000000     
   1.1875000000000000       0.25000000000000000        0.0000000000000000     
   1.2187500000000000       0.25000000000000000        0.0000000000000000     
   1.2500000000000000       0.25000000000000000        0.0000000000000000     
   1.2500000000000000       0.12500000000000000        0.0000000000000000     
   1.2812500000000000       0.12500000000000000        0.0000000000000000     
   1.3125000000000000       0.12500000000000000        0.0000000000000000     
   1.3437500000000000       0.12500000000000000        0.0000000000000000     
   1.3750000000000000       0.12500000000000000        0.0000000000000000     
   1.2500000000000000       0.15625000000000000        0.0000000000000000     
   1.2812500000000000       0.15625000000000000        0.0000000000000000     
   1.3125000000000000       0.15625000000000000        0.0000000000000000     
   1.3437500000000000       0.15625000000000000        0.0000000000000000     
   1.3750000000000000       0.15625000000000000        0.0000000000000000     
   1.2500000000000000       0.18750000000000000        0.0000000000000000     
   1.2812500000000000       0.18750000000000000        0.0000000000000000     
   1.3125000000000000       0.18750000000000000        0.0000000000000000     
   1.3437500000000000       0.18750000000000000        0.0000000000000000     
   1.3750000000000000       0.18750000000000000        0.0000000000000000     
   1.2500000000000000       0.21875000000000000        0.0000000000000000     
   1.2812500000000000       0.21875000000000000        0.0000000000000000     
   1.3125000000000000       0.21875000000000000        0.0000000000000000     
   1.3437500000000000       0.21875000000000000        0.0000000000000000     
   1.3750000000000000       0.21875000000000000        0.0000000000000000     
   1.2500000000000000       0.25000000000000000        0.0000000000000000     
   1.2812500000000000       0.25000000000000000        0.0000000000000000     
   1.3125000000000000       0.25000000000000000        0.0000000000000000     
   1.3437500000000000       0.25000000000000000        0.0000000000000000     
   1.3750000000000000       0.25000000000000000        0.0000000000000000     
   1.3750000000000000       0.12500000000000000        0.0000000000000000     
   1.4062500000000000       0.12500000000000000        0.0000000000000000     
   1.4375000000000000       0.12500000000000000        0.0000000000000000     
   1.4687500000000000       0.12500000000000000        0.0000000000000000     
   1.5000000000000000       0.12500000000000000        0.0000000000000000     
   1.3750000000000000       0.15625000000000000        0.0000000000000000     
   1.4062500000000000       0.15625000000000000        0.0000000000000000     
   1.4375000000000000       0.15625000000000000        0.0000000000000000     
   1.4687500000000000       0.15625000000000000        0.0000000000000000     
   1.5000000000000000       0.15625000000000000        0.0000000000000000     
   1.3750000000000000       0.18750000000000000        0.0000000000000000     
   1.4062500000000000       0.18750000000000000        0.0000000000000000     
   1.4375000000000000       0.18750000000000000        0.0000000000000000     
   1.4687500000000000       0.18750000000000000        0.0000000000000000     
   1.5000000000000000       0.18750000000000000        0.0000000000000000     
   1.3750000000000000       0.21875000000000000        0.0000000000000000     
   1.4062500000000000       0.21875000000000000        0.0000000000000000     
   1.4375000000000000       0.21875000000000000        0.0000000000000000     
   1.4687500000000000       0.21875000000000000        0.0000000000000000     
   1.5000000000000000       0.21875000000000000        0.0000000000000000     
   1.3750000000000000       0.25000000000000000        0.0000000000000000     
   1.4062500000000000       0.25000000000000000        0.0000000000000000     
   1.4375000000000000       0.25000000000000000        0.0000000000000000     
   1.4687500000000000       0.25000000000000000        0.0000000000000000     
   1.5000000000000000       0.25000000000000000        0.0000000000000000     
  0.50000000000000000       0.25000000000000000        0.0000000000000000     
  0.53125000000000000       0.25000000000000000        0.0000000000000000     
  0.56250000000000000       0.25000000000000000        0.0000000000000000     
  0.59375000000000000       0.25000000000000000        0.0000000000000000     
  0.62500000000000000       0.25000000000000000        0.0000000000000000     
  0.50000000000000000       0.28125000000000000        0.0000000000000000     
  0.53125000000000000       0.28125000000000000        0.0000000000000000     
  0.56250000000000000       0.28125000000000000        0.0000000000000000     
  0.59375000000000000       0.28125000000000000        0.0000000000000000     
  0.62500000000000000       0.28125000000000000        0.0000000000000000     
  0.50000000000000000       0.31250000000000000        0.0000000000000000     
  0.53125000000000000       0.31250000000000000        0.0000000000000000     
  0.56250000000000000       0.31250000000000000        0.0000000000000000     
  0.59375000000000000       0.31250000000000000        0.0000000000000000     
  0.62500000000000000       0.31250000000000000        0.0000000000000000     
  0.50000000000000000       0.34375000000000000        0.0000000000000000     
  0.53125000000000000       0.34375000000000000        0.0000000000000000     
  0.56250000000000000       0.34375000000000000        0.0000000000000000     
  0.59375000000000000       0.34375000000000000        0.0000000000000000     
  0.62500000000000000       0.34375000000000000        0.0000000000000000     
  0.50000000000000000       0.37500000000000000        0.0000000000000000     
  0.53125000000000000       0.37500000000000000        0.0000000000000000     
  0.56250000000000000       0.37500000000000000        0.0000000000000000     
  0.59375000000000000       0.37500000000000000        0.0000000000000000     
  0.62500000000000000       0.37500000000000000        0.0000000000000000     
  0.62500000000000000       0.25000000000000000        0.0000000000000000     
  0.65625000000000000       0.25000000000000000        0.0000000000000000     
  0.68750000000000000       0.25000000000000000        0.0000000000000000     
  0.71875000000000000       0.25000000000000000        0.0000000000000000     
  0.75000000000000000       0.25000000000000000        0.0000000000000000     
  0.62500000000000000       0.28125000000000000        0.0000000000000000     
  0.65625000000000000       0.28125000000000000        0.0000000000000000     
  0.68750000000000000       0.28125000000000000        0.0000000000000000     
  0.71875000000000000       0.28125000000000000        0.0000000000000000     
  0.75000000000000000       0.28125000000000000        0.0000000000000000     
  0.62500000000000000       0.31250000000000000        0.0000000000000000     
  0.65625000000000000       0.31250000000000000        0.0000000000000000     
  0.68750000000000000       0.31250000000000000        0.0000000000000000     
  0.71875000000000000       0.31250000000000000        0.0000000000000000     
  0.75000000000000000       0.31250000000000000        0.0000000000000000     
  0.62500000000000000       0.34375000000000000        0.0000000000000000     
  0.65625000000000000       0.34375000000000000        0.0000000000000000     
  0.68750000000000000       0.34375000000000000        0.0000000000000000     
  0.71875000000000000       0.34375000000000000        0.0000000000000000     
  0.75000000000000000       0.34375000000000000        0.0000000000000000     
  0.62500000000000000       0.37500000000000000        0.0000000000000000     
  0.65625000000000000       0.37500000000000000        0.0000000000000000     
  0.68750000000000000       0.37500000000000000        0.0000000000000000     
  0.71875000000000000       0.37500000000000000        0.0000000000000000     
  0.75000000000000000       0.37500000000000000        0.0000000000000000     
  0.75000000000000000       0.25000000000000000        0.0000000000000000     
  0.78125000000000000       0.25000000000000000        0.0000000000000000     
  0.81250000000000000       0.25000000000000000        0.0000000000000000     
  0.84375000000000000       0.25000000000000000        0.0000000000000000     
  0.87500000000000000       0.25000000000000000        0.0000000000000000     
  0.75000000000000000       0.28125000000000000        0.0000000000000000     
  0.78125000000000000       0.28125000000000000        0.0000000000000000     
  0.81250000000000000       0.28125000000000000        0.0000000000000000     
  0.84375000000000000       0.28125000000000000        0.0000000000000000     
  0.87500000000000000       0.28125000000000000        0.0000000000000000     
  0.75000000000000000       0.31250000000000000        0.0000000000000000     
  0.78125000000000000       0.31250000000000000        0.0000000000000000     
  0.81250000000000000       0.31250000000000000        0.0000000000000000     
  0.84375000000000000       0.31250000000000000        0.0000000000000000     
  0.87500000000000000       0.31250000000000000        0.0000000000000000     
  0.75000000000000000       0.34375000000000000        0.0000000000000000     
  0.78125000000000000       0.34375000000000000        0.0000000000000000     
  0.81250000000000000       0.34375000000000000        0.0000000000000000     
  0.84375000000000000       0.34375000000000000        0.0000000000000000     
  0.87500000000000000       0.34375000000000000        0.0000000000000000     
  0.75000000000000000       0.37500000000000000        0.0000000000000000     
  0.78125000000000000       0.37500000000000000        0.0000000000000000     
  0.81250000000000000       0.37500000000000000        0.0000000000000000     
  0.84375000000000000       0.37500000000000000        0.0000000000000000     
  0.87500000000000000       0.37500000000000000        0.0000000000000000     
  0.87500000000000000       0.25000000000000000        0.0000000000000000     
  0.90625000000000000       0.25000000000000000        0.0000000000000000     
  0.93750000000000000       0.25000000000000000        0.0000000000000000     
  0.96875000000000000       0.25000000000000000        0.0000000000000000     
   1.0000000000000000       0.25000000000000000        0.0000000000000000     
  0.87500000000000000       0.28125000000000000        0.0000000000000000     
  0.90625000000000000       0.28125000000000000        0.0000000000000000     
  0.93750000000000000       0.28125000000000000        0.0000000000000000     
  0.96875000000000000       0.28125000000000000        0.0000000000000000     
   1.0000000000000000       0.28125000000000000        0.0000000000000000     
  0.87500000000000000       0.31250000000000000        0.0000000000000000     
  0.90625000000000000       0.31250000000000000        0.0000000000000000     
  0.93750000000000000       0.31250000000000000        0.0000000000000000     
  0.96875000000000000       0.31250000000000000        0.0000000000000000     
   1.0000000000000000       0.31250000000000000        0.0000000000000000     
  0.87500000000000000       0.34375000000000000        0.0000000000000000     
  0.90625000000000000       0.34375000000000000        0.0000000000000000     
  0.93750000000000000       0.34375000000000000        0.0000000000000000     
  0.96875000000000000       0.34375000000000000        0.0000000000000000     
   1.0000000000000000       0.34375000000000000        0.0000000000000000     
  0.87500000000000000       0.37500000000000000        0.0000000000000000     
  0.90625000000000000       0.37500000000000000        0.0000000000000000     
  0.93750000000000000       0.37500000000000000        0.0000000000000000     
  0.96875000000000000       0.37500000000000000        0.0000000000000000     
   1.0000000000000000       0.37500000000000000        0.0000000000000000     
   1.0000000000000000       0.25000000000000000        0.0000000000000000     
   1.0312500000000000       0.25000000000000000        0.0000000000000000     
   1.0625000000000000       0.25000000000000000        0.0000000000000000     
   1.0937500000000000       0.25000000000000000        0.0000000000000000     
   1.1250000000000000       0.25000000000000000        0.0000000000000000     
   1.0000000000000000       0.28125000000000000        0.0000000000000000     
   1.0312500000000000       0.28125000000000000        0.0000000000000000     
   1.0625000000000000       0.28125000000000000        0.0000000000000000     
   1.0937500000000000       0.28125000000000000        0.0000000000000000     
   1.1250000000000000       0.28125000000000000        0.0000000000000000     
   1.0000000000000000       0.31250000000000000        0.0000000000000000     
   1.0312500000000000       0.31250000000000000        0.0000000000000000     
   1.0625000000000000       0.31250000000000000        0.0000000000000000     
   1.0937500000000000       0.31250000000000000        0.0000000000000000     
   1.1250000000000000       0.31250000000000000        0.0000000000000000     
   1.0000000000000000       0.34375000000000000        0.0000000000000000     
   1.0312500000000000       0.34375000000000000        0.0000000000000000     
   1.0625000000000000       0.34375000000000000        0.0000000000000000     
   1.0937500000000000       0.34375000000000000        0.0000000000000000     
   1.1250000000000000       0.34375000000000000        0.0000000000000000     
   1.0000000000000000       0.37500000000000000        0.0000000000000000     
   1.0312500000000000       0.37500000000000000        0.0000000000000000     
   1.0625000000000000       0.37500000000000000        0.0000000000000000     
   1.0937500000000000       0.37500000000000000        0.0000000000000000     
   1.1250000000000000       0.37500000000000000        0.0000000000000000     
   1.1250000000000000       0.25000000000000000        0.0000000000000000     
   1.1562500000000000       0.25000000000000000        0.0000000000000000     
   1.1875000000000000       0.25000000000000000        0.0000000000000000     
   1.2187500000000000       0.25000000000000000        0.0000000000000000     
   1.2500000000000000       0.25000000000000000        0.0000000000000000     
   1.1250000000000000       0.28125000000000000        0.0000000000000000     
   1.1562500000000000       0.28125000000000000        0.0000000000000000     
   1.1875000000000000       0.28125000000000000        0.0000000000000000     
   1.2187500000000000       0.28125000000000000        0.0000000000000000     
   1.2500000000000000       0.28125000000000000        0.0000000000000000     
   1.1250000000000000       0.31250000000000000        0.0000000000000000     
   1.1562500000000000       0.31250000000000000        0.0000000000000000     
   1.1875000000000000       0.31250000000000000        0.0000000000000000     
   1.2187500000000000       0.31250000000000000        0.0000000000000000     
   1.2500000000000000       0.31250000000000000        0.0000000000000000     
   1.1250000000000000       0.34375000000000000        0.0000000000000000     
   1.1562500000000000       0.34375000000000000        0.0000000000000000     
   1.1875000000000000       0.34375000000000000        0.0000000000000000     
   1.2187500000000000       0.34375000000000000        0.0000000000000000     
   1.2500000000000000       0.34375000000000000        0.0000000000000000     
   1.1250000000000000       0.37500000000000000        0.0000000000000000     
   1.1562500000000000       0.37500000000000000        0.0000000000000000     
   1.1875000000000000       0.37500000000000000        0.0000000000000000     
   1.2187500000000000       0.37500000000000000        0.0000000000000000     
   1.2500000000000000       0.37500000000000000        0.0000000000000000     
   1.2500000000000000       0.25000000000000000        0.0000000000000000     
   1.2812500000000000       0.25000000000000000        0.0000000000000000     
   1.3125000000000000       0.25000000000000000        0.0000000000000000     
   1.3437500000000000       0.25000000000000000        0.0000000000000000     
   1.3750000000000000       0.25000000000000000        0.0000000000000000     
   1.2500000000000000       0.28125000000000000        0.0000000000000000     
   1.2812500000000000       0.28125000000000000        0.0000000000000000     
   1.3125000000000000       0.28125000000000000        0.0000000000000000     
   1.3437500000000000       0.28125000000000000        0.0000000000000000     
   1.3750000000000000       0.28125000000000000        0.0000000000000000     
   1.2500000000000000       0.31250000000000000        0.0000000000000000     
   1.2812500000000000       0.31250000000000000        0.0000000000000000     
   1.3125000000000000       0.31250000000000000        0.0000000000000000     
   1.3437500000000000       0.31250000000000000        0.0000000000000000     
   1.3750000000000000       0.31250000000000000        0.0000000000000000     
   1.2500000000000000       0.34375000000000000        0.0000000000000000     
   1.2812500000000000       0.34375000000000000        0.0000000000000000     
   1.3125000000000000       0.34375000000000000        0.0000000000000000     
   1.3437500000000000       0.34375000000000000        0.0000000000000000     
   1.3750000000000000       0.34375000000000000        0.0000000000000000     
   1.2500000000000000       0.37500000000000000        0.0000000000000000     
   1.2812500000000000       0.37500000000000000        0.0000000000000000     
   1.3125000000000000       0.37500000000000000        0.0000000000000000     
   1.3437500000000000       0.37500000000000000        0.0000000000000000     
   1.3750000000000000       0.37500000000000000        0.0000000000000000     
   1.3750000000000000       0.25000000000000000        0.0000000000000000     
   1.4062500000000000       0.25000000000000000        0.0000000000000000     
   1.4375000000000000       0.25000000000000000        0.0000000000000000     
   1.4687500000000000       0.25000000000000000        0.0000000000000000     
   1.5000000000000000       0.25000000000000000        0.0000000000000000     
   1.3750000000000000       0.28125000000000000        0.0000000000000000     
   1.4062500000000000       0.28125000000000000        0.0000000000000000     
   1.4375000000000000       0.28125000000000000        0.0000000000000000     
   1.4687500000000000       0.28125000000000000        0.0000000000000000     
   1.5000000000000000       0.28125000000000000        0.0000000000000000     
   1.3750000000000000       0.31250000000000000        0.0000000000000000     
   1.4062500000000000       0.31250000000000000        0.0000000000000000     
   1.4375000000000000       0.31250000000000000        0.0000000000000000     
   1.4687500000000000       0.31250000000000000        0.0000000000000000     
   1.5000000000000000       0.31250000000000000        0.0000000000000000     
   1.3750000000000000       0.34375000000000000        0.0000000000000000     
   1.4062500000000000       0.34375000000000000        0.0000000000000000     
   1.4375000000000000       0.34375000000000000        0.0000000000000000     
   1.4687500000000000       0.34375000000000000        0.0000000000000000     
   1.5000000000000000       0.34375000000000000        0.0000000000000000     
   1.3750000000000000       0.37500000000000000        0.0000000000000000     
   1.4062500000000000       0.37500000000000000        0.0000000000000000     
   1.4375000000000000       0.37500000000000000        0.0000000000000000     
   1.4687500000000000       0.37500000000000000        0.0000000000000000     
   1.5000000000000000       0.37500000000000000        0.0000000000000000     
  0.50000000000000000       0.37500000000000000        0.0000000000000000     
  0.53125000000000000       0.37500000000000000        0.0000000000000000     
  0.56250000000000000       0.37500000000000000        0.0000000000000000     
  0.59375000000000000       0.37500000000000000        0.0000000000000000     
  0.62500000000000000       0.37500000000000000        0.0000000000000000     
  0.50000000000000000       0.40625000000000000        0.0000000000000000     
  0.53125000000000000       0.40625000000000000        0.0000000000000000     
  0.56250000000000000       0.40625000000000000        0.0000000000000000     
  0.59375000000000000       0.40625000000000000        0.0000000000000000     
  0.62500000000000000       0.40625000000000000        0.0000000000000000     
  0.50000000000000000       0.43750000000000000        0.0000000000000000     
  0.53125000000000000       0.43750000000000000        0.0000000000000000     
  0.56250000000000000       0.43750000000000000        0.0000000000000000     
  0.59375000000000000       0.43750000000000000        0.0000000000000000     
  0.62500000000000000       0.43750000000000000        0.0000000000000000     
  0.50000000000000000       0.46875000000000000        0.0000000000000000     
  0.53125000000000000       0.46875000000000000        0.0000000000000000     
  0.56250000000000000       0.46875000000000000        0.0000000000000000     
  0.59375000000000000       0.46875000000000000        0.0000000000000000     
  0.62500000000000000       0.46875000000000000        0.0000000000000000     
  0.50000000000000000       0.50000000000000000        0.0000000000000000     
  0.53125000000000000       0.50000000000000000        0.0000000000000000     
  0.56250000000000000       0.50000000000000000        0.0000000000000000     
  0.59375000000000000       0.50000000000000000        0.0000000000000000     
  0.62500000000000000       0.50000000000000000        0.0000000000000000     
  0.62500000000000000       0.37500000000000000        0.0000000000000000     
  0.65625000000000000       0.37500000000000000        0.0000000000000000     
  0.68750000000000000       0.37500000000000000        0.0000000000000000     
  0.71875000000000000       0.37500000000000000        0.0000000000000000     
  0.75000000000000000       0.37500000000000000        0.0000000000000000     
  0.62500000000000000       0.40625000000000000        0.0000000000000000     
  0.65625000000000000       0.40625000000000000        0.0000000000000000     
  0.68750000000000000       0.40625000000000000        0.0000000000000000     
  0.71875000000000000       0.40625000000000000        0.0000000000000000     
  0.75000000000000000       0.40625000000000000        0.0000000000000000     
  0.62500000000000000       0.43750000000000000        0.0000000000000000     
  0.65625000000000000       0.43750000000000000        0.0000000000000000     
  0.68750000000000000       0.43750000000000000        0.0000000000000000     
  0.71875000000000000       0.43750000000000000        0.0000000000000000     
  0.75000000000000000       0.43750000000000000        0.0000000000000000     
  0.62500000000000000       0.46875000000000000        0.0000000000000000     
  0.65625000000000000       0.46875000000000000        0.0000000000000000     
  0.68750000000000000       0.46875000000000000        0.0000000000000000     
  0.71875000000000000       0.46875000000000000        0.0000000000000000     
  0.75000000000000000       0.46875000000000000        0.0000000000000000     
  0.62500000000000000       0.50000000000000000        0.0000000000000000     
  0.65625000000000000       0.50000000000000000        0.0000000000000000     
  0.68750000000000000       0.50000000000000000        0.0000000000000000     
  0.71875000000000000       0.50000000000000000        0.0000000000000000     
  0.75000000000000000       0.50000000000000000        0.0000000000000000     
  0.75000000000000000       0.37500000000000000        0.0000000000000000     
  0.78125000000000000       0.37500000000000000        0.0000000000000000     
  0.81250000000000000       0.37500000000000000        0.0000000000000000     
  0.84375000000000000       0.37500000000000000        0.0000000000000000     
  0.87500000000000000       0.37500000000000000        0.0000000000000000     
  0.75000000000000000       0.40625000000000000        0.0000000000000000     
  0.78125000000000000       0.40625000000000000        0.0000000000000000     
  0.81250000000000000       0.40625000000000000        0.0000000000000000     
  0.84375000000000000       0.40625000000000000        0.0000000000000000     
  0.87500000000000000       0.40625000000000000        0.0000000000000000     
  0.75000000000000000       0.43750000000000000        0.0000000000000000     
  0.78125000000000000       0.43750000000000000        0.0000000000000000     
  0.81250000000000000       0.43750000000000000        0.0000000000000000     
  0.84375000000000000       0.43750000000000000        0.0000000000000000     
  0.87500000000000000       0.43750000000000000        0.0000000000000000     
  0.75000000000000000       0.46875000000000000        0.0000000000000000     
  0.78125000000000000       0.46875000000000000        0.0000000000000000     
  0.81250000000000000       0.46875000000000000        0.0000000000000000     
  0.84375000000000000       0.46875000000000000        0.0000000000000000     
  0.87500000000000000       0.46875000000000000        0.0000000000000000     
  0.75000000000000000       0.50000000000000000        0.0000000000000000     
  0.78125000000000000       0.50000000000000000        0.0000000000000000     
  0.81250000000000000       0.50000000000000000        0.0000000000000000     
  0.84375000000000000       0.50000000000000000        0.0000000000000000     
  0.87500000000000000       0.50000000000000000        0.0000000000000000     
  0.87500000000000000       0.37500000000000000        0.0000000000000000     
  0.90625000000000000       0.37500000000000000        0.0000000000000000     
  0.93750000000000000       0.37500000000000000        0.0000000000000000     
  0.96875000000000000       0.37500000000000000        0.0000000000000000     
   1.0000000000000000       0.37500000000000000        0.0000000000000000     
  0.87500000000000000       0.40625000000000000        0.0000000000000000     
  0.90625000000000000       0.40625000000000000        0.0000000000000000     
  0.93750000000000000       0.40625000000000000        0.0000000000000000     
  0.96875000000000000       0.40625000000000000        0.0000000000000000     
   1.0000000000000000       0.40625000000000000        0.0000000000000000     
  0.87500000000000000       0.43750000000000000        0.0000000000000000     
  0.90625000000000000       0.43750000000000000        0.0000000000000000     
  0.93750000000000000       0.43750000000000000        0.0000000000000000     
  0.96875000000000000       0.43750000000000000        0.0000000000000000     
   1.0000000000000000       0.43750000000000000        0.0000000000000000     
  0.87500000000000000       0.46875000000000000        0.0000000000000000     
  0.90625000000000000       0.46875000000000000        0.0000000000000000     
  0.93750000000000000       0.46875000000000000        0.0000000000000000     
  0.96875000000000000       0.46875000000000000        0.0000000000000000     
   1.0000000000000000       0.46875000000000000        0.0000000000000000     
  0.87500000000000000       0.50000000000000000        0.0000000000000000     
  0.90625000000000000       0.50000000000000000        0.0000000000000000     
  0.93750000000000000       0.50000000000000000        0.0000000000000000     
  0.96875000000000000       0.50000000000000000        0.0000000000000000     
   1.0000000000000000       0.50000000000000000        0.0000000000000000     
   1.0000000000000000       0.37500000000000000        0.0000000000000000     
   1.0312500000000000       0.37500000000000000        0.0000000000000000     
   1.0625000000000000       0.37500000000000000        0.0000000000000000     
   1.0937500000000000       0.37500000000000000        0.0000000000000000     
   1.1250000000000000       0.37500000000000000        0.0000000000000000     
   1.0000000000000000       0.40625000000000000        0.0000000000000000     
   1.0312500000000000       0.40625000000000000        0.0000000000000000     
   1.0625000000000000       0.40625000000000000        0.0000000000000000     
   1.0937500000000000       0.40625000000000000        0.0000000000000000     
   1.1250000000000000       0.40625000000000000        0.0000000000000000     
   1.0000000000000000       0.43750000000000000        0.0000000000000000     
   1.0312500000000000       0.43750000000000000        0.0000000000000000     
   1.0625000000000000       0.43750000000000000        0.0000000000000000     
   1.0937500000000000       0.43750000000000000        0.0000000000000000     
   1.1250000000000000       0.43750000000000000        0.0000000000000000     
   1.0000000000000000       0.46875000000000000        0.0000000000000000     
   1.0312500000000000       0.46875000000000000        0.0000000000000000     
   1.0625000000000000       0.46875000000000000        0.0000000000000000     
   1.0937500000000000       0.46875000000000000        0.0000000000000000     
   1.1250000000000000       0.46875000000000000        0.0000000000000000     
   1.0000000000000000       0.50000000000000000        0.0000000000000000     
   1.0312500000000000       0.50000000000000000        0.0000000000000000     
   1.0625000000000000       0.50000000000000000        0.0000000000000000     
   1.0937500000000000       0.50000000000000000        0.0000000000000000     
   1.1250000000000000       0.50000000000000000        0.0000000000000000     
   1.1250000000000000       0.37500000000000000        0.0000000000000000     
   1.1562500000000000       0.37500000000000000        0.0000000000000000     
   1.1875000000000000       0.37500000000000000        0.0000000000000000     
   1.2187500000000000       0.37500000000000000        0.0000000000000000     
   1.2500000000000000       0.37500000000000000        0.0000000000000000     
   1.1250000000000000       0.40625000000000000        0.0000000000000000     
   1.1562500000000000       0.40625000000000000        0.0000000000000000     
   1.1875000000000000       0.40625000000000000        0.0000000000000000     
   1.2187500000000000       0.40625000000000000        0.0000000000000000     
   1.2500000000000000       0.40625000000000000        0.0000000000000000     
   1.1250000000000000       0.43750000000000000        0.0000000000000000     
   1.1562500000000000       0.43750000000000000        0.0000000000000000     
   1.1875000000000000       0.43750000000000000        0.0000000000000000     
   1.2187500000000000       0.43750000000000000        0.0000000000000000     
   1.2500000000000000       0.43750000000000000        0.0000000000000000     
   1.1250000000000000       0.46875000000000000        0.0000000000000000     
   1.1562500000000000       0.46875000000000000        0.0000000000000000     
   1.1875000000000000       0.46875000000000000        0.0000000000000000     
   1.2187500000000000       0.46875000000000000        0.0000000000000000     
   1.2500000000000000       0.46875000000000000        0.0000000000000000     
   1.1250000000000000       0.50000000000000000        0.0000000000000000     
   1.1562500000000000       0.50000000000000000        0.0000000000000000     
   1.1875000000000000       0.50000000000000000        0.0000000000000000     
   1.2187500000000000       0.50000000000000000        0.0000000000000000     
   1.2500000000000000       0.50000000000000000        0.0000000000000000     
   1.2500000000000000       0.37500000000000000        0.0000000000000000     
   1.2812500000000000       0.37500000000000000        0.0000000000000000     
   1.3125000000000000       0.37500000000000000        0.0000000000000000     
   1.3437500000000000       0.37500000000000000        0.0000000000000000     
   1.3750000000000000       0.37500000000000000        0.0000000000000000     
   1.2500000000000000       0.40625000000000000        0.0000000000000000     
   1.2812500000000000       0.40625000000000000        0.0000000000000000     
   1.3125000000000000       0.40625000000000000        0.0000000000000000     
   1.3437500000000000       0.40625000000000000        0.0000000000000000     
   1.3750000000000000       0.40625000000000000        0.0000000000000000     
   1.2500000000000000       0.43750000000000000        0.0000000000000000     
   1.2812500000000000       0.43750000000000000        0.0000000000000000     
   1.3125000000000000       0.43750000000000000        0.0000000000000000     
   1.3437500000000000       0.43750000000000000        0.0000000000000000     
   1.3750000000000000       0.43750000000000000        0.0000000000000000     
   1.2500000000000000       0.46875000000000000        0.0000000000000000     
   1.2812500000000000       0.46875000000000000        0.0000000000000000     
   1.3125000000000000       0.46875000000000000        0.0000000000000000     
   1.3437500000000000       0.46875000000000000        0.0000000000000000     
   1.3750000000000000       0.46875000000000000        0.0000000000000000     
   1.2500000000000000       0.50000000000000000        0.0000000000000000     
   1.2812500000000000       0.50000000000000000        0.0000000000000000     
   1.3125000000000000       0.50000000000000000        0.0000000000000000     
   1.3437500000000000       0.50000000000000000        0.0000000000000000     
   1.3750000000000000       0.50000000000000000        0.0000000000000000     
   1.3750000000000000       0.37500000000000000        0.0000000000000000     
   1.4062500000000000       0.37500000000000000        0.0000000000000000     
   1.4375000000000000       0.37500000000000000        0.0000000000000000     
   1.4687500000000000       0.37500000000000000        0.0000000000000000     
   1.5000000000000000       0.37500000000000000        0.0000000000000000     
   1.3750000000000000       0.40625000000000000        0.0000000000000000     
   1.4062500000000000       0.40625000000000000        0.0000000000000000     
   1.4375000000000000       0.40625000000000000        0.0000000000000000     
   1.4687500000000000       0.40625000000000000        0.0000000000000000     
   1.5000000000000000       0.40625000000000000        0.0000000000000000     
   1.3750000000000000       0.43750000000000000        0.0000000000000000     
   1.4062500000000000       0.43750000000000000        0.0000000000000000     
   1.4375000000000000       0.43750000000000000        0.0000000000000000     
   1.4687500000000000       0.43750000000000000        0.0000000000000000     
   1.5000000000000000       0.43750000000000000        0.0000000000000000     
   1.3750000000000000       0.46875000000000000        0.0000000000000000     
   1.4062500000000000       0.46875000000000000        0.0000000000000000     
   1.4375000000000000       0.46875000000000000        0.0000000000000000     
   1.4687500000000000       0.46875000000000000        0.0000000000000000     
   1.5000000000000000       0.46875000000000000        0.0000000000000000     
   1.3750000000000000       0.50000000000000000        0.0000000000000000     
   1.4062500000000000       0.50000000000000000        0.0000000000000000     
   1.4375000000000000       0.50000000000000000        0.0000000000000000     
   1.4687500000000000       0.50000000000000000        0.0000000000000000     
   1.5000000000000000       0.50000000000000000        0.0000000000000000     
  0.50000000000000000       0.50000000000000000        0.0000000000000000     
  0.53125000000000000       0.50000000000000000        0.0000000000000000     
  0.56250000000000000       0.50000000000000000        0.0000000000000000     
  0.59375000000000000       0.50000000000000000        0.0000000000000000     
  0.62500000000000000       0.50000000000000000        0.0000000000000000     
  0.50000000000000000       0.53125000000000000        0.0000000000000000     
  0.53125000000000000       0.53125000000000000        0.0000000000000000     
  0.56250000000000000       0.53125000000000000        0.0000000000000000     
  0.59375000000000000       0.53125000000000000        0.0000000000000000     
  0.62500000000000000       0.53125000000000000        0.0000000000000000     
  0.50000000000000000       0.56250000000000000        0.0000000000000000     
  0.53125000000000000       0.56250000000000000        0.0000000000000000     
  0.56250000000000000       0.56250000000000000        0.0000000000000000     
  0.59375000000000000       0.56250000000000000        0.0000000000000000     
  0.62500000000000000       0.56250000000000000        0.0000000000000000     
  0.50000000000000000       0.59375000000000000        0.0000000000000000     
  0.53125000000000000       0.59375000000000000        0.0000000000000000     
  0.56250000000000000       0.59375000000000000        0.0000000000000000     
  0.59375000000000000       0.59375000000000000        0.0000000000000000     
  0.62500000000000000       0.59375000000000000        0.0000000000000000     
  0.50000000000000000       0.62500000000000000        0.0000000000000000     
  0.53125000000000000       0.62500000000000000        0.0000000000000000     
  0.56250000000000000       0.62500000000000000        0.0000000000000000     
  0.59375000000000000       0.62500000000000000        0.0000000000000000     
  0.62500000000000000       0.62500000000000000        0.0000000000000000     
  0.62500000000000000       0.50000000000000000        0.0000000000000000     
  0.65625000000000000       0.50000000000000000        0.0000000000000000     
  0.68750000000000000       0.50000000000000000        0.0000000000000000     
  0.71875000000000000       0.50000000000000000        0.0000000000000000     
  0.75000000000000000       0.50000000000000000        0.0000000000000000     
  0.62500000000000000       0.53125000000000000        0.0000000000000000     
  0.65625000000000000       0.53125000000000000        0.0000000000000000     
  0.68750000000000000       0.53125000000000000        0.0000000000000000     
  0.71875000000000000       0.53125000000000000        0.0000000000000000     
  0.75000000000000000       0.53125000000000000        0.0000000000000000     
  0.62500000000000000       0.56250000000000000        0.0000000000000000     
  0.65625000000000000       0.56250000000000000        0.0000000000000000     
  0.68750000000000000       0.56250000000000000        0.0000000000000000     
  0.71875000000000000       0.56250000000000000        0.0000000000000000     
  0.75000000000000000       0.56250000000000000        0.0000000000000000     
  0.62500000000000000       0.59375000000000000        0.0000000000000000     
  0.65625000000000000       0.59375000000000000        0.0000000000000000     
  0.68750000000000000       0.59375000000000000        0.0000000000000000     
  0.71875000000000000       0.59375000000000000        0.0000000000000000     
  0.75000000000000000       0.59375000000000000        0.0000000000000000     
  0.62500000000000000       0.62500000000000000        0.0000000000000000     
  0.65625000000000000       0.62500000000000000        0.0000000000000000     
  0.68750000000000000       0.62500000000000000        0.0000000000000000     
  0.71875000000000000       0.62500000000000000        0.0000000000000000     
  0.75000000000000000       0.62500000000000000        0.0000000000000000     
  0.75000000000000000       0.50000000000000000        0.0000000000000000     
  0.78125000000000000       0.50000000000000000        0.0000000000000000     
  0.81250000000000000       0.50000000000000000        0.0000000000000000     
  0.84375000000000000       0.50000000000000000        0.0000000000000000     
  0.87500000000000000       0.50000000000000000        0.0000000000000000     
  0.75000000000000000       0.53125000000000000        0.0000000000000000     
  0.78125000000000000       0.53125000000000000        0.0000000000000000     
  0.81250000000000000       0.53125000000000000        0.0000000000000000     
  0.84375000000000000       0.53125000000000000        0.0000000000000000     
  0.87500000000000000       0.53125000000000000        0.0000000000000000     
  0.75000000000000000       0.56250000000000000        0.0000000000000000     
  0.78125000000000000       0.56250000000000000        0.0000000000000000     
  0.81250000000000000       0.56250000000000000        0.0000000000000000     
  0.84375000000000000       0.56250000000000000        0.0000000000000000     
  0.87500000000000000       0.56250000000000000        0.0000000000000000     
  0.75000000000000000       0.59375000000000000        0.0000000000000000     
  0.78125000000000000       0.59375000000000000        0.0000000000000000     
  0.81250000000000000       0.59375000000000000        0.0000000000000000     
  0.84375000000000000       0.59375000000000000        0.0000000000000000     
  0.87500000000000000       0.59375000000000000        0.0000000000000000     
  0.75000000000000000       0.62500000000000000        0.0000000000000000     
  0.78125000000000000       0.62500000000000000        0.0000000000000000     
  0.81250000000000000       0.62500000000000000        0.0000000000000000     
  0.84375000000000000       0.62500000000000000        0.0000000000000000     
  0.87500000000000000       0.62500000000000000        0.0000000000000000     
  0.87500000000000000       0.50000000000000000        0.0000000000000000     
  0.90625000000000000       0.50000000000000000        0.0000000000000000     
  0.93750000000000000       0.50000000000000000        0.0000000000000000     
  0.96875000000000000       0.50000000000000000        0.0000000000000000     
   1.0000000000000000       0.50000000000000000        0.0000000000000000     
  0.87500000000000000       0.53125000000000000        0.0000000000000000     
  0.90625000000000000       0.53125000000000000        0.0000000000000000     
  0.93750000000000000       0.53125000000000000        0.0000000000000000     
  0.96875000000000000       0.53125000000000000        0.0000000000000000     
   1.0000000000000000       0.53125000000000000        0.0000000000000000     
  0.87500000000000000       0.56250000000000000        0.0000000000000000     
  0.90625000000000000       0.56250000000000000        0.0000000000000000     
  0.93750000000000000       0.56250000000000000        0.0000000000000000     
  0.96875000000000000       0.56250000000000000        0.0000000000000000     
   1.0000000000000000       0.56250000000000000        0.0000000000000000     
  0.87500000000000000       0.59375000000000000        0.0000000000000000     
  0.90625000000000000       0.59375000000000000        0.0000000000000000     
  0.93750000000000000       0.59375000000000000        0.0000000000000000     
  0.96875000000000000       0.59375000000000000        0.0000000000000000     
   1.0000000000000000       0.59375000000000000        0.0000000000000000     
  0.87500000000000000       0.62500000000000000        0.0000000000000000     
  0.90625000000000000       0.62500000000000000        0.0000000000000000     
  0.93750000000000000       0.62500000000000000        0.0000000000000000     
  0.96875000000000000       0.62500000000000000        0.0000000000000000     
   1.0000000000000000       0.62500000000000000        0.0000000000000000     
   1.0000000000000000       0.50000000000000000        0.0000000000000000     
   1.0312500000000000       0.50000000000000000        0.0000000000000000     
   1.0625000000000000       0.50000000000000000        0.0000000000000000     
   1.0937500000000000       0.50000000000000000        0.0000000000000000     
   1.1250000000000000       0.50000000000000000        0.0000000000000000     
   1.0000000000000000       0.53125000000000000        0.0000000000000000     
   1.0312500000000000       0.53125000000000000        0.0000000000000000     
   1.0625000000000000       0.53125000000000000        0.0000000000000000     
   1.0937500000000000       0.53125000000000000        0.0000000000000000     
   1.1250000000000000       0.53125000000000000        0.0000000000000000     
   1.0000000000000000       0.56250000000000000        0.0000000000000000     
   1.0312500000000000       0.56250000000000000        0.0000000000000000     
   1.0625000000000000       0.56250000000000000        0.0000000000000000     
   1.0937500000000000       0.56250000000000000        0.0000000000000000     
   1.1250000000000000       0.56250000000000000        0.0000000000000000     
   1.0000000000000000       0.59375000000000000        0.0000000000000000     
   1.0312500000000000       0.59375000000000000        0.0000000000000000     
   1.0625000000000000       0.59375000000000000        0.0000000000000000     
   1.0937500000000000       0.59375000000000000        0.0000000000000000     
   1.1250000000000000       0.59375000000000000        0.0000000000000000     
   1.0000000000000000       0.62500000000000000        0.0000000000000000     
   1.0312500000000000       0.62500000000000000        0.0000000000000000     
   1.0625000000000000       0.62500000000000000        0.0000000000000000     
   1.0937500000000000       0.62500000000000000        0.0000000000000000     
   1.1250000000000000       0.62500000000000000        0.0000000000000000     
   1.1250000000000000       0.50000000000000000        0.0000000000000000     
   1.1562500000000000       0.50000000000000000        0.0000000000000000     
   1.1875000000000000       0.50000000000000000        0.0000000000000000     
   1.2187500000000000       0.50000000000000000        0.0000000000000000     
   1.2500000000000000       0.50000000000000000        0.0000000000000000     
   1.1250000000000000       0.53125000000000000        0.0000000000000000     
   1.1562500000000000       0.53125000000000000        0.0000000000000000     
   1.1875000000000000       0.53125000000000000        0.0000000000000000     
   1.2187500000000000       0.53125000000000000        0.0000000000000000     
   1.2500000000000000       0.53125000000000000        0.0000000000000000     
   1.1250000000000000       0.56250000000000000        0.0000000000000000     
   1.1562500000000000       0.56250000000000000        0.0000000000000000     
   1.1875000000000000       0.56250000000000000        0.0000000000000000     
   1.2187500000000000       0.56250000000000000        0.0000000000000000     
   1.2500000000000000       0.56250000000000000        0.0000000000000000     
   1.1250000000000000       0.59375000000000000        0.0000000000000000     
   1.1562500000000000       0.59375000000000000        0.0000000000000000     
   1.1875000000000000       0.59375000000000000        0.0000000000000000     
   1.2187500000000000       0.59375000000000000        0.0000000000000000     
   1.2500000000000000       0.59375000000000000        0.0000000000000000     
   1.1250000000000000       0.62500000000000000        0.0000000000000000     
   1.1562500000000000       0.62500000000000000        0.0000000000000000     
   1.1875000000000000       0.62500000000000000        0.0000000000000000     
   1.2187500000000000       0.62500000000000000        0.0000000000000000     
   1.2500000000000000       0.62500000000000000        0.0000000000000000     
   1.2500000000000000       0.50000000000000000        0.0000000000000000     
   1.2812500000000000       0.50000000000000000        0.0000000000000000     
   1.3125000000000000       0.50000000000000000        0.0000000000000000     
   1.3437500000000000       0.50000000000000000        0.0000000000000000     
   1.3750000000000000       0.50000000000000000        0.0000000000000000     
   1.2500000000000000       0.53125000000000000        0.0000000000000000     
   1.2812500000000000       0.53125000000000000        0.0000000000000000     
   1.3125000000000000       0.53125000000000000        0.0000000000000000     
   1.3437500000000000       0.53125000000000000        0.0000000000000000     
   1.3750000000000000       0.53125000000000000        0.0000000000000000     
   1.2500000000000000       0.56250000000000000        0.0000000000000000     
   1.2812500000000000       0.56250000000000000        0.0000000000000000     
   1.3125000000000000       0.56250000000000000        0.0000000000000000     
   1.3437500000000000       0.56250000000000000        0.0000000000000000     
   1.3750000000000000       0.56250000000000000        0.0000000000000000     
   1.2500000000000000       0.59375000000000000        0.0000000000000000     
   1.2812500000000000       0.59375000000000000        0.0000000000000000     
   1.3125000000000000       0.59375000000000000        0.0000000000000000     
   1.3437500000000000       0.59375000000000000        0.0000000000000000     
   1.3750000000000000       0.59375000000000000        0.0000000000000000     
   1.2500000000000000       0.62500000000000000        0.0000000000000000     
   1.2812500000000000       0.62500000000000000        0.0000000000000000     
   1.3125000000000000       0.62500000000000000        0.0000000000000000     
   1.3437500000000000       0.62500000000000000        0.0000000000000000     
   1.3750000000000000       0.62500000000000000        0.0000000000000000     
   1.3750000000000000       0.50000000000000000        0.0000000000000000     
   1.4062500000000000       0.50000000000000000        0.0000000000000000     
   1.4375000000000000       0.50000000000000000        0.0000000000000000     
   1.4687500000000000       0.50000000000000000        0.0000000000000000     
   1.5000000000000000       0.50000000000000000        0.0000000000000000     
   1.3750000000000000       0.53125000000000000        0.0000000000000000     
   1.4062500000000000       0.53125000000000000        0.0000000000000000     
   1.4375000000000000       0.53125000000000000        0.0000000000000000     
   1.4687500000000000       0.53125000000000000        0.0000000000000000     
   1.5000000000000000       0.53125000000000000        0.0000000000000000     
   1.3750000000000000       0.56250000000000000        0.0000000000000000     
   1.4062500000000000       0.56250000000000000        0.0000000000000000     
   1.4375000000000000       0.56250000000000000        0.0000000000000000     
   1.4687500000000000       0.56250000000000000        0.0000000000000000     
   1.5000000000000000       0.56250000000000000        0.0000000000000000     
   1.3750000000000000       0.59375000000000000        0.0000000000000000     
   1.4062500000000000       0.59375000000000000        0.0000000000000000     
   1.4375000000000000       0.59375000000000000        0.0000000000000000     
   1.4687500000000000       0.59375000000000000        0.0000000000000000     
   1.5000000000000000       0.59375000000000000        0.0000000000000000     
   1.3750000000000000       0.62500000000000000        0.0000000000000000     
   1.4062500000000000       0.62500000000000000        0.0000000000000000     
   1.4375000000000000       0.62500000000000000        0.0000000000000000     
   1.4687500000000000       0.62500000000000000        0.0000000000000000     
   1.5000000000000000       0.62500000000000000        0.0000000000000000     
  0.50000000000000000       0.62500000000000000        0.0000000000000000     
  0.53125000000000000       0.62500000000000000        0.0000000000000000     
  0.56250000000000000       0.62500000000000000        0.0000000000000000     
  0.59375000000000000       0.62500000000000000        0.0000000000000000     
  0.62500000000000000       0.62500000000000000        0.0000000000000000     
  0.50000000000000000       0.65625000000000000        0.0000000000000000     
  0.53125000000000000       0.65625000000000000        0.0000000000000000     
  0.56250000000000000       0.65625000000000000        0.0000000000000000     
  0.59375000000000000       0.65625000000000000        0.0000000000000000     
  0.62500000000000000       0.65625000000000000        0.0000000000000000     
  0.50000000000000000       0.68750000000000000        0.0000000000000000     
  0.53125000000000000       0.68750000000000000        0.0000000000000000     
  0.56250000000000000       0.68750000000000000        0.0000000000000000     
  0.59375000000000000       0.68750000000000000        0.0000000000000000     
  0.62500000000000000       0.68750000000000000        0.0000000000000000     
  0.50000000000000000       0.71875000000000000        0.0000000000000000     
  0.53125000000000000       0.71875000000000000        0.0000000000000000     
  0.56250000000000000       0.71875000000000000        0.0000000000000000     
  0.59375000000000000       0.71875000000000000        0.0000000000000000     
  0.62500000000000000       0.71875000000000000        0.0000000000000000     
  0.50000000000000000       0.75000000000000000        0.0000000000000000     
  0.53125000000000000       0.75000000000000000        0.0000000000000000     
  0.56250000000000000       0.75000000000000000        0.0000000000000000     
  0.59375000000000000       0.75000000000000000        0.0000000000000000     
  0.62500000000000000       0.75000000000000000        0.0000000000000000     
  0.62500000000000000       0.62500000000000000        0.0000000000000000     
  0.65625000000000000       0.62500000000000000        0.0000000000000000     
  0.68750000000000000       0.62500000000000000        0.0000000000000000     
  0.71875000000000000       0.62500000000000000        0.0000000000000000     
  0.75000000000000000       0.62500000000000000        0.0000000000000000     
  0.62500000000000000       0.65625000000000000        0.0000000000000000     
  0.65625000000000000       0.65625000000000000        0.0000000000000000     
  0.68750000000000000       0.65625000000000000        0.0000000000000000     
  0.71875000000000000       0.65625000000000000        0.0000000000000000     
  0.75000000000000000       0.65625000000000000        0.0000000000000000     
  0.62500000000000000       0.68750000000000000        0.0000000000000000     
  0.65625000000000000       0.68750000000000000        0.0000000000000000     
  0.68750000000000000       0.68750000000000000        0.0000000000000000     
  0.71875000000000000       0.68750000000000000        0.0000000000000000     
  0.75000000000000000       0.68750000000000000        0.0000000000000000     
  0.62500000000000000       0.71875000000000000        0.0000000000000000     
  0.65625000000000000       0.71875000000000000        0.0000000000000000     
  0.68750000000000000       0.71875000000000000        0.0000000000000000     
  0.71875000000000000       0.71875000000000000        0.0000000000000000     
  0.75000000000000000       0.71875000000000000        0.0000000000000000     
  0.62500000000000000       0.75000000000000000        0.0000000000000000     
  0.65625000000000000       0.75000000000000000        0.0000000000000000     
  0.68750000000000000       0.75000000000000000        0.0000000000000000     
  0.71875000000000000       0.75000000000000000        0.0000000000000000     
  0.75000000000000000       0.75000000000000000        0.0000000000000000     
  0.75000000000000000       0.62500000000000000        0.0000000000000000     
  0.78125000000000000       0.62500000000000000        0.0000000000000000     
  0.81250000000000000       0.62500000000000000        0.0000000000000000     
  0.84375000000000000       0.62500000000000000        0.0000000000000000     
  0.87500000000000000       0.62500000000000000        0.0000000000000000     
  0.75000000000000000       0.65625000000000000        0.0000000000000000     
  0.78125000000000000       0.65625000000000000        0.0000000000000000     
  0.81250000000000000       0.65625000000000000        0.0000000000000000     
  0.84375000000000000       0.65625000000000000        0.0000000000000000     
  0.87500000000000000       0.65625000000000000        0.0000000000000000     
  0.75000000000000000       0.68750000000000000        0.0000000000000000     
  0.78125000000000000       0.68750000000000000        0.0000000000000000     
  0.81250000000000000       0.68750000000000000        0.0000000000000000     
  0.84375000000000000       0.68750000000000000        0.0000000000000000     
  0.87500000000000000       0.68750000000000000        0.0000000000000000     
  0.75000000000000000       0.71875000000000000        0.0000000000000000     
  0.78125000000000000       0.71875000000000000        0.0000000000000000     
  0.81250000000000000       0.71875000000000000        0.0000000000000000     
  0.84375000000000000       0.71875000000000000        0.0000000000000000     
  0.87500000000000000       0.71875000000000000        0.0000000000000000     
  0.75000000000000000       0.75000000000000000        0.0000000000000000     
  0.78125000000000000       0.75000000000000000        0.0000000000000000     
  0.81250000000000000       0.75000000000000000        0.0000000000000000     
  0.84375000000000000       0.75000000000000000        0.0000000000000000     
  0.87500000000000000       0.75000000000000000        0.0000000000000000     
  0.87500000000000000       0.62500000000000000        0.0000000000000000     
  0.90625000000000000       0.62500000000000000        0.0000000000000000     
  0.93750000000000000       0.62500000000000000        0.0000000000000000     
  0.96875000000000000       0.62500000000000000        0.0000000000000000     
   1.0000000000000000       0.62500000000000000        0.0000000000000000     
  0.87500000000000000       0.65625000000000000        0.0000000000000000     
  0.90625000000000000       0.65625000000000000        0.0000000000000000     
  0.93750000000000000       0.65625000000000000        0.0000000000000000     
  0.96875000000000000       0.65625000000000000        0.0000000000000000     
   1.0000000000000000       0.65625000000000000        0.0000000000000000     
  0.87500000000000000       0.68750000000000000        0.0000000000000000     
  0.90625000000000000       0.68750000000000000        0.0000000000000000     
  0.93750000000000000       0.68750000000000000        0.0000000000000000     
  0.96875000000000000       0.68750000000000000        0.0000000000000000     
   1.0000000000000000       0.68750000000000000        0.0000000000000000     
  0.87500000000000000       0.71875000000000000        0.0000000000000000     
  0.90625000000000000       0.71875000000000000        0.0000000000000000     
  0.93750000000000000       0.71875000000000000        0.0000000000000000     
  0.96875000000000000       0.71875000000000000        0.0000000000000000     
   1.0000000000000000       0.71875000000000000        0.0000000000000000     
  0.87500000000000000       0.75000000000000000        0.0000000000000000     
  0.90625000000000000       0.75000000000000000        0.0000000000000000     
  0.93750000000000000       0.75000000000000000        0.0000000000000000     
  0.96875000000000000       0.75000000000000000        0.0000000000000000     
   1.0000000000000000       0.75000000000000000        0.0000000000000000     
   1.0000000000000000       0.62500000000000000        0.0000000000000000     
   1.0312500000000000       0.62500000000000000        0.0000000000000000     
   1.0625000000000000       0.62500000000000000        0.0000000000000000     
   1.0937500000000000       0.62500000000000000        0.0000000000000000     
   1.1250000000000000       0.62500000000000000        0.0000000000000000     
   1.0000000000000000       0.65625000000000000        0.0000000000000000     
   1.0312500000000000       0.65625000000000000        0.0000000000000000     
   1.0625000000000000       0.65625000000000000        0.0000000000000000     
   1.0937500000000000       0.65625000000000000        0.0000000000000000     
   1.1250000000000000       0.65625000000000000        0.0000000000000000     
   1.0000000000000000       0.68750000000000000        0.0000000000000000     
   1.0312500000000000       0.68750000000000000        0.0000000000000000     
   1.0625000000000000       0.68750000000000000        0.0000000000000000     
   1.0937500000000000       0.68750000000000000        0.0000000000000000     
   1.1250000000000000       0.68750000000000000        0.0000000000000000     
   1.0000000000000000       0.71875000000000000        0.0000000000000000     
   1.0312500000000000       0.71875000000000000        0.0000000000000000     
   1.0625000000000000       0.71875000000000000        0.0000000000000000     
   1.0937500000000000       0.71875000000000000        0.0000000000000000     
   1.1250000000000000       0.71875000000000000        0.0000000000000000     
   1.0000000000000000       0.75000000000000000        0.0000000000000000     
   1.0312500000000000       0.75000000000000000        0.0000000000000000     
   1.0625000000000000       0.75000000000000000        0.0000000000000000     
   1.0937500000000000       0.75000000000000000        0.0000000000000000     
   1.1250000000000000       0.75000000000000000        0.0000000000000000     
   1.1250000000000000       0.62500000000000000        0.0000000000000000     
   1.1562500000000000       0.62500000000000000        0.0000000000000000     
   1.1875000000000000       0.62500000000000000        0.0000000000000000     
   1.2187500000000000       0.62500000000000000        0.0000000000000000     
   1.2500000000000000       0.62500000000000000        0.0000000000000000     
   1.1250000000000000       0.65625000000000000        0.0000000000000000     
   1.1562500000000000       0.65625000000000000        0.0000000000000000     
   1.1875000000000000       0.65625000000000000        0.0000000000000000     
   1.2187500000000000       0.65625000000000000        0.0000000000000000     
   1.2500000000000000       0.65625000000000000        0.0000000000000000     
   1.1250000000000000       0.68750000000000000        0.0000000000000000     
   1.1562500000000000       0.68750000000000000        0.0000000000000000     
   1.1875000000000000       0.68750000000000000        0.0000000000000000     
   1.2187500000000000       0.68750000000000000        0.0000000000000000     
   1.2500000000000000       0.68750000000000000        0.0000000000000000     
   1.1250000000000000       0.71875000000000000        0.0000000000000000     
   1.1562500000000000       0.71875000000000000        0.0000000000000000     
   1.1875000000000000       0.71875000000000000        0.0000000000000000     
   1.2187500000000000       0.71875000000000000        0.0000000000000000     
   1.2500000000000000       0.71875000000000000        0.0000000000000000     
   1.1250000000000000       0.75000000000000000        0.0000000000000000     
   1.1562500000000000       0.75000000000000000        0.0000000000000000     
   1.1875000000000000       0.75000000000000000        0.0000000000000000     
   1.2187500000000000       0.75000000000000000        0.0000000000000000     
   1.2500000000000000       0.75000000000000000        0.0000000000000000     
   1.2500000000000000       0.62500000000000000        0.0000000000000000     
   1.2812500000000000       0.62500000000000000        0.0000000000000000     
   1.3125000000000000       0.62500000000000000        0.0000000000000000     
   1.3437500000000000       0.62500000000000000        0.0000000000000000     
   1.3750000000000000       0.62500000000000000        0.0000000000000000     
   1.2500000000000000       0.65625000000000000        0.0000000000000000     
   1.2812500000000000       0.65625000000000000        0.0000000000000000     
   1.3125000000000000       0.65625000000000000        0.0000000000000000     
   1.3437500000000000       0.65625000000000000        0.0000000000000000     
   1.3750000000000000       0.65625000000000000        0.0000000000000000     
   1.2500000000000000       0.68750000000000000        0.0000000000000000     
   1.2812500000000000       0.68750000000000000        0.0000000000000000     
   1.3125000000000000       0.68750000000000000        0.0000000000000000     
   1.3437500000000000       0.68750000000000000        0.0000000000000000     
   1.3750000000000000       0.68750000000000000        0.0000000000000000     
   1.2500000000000000       0.71875000000000000        0.0000000000000000     
   1.2812500000000000       0.71875000000000000        0.0000000000000000     
   1.3125000000000000       0.71875000000000000        0.0000000000000000     
   1.3437500000000000       0.71875000000000000        0.0000000000000000     
   1.3750000000000000       0.71875000000000000        0.0000000000000000     
   1.2500000000000000       0.75000000000000000        0.0000000000000000     
   1.2812500000000000       0.75000000000000000        0.0000000000000000     
   1.3125000000000000       0.75000000000000000        0.0000000000000000     
   1.3437500000000000       0.75000000000000000        0.0000000000000000     
   1.3750000000000000       0.75000000000000000        0.0000000000000000     
   1.3750000000000000       0.62500000000000000        0.0000000000000000     
   1.4062500000000000       0.62500000000000000        0.0000000000000000     
   1.4375000000000000       0.62500000000000000        0.0000000000000000     
   1.4687500000000000       0.62500000000000000        0.0000000000000000     
   1.5000000000000000       0.62500000000000000        0.0000000000000000     
   1.3750000000000000       0.65625000000000000        0.0000000000000000     
   1.4062500000000000       0.65625000000000000        0.0000000000000000     
   1.4375000000000000       0.65625000000000000        0.0000000000000000     
   1.4687500000000000       0.65625000000000000        0.0000000000000000     
   1.5000000000000000       0.65625000000000000        0.0000000000000000     
   1.3750000000000000       0.68750000000000000        0.0000000000000000     
   1.4062500000000000       0.68750000000000000        0.0000000000000000     
   1.4375000000000000       0.68750000000000000        0.0000000000000000     
   1.4687500000000000       0.68750000000000000        0.0000000000000000     
   1.5000000000000000       0.68750000000000000        0.0000000000000000     
   1.3750000000000000       0.71875000000000000        0.0000000000000000     
   1.4062500000000000       0.71875000000000000        0.0000000000000000     
   1.4375000000000000       0.71875000000000000        0.0000000000000000     
   1.4687500000000000       0.71875000000000000        0.0000000000000000     
   1.5000000000000000       0.71875000000000000        0.0000000000000000     
   1.3750000000000000       0.75000000000000000        0.0000000000000000     
   1.4062500000000000       0.75000000000000000        0.0000000000000000     
   1.4375000000000000       0.75000000000000000        0.0000000000000000     
   1.4687500000000000       0.75000000000000000        0.0000000000000000     
   1.5000000000000000       0.75000000000000000        0.0000000000000000     
  0.50000000000000000       0.75000000000000000        0.0000000000000000     
  0.53125000000000000       0.75000000000000000        0.0000000000000000     
  0.56250000000000000       0.75000000000000000        0.0000000000000000     
  0.59375000000000000       0.75000000000000000        0.0000000000000000     
  0.62500000000000000       0.75000000000000000        0.0000000000000000     
  0.50000000000000000       0.78125000000000000        0.0000000000000000     
  0.53125000000000000       0.78125000000000000        0.0000000000000000     
  0.56250000000000000       0.78125000000000000        0.0000000000000000     
  0.59375000000000000       0.78125000000000000        0.0000000000000000     
  0.62500000000000000       0.78125000000000000        0.0000000000000000     
  0.50000000000000000       0.81250000000000000        0.0000000000000000     
  0.53125000000000000       0.81250000000000000        0.0000000000000000     
  0.56250000000000000       0.81250000000000000        0.0000000000000000     
  0.59375000000000000       0.81250000000000000        0.0000000000000000     
  0.62500000000000000       0.81250000000000000        0.0000000000000000     
  0.50000000000000000       0.84375000000000000        0.0000000000000000     
  0.53125000000000000       0.84375000000000000        0.0000000000000000     
  0.56250000000000000       0.84375000000000000        0.0000000000000000     
  0.59375000000000000       0.84375000000000000        0.0000000000000000     
  0.62500000000000000       0.84375000000000000        0.0000000000000000     
  0.50000000000000000       0.87500000000000000        0.0000000000000000     
  0.53125000000000000       0.87500000000000000        0.0000000000000000     
  0.56250000000000000       0.87500000000000000        0.0000000000000000     
  0.59375000000000000       0.87500000000000000        0.0000000000000000     
  0.62500000000000000       0.87500000000000000        0.0000000000000000     
  0.62500000000000000       0.75000000000000000        0.0000000000000000     
  0.65625000000000000       0.75000000000000000        0.0000000000000000     
  0.68750000000000000       0.75000000000000000        0.0000000000000000     
  0.71875000000000000       0.75000000000000000        0.0000000000000000     
  0.75000000000000000       0.75000000000000000        0.0000000000000000     
  0.62500000000000000       0.78125000000000000        0.0000000000000000     
  0.65625000000000000       0.78125000000000000        0.0000000000000000     
  0.68750000000000000       0.78125000000000000        0.0000000000000000     
  0.71875000000000000       0.78125000000000000        0.0000000000000000     
  0.75000000000000000       0.78125000000000000        0.0000000000000000     
  0.62500000000000000       0.81250000000000000        0.0000000000000000     
  0.65625000000000000       0.81250000000000000        0.0000000000000000     
  0.68750000000000000       0.81250000000000000        0.0000000000000000     
  0.71875000000000000       0.81250000000000000        0.0000000000000000     
  0.75000000000000000       0.81250000000000000        0.0000000000000000     
  0.62500000000000000       0.84375000000000000        0.0000000000000000     
  0.65625000000000000       0.84375000000000000        0.0000000000000000     
  0.68750000000000000       0.84375000000000000        0.0000000000000000     
  0.71875000000000000       0.84375000000000000        0.0000000000000000     
  0.75000000000000000       0.84375000000000000        0.0000000000000000     
  0.62500000000000000       0.87500000000000000        0.0000000000000000     
  0.65625000000000000       0.87500000000000000        0.0000000000000000     
  0.68750000000000000       0.87500000000000000        0.0000000000000000     
  0.71875000000000000       0.87500000000000000        0.0000000000000000     
  0.75000000000000000       0.87500000000000000        0.0000000000000000     
  0.75000000000000000       0.75000000000000000        0.0000000000000000     
  0.78125000000000000       0.75000000000000000        0.0000000000000000     
  0.81250000000000000       0.75000000000000000        0.0000000000000000     
  0.84375000000000000       0.75000000000000000        0.0000000000000000     
  0.87500000000000000       0.75000000000000000        0.0000000000000000     
  0.75000000000000000       0.78125000000000000        0.0000000000000000     
  0.78125000000000000       0.78125000000000000        0.0000000000000000     
  0.81250000000000000       0.78125000000000000        0.0000000000000000     
  0.84375000000000000       0.78125000000000000        0.0000000000000000     
  0.87500000000000000       0.78125000000000000        0.0000000000000000     
  0.75000000000000000       0.81250000000000000        0.0000000000000000     
  0.78125000000000000       0.81250000000000000        0.0000000000000000     
  0.81250000000000000       0.81250000000000000        0.0000000000000000     
  0.84375000000000000       0.81250000000000000        0.0000000000000000     
  0.87500000000000000       0.81250000000000000        0.0000000000000000     
  0.75000000000000000       0.84375000000000000        0.0000000000000000     
  0.78125000000000000       0.84375000000000000        0.0000000000000000     
  0.81250000000000000       0.84375000000000000        0.0000000000000000     
  0.84375000000000000       0.84375000000000000        0.0000000000000000     
  0.87500000000000000       0.84375000000000000        0.0000000000000000     
  0.75000000000000000       0.87500000000000000        0.0000000000000000     
  0.78125000000000000       0.87500000000000000        0.0000000000000000     
  0.81250000000000000       0.87500000000000000        0.0000000000000000     
  0.84375000000000000       0.87500000000000000        0.0000000000000000     
  0.87500000000000000       0.87500000000000000        0.0000000000000000     
  0.87500000000000000       0.75000000000000000        0.0000000000000000     
  0.90625000000000000       0.75000000000000000        0.0000000000000000     
  0.93750000000000000       0.75000000000000000        0.0000000000000000     
  0.96875000000000000       0.75000000000000000        0.0000000000000000     
   1.0000000000000000       0.75000000000000000        0.0000000000000000     
  0.87500000000000000       0.78125000000000000        0.0000000000000000     
  0.90625000000000000       0.78125000000000000        0.0000000000000000     
  0.93750000000000000       0.78125000000000000        0.0000000000000000     
  0.96875000000000000       0.78125000000000000        0.0000000000000000     
   1.0000000000000000       0.78125000000000000        0.0000000000000000     
  0.87500000000000000       0.81250000000000000        0.0000000000000000     
  0.90625000000000000       0.81250000000000000        0.0000000000000000     
  0.93750000000000000       0.81250000000000000        0.0000000000000000     
  0.96875000000000000       0.81250000000000000        0.0000000000000000     
   1.0000000000000000       0.81250000000000000        0.0000000000000000     
  0.87500000000000000       0.84375000000000000        0.0000000000000000     
  0.90625000000000000       0.84375000000000000        0.0000000000000000     
  0.93750000000000000       0.84375000000000000        0.0000000000000000     
  0.96875000000000000       0.84375000000000000        0.0000000000000000     
   1.0000000000000000       0.84375000000000000        0.0000000000000000     
  0.87500000000000000       0.87500000000000000        0.0000000000000000     
  0.90625000000000000       0.87500000000000000        0.0000000000000000     
  0.93750000000000000       0.87500000000000000        0.0000000000000000     
  0.96875000000000000       0.87500000000000000        0.0000000000000000     
   1.0000000000000000       0.87500000000000000        0.0000000000000000     
   1.0000000000000000       0.75000000000000000        0.0000000000000000     
   1.0312500000000000       0.75000000000000000        0.0000000000000000     
   1.0625000000000000       0.75000000000000000        0.0000000000000000     
   1.0937500000000000       0.75000000000000000        0.0000000000000000     
   1.1250000000000000       0.75000000000000000        0.0000000000000000     
   1.0000000000000000       0.78125000000000000        0.0000000000000000     
   1.0312500000000000       0.78125000000000000        0.0000000000000000     
   1.0625000000000000       0.78125000000000000        0.0000000000000000     
   1.0937500000000000       0.78125000000000000        0.0000000000000000     
   1.1250000000000000       0.78125000000000000        0.0000000000000000     
   1.0000000000000000       0.81250000000000000        0.0000000000000000     
   1.0312500000000000       0.81250000000000000        0.0000000000000000     
   1.0625000000000000       0.81250000000000000        0.0000000000000000     
   1.0937500000000000       0.81250000000000000        0.0000000000000000     
   1.1250000000000000       0.81250000000000000        0.0000000000000000     
   1.0000000000000000       0.84375000000000000        0.0000000000000000     
   1.0312500000000000       0.84375000000000000        0.0000000000000000     
   1.0625000000000000       0.84375000000000000        0.0000000000000000     
   1.0937500000000000       0.84375000000000000        0.0000000000000000     
   1.1250000000000000       0.84375000000000000        0.0000000000000000     
   1.0000000000000000       0.87500000000000000        0.0000000000000000     
   1.0312500000000000       0.87500000000000000        0.0000000000000000     
   1.0625000000000000       0.87500000000000000        0.0000000000000000     
   1.0937500000000000       0.87500000000000000        0.0000000000000000     
   1.1250000000000000       0.87500000000000000        0.0000000000000000     
   1.1250000000000000       0.75000000000000000        0.0000000000000000     
   1.1562500000000000       0.75000000000000000        0.0000000000000000     
   1.1875000000000000       0.75000000000000000        0.0000000000000000     
   1.2187500000000000       0.75000000000000000        0.0000000000000000     
   1.2500000000000000       0.75000000000000000        0.0000000000000000     
   1.1250000000000000       0.78125000000000000        0.0000000000000000     
   1.1562500000000000       0.78125000000000000        0.0000000000000000     
   1.1875000000000000       0.78125000000000000        0.0000000000000000     
   1.2187500000000000       0.78125000000000000        0.0000000000000000     
   1.2500000000000000       0.78125000000000000        0.0000000000000000     
   1.1250000000000000       0.81250000000000000        0.0000000000000000     
   1.1562500000000000       0.81250000000000000        0.0000000000000000     
   1.1875000000000000       0.81250000000000000        0.0000000000000000     
   1.2187500000000000       0.81250000000000000        0.0000000000000000     
   1.2500000000000000       0.81250000000000000        0.0000000000000000     
   1.1250000000000000       0.84375000000000000        0.0000000000000000     
   1.1562500000000000       0.84375000000000000        0.0000000000000000     
   1.1875000000000000       0.84375000000000000        0.0000000000000000     
   1.2187500000000000       0.84375000000000000        0.0000000000000000     
   1.2500000000000000       0.84375000000000000        0.0000000000000000     
   1.1250000000000000       0.87500000000000000        0.0000000000000000     
   1.1562500000000000       0.87500000000000000        0.0000000000000000     
   1.1875000000000000       0.87500000000000000        0.0000000000000000     
   1.2187500000000000       0.87500000000000000        0.0000000000000000     
   1.2500000000000000       0.87500000000000000        0.0000000000000000     
   1.2500000000000000       0.75000000000000000        0.0000000000000000     
   1.2812500000000000       0.75000000000000000        0.0000000000000000     
   1.3125000000000000       0.75000000000000000        0.0000000000000000     
   1.3437500000000000       0.75000000000000000        0.0000000000000000     
   1.3750000000000000       0.75000000000000000        0.0000000000000000     
   1.2500000000000000       0.78125000000000000        0.0000000000000000     
   1.2812500000000000       0.78125000000000000        0.0000000000000000     
   1.3125000000000000       0.78125000000000000        0.0000000000000000     
   1.3437500000000000       0.78125000000000000        0.0000000000000000     
   1.3750000000000000       0.78125000000000000        0.0000000000000000     
   1.2500000000000000       0.81250000000000000        0.0000000000000000     
   1.2812500000000000       0.81250000000000000        0.0000000000000000     
   1.3125000000000000       0.81250000000000000        0.0000000000000000     
   1.3437500000000000       0.81250000000000000        0.0000000000000000     
   1.3750000000000000       0.81250000000000000        0.0000000000000000     
   1.2500000000000000       0.84375000000000000        0.0000000000000000     
   1.2812500000000000       0.84375000000000000        0.0000000000000000     
   1.3125000000000000       0.84375000000000000        0.0000000000000000     
   1.3437500000000000       0.84375000000000000        0.0000000000000000     
   1.3750000000000000       0.84375000000000000        0.0000000000000000     
   1.2500000000000000       0.87500000000000000        0.0000000000000000     
   1.2812500000000000       0.87500000000000000        0.0000000000000000     
   1.3125000000000000       0.87500000000000000        0.0000000000000000     
   1.3437500000000000       0.87500000000000000        0.0000000000000000     
   1.3750000000000000       0.87500000000000000        0.0000000000000000     
   1.3750000000000000       0.75000000000000000        0.0000000000000000     
   1.4062500000000000       0.75000000000000000        0.0000000000000000     
   1.4375000000000000       0.75000000000000000        0.0000000000000000     
   1.4687500000000000       0.75000000000000000        0.0000000000000000     
   1.5000000000000000       0.75000000000000000        0.0000000000000000     
   1.3750000000000000       0.78125000000000000        0.0000000000000000     
   1.4062500000000000       0.78125000000000000        0.0000000000000000     
   1.4375000000000000       0.78125000000000000        0.0000000000000000     
   1.4687500000000000       0.78125000000000000        0.0000000000000000     
   1.5000000000000000       0.78125000000000000        0.0000000000000000     
   1.3750000000000000       0.81250000000000000        0.0000000000000000     
   1.4062500000000000       0.81250000000000000        0.0000000000000000     
   1.4375000000000000       0.81250000000000000        0.0000000000000000     
   1.4687500000000000       0.81250000000000000        0.0000000000000000     
   1.5000000000000000       0.81250000000000000        0.0000000000000000     
   1.3750000000000000       0.84375000000000000        0.0000000000000000     
   1.4062500000000000       0.84375000000000000        0.0000000000000000     
   1.4375000000000000       0.84375000000000000        0.0000000000000000     
   1.4687500000000000       0.84375000000000000        0.0000000000000000     
   1.5000000000000000       0.84375000000000000        0.0000000000000000     
   1.3750000000000000       0.87500000000000000        0.0000000000000000     
   1.4062500000000000       0.87500000000000000        0.0000000000000000     
   1.4375000000000000       0.87500000000000000        0.0000000000000000     
   1.4687500000000000       0.87500000000000000        0.0000000000000000     
   1.5000000000000000       0.87500000000000000        0.0000000000000000     
  0.50000000000000000       0.87500000000000000        0.0000000000000000     
  0.53125000000000000       0.87500000000000000        0.0000000000000000     
  0.56250000000000000       0.87500000000000000        0.0000000000000000     
  0.59375000000000000       0.87500000000000000        0.0000000000000000     
  0.62500000000000000       0.87500000000000000        0.0000000000000000     
  0.50000000000000000       0.90625000000000000        0.0000000000000000     
  0.53125000000000000       0.90625000000000000        0.0000000000000000     
  0.56250000000000000       0.90625000000000000        0.0000000000000000     
  0.59375000000000000       0.90625000000000000        0.0000000000000000     
  0.62500000000000000       0.90625000000000000        0.0000000000000000     
  0.50000000000000000       0.93750000000000000        0.0000000000000000     
  0.53125000000000000       0.93750000000000000        0.0000000000000000     
  0.56250000000000000       0.93750000000000000        0.0000000000000000     
  0.59375000000000000       0.93750000000000000        0.0000000000000000     
  0.62500000000000000       0.93750000000000000        0.0000000000000000     
  0.50000000000000000       0.96875000000000000        0.0000000000000000     
  0.53125000000000000       0.96875000000000000        0.0000000000000000     
  0.56250000000000000       0.96875000000000000        0.0000000000000000     
  0.59375000000000000       0.96875000000000000        0.0000000000000000     
  0.62500000000000000       0.96875000000000000        0.0000000000000000     
  0.50000000000000000        1.0000000000000000        0.0000000000000000     
  0.53125000000000000        1.0000000000000000        0.0000000000000000     
  0.56250000000000000        1.0000000000000000        0.0000000000000000     
  0.59375000000000000        1.0000000000000000        0.0000000000000000     
  0.62500000000000000        1.0000000000000000        0.0000000000000000     
  0.62500000000000000       0.87500000000000000        0.0000000000000000     
  0.65625000000000000       0.87500000000000000        0.0000000000000000     
  0.68750000000000000       0.87500000000000000        0.0000000000000000     
  0.71875000000000000       0.87500000000000000        0.0000000000000000     
  0.75000000000000000       0.87500000000000000        0.0000000000000000     
  0.62500000000000000       0.90625000000000000        0.0000000000000000     
  0.65625000000000000       0.90625000000000000        0.0000000000000000     
  0.68750000000000000       0.90625000000000000        0.0000000000000000     
  0.71875000000000000       0.90625000000000000        0.0000000000000000     
  0.75000000000000000       0.90625000000000000        0.0000000000000000     
  0.62500000000000000       0.93750000000000000        0.0000000000000000     
  0.65625000000000000       0.93750000000000000        0.0000000000000000     
  0.68750000000000000       0.93750000000000000        0.0000000000000000     
  0.71875000000000000       0.93750000000000000        0.0000000000000000     
  0.75000000000000000       0.93750000000000000        0.0000000000000000     
  0.62500000000000000       0.96875000000000000        0.0000000000000000     
  0.65625000000000000       0.96875000000000000        0.0000000000000000     
  0.68750000000000000       0.96875000000000000        0.0000000000000000     
  0.71875000000000000       0.96875000000000000        0.0000000000000000     
  0.75000000000000000       0.96875000000000000        0.0000000000000000     
  0.62500000000000000        1.0000000000000000        0.0000000000000000     
  0.65625000000000000        1.0000000000000000        0.0000000000000000     
  0.68750000000000000        1.0000000000000000        0.0000000000000000     
  0.71875000000000000        1.0000000000000000        0.0000000000000000     
  0.75000000000000000        1.0000000000000000        0.0000000000000000     
  0.75000000000000000       0.87500000000000000        0.0000000000000000     
  0.78125000000000000       0.87500000000000000        0.0000000000000000     
  0.81250000000000000       0.87500000000000000        0.0000000000000000     
  0.84375000000000000       0.87500000000000000        0.0000000000000000     
  0.87500000000000000       0.87500000000000000        0.0000000000000000     
  0.75000000000000000       0.90625000000000000        0.0000000000000000     
  0.78125000000000000       0.90625000000000000        0.0000000000000000     
  0.81250000000000000       0.90625000000000000        0.0000000000000000     
  0.84375000000000000       0.90625000000000000        0.0000000000000000     
  0.87500000000000000       0.90625000000000000        0.0000000000000000     
  0.75000000000000000       0.93750000000000000        0.0000000000000000     
  0.78125000000000000       0.93750000000000000        0.0000000000000000     
  0.81250000000000000       0.93750000000000000        0.0000000000000000     
  0.84375000000000000       0.93750000000000000        0.0000000000000000     
  0.87500000000000000       0.93750000000000000        0.0000000000000000     
  0.75000000000000000       0.96875000000000000        0.0000000000000000     
  0.78125000000000000       0.96875000000000000        0.0000000000000000     
  0.81250000000000000       0.96875000000000000        0.0000000000000000     
  0.84375000000000000       0.96875000000000000        0.0000000000000000     
  0.87500000000000000       0.96875000000000000        0.0000000000000000     
  0.75000000000000000        1.0000000000000000        0.0000000000000000     
  0.78125000000000000        1.0000000000000000        0.0000000000000000     
  0.81250000000000000        1.0000000000000000        0.0000000000000000     
  0.84375000000000000        1.0000000000000000        0.0000000000000000     
  0.87500000000000000        1.0000000000000000        0.0000000000000000     
  0.87500000000000000       0.87500000000000000        0.0000000000000000     
  0.90625000000000000       0.87500000000000000        0.0000000000000000     
  0.93750000000000000       0.87500000000000000        0.0000000000000000     
  0.96875000000000000       0.87500000000000000        0.0000000000000000     
   1.0000000000000000       0.87500000000000000        0.0000000000000000     
  0.87500000000000000       0.90625000000000000        0.0000000000000000     
  0.90625000000000000       0.90625000000000000        0.0000000000000000     
  0.93750000000000000       0.90625000000000000        0.0000000000000000     
  0.96875000000000000       0.90625000000000000        0.0000000000000000     
   1.0000000000000000       0.90625000000000000        0.0000000000000000     
  0.87500000000000000       0.93750000000000000        0.0000000000000000     
  0.90625000000000000       0.93750000000000000        0.0000000000000000     
  0.93750000000000000       0.93750000000000000        0.0000000000000000     
  0.96875000000000000       0.93750000000000000        0.0000000000000000     
   1.0000000000000000       0.93750000000000000        0.0000000000000000     
  0.87500000000000000       0.96875000000000000        0.0000000000000000     
  0.90625000000000000       0.96875000000000000        0.0000000000000000     
  0.93750000000000000       0.96875000000000000        0.0000000000000000     
  0.96875000000000000       0.96875000000000000        0.0000000000000000     
   1.0000000000000000       0.96875000000000000        0.0000000000000000     
  0.87500000000000000        1.0000000000000000        0.0000000000000000     
  0.90625000000000000        1.0000000000000000        0.0000000000000000     
  0.93750000000000000        1.0000000000000000        0.0000000000000000     
  0.96875000000000000        1.0000000000000000        0.0000000000000000     
   1.0000000000000000        1.0000000000000000        0.0000000000000000     
   1.0000000000000000       0.87500000000000000        0.0000000000000000     
   1.0312500000000000       0.87500000000000000        0.0000000000000000     
   1.0625000000000000       0.87500000000000000        0.0000000000000000     
   1.0937500000000000       0.87500000000000000        0.0000000000000000     
   1.1250000000000000       0.87500000000000000        0.0000000000000000     
   1.0000000000000000       0.90625000000000000        0.0000000000000000     
   1.0312500000000000       0.90625000000000000        0.0000000000000000     
   1.0625000000000000       0.90625000000000000        0.0000000000000000     
   1.0937500000000000       0.90625000000000000        0.0000000000000000     
   1.1250000000000000       0.90625000000000000        0.0000000000000000     
   1.0000000000000000       0.93750000000000000        0.0000000000000000     
   1.0312500000000000       0.93750000000000000        0.0000000000000000     
   1.0625000000000000       0.93750000000000000        0.0000000000000000     
   1.0937500000000000       0.93750000000000000        0.0000000000000000     
   1.1250000000000000       0.93750000000000000        0.0000000000000000     
   1.0000000000000000       0.96875000000000000        0.0000000000000000     
   1.0312500000000000       0.96875000000000000        0.0000000000000000     
   1.0625000000000000       0.96875000000000000        0.0000000000000000     
   1.0937500000000000       0.96875000000000000        0.0000000000000000     
   1.1250000000000000       0.96875000000000000        0.0000000000000000     
   1.0000000000000000        1.0000000000000000        0.0000000000000000     
   1.0312500000000000        1.0000000000000000        0.0000000000000000     
   1.0625000000000000        1.0000000000000000        0.0000000000000000     
   1.0937500000000000        1.0000000000000000        0.0000000000000000     
   1.1250000000000000        1.0000000000000000        0.0000000000000000     
   1.1250000000000000       0.87500000000000000        0.0000000000000000     
   1.1562500000000000       0.87500000000000000        0.0000000000000000     
   1.1875000000000000       0.87500000000000000        0.0000000000000000     
   1.2187500000000000       0.87500000000000000        0.0000000000000000     
   1.2500000000000000       0.87500000000000000        0.0000000000000000     
   1.1250000000000000       0.90625000000000000        0.0000000000000000     
   1.1562500000000000       0.90625000000000000        0.0000000000000000     
   1.1875000000000000       0.90625000000000000        0.0000000000000000     
   1.2187500000000000       0.90625000000000000        0.0000000000000000     
   1.2500000000000000       0.90625000000000000        0.0000000000000000     
   1.1250000000000000       0.93750000000000000        0.0000000000000000     
   1.1562500000000000       0.93750000000000000        0.0000000000000000     
   1.1875000000000000       0.93750000000000000        0.0000000000000000     
   1.2187500000000000       0.93750000000000000        0.0000000000000000     
   1.2500000000000000       0.93750000000000000        0.0000000000000000     
   1.1250000000000000       0.96875000000000000        0.0000000000000000     
   1.1562500000000000       0.96875000000000000        0.0000000000000000     
   1.1875000000000000       0.96875000000000000        0.0000000000000000     
   1.2187500000000000       0.96875000000000000        0.0000000000000000     
   1.2500000000000000       0.96875000000000000        0.0000000000000000     
   1.1250000000000000        1.0000000000000000        0.0000000000000000     
   1.1562500000000000        1.0000000000000000        0.0000000000000000     
   1.1875000000000000        1.0000000000000000        0.0000000000000000     
   1.2187500000000000        1.0000000000000000        0.0000000000000000     
   1.2500000000000000        1.0000000000000000        0.0000000000000000     
   1.2500000000000000       0.87500000000000000        0.0000000000000000     
   1.2812500000000000       0.87500000000000000        0.0000000000000000     
   1.3125000000000000       0.87500000000000000        0.0000000000000000     
   1.3437500000000000       0.87500000000000000        0.0000000000000000     
   1.3750000000000000       0.87500000000000000        0.0000000000000000     
   1.2500000000000000       0.90625000000000000        0.0000000000000000     
   1.2812500000000000       0.90625000000000000        0.0000000000000000     
   1.3125000000000000       0.90625000000000000        0.0000000000000000     
   1.3437500000000000       0.90625000000000000        0.0000000000000000     
   1.3750000000000000       0.90625000000000000        0.0000000000000000     
   1.2500000000000000       0.93750000000000000        0.0000000000000000     
   1.2812500000000000       0.93750000000000000        0.0000000000000000     
   1.3125000000000000       0.93750000000000000        0.0000000000000000     
   1.3437500000000000       0.93750000000000000        0.0000000000000000     
   1.3750000000000000       0.93750000000000000        0.0000000000000000     
   1.2500000000000000       0.96875000000000000        0.0000000000000000     
   1.2812500000000000       0.96875000000000000        0.0000000000000000     
   1.3125000000000000       0.96875000000000000        0.0000000000000000     
   1.3437500000000000       0.96875000000000000        0.0000000000000000     
   1.3750000000000000       0.96875000000000000        0.0000000000000000     
   1.2500000000000000        1.0000000000000000        0.0000000000000000     
   1.2812500000000000        1.0000000000000000        0.0000000000000000     
   1.3125000000000000        1.0000000000000000        0.0000000000000000     
   1.3437500000000000        1.0000000000000000        0.0000000000000000     
   1.3750000000000000        1.0000000000000000        0.0000000000000000     
   1.3750000000000000       0.87500000000000000        0.0000000000000000     
   1.4062500000000000       0.87500000000000000        0.0000000000000000     
   1.4375000000000000       0.87500000000000000        0.0000000000000000     
   1.4687500000000000       0.87500000000000000        0.0000000000000000     
   1.5000000000000000       0.87500000000000000        0.0000000000000000     
   1.3750000000000000       0.90625000000000000        0.0000000000000000     
   1.4062500000000000       0.90625000000000000        0.0000000000000000     
   1.4375000000000000       0.90625000000000000        0.0000000000000000     
   1.4687500000000000       0.90625000000000000        0.0000000000000000     
   1.5000000000000000       0.90625000000000000        0.0000000000000000     
   1.3750000000000000       0.93750000000000000        0.0000000000000000     
   1.4062500000000000       0.93750000000000000        0.0000000000000000     
   1.4375000000000000       0.93750000000000000        0.0000000000000000     
   1.4687500000000000       0.93750000000000000        0.0000000000000000     
   1.5000000000000000       0.93750000000000000        0.0000000000000000     
   1.3750000000000000       0.96875000000000000        0.0000000000000000     
   1.4062500000000000       0.96875000000000000        0.0000000000000000     
   1.4375000000000000       0.96875000000000000        0.0000000000000000     
   1.4687500000000000       0.96875000000000000        0.0000000000000000     
   1.5000000000000000       0.96875000000000000        0.0000000000000000     
   1.3750000000000000        1.0000000000000000        0.0000000000000000     
   1.4062500000000000        1.0000000000000000        0.0000000000000000     
   1.4375000000000000        1.0000000000000000        0.0000000000000000     
   1.4687500000000000        1.0000000000000000        0.0000000000000000     
   1.5000000000000000        1.0000000000000000        0.0000000000000000     
 </DataArray>
 </Points>
 <Cells>
 <DataArray  type="Int32"  Name="connectivity"  format="ascii">
           0           1           6           5
           1           2           7           6
           2           3           8           7
           3           4           9           8
           5           6          11          10
           6           7          12          11
           7           8          13          12
           8           9          14          13
          10          11          16          15
          11          12          17          16
          12          13          18          17
          13          14          19          18
          15          16          21          20
          16          17          22          21
          17          18          23          22
          18          19          24          23
          25          26          31          30
          26          27          32          31
          27          28          33          32
          28          29          34          33
          30          31          36          35
          31          32          37          36
          32          33          38          37
          33          34          39          38
          35          36          41          40
          36          37          42          41
          37          38          43          42
          38          39          44          43
          40          41          46          45
          41          42          47          46
          42          43          48          47
          43          44          49          48
          50          51          56          55
          51          52          57          56
          52          53          58          57
          53          54          59          58
          55          56          61          60
          56          57          62          61
          57          58          63          62
          58          59          64          63
          60          61          66          65
          61          62          67          66
          62          63          68          67
          63          64          69          68
          65          66          71          70
          66          67          72          71
          67          68          73          72
          68          69          74          73
          75          76          81          80
          76          77          82          81
          77          78          83          82
          78          79          84          83
          80          81          86          85
          81          82          87          86
          82          83          88          87
          83          84          89          88
          85          86          91          90
          86          87          92          91
          87          88          93          92
          88          89          94          93
          90          91          96          95
          91          92          97          96
          92          93          98          97
          93          94          99          98
         100         101         106         105
         101         102         107         106
         102         103         108         107
         103         104         109         108
         105         106         111         110
         106         107         112         111
         107         108         113         112
         108         109         114         113
         110         111         116         115
         111         112         117         116
         112         113         118         117
         113         114         119         118
         115         116         121         120
         116         117         122         121
         117         118         123         122
         118         119         124         123
         125         126         131         130
         126         127         132         131
         127         128         133         132
         128         129         134         133
         130         131         136         135
         131         132         137         136
         132         133         138         137
         133         134         139         138
         135         136         141         140
         136         137         142         141
         137         138         143         142
         138         139         144         143
         140         141         146         145
         141         142         147         146
         142         143         148         147
         143         144         149         148
         150         151         156         155
         151         152         157         156
         152         153         158         157
         153         154         159         158
         155         156         161         160
         156         157         162         161
         157         158         163         162
         158         159         164         163
         160         161         166         165
         161         162         167         166
         162         163         168         167
         163         164         169         168
         165         166         171         170
         166         167         172         171
         167         168         173         172
         168         169         174         173
         175         176         181         180
         176         177         182         181
         177         178         183         182
         178         179         184         183
         180         181         186         185
         181         182         187         186
         182         183         188         187
         183         184         189         188
         185         186         191         190
         186         187         192         191
         187         188         193         192
         188         189         194         193
         190         191         196         195
         191         192         197         196
         192         193         198         197
         193         194         199         198
         200         201         206         205
         201         202         207         206
         202         203         208         207
         203         204         209         208
         205         206         211         210
         206         207         212         211
         207         208         213         212
         208         209         214         213
         210         211         216         215
         211         212         217         216
         212         213         218         217
         213         214         219         218
         215         216         221         220
         216         217         222         221
         217         218         223         222
         218         219         224         223
         225         226         231         230
         226         227         232         231
         227         228         233         232
         228         229         234         233
         230         231         236         235
         231         232         237         236
         232         233         238         237
         233         234         239         238
         235         236         241         240
         236         237         242         241
         237         238         243         242
         238         239         244         243
         240         241         246         245
         241         242         247         246
         242         243         248         247
         243         244         249         248
         250         251         256         255
         251         252         257         256
         252         253         258         257
         253         254         259         258
         255         256         261         260
         256         257         262         261
         257         258         263         262
         258         259         264         263
         260         261         266         265
         261         262         267         266
         262         263         268         267
         263         264         269         268
         265         266         271         270
         266         267         272         271
         267         268         273         272
         268         269         274         273
         275         276         281         280
         276         277         282         281
         277         278         283         282
         278         279         284         283
         280         281         286         285
         281         282         287         286
         282         283         288         287
         283         284         289         288
         285         286         291         290
         286         287         292         291
         287         288         293         292
         288         289         294         293
         290         291         296         295
         291         292         297         296
         292         293         298         297
         293         294         299         298
         300         301         306         305
         301         302         307         306
         302         303         308         307
         303         304         309         308
         305         306         311         310
         306         307         312         311
         307         308         313         312
         308         309         314         313
         310         311         316         315
         311         312         317         316
         312         313         318         317
         313         314         319         318
         315         316         321         320
         316         317         322         321
         317         318         323         322
         318         319         324         323
         325         326         331         330
         326         327         332         331
         327         328         333         332
         328         329         334         333
         330         331         336         335
         331         332         337         336
         332         333         338         337
         333         334         339         338
         335         336         341         340
         336         337         342         341
         337         338         343         342
         338         339         344         343
         340         341         346         345
         341         342         347         346
         342         343         348         347
         343         344         349         348
         350         351         356         355
         351         352         357         356
         352         353         358         357
         353         354         359         358
         355         356         361         360
         356         357         362         361
         357         358         363         362
         358         359         364         363
         360         361         366         365
         361         362         367         366
         362         363         368         367
         363         364         369         368
         365         366         371         370
         366         367         372         371
         367         368         373         372
         368         369         374         373
         375         376         381         380
         376         377         382         381
         377         378         383         382
         378         379         384         383
         380         381         386         385
         381         382         387         386
         382         383         388         387
         383         384         389         388
         385         386         391         390
         386         387         392         391
         387         388         393         392
         388         389         394         393
         390         391         396         395
         391         392         397         396
         392         393         398         397
         393         394         399         398
         400         401         406         405
         401         402         407         406
         402         403         408         407
         403         404         409         408
         405         406         411         410
         406         407         412         411
         407         408         413         412
         408         409         414         413
         410         411         416         415
         411         412         417         416
         412         413         418         417
         413         414         419         418
         415         416         421         420
         416         417         422         421
         417         418         423         422
         418         419         424         423
         425         426         431         430
         426         427         432         431
         427         428         433         432
         428         429         434         433
         430         431         436         435
         431         432         437         436
         432         433         438         437
         433         434         439         438
         435         436         441         440
         436         437         442         441
         437         438         443         442
         438         439         444         443
         440         441         446         445
         441         442         447         446
         442         443         448         447
         443         444         449         448
         450         451         456         455
         451         452         457         456
         452         453         458         457
         453         454         459         458
         455         456         461         460
         456         457         462         461
         457         458         463         462
         458         459         464         463
         460         461         466         465
         461         462         467         466
         462         463         468         467
         463         464         469         468
         465         466         471         470
         466         467         472         471
         467         468         473         472
         468         469         474         473
         475         476         481         480
         476         477         482         481
         477         478         483         482
         478         479         484         483
         480         481         486         485
         481         482         487         486
         482         483         488         487
         483         484         489         488
         485         486         491         490
         486         487         492         491
         487         488         493         492
         488         489         494         493
         490         491         496         495
         491         492         497         496
         492         493         498         497
         493         494         499         498
         500         501         506         505
         501         502         507         506
         502         503         508         507
         503         504         509         508
         505         506         511         510
         506         507         512         511
         507         508         513         512
         508         509         514         513
         510         511         516         515
         511         512         517         516
         512         513         518         517
         513         514         519         518
         515         516         521         520
         516         517         522         521
         517         518         523         522
         518         519         524         523
         525         526         531         530
         526         527         532         531
         527         528         533         532
         528         529         534         533
         530         531         536         535
         531         532         537         536
         532         533         538         537
         533         534         539         538
         535         536         541         540
         536         537         542         541
         537         538         543         542
         538         539         544         543
         540         541         546         545
         541         542         547         546
         542         543         548         547
         543         544         549         548
         550         551         556         555
         551         552         557         556
         552         553         558         557
         553         554         559         558
         555         556         561         560
         556         557         562         561
         557         558         563         562
         558         559         564         563
         560         561         566         565
         561         562         567         566
         562         563         568         567
         563         564         569         568
         565         566         571         570
         566         567         572         571
         567         568         573         572
         568         569         574         573
         575         576         581         580
         576         577         582         581
         577         578         583         582
         578         579         584         583
         580         581         586         585
         581         582         587         586
         582         583         588         587
         583         584         589         588
         585         586         591         590
         586         587         592         591
         587         588         593         592
         588         589         594         593
         590         591         596         595
         591         592         597         596
         592         593         598         597
         593         594         599         598
         600         601         606         605
         601         602         607         606
         602         603         608         607
         603         604         609         608
         605         606         611         610
         606         607         612         611
         607         608         613         612
         608         609         614         613
         610         611         616         615
         611         612         617         616
         612         613         618         617
         613         614         619         618
         615         616         621         620
         616         617         622         621
         617         618         623         622
         618         619         624         623
         625         626         631         630
         626         627         632         631
         627         628         633         632
         628         629         634         633
         630         631         636         635
         631         632         637         636
         632         633         638         637
         633         634         639         638
         635         636         641         640
         636         637         642         641
         637         638         643         642
         638         639         644         643
         640         641         646         645
         641         642         647         646
         642         643         648         647
         643         644         649         648
         650         651         656         655
         651         652         657         656
         652         653         658         657
         653         654         659         658
         655         656         661         660
         656         657         662         661
         657         658         663         662
         658         659         664         663
         660         661         666         665
         661         662         667         666
         662         663         668         667
         663         664         669         668
         665         666         671         670
         666         667         672         671
         667         668         673         672
         668         669         674         673
         675         676         681         680
         676         677         682         681
         677         678         683         682
         678         679         684         683
         680         681         686         685
         681         682         687         686
         682         683         688         687
         683         684         689         688
         685         686         691         690
         686         687         692         691
         687         688         693         692
         688         689         694         693
         690         691         696         695
         691         692         697         696
         692         693         698         697
         693         694         699         698
         700         701         706         705
         701         702         707         706
         702         703         708         707
         703         704         709         708
         705         706         711         710
         706         707         712         711
         707         708         713         712
         708         709         714         713
         710         711         716         715
         711         712         717         716
         712         713         718         717
         713         714         719         718
         715         716         721         720
         716         717         722         721
         717         718         723         722
         718         719         724         723
         725         726         731         730
         726         727         732         731
         727         728         733         732
         728         729         734         733
         730         731         736         735
         731         732         737         736
         732         733         738         737
         733         734         739         738
         735         736         741         740
         736         737         742         741
         737         738         743         742
         738         739         744         743
         740         741         746         745
         741         742         747         746
         742         743         748         747
         743         744         749         748
         750         751         756         755
         751         752         757         756
         752         753         758         757
         753         754         759         758
         755         756         761         760
         756         757         762         761
         757         758         763         762
         758         759         764         763
         760         761         766         765
         761         762         767         766
         762         763         768         767
         763         764         769         768
         765         766         771         770
         766         767         772         771
         767         768         773         772
         768         769         774         773
         775         776         781         780
         776         777         782         781
         777         778         783         782
         778         779         784         783
         780         781         786         785
         781         782         787         786
         782         783         788         787
         783         784         789         788
         785         786         791         790
         786         787         792         791
         787         788         793         792
         788         789         794         793
         790         791         796         795
         791         792         797         796
         792         793         798         797
         793         794         799         798
         800         801         806         805
         801         802         807         806
         802         803         808         807
         803         804         809         808
         805         806         811         810
         806         807         812         811
         807         808         813         812
         808         809         814         813
         810         811         816         815
         811         812         817         816
         812         813         818         817
         813         814         819         818
         815         816         821         820
         816         817         822         821
         817         818         823         822
         818         819         824         823
         825         826         831         830
         826         827         832         831
         827         828         833         832
         828         829         834         833
         830         831         836         835
         831         832         837         836
         832         833         838         837
         833         834         839         838
         835         836         841         840
         836         837         842         841
         837         838         843         842
         838         839         844         843
         840         841         846         845
         841         842         847         846
         842         843         848         847
         843         844         849         848
         850         851         856         855
         851         852         857         856
         852         853         858         857
         853         854         859         858
         855         856         861         860
         856         857         862         861
         857         858         863         862
         858         859         864         863
         860         861         866         865
         861         862         867         866
         862         863         868         867
         863         864         869         868
         865         866         871         870
         866         867         872         871
         867         868         873         872
         868         869         874         873
         875         876         881         880
         876         877         882         881
         877         878         883         882
         878         879         884         883
         880         881         886         885
         881         882         887         886
         882         883         888         887
         883         884         889         888
         885         886         891         890
         886         887         892         891
         887         888         893         892
         888         889         894         893
         890         891         896         895
         891         892         897         896
         892         893         898         897
         893         894         899         898
         900         901         906         905
         901         902         907         906
         902         903         908         907
         903         904         909         908
         905         906         911         910
         906         907         912         911
         907         908         913         912
         908         909         914         913
         910         911         916         915
         911         912         917         916
         912         913         918         917
         913         914         919         918
         915         916         921         920
         916         917         922         921
         917         918         923         922
         918         919         924         923
         925         926         931         930
         926         927         932         931
         927         928         933         932
         928         929         934         933
         930         931         936         935
         931         932         937         936
         932         933         938         937
         933         934         939         938
         935         936         941         940
         936         937         942         941
         937         938         943         942
         938         939         944         943
         940         941         946         945
         941         942         947         946
         942         943         948         947
         943         944         949         948
         950         951         956         955
         951         952         957         956
         952         953         958         957
         953         954         959         958
         955         956         961         960
         956         957         962         961
         957         958         963         962
         958         959         964         963
         960         961         966         965
         961         962         967         966
         962         963         968         967
         963         964         969         968
         965         966         971         970
         966         967         972         971
         967         968         973         972
         968         969         974         973
         975         976         981         980
         976         977         982         981
         977         978         983         982
         978         979         984         983
         980         981         986         985
         981         982         987         986
         982         983         988         987
         983         984         989         988
         985         986         991         990
         986         987         992         991
         987         988         993         992
         988         989         994         993
         990         991         996         995
         991         992         997         996
         992         993         998         997
         993         994         999         998
        1000        1001        1006        1005
        1001        1002        1007        1006
        1002        1003        1008        1007
        1003        1004        1009        1008
        1005        1006        1011        1010
        1006        1007        1012        1011
        1007        1008        1013        1012
        1008        1009        1014        1013
        1010        1011        1016        1015
        1011        1012        1017        1016
        1012        1013        1018        1017
        1013        1014        1019        1018
        1015        1016        1021        1020
        1016        1017        1022        1021
        1017        1018        1023        1022
        1018        1019        1024        1023
        1025        1026        1031        1030
        1026        1027        1032        1031
        1027        1028        1033        1032
        1028        1029        1034        1033
        1030        1031        1036        1035
        1031        1032        1037        1036
        1032        1033        1038        1037
        1033        1034        1039        1038
        1035        1036        1041        1040
        1036        1037        1042        1041
        1037        1038        1043        1042
        1038        1039        1044        1043
        1040        1041        1046        1045
        1041        1042        1047        1046
        1042        1043        1048        1047
        1043        1044        1049        1048
        1050        1051        1056        1055
        1051        1052        1057        1056
        1052        1053        1058        1057
        1053        1054        1059        1058
        1055        1056        1061        1060
        1056        1057        1062        1061
        1057        1058        1063        1062
        1058        1059        1064        1063
        1060        1061        1066        1065
        1061        1062        1067        1066
        1062        1063        1068        1067
        1063        1064        1069        1068
        1065        1066        1071        1070
        1066        1067        1072        1071
        1067        1068        1073        1072
        1068        1069        1074        1073
        1075        1076        1081        1080
        1076        1077        1082        1081
        1077        1078        1083        1082
        1078        1079        1084        1083
        1080        1081        1086        1085
        1081        1082        1087        1086
        1082        1083        1088        1087
        1083        1084        1089        1088
        1085        1086        1091        1090
        1086        1087        1092        1091
        1087        1088        1093        1092
        1088        1089        1094        1093
        1090        1091        1096        1095
        1091        1092        1097        1096
        1092        1093        1098        1097
        1093        1094        1099        1098
        1100        1101        1106        1105
        1101        1102        1107        1106
        1102        1103        1108        1107
        1103        1104        1109        1108
        1105        1106        1111        1110
        1106        1107        1112        1111
        1107        1108        1113        1112
        1108        1109        1114        1113
        1110        1111        1116        1115
        1111        1112        1117        1116
        1112        1113        1118        1117
        1113        1114        1119        1118
        1115        1116        1121        1120
        1116        1117        1122        1121
        1117        1118        1123        1122
        1118        1119        1124        1123
        1125        1126        1131        1130
        1126        1127        1132        1131
        1127        1128        1133        1132
        1128        1129        1134        1133
        1130        1131        1136        1135
        1131        1132        1137        1136
        1132        1133        1138        1137
        1133        1134        1139        1138
        1135        1136        1141        1140
        1136        1137        1142        1141
        1137        1138        1143        1142
        1138        1139        1144        1143
        1140        1141        1146        1145
        1141        1142        1147        1146
        1142        1143        1148        1147
        1143        1144        1149        1148
        1150        1151        1156        1155
        1151        1152        1157        1156
        1152        1153        1158        1157
        1153        1154        1159        1158
        1155        1156        1161        1160
        1156        1157        1162        1161
        1157        1158        1163        1162
        1158        1159        1164        1163
        1160        1161        1166        1165
        1161        1162        1167        1166
        1162        1163        1168        1167
        1163        1164        1169        1168
        1165        1166        1171        1170
        1166        1167        1172        1171
        1167        1168        1173        1172
        1168        1169        1174        1173
        1175        1176        1181        1180
        1176        1177        1182        1181
        1177        1178        1183        1182
        1178        1179        1184        1183
        1180        1181        1186        1185
        1181        1182        1187        1186
        1182        1183        1188        1187
        1183        1184        1189        1188
        1185        1186        1191        1190
        1186        1187        1192        1191
        1187        1188        1193        1192
        1188        1189        1194        1193
        1190        1191        1196        1195
        1191        1192        1197        1196
        1192        1193        1198        1197
        1193        1194        1199        1198
        1200        1201        1206        1205
        1201        1202        1207        1206
        1202        1203        1208        1207
        1203        1204        1209        1208
        1205        1206        1211        1210
        1206        1207        1212        1211
        1207        1208        1213        1212
        1208        1209        1214        1213
        1210        1211        1216        1215
        1211        1212        1217        1216
        1212        1213        1218        1217
        1213        1214        1219        1218
        1215        1216        1221        1220
        1216        1217        1222        1221
        1217        1218        1223        1222
        1218        1219        1224        1223
        1225        1226        1231        1230
        1226        1227        1232        1231
        1227        1228        1233        1232
        1228        1229        1234        1233
        1230        1231        1236        1235
        1231        1232        1237        1236
        1232        1233        1238        1237
        1233        1234        1239        1238
        1235        1236        1241        1240
        1236        1237        1242        1241
        1237        1238        1243        1242
        1238        1239        1244        1243
        1240        1241        1246        1245
        1241        1242        1247        1246
        1242        1243        1248        1247
        1243        1244        1249        1248
        1250        1251        1256        1255
        1251        1252        1257        1256
        1252        1253        1258        1257
        1253        1254        1259        1258
        1255        1256        1261        1260
        1256        1257        1262        1261
        1257        1258        1263        1262
        1258        1259        1264        1263
        1260        1261        1266        1265
        1261        1262        1267        1266
        1262        1263        1268        1267
        1263        1264        1269        1268
        1265        1266        1271        1270
        1266        1267        1272        1271
        1267        1268        1273        1272
        1268        1269        1274        1273
        1275        1276        1281        1280
        1276        1277        1282        1281
        1277        1278        1283        1282
        1278        1279        1284        1283
        1280        1281        1286        1285
        1281        1282        1287        1286
        1282        1283        1288        1287
        1283        1284        1289        1288
        1285        1286        1291        1290
        1286        1287        1292        1291
        1287        1288        1293        1292
        1288        1289        1294        1293
        1290        1291        1296        1295
        1291        1292        1297        1296
        1292        1293        1298        1297
        1293        1294        1299        1298
        1300        1301        1306        1305
        1301        1302        1307        1306
        1302        1303        1308        1307
        1303        1304        1309        1308
        1305        1306        1311        1310
        1306        1307        1312        1311
        1307        1308        1313        1312
        1308        1309        1314        1313
        1310        1311        1316        1315
        1311        1312        1317        1316
        1312        1313        1318        1317
        1313        1314        1319        1318
        1315        1316        1321        1320
        1316        1317        1322        1321
        1317        1318        1323        1322
        1318        1319        1324        1323
        1325        1326        1331        1330
        1326        1327        1332        1331
        1327        1328        1333        1332
        1328        1329        1334        1333
        1330        1331        1336        1335
        1331        1332        1337        1336
        1332        1333        1338        1337
        1333        1334        1339        1338
        1335        1336        1341        1340
        1336        1337        1342        1341
        1337        1338        1343        1342
        1338        1339        1344        1343
        1340        1341        1346        1345
        1341        1342        1347        1346
        1342        1343        1348        1347
        1343        1344        1349        1348
        1350        1351        1356        1355
        1351        1352        1357        1356
        1352        1353        1358        1357
        1353        1354        1359        1358
        1355        1356        1361        1360
        1356        1357        1362        1361
        1357        1358        1363        1362
        1358        1359        1364        1363
        1360        1361        1366        1365
        1361        1362        1367        1366
        1362        1363        1368        1367
        1363        1364        1369        1368
        1365        1366        1371        1370
        1366        1367        1372        1371
        1367        1368        1373        1372
        1368        1369        1374        1373
        1375        1376        1381        1380
        1376        1377        1382        1381
        1377        1378        1383        1382
        1378        1379        1384        1383
        1380        1381        1386        1385
        1381        1382        1387        1386
        1382        1383        1388        1387
        1383        1384        1389        1388
        1385        1386        1391        1390
        1386        1387        1392        1391
        1387        1388        1393        1392
        1388        1389        1394        1393
        1390        1391        1396        1395
        1391        1392        1397        1396
        1392        1393        1398        1397
        1393        1394        1399        1398
        1400        1401        1406        1405
        1401        1402        1407        1406
        1402        1403        1408        1407
        1403        1404        1409        1408
        1405        1406        1411        1410
        1406        1407        1412        1411
        1407        1408        1413        1412
        1408        1409        1414        1413
        1410        1411        1416        1415
        1411        1412        1417        1416
        1412        1413        1418        1417
        1413        1414        1419        1418
        1415        1416        1421        1420
        1416        1417        1422        1421
        1417        1418        1423        1422
        1418        1419        1424        1423
        1425        1426        1431        1430
        1426        1427        1432        1431
        1427        1428        1433        1432
        1428        1429        1434        1433
        1430        1431        1436        1435
        1431        1432        1437        1436
        1432        1433        1438        1437
        1433        1434        1439        1438
        1435        1436        1441        1440
        1436        1437        1442        1441
        1437        1438        1443        1442
        1438        1439        1444        1443
        1440        1441        1446        1445
        1441        1442        1447        1446
        1442        1443        1448        1447
        1443        1444        1449        1448
        1450        1451        1456        1455
        1451        1452        1457        1456
        1452        1453        1458        1457
        1453        1454        1459        1458
        1455        1456        1461        1460
        1456        1457        1462        1461
        1457        1458        1463        1462
        1458        1459        1464        1463
        1460        1461        1466        1465
        1461        1462        1467        1466
        1462        1463        1468        1467
        1463        1464        1469        1468
        1465        1466        1471        1470
        1466        1467        1472        1471
        1467        1468        1473        1472
        1468        1469        1474        1473
        1475        1476        1481        1480
        1476        1477        1482        1481
        1477        1478        1483        1482
        1478        1479        1484        1483
        1480        1481        1486        1485
        1481        1482        1487        1486
        1482        1483        1488        1487
        1483        1484        1489        1488
        1485        1486        1491        1490
        1486        1487        1492        1491
        1487        1488        1493        1492
        1488        1489        1494        1493
        1490        1491        1496        1495
        1491        1492        1497        1496
        1492        1493        1498        1497
        1493        1494        1499        1498
        1500        1501        1506        1505
        1501        1502        1507        1506
        1502        1503        1508        1507
        1503        1504        1509        1508
        1505        1506        1511        1510
        1506        1507        1512        1511
        1507        1508        1513        1512
        1508        1509        1514        1513
        1510        1511        1516        1515
        1511        1512        1517        1516
        1512        1513        1518        1517
        1513        1514        1519        1518
        1515        1516        1521        1520
        1516        1517        1522        1521
        1517        1518        1523        1522
        1518        1519        1524        1523
        1525        1526        1531        1530
        1526        1527        1532        1531
        1527        1528        1533        1532
        1528        1529        1534        1533
        1530        1531        1536        1535
        1531        1532        1537        1536
        1532        1533        1538        1537
        1533        1534        1539        1538
        1535        1536        1541        1540
        1536        1537        1542        1541
        1537        1538        1543        1542
        1538        1539        1544        1543
        1540        1541        1546        1545
        1541        1542        1547        1546
        1542        1543        1548        1547
        1543        1544        1549        1548
        1550        1551        1556        1555
        1551        1552        1557        1556
        1552        1553        1558        1557
        1553        1554        1559        1558
        1555        1556        1561        1560
        1556        1557        1562        1561
        1557        1558        1563        1562
        1558        1559        1564        1563
        1560        1561        1566        1565
        1561        1562        1567        1566
        1562        1563        1568        1567
        1563        1564        1569        1568
        1565        1566        1571        1570
        1566        1567        1572        1571
        1567        1568        1573        1572
        1568        1569        1574        1573
        1575        1576        1581        1580
        1576        1577        1582        1581
        1577        1578        1583        1582
        1578        1579        1584        1583
        1580        1581        1586        1585
        1581        1582        1587        1586
        1582        1583        1588        1587
        1583        1584        1589        1588
        1585        1586        1591        1590
        1586        1587        1592        1591
        1587        1588        1593        1592
        1588        1589        1594        1593
        1590        1591        1596        1595
        1591        1592        1597        1596
        1592        1593        1598        1597
        1593        1594        1599        1598
 </DataArray>
 <DataArray  type="Int32"  Name="offsets"  format="ascii"> 
           4
           8
          12
          16
          20
          24
          28
          32
          36
          40
          44
          48
          52
          56
          60
          64
          68
          72
          76
          80
          84
          88
          92
          96
         100
         104
         108
         112
         116
         120
         124
         128
         132
         136
         140
         144
         148
         152
         156
         160
         164
         168
         172
         176
         180
         184
         188
         192
         196
         200
         204
         208
         212
         216
         220
         224
         228
         232
         236
         240
         244
         248
         252
         256
         260
         264
         268
         272
         276
         280
         284
         288
         292
         296
         300
         304
         308
         312
         316
         320
         324
         328
         332
         336
         340
         344
         348
         352
         356
         360
         364
         368
         372
         376
         380
         384
         388
         392
         396
         400
         404
         408
         412
         416
         420
         424
         428
         432
         436
         440
         444
         448
         452
         456
         460
         464
         468
         472
         476
         480
         484
         488
         492
         496
         500
         504
         508
         512
         516
         520
         524
         528
         532
         536
         540
         544
         548
         552
         556
         560
         564
         568
         572
         576
         580
         584
         588
         592
         596
         600
         604
         608
         612
         616
         620
         624
         628
         632
         636
         640
         644
         648
         652
         656
         660
         664
         668
         672
         676
         680
         684
         688
         692
         696
         700
         704
         708
         712
         716
         720
         724
         728
         732
         736
         740
         744
         748
         752
         756
         760
         764
         768
         772
         776
         780
         784
         788
         792
         796
         800
         804
         808
         812
         816
         820
         824
         828
         832
         836
         840
         844
         848
         852
         856
         860
         864
         868
         872
         876
         880
         884
         888
         892
         896
         900
         904
         908
         912
         916
         920
         924
         928
         932
         936
         940
         944
         948
         952
         956
         960
         964
         968
         972
         976
         980
         984
         988
         992
         996
        1000
        1004
        1008
        1012
        1016
        1020
        1024
        1028
        1032
        1036
        1040
        1044
        1048
        1052
        1056
        1060
        1064
        1068
        1072
        1076
        1080
        1084
        1088
        1092
        1096
        1100
        1104
        1108
        1112
        1116
        1120
        1124
        1128
        1132
        1136
        1140
        1144
        1148
        1152
        1156
        1160
        1164
        1168
        1172
        1176
        1180
        1184
        1188
        1192
        1196
        1200
        1204
        1208
        1212
        1216
        1220
        1224
        1228
        1232
        1236
        1240
        1244
        1248
        1252
        1256
        1260
        1264
        1268
        1272
        1276
        1280
        1284
        1288
        1292
        1296
        1300
        1304
        1308
        1312
        1316
        1320
        1324
        1328
        1332
        1336
        1340
        1344
        1348
        1352
        1356
        1360
        1364
        1368
        1372
        1376
        1380
        1384
        1388
        1392
        1396
        1400
        1404
        1408
        1412
        1416
        1420
        1424
        1428
        1432
        1436
        1440
        1444
        1448
        1452
        1456
        1460
        1464
        1468
        1472
        1476
        1480
        1484
        1488
        1492
        1496
        1500
        1504
        1508
        1512
        1516
        1520
        1524
        1528
        1532
        1536
        1540
        1544
        1548
        1552
        1556
        1560
        1564
        1568
        1572
        1576
        1580
        1584
        1588
        1592
        1596
        1600
        1604
        1608
        1612
        1616
        1620
        1624
        1628
        1632
        1636
        1640
        1644
        1648
        1652
        1656
        1660
        1664
        1668
        1672
        1676
        1680
        1684
        1688
        1692
        1696
        1700
        1704
        1708
        1712
        1716
        1720
        1724
        1728
        1732
        1736
        1740
        1744
        1748
        1752
        1756
        1760
        1764
        1768
        1772
        1776
        1780
        1784
        1788
        1792
        1796
        1800
        1804
        1808
        1812
        1816
        1820
        1824
        1828
        1832
        1836
        1840
        1844
        1848
        1852
        1856
        1860
        1864
        1868
        1872
        1876
        1880
        1884
        1888
        1892
        1896
        1900
        1904
        1908
        1912
        1916
        1920
        1924
        1928
        1932
        1936
        1940
        1944
        1948
        1952
        1956
        1960
        1964
        1968
        1972
        1976
        1980
        1984
        1988
        1992
        1996
        2000
        2004
        2008
        2012
        2016
        2020
        2024
        2028
        2032
        2036
        2040
        2044
        2048
        2052
        2056
        2060
        2064
        2068
        2072
        2076
        2080
        2084
        2088
        2092
        2096
        2100
        2104
        2108
        2112
        2116
        2120
        2124
        2128
        2132
        2136
        2140
        2144
        2148
        2152
        2156
        2160
        2164
        2168
        2172
        2176
        2180
        2184
        2188
        2192
        2196
        2200
        2204
        2208
        2212
        2216
        2220
        2224
        2228
        2232
        2236
        2240
        2244
        2248
        2252
        2256
        2260
        2264
        2268
        2272
        2276
        2280
        2284
        2288
        2292
        2296
        2300
        2304
        2308
        2312
        2316
        2320
        2324
        2328
        2332
        2336
        2340
        2344
        2348
        2352
        2356
        2360
        2364
        2368
        2372
        2376
        2380
        2384
        2388
        2392
        2396
        2400
        2404
        2408
        2412
        2416
        2420
        2424
        2428
        2432
        2436
        2440
        2444
        2448
        2452
        2456
        2460
        2464
        2468
        2472
        2476
        2480
        2484
        2488
        2492
        2496
        2500
        2504
        2508
        2512
        2516
        2520
        2524
        2528
        2532
        2536
        2540
        2544
        2548
        2552
        2556
        2560
        2564
        2568
        2572
        2576
        2580
        2584
        2588
        2592
        2596
        2600
        2604
        2608
        2612
        2616
        2620
        2624
        2628
        2632
        2636
        2640
        2644
        2648
        2652
        2656
        2660
        2664
        2668
        2672
        2676
        2680
        2684
        2688
        2692
        2696
        2700
        2704
        2708
        2712
        2716
        2720
        2724
        2728
        2732
        2736
        2740
        2744
        2748
        2752
        2756
        2760
        2764
        2768
        2772
        2776
        2780
        2784
        2788
        2792
        2796
        2800
        2804
        2808
        2812
        2816
        2820
        2824
        2828
        2832
        2836
        2840
        2844
        2848
        2852
        2856
        2860
        2864
        2868
        2872
        2876
        2880
        2884
        2888
        2892
        2896
        2900
        2904
        2908
        2912
        2916
        2920
        2924
        2928
        2932
        2936
        2940
        2944
        2948
        2952
        2956
        2960
        2964
        2968
        2972
        2976
        2980
        2984
        2988
        2992
        2996
        3000
        3004
        3008
        3012
        3016
        3020
        3024
        3028
        3032
        3036
        3040
        3044
        3048
        3052
        3056
        3060
        3064
        3068
        3072
        3076
        3080
        3084
        3088
        3092
        3096
        3100
        3104
        3108
        3112
        3116
        3120
        3124
        3128
        3132
        3136
        3140
        3144
        3148
        3152
        3156
        3160
        3164
        3168
        3172
        3176
        3180
        3184
        3188
        3192
        3196
        3200
        3204
        3208
        3212
        3216
        3220
        3224
        3228
        3232
        3236
        3240
        3244
        3248
        3252
        3256
        3260
        3264
        3268
        3272
        3276
        3280
        3284
        3288
        3292
        3296
        3300
        3304
        3308
        3312
        3316
        3320
        3324
        3328
        3332
        3336
        3340
        3344
        3348
        3352
        3356
        3360
        3364
        3368
        3372
        3376
        3380
        3384
        3388
        3392
        3396
        3400
        3404
        3408
        3412
        3416
        3420
        3424
        3428
        3432
        3436
        3440
        3444
        3448
        3452
        3456
        3460
        3464
        3468
        3472
        3476
        3480
        3484
        3488
        3492
        3496
        3500
        3504
        3508
        3512
        3516
        3520
        3524
        3528
        3532
        3536
        3540
        3544
        3548
        3552
        3556
        3560
        3564
        3568
        3572
        3576
        3580
        3584
        3588
        3592
        3596
        3600
        3604
        3608
        3612
        3616
        3620
        3624
        3628
        3632
        3636
        3640
        3644
        3648
        3652
        3656
        3660
        3664
        3668
        3672
        3676
        3680
        3684
        3688
        3692
        3696
        3700
        3704
        3708
        3712
        3716
        3720
        3724
        3728
        3732
        3736
        3740
        3744
        3748
        3752
        3756
        3760
        3764
        3768
        3772
        3776
        3780
        3784
        3788
        3792
        3796
        3800
        3804
        3808
        3812
        3816
        3820
        3824
        3828
        3832
        3836
        3840
        3844
        3848
        3852
        3856
        3860
        3864
        3868
        3872
        3876
        3880
        3884
        3888
        3892
        3896
        3900
        3904
        3908
        3912
        3916
        3920
        3924
        3928
        3932
        3936
        3940
        3944
        3948
        3952
        3956
        3960
        3964
        3968
        3972
        3976
        3980
        3984
        3988
        3992
        3996
        4000
        4004
        4008
        4012
        4016
        4020
        4024
        4028
        4032
        4036
        4040
        4044
        4048
        4052
        4056
        4060
        4064
        4068
        4072
        4076
        4080
        4084
        4088
        4092
        4096
 </DataArray>
 <DataArray  type="UInt8"  Name="types"  format="ascii">
 9
 9
 9
 9
 9
 9
 9
 9
 9
 9
 9
 9
 9
 9
 9
 9
 9
 9
 9
 9
 9
 9
 9
 9
 9
 9
 9
 9
 9
 9
 9
 9
 9
 9
 9
 9
 9
 9
 9
 9
 9
 9
 9
 9
 9
 9
 9
 9
 9
 9
 9
 9
 9
 9
 9
 9
 9
 9
 9
 9
 9
 9
 9
 9
 9
 9
 9
 9
 9
 9
 9
 9
 9
 9
 9
 9
 9
 9
 9
 9
 9
 9
 9
 9
 9
 9
 9
 9
 9
 9
 9
 9
 9
 9
 9
 9
 9
 9
 9
 9
 9
 9
 9
 9
 9
 9
 9
 9
 9
 9
 9
 9
 9
 9
 9
 9
 9
 9
 9
 9
 9
 9
 9
 9
 9
 9
 9
 9
 9
 9
 9
 9
 9
 9
 9
 9
 9
 9
 9
 9
 9
 9
 9
 9
 9
 9
 9
 9
 9
 9
 9
 9
 9
 9
 9
 9
 9
 9
 9
 9
 9
 9
 9
 9
 9
 9
 9
 9
 9
 9
 9
 9
 9
 9
 9
 9
 9
 9
 9
 9
 9
 9
 9
 9
 9
 9
 9
 9
 9
 9
 9
 9
 9
 9
 9
 9
 9
 9
 9
 9
 9
 9
 9
 9
 9
 9
 9
 9
 9
 9
 9
 9
 9
 9
 9
 9
 9
 9
 9
 9
 9
 9
 9
 9
 9
 9
 9
 9
 9
 9
 9
 9
 9
 9
 9
 9
 9
 9
 9
 9
 9
 9
 9
 9
 9
 9
 9
 9
 9
 9
 9
 9
 9
 9
 9
 9
 9
 9
 9
 9
 9
 9
 9
 9
 9
 9
 9
 9
 9
 9
 9
 9
 9
 9
 9
 9
 9
 9
 9
 9
 9
 9
 9
 9
 9
 9
 9
 9
 9
 9
 9
 9
 9
 9
 9
 9
 9
 9
 9
 9
 9
 9
 9
 9
 9
 9
 9
 9
 9
 9
 9
 9
 9
 9
 9
 9
 9
 9
 9
 9
 9
 9
 9
 9
 9
 9
 9
 9
 9
 9
 9
 9
 9
 9
 9
 9
 9
 9
 9
 9
 9
 9
 9
 9
 9
 9
 9
 9
 9
 9
 9
 9
 9
 9
 9
 9
 9
 9
 9
 9
 9
 9
 9
 9
 9
 9
 9
 9
 9
 9
 9
 9
 9
 9
 9
 9
 9
 9
 9
 9
 9
 9
 9
 9
 9
 9
 9
 9
 9
 9
 9
 9
 9
 9
 9
 9
 9
 9
 9
 9
 9
 9
 9
 9
 9
 9
 9
 9
 9
 9
 9
 9
 9
 9
 9
 9
 9
 9
 9
 9
 9
 9
 9
 9
 9
 9
 9
 9
 9
 9
 9
 9
 9
 9
 9
 9
 9
 9
 9
 9
 9
 9
 9
 9
 9
 9
 9
 9
 9
 9
 9
 9
 9
 9
 9
 9
 9
 9
 9
 9
 9
 9
 9
 9
 9
 9
 9
 9
 9
 9
 9
 9
 9
 9
 9
 9
 9
 9
 9
 9
 9
 9
 9
 9
 9
 9
 9
 9
 9
 9
 9
 9
 9
 9
 9
 9
 9
 9
 9
 9
 9
 9
 9
 9
 9
 9
 9
 9
 9
 9
 9
 9
 9
 9
 9
 9
 9
 9
 9
 9
 9
 9
 9
 9
 9
 9
 9
 9
 9
 9
 9
 9
 9
 9
 9
 9
 9
 9
 9
 9
 9
 9
 9
 9
 9
 9
 9
 9
 9
 9
 9
 9
 9
 9
 9
 9
 9
 9
 9
 9
 9
 9
 9
 9
 9
 9
 9
 9
 9
 9
 9
 9
 9
 9
 9
 9
 9
 9
 9
 9
 9
 9
 9
 9
 9
 9
 9
 9
 9
 9
 9
 9
 9
 9
 9
 9
 9
 9
 9
 9
 9
 9
 9
 9
 9
 9
 9
 9
 9
 9
 9
 9
 9
 9
 9
 9
 9
 9
 9
 9
 9
 9
 9
 9
 9
 9
 9
 9
 9
 9
 9
 9
 9
 9
 9
 9
 9
 9
 9
 9
 9
 9
 9
 9
 9
 9
 9
 9
 9
 9
 9
 9
 9
 9
 9
 9
 9
 9
 9
 9
 9
 9
 9
 9
 9
 9
 9
 9
 9
 9
 9
 9
 9
 9
 9
 9
 9
 9
 9
 9
 9
 9
 9
 9
 9
 9
 9
 9
 9
 9
 9
 9
 9
 9
 9
 9
 9
 9
 9
 9
 9
 9
 9
 9
 9
 9
 9
 9
 9
 9
 9
 9
 9
 9
 9
 9
 9
 9
 9
 9
 9
 9
 9
 9
 9
 9
 9
 9
 9
 9
 9
 9
 9
 9
 9
 9
 9
 9
 9
 9
 9
 9
 9
 9
 9
 9
 9
 9
 9
 9
 9
 9
 9
 9
 9
 9
 9
 9
 9
 9
 9
 9
 9
 9
 9
 9
 9
 9
 9
 9
 9
 9
 9
 9
 9
 9
 9
 9
 9
 9
 9
 9
 9
 9
 9
 9
 9
 9
 9
 9
 9
 9
 9
 9
 9
 9
 9
 9
 9
 9
 9
 9
 9
 9
 9
 9
 9
 9
 9
 9
 9
 9
 9
 9
 9
 9
 9
 9
 9
 9
 9
 9
 9
 9
 9
 9
 9
 9
 9
 9
 9
 9
 9
 9
 9
 9
 9
 9
 9
 9
 9
 9
 9
 9
 9
 9
 9
 9
 9
 9
 9
 9
 9
 9
 9
 9
 9
 9
 9
 9
 9
 9
 9
 9
 9
 9
 9
 9
 9
 9
 9
 9
 9
 9
 9
 9
 9
 9
 9
 9
 9
 9
 9
 9
 9
 9
 9
 9
 9
 9
 9
 9
 9
 9
 9
 9
 9
 9
 9
 9
 9
 9
 9
 9
 9
 9
 9
 9
 9
 9
 9
 9
 9
 9
 9
 9
 9
 9
 9
 9
 9
 9
 9
 9
 9
 9
 9
 9
 9
 9
 9
 9
 9
 9
 9
 9
 9
 9
 9
 9
 9
 9
 9
 9
 9
 9
 9
 9
 9
 9
 9
 9
 9
 9
 9
 9
 9
 9
 9
 9
 9
 9
 9
 9
 9
 9
 9
 9
 9
 9
 9
 9
 9
 9
 9
 9
 9
 9
 9
 9
 9
 9
 9
 9
 9
 9
 9
 9
 9
 9
 9
 9
 9
 9
 9
 9
 9
 9
 9
 9
 9
 9
 9
 9
 9
 9
 9
 9
 9
 9
 9
 9
 9
 9
 9
 9
 9
 9
 9
 9
 9
 9
 9
 9
 </DataArray>
 </Cells> 
 <PointData>
 <DataArray  type="Float64" Name="disp" NumberOfComponents="3" format="ascii">
   6.5216145244028467E-002   6.2727193553708177E-002   0.0000000000000000     
   6.8394223153042361E-002   6.8142014997895933E-002   0.0000000000000000     
   7.1424157769547997E-002   7.3729608863341817E-002   0.0000000000000000     
   7.4305949093545390E-002   7.9489975150045786E-002   0.0000000000000000     
   7.7039597125034498E-002   8.5423113858007854E-002   0.0000000000000000     
   6.0108153354400271E-002   6.1892798940007834E-002   0.0000000000000000     
   6.3059356671517630E-002   6.7288226084430303E-002   0.0000000000000000     
   6.5880073415075568E-002   7.2873589884142803E-002   0.0000000000000000     
   6.8570303585074099E-002   7.8648890339145336E-002   0.0000000000000000     
   7.1130047181513223E-002   8.4614127449437901E-002   0.0000000000000000     
   5.5160567069698158E-002   6.1080736283974847E-002   0.0000000000000000     
   5.7902704571202501E-002   6.6477654791015084E-002   0.0000000000000000     
   6.0526715295727410E-002   7.2073656289223104E-002   0.0000000000000000     
   6.3032599243272855E-002   7.7868740778598913E-002   0.0000000000000000     
   6.5420356413838865E-002   8.3862908259142527E-002   0.0000000000000000     
   5.0373386389922115E-002   6.0291005585609209E-002   0.0000000000000000     
   5.2924266852096988E-002   6.5710301117650291E-002   0.0000000000000000     
   5.5364083411503492E-002   7.1329808078582746E-002   0.0000000000000000     
   5.7692836068141642E-002   7.7149526468406546E-002   0.0000000000000000     
   5.9910524822011431E-002   8.3169456287121704E-002   0.0000000000000000     
   4.5746611315072142E-002   5.9523606844910912E-002   0.0000000000000000     
   4.8124043514201076E-002   6.4986165064335924E-002   0.0000000000000000     
   5.0392177762403852E-002   7.0642045252221702E-002   0.0000000000000000     
   5.2551014059680462E-002   7.6491247408568219E-002   0.0000000000000000     
   5.4600552406030914E-002   8.2533771533375475E-002   0.0000000000000000     
   7.7039597125034498E-002   8.5423113858007854E-002   0.0000000000000000     
   7.9662676424550022E-002   9.1520835723190322E-002   0.0000000000000000     
   8.2212761552626551E-002   9.7774951481555405E-002   0.0000000000000000     
   8.4689852509264127E-002  0.10418546113310313        0.0000000000000000     
   8.7093949294462708E-002  0.11075236467783350        0.0000000000000000     
   7.1130047181513223E-002   8.4614127449437901E-002   0.0000000000000000     
   7.3590939050697121E-002   9.0750486462965824E-002   0.0000000000000000     
   7.5984614038929990E-002   9.7039152627674416E-002   0.0000000000000000     
   7.8311072146211844E-002  0.10348012594356365        0.0000000000000000     
   8.0570313372542654E-002  0.11007340641063357        0.0000000000000000     
   6.5420356413838865E-002   8.3862908259142527E-002   0.0000000000000000     
   6.7718130254175057E-002   9.0031602235900940E-002   0.0000000000000000     
   6.9954064211031036E-002   9.6350266213921246E-002   0.0000000000000000     
   7.2128158284406829E-002  0.10281890019320339        0.0000000000000000     
   7.4240412474302409E-002  0.10943750417374741        0.0000000000000000     
   5.9910524822011431E-002   8.3169456287121704E-002   0.0000000000000000     
   6.2044250034983789E-002   8.9364183041995671E-002   0.0000000000000000     
   6.4121112068929675E-002   9.5708292240295867E-002   0.0000000000000000     
   6.6141110923849056E-002  0.10220178388202232        0.0000000000000000     
   6.8104246599741972E-002  0.10884465796717500        0.0000000000000000     
   5.4600552406030914E-002   8.2533771533375475E-002   0.0000000000000000     
   5.6569298393123343E-002   8.8748228881250016E-002   0.0000000000000000     
   5.8485757612625887E-002   9.5113230706798349E-002   0.0000000000000000     
   6.0349930064538558E-002  0.10162877701002046        0.0000000000000000     
   6.2161815748861343E-002  0.10829486779091636        0.0000000000000000     
   8.7093949294462708E-002  0.11075236467783350        0.0000000000000000     
   8.9409970375963987E-002  0.11746437294108453        0.0000000000000000     
   9.1622834221509547E-002  0.12431019674819416        0.0000000000000000     
   9.3732540831099442E-002  0.13128983609916242        0.0000000000000000     
   9.5739090204733646E-002  0.13840329099398929        0.0000000000000000     
   8.0570313372542654E-002  0.11007340641063357        0.0000000000000000     
   8.2746377687785769E-002  0.11681034934415879        0.0000000000000000     
   8.4823305061804521E-002  0.12368231005941394        0.0000000000000000     
   8.6801095494598871E-002  0.13068928855639900        0.0000000000000000     
   8.8679748986168899E-002  0.13783128483511400        0.0000000000000000     
   7.4240412474302409E-002  0.10943750417374741        0.0000000000000000     
   7.6274587621351420E-002  0.11619898162444371        0.0000000000000000     
   7.8214444566187494E-002  0.12309623601418268        0.0000000000000000     
   8.0059983308810673E-002  0.13012926734296434        0.0000000000000000     
   8.1811203849220901E-002  0.13729807561078866        0.0000000000000000     
   6.8104246599741972E-002  0.10884465796717500        0.0000000000000000     
   6.9994600176660940E-002  0.11563026978193926        0.0000000000000000     
   7.1796252734658547E-002  0.12255197461250041        0.0000000000000000     
   7.3509204273734807E-002  0.12960977245885838        0.0000000000000000     
   7.5133454793889679E-002  0.13680366332101326        0.0000000000000000     
   6.2161815748861343E-002  0.10829486779091636        0.0000000000000000     
   6.3906415353714344E-002  0.11510421381664544        0.0000000000000000     
   6.5568729567217654E-002  0.12204952585436704        0.0000000000000000     
   6.7148758389371260E-002  0.12913080390408119        0.0000000000000000     
   6.8646501820175190E-002  0.13634804796578784        0.0000000000000000     
   9.5739090204733646E-002  0.13840329099398929        0.0000000000000000     
   9.7648130713842859E-002  0.14563873737402167        0.0000000000000000     
   9.9465310729857745E-002  0.15298435118060635        0.0000000000000000     
  0.10119063025277832       0.16044013241374341        0.0000000000000000     
  0.10282408928260459       0.16800608107343279        0.0000000000000000     
   8.8679748986168899E-002  0.13783128483511400        0.0000000000000000     
   9.0466427418877990E-002  0.14509536031854708        0.0000000000000000     
   9.2168292675089594E-002  0.15246857642968636        0.0000000000000000     
   9.3785344754803740E-002  0.15995093316853187        0.0000000000000000     
   9.5317583658020399E-002  0.16754243053508358        0.0000000000000000     
   8.1811203849220901E-002  0.13729807561078866        0.0000000000000000     
   8.3475859049116849E-002  0.14458904521302834        0.0000000000000000     
   8.5061701770197173E-002  0.15198856054505602        0.0000000000000000     
   8.6568732012461833E-002  0.15949662160687170        0.0000000000000000     
   8.7996949775910868E-002  0.16711322839847537        0.0000000000000000     
   7.5133454793889679E-002  0.13680366332101326        0.0000000000000000     
   7.6676425604559451E-002  0.14411979205746545        0.0000000000000000     
   7.8145538015180441E-002  0.15154430352671533        0.0000000000000000     
   7.9540792025752607E-002  0.15907719772876291        0.0000000000000000     
   8.0862187636276020E-002  0.16671847466360817        0.0000000000000000     
   6.8646501820175190E-002  0.13634804796578784        0.0000000000000000     
   7.0068127085205809E-002  0.14368760085185842        0.0000000000000000     
   7.1419801410039438E-002  0.15113580537466431        0.0000000000000000     
   7.2701524794676092E-002  0.15869266153420553        0.0000000000000000     
   7.3913297239115772E-002  0.16635816933048203        0.0000000000000000     
  0.10282408928260459       0.16800608107343279        0.0000000000000000     
  0.10436899970272817       0.17567178296377334        0.0000000000000000     
  0.10582867339654077       0.18342682388886397        0.0000000000000000     
  0.10720311036404238       0.19127120384870466        0.0000000000000000     
  0.10849231060523298       0.19920492284329538        0.0000000000000000     
   9.5317583658020399E-002  0.16754243053508358        0.0000000000000000     
   9.6765403581286422E-002  0.17523348684072945        0.0000000000000000     
   9.8129198721148600E-002  0.18301452039685728        0.0000000000000000     
   9.9408969077606976E-002  0.19088553120346718        0.0000000000000000     
  0.10060471465066152       0.19884651926055916        0.0000000000000000     
   8.7996949775910868E-002  0.16711322839847537        0.0000000000000000     
   8.9344795963254925E-002  0.17482923399956890        0.0000000000000000     
   9.0610711477204633E-002  0.18263549148985392        0.0000000000000000     
   9.1794696317760008E-002  0.19053200086933059        0.0000000000000000     
   9.2896750484921006E-002  0.19851876213799879        0.0000000000000000     
   8.0862187636276020E-002  0.16671847466360817        0.0000000000000000     
   8.2107176848633709E-002  0.17445902444029168        0.0000000000000000     
   8.3273211664708843E-002  0.18228973716785388        0.0000000000000000     
   8.4360292084501451E-002  0.19021061284629476        0.0000000000000000     
   8.5368418108011476E-002  0.19822165147561427        0.0000000000000000     
   7.3913297239115772E-002  0.16635816933048203        0.0000000000000000     
   7.5052546237422746E-002  0.17412285816289785        0.0000000000000000     
   7.6116699283661257E-002  0.18197725743085710        0.0000000000000000     
   7.7105756377831305E-002  0.18992136713435970        0.0000000000000000     
   7.8019717519932891E-002  0.19795518727340566        0.0000000000000000     
  0.10849231060523298       0.19920492284329538        0.0000000000000000     
  0.10970107310694537       0.20722421806863670        0.0000000000000000     
  0.11083419685601231       0.21532532672072913        0.0000000000000000     
  0.11189168185243387       0.22350824879957265        0.0000000000000000     
  0.11287352809620997       0.23177298430516730        0.0000000000000000     
  0.10060471465066152       0.19884651926055916        0.0000000000000000     
  0.10172185180292505       0.20689131760857635        0.0000000000000000     
  0.10276579689701033       0.21501375928796193        0.0000000000000000     
  0.10373654993291742       0.22321384429871602        0.0000000000000000     
  0.10463411091064628       0.23149157264083850        0.0000000000000000     
   9.2896750484921006E-002  0.19851876213799879        0.0000000000000000     
   9.3921856377495130E-002  0.20658823158128956        0.0000000000000000     
   9.4874996394289784E-002  0.21473286548463374        0.0000000000000000     
   9.5756170535304982E-002  0.22295266384803150        0.0000000000000000     
   9.6565378800540697E-002  0.23124762667148271        0.0000000000000000     
   8.5368418108011476E-002  0.19822165147561427        0.0000000000000000     
   8.6301086830655668E-002  0.20631495998677635        0.0000000000000000     
   8.7161795347850679E-002  0.21448264531074460        0.0000000000000000     
   8.7950543659596550E-002  0.22272470744751913        0.0000000000000000     
   8.8667331765893254E-002  0.23104114639709986        0.0000000000000000     
   7.8019717519932891E-002  0.19795518727340566        0.0000000000000000     
   7.8859543162406606E-002  0.20607150282503667        0.0000000000000000     
   7.9626193757693003E-002  0.21426309876629443        0.0000000000000000     
   8.0319669305792124E-002  0.22252997509717892        0.0000000000000000     
   8.0939969806703940E-002  0.23087213181769012        0.0000000000000000     
  0.11287352809620997       0.23177298430516730        0.0000000000000000     
  0.11380806983155166       0.24013602863159361        0.0000000000000000     
  0.11472364130266995       0.24861387717293210        0.0000000000000000     
  0.11562024250956481       0.25720652992918286        0.0000000000000000     
  0.11649787345223628       0.26591398690034579        0.0000000000000000     
  0.10463411091064628       0.23149157264083850        0.0000000000000000     
  0.10546350657817782       0.23987033676365291        0.0000000000000000     
  0.10622976368349296       0.24837352911648269        0.0000000000000000     
  0.10693288222659172       0.25700114969932791        0.0000000000000000     
  0.10757286220747408       0.26575319851218848        0.0000000000000000     
   9.6565378800540697E-002  0.23124762667148271        0.0000000000000000     
   9.7293381067700524E-002  0.23964413283946906        0.0000000000000000     
   9.7930937214488020E-002  0.24816856123647230        0.0000000000000000     
   9.8478047240903199E-002  0.25682091186249245        0.0000000000000000     
   9.8934711146946019E-002  0.26560118471752941        0.0000000000000000     
   8.8667331765893254E-002  0.23104114639709986        0.0000000000000000     
   8.9297693300119788E-002  0.23945741685904215        0.0000000000000000     
   8.9827161895655108E-002  0.24799897353290101        0.0000000000000000     
   9.0255737552499229E-002  0.25666581641867653        0.0000000000000000     
   9.0583420270652137E-002  0.26545794551636875        0.0000000000000000     
   8.0939969806703940E-002  0.23087213181769012        0.0000000000000000     
   8.1476443275435587E-002  0.23931018882237204        0.0000000000000000     
   8.1918437726994212E-002  0.24786476600576873        0.0000000000000000     
   8.2265953161379815E-002  0.25653586336788020        0.0000000000000000     
   8.2518989578592397E-002  0.26532348090870639        0.0000000000000000     
  0.11649787345223628       0.26591398690034579        0.0000000000000000     
  0.11729685330205261       0.27490088215533465        0.0000000000000000     
  0.11795750123038215       0.28433184976306314        0.0000000000000000     
  0.11847981723722488       0.29420688972353126        0.0000000000000000     
  0.11886380132258079       0.30452600203673907        0.0000000000000000     
  0.10757286220747408       0.26575319851218848        0.0000000000000000     
  0.10813073335325370       0.27476186267196590        0.0000000000000000     
  0.10858752539104433       0.28415932929556154        0.0000000000000000     
  0.10894323832084588       0.29394559838297551        0.0000000000000000     
  0.10919787214265844       0.30412066993420761        0.0000000000000000     
   9.8934711146946019E-002  0.26560118471752941        0.0000000000000000     
   9.9311972557133477E-002  0.27460771301326997        0.0000000000000000     
   9.9620875095982442E-002  0.28393882996140063        0.0000000000000000     
   9.9861418763492957E-002  0.29359453556192150        0.0000000000000000     
  0.10003360355966499       0.30357482981483241        0.0000000000000000     
   9.0583420270652137E-002  0.26545794551636875        0.0000000000000000     
   9.0840570913691868E-002  0.27443843317924699        0.0000000000000000     
   9.1057550345196511E-002  0.28367035176058047        0.0000000000000000     
   9.1234358565166027E-002  0.29315370126036927        0.0000000000000000     
   9.1370995573600455E-002  0.30288848167861349        0.0000000000000000     
   8.2518989578592397E-002  0.26532348090870639        0.0000000000000000     
   8.2716528422928967E-002  0.27425402316989683        0.0000000000000000     
   8.2897551138686562E-002  0.28335389469310107        0.0000000000000000     
   8.3062057725865168E-002  0.29262309547831905        0.0000000000000000     
   8.3210048184464813E-002  0.30206162552555083        0.0000000000000000     
   4.5746611315072142E-002   5.9523606844910912E-002   0.0000000000000000     
   4.8124043514201076E-002   6.4986165064335924E-002   0.0000000000000000     
   5.0392177762403852E-002   7.0642045252221702E-002   0.0000000000000000     
   5.2551014059680462E-002   7.6491247408568219E-002   0.0000000000000000     
   5.4600552406030914E-002   8.2533771533375475E-002   0.0000000000000000     
   4.1287664548050607E-002   5.8810338232251486E-002   0.0000000000000000     
   4.3492479111099935E-002   6.4317419995002206E-002   0.0000000000000000     
   4.5589525329227124E-002   7.0009803154815337E-002   0.0000000000000000     
   4.7578803202432213E-002   7.5887487711690904E-002   0.0000000000000000     
   4.9460312730715182E-002   8.1950473665628867E-002   0.0000000000000000     
   3.7003968791759864E-002   5.8182997918002438E-002   0.0000000000000000     
   3.9020018196378674E-002   6.3716239273579361E-002   0.0000000000000000     
   4.0934653092771972E-002   6.9432517131039082E-002   0.0000000000000000     
   4.2747873480939787E-002   7.5331831490381598E-002   0.0000000000000000     
   4.4459679360882097E-002   8.1414182351606898E-002   0.0000000000000000     
   3.2895524046199921E-002   5.7641585902163783E-002   0.0000000000000000     
   3.4706660770037305E-002   6.3182622900067403E-002   0.0000000000000000     
   3.6427561053038404E-002   6.8910187180892910E-002   0.0000000000000000     
   3.8058224895203177E-002   7.4824278744640288E-002   0.0000000000000000     
   3.9598652296531665E-002   8.0924897591309594E-002   0.0000000000000000     
   2.8962330311370771E-002   5.7186102184735507E-002   0.0000000000000000     
   3.0552406832075850E-002   6.2716570874466304E-002   0.0000000000000000     
   3.2068249210026399E-002   6.8442813304376821E-002   0.0000000000000000     
   3.3509857445222405E-002   7.4364829474467029E-002   0.0000000000000000     
   3.4877231537663880E-002   8.0482619384736942E-002   0.0000000000000000     
   5.4600552406030914E-002   8.2533771533375475E-002   0.0000000000000000     
   5.6569298393123343E-002   8.8748228881250016E-002   0.0000000000000000     
   5.8485757612625887E-002   9.5113230706798349E-002   0.0000000000000000     
   6.0349930064538558E-002  0.10162877701002046        0.0000000000000000     
   6.2161815748861343E-002  0.10829486779091636        0.0000000000000000     
   4.9460312730715182E-002   8.1950473665628867E-002   0.0000000000000000     
   5.1263962682432967E-002   8.8182129297758913E-002   0.0000000000000000     
   5.3019661825942498E-002   9.4565822889210727E-002   0.0000000000000000     
   5.4727410161243772E-002  0.10110155443998435        0.0000000000000000     
   5.6387207688336799E-002  0.10778932395007972        0.0000000000000000     
   4.4459679360882097E-002   8.1414182351606898E-002   0.0000000000000000     
   4.6098930256751935E-002   8.7664273835617312E-002   0.0000000000000000     
   4.7694485692702286E-002   9.4066810063315187E-002   0.0000000000000000     
   4.9246345668733170E-002  0.10062179103470047        0.0000000000000000     
   5.0754510184844594E-002  0.10732921674977323        0.0000000000000000     
   3.9598652296531665E-002   8.0924897591309594E-002   0.0000000000000000     
   4.1074201116080233E-002   8.7194662494825215E-002   0.0000000000000000     
   4.2510229212905259E-002   9.3616192229111661E-002   0.0000000000000000     
   4.3906736587006757E-002  0.10018948679416891        0.0000000000000000     
   4.5263723238384734E-002  0.10691454618999693        0.0000000000000000     
   3.4877231537663880E-002   8.0482619384736942E-002   0.0000000000000000     
   3.6189775260417868E-002   8.6773295275382634E-002   0.0000000000000000     
   3.7466892386551418E-002   9.3213969386600190E-002   0.0000000000000000     
   3.8708582916064528E-002   9.9804641718389583E-002   0.0000000000000000     
   3.9914846848957214E-002  0.10654531227075083        0.0000000000000000     
   6.2161815748861343E-002  0.10829486779091636        0.0000000000000000     
   6.3906415353714344E-002  0.11510421381664544        0.0000000000000000     
   6.5568729567217654E-002  0.12204952585436704        0.0000000000000000     
   6.7148758389371260E-002  0.12913080390408119        0.0000000000000000     
   6.8646501820175190E-002  0.13634804796578784        0.0000000000000000     
   5.6387207688336799E-002  0.10778932395007972        0.0000000000000000     
   5.7985249187991111E-002  0.11462102408506628        0.0000000000000000     
   5.9507729440976251E-002  0.12158854751051340        0.0000000000000000     
   6.0954648447292217E-002  0.12869189422642111        0.0000000000000000     
   6.2326006206939025E-002  0.13593106423278939        0.0000000000000000     
   5.0754510184844594E-002  0.10732921674977323        0.0000000000000000     
   5.2206317714970731E-002  0.11418091094370569        0.0000000000000000     
   5.3589106733045809E-002  0.12116869735167016        0.0000000000000000     
   5.4902877239069794E-002  0.12829257597366658        0.0000000000000000     
   5.6147629233042701E-002  0.13555254680969503        0.0000000000000000     
   4.5263723238384734E-002  0.10691454618999693        0.0000000000000000     
   4.6569620934653222E-002  0.11378387439256375        0.0000000000000000     
   4.7812861443426301E-002  0.12078997537783732        0.0000000000000000     
   4.8993444764703971E-002  0.12793284914581762        0.0000000000000000     
   5.0111370898486225E-002  0.13521249569650468        0.0000000000000000     
   3.9914846848957214E-002  0.10654531227075083        0.0000000000000000     
   4.1075158847038579E-002  0.11342991443164041        0.0000000000000000     
   4.2178993572117761E-002  0.12045238158901489        0.0000000000000000     
   4.3226351024194774E-002  0.12761271374287422        0.0000000000000000     
   4.4217231203269577E-002  0.13491091089321838        0.0000000000000000     
   6.8646501820175190E-002  0.13634804796578784        0.0000000000000000     
   7.0068127085205809E-002  0.14368760085185842        0.0000000000000000     
   7.1419801410039438E-002  0.15113580537466431        0.0000000000000000     
   7.2701524794676092E-002  0.15869266153420553        0.0000000000000000     
   7.3913297239115772E-002  0.16635816933048203        0.0000000000000000     
   6.2326006206939025E-002  0.13593106423278939        0.0000000000000000     
   6.3626456624574987E-002  0.14329267888458083        0.0000000000000000     
   6.4860653604858445E-002  0.15076335953675785        0.0000000000000000     
   6.6028597147789359E-002  0.15834310618932054        0.0000000000000000     
   6.7130287253367754E-002  0.16603191884226881        0.0000000000000000     
   5.6147629233042701E-002  0.13555254680969503        0.0000000000000000     
   5.7326907356186160E-002  0.14293523344400616        0.0000000000000000     
   5.8444256249721792E-002  0.15042725946085087        0.0000000000000000     
   5.9499675913649575E-002  0.15802862486022898        0.0000000000000000     
   6.0493166347969529E-002  0.16573932964214061        0.0000000000000000     
   5.0111370898486225E-002  0.13521249569650468        0.0000000000000000     
   5.1169479280039315E-002  0.14261526453013457        0.0000000000000000     
   5.2170609344629477E-002  0.15012750514694329        0.0000000000000000     
   5.3114761092256733E-002  0.15774921754693094        0.0000000000000000     
   5.4001934522921083E-002  0.16548040173009743        0.0000000000000000     
   4.4217231203269577E-002  0.13491091089321838        0.0000000000000000     
   4.5154172396134430E-002  0.14233277214296589        0.0000000000000000     
   4.6039712889581516E-002  0.14986409659503516        0.0000000000000000     
   4.6873852683610842E-002  0.15750488424942627        0.0000000000000000     
   4.7656591778222408E-002  0.16525513510613915        0.0000000000000000     
   7.3913297239115772E-002  0.16635816933048203        0.0000000000000000     
   7.5052546237422746E-002  0.17412285816289785        0.0000000000000000     
   7.6116699283661257E-002  0.18197725743085710        0.0000000000000000     
   7.7105756377831305E-002  0.18992136713435970        0.0000000000000000     
   7.8019717519932891E-002  0.19795518727340566        0.0000000000000000     
   6.7130287253367754E-002  0.16603191884226881        0.0000000000000000     
   6.8163511436413263E-002  0.17381985813027548        0.0000000000000000     
   6.9126057211745445E-002  0.18169698468801321        0.0000000000000000     
   7.0017924579364343E-002  0.18966329851548208        0.0000000000000000     
   7.0839113539269943E-002  0.19771879961268196        0.0000000000000000     
   6.0493166347969529E-002  0.16573932964214061        0.0000000000000000     
   6.1422679752396417E-002  0.17354914730531265        0.0000000000000000     
   6.2286168326645006E-002  0.18144785134847191        0.0000000000000000     
   6.3083632070715295E-002  0.18943544177161847        0.0000000000000000     
   6.3815070984607286E-002  0.19751191857475231        0.0000000000000000     
   5.4001934522921083E-002  0.16548040173009743        0.0000000000000000     
   5.4830051185372229E-002  0.17331072568800931        0.0000000000000000     
   5.5597032628359924E-002  0.18122985741223316        0.0000000000000000     
   5.6302878851884168E-002  0.18923779690276896        0.0000000000000000     
   5.6947589855944933E-002  0.19733454415961665        0.0000000000000000     
   4.7656591778222408E-002  0.16525513510613915        0.0000000000000000     
   4.8385625735340700E-002  0.17310459327836547        0.0000000000000000     
   4.9058650116890208E-002  0.18104300287929689        0.0000000000000000     
   4.9675664922870948E-002  0.18907036390893348        0.0000000000000000     
   5.0236670153282904E-002  0.19718667636727508        0.0000000000000000     
   7.8019717519932891E-002  0.19795518727340566        0.0000000000000000     
   7.8859543162406606E-002  0.20607150282503667        0.0000000000000000     
   7.9626193757693003E-002  0.21426309876629443        0.0000000000000000     
   8.0319669305792124E-002  0.22252997509717892        0.0000000000000000     
   8.0939969806703940E-002  0.23087213181769012        0.0000000000000000     
   7.0839113539269943E-002  0.19771879961268196        0.0000000000000000     
   7.1588083685422285E-002  0.20585707347865811        0.0000000000000000     
   7.2263294611781465E-002  0.21407170561245556        0.0000000000000000     
   7.2864746318347426E-002  0.22236269601407446        0.0000000000000000     
   7.3392438805120183E-002  0.23073004468351463        0.0000000000000000     
   6.3815070984607286E-002  0.19751191857475231        0.0000000000000000     
   6.4477566712377060E-002  0.20567088533022804        0.0000000000000000     
   6.5068200898080686E-002  0.21390594561040038        0.0000000000000000     
   6.5586973541718149E-002  0.22221709941526926        0.0000000000000000     
   6.6033884643289464E-002  0.23060434674483477        0.0000000000000000     
   5.6947589855944933E-002  0.19733454415961665        0.0000000000000000     
   5.7527992243270910E-002  0.20551293837974657        0.0000000000000000     
   5.8040912616590709E-002  0.21376581876012882        0.0000000000000000     
   5.8486350975904329E-002  0.22209318530076352        0.0000000000000000     
   5.8864307321211784E-002  0.23049503800165047        0.0000000000000000     
   5.0236670153282904E-002  0.19718667636727508        0.0000000000000000     
   5.0739360278103836E-002  0.20538323262721361        0.0000000000000000     
   5.1181429767311513E-002  0.21365132506164095        0.0000000000000000     
   5.1562878620905944E-002  0.22199095367055699        0.0000000000000000     
   5.1883706838887128E-002  0.23040211845396183        0.0000000000000000     
   8.0939969806703940E-002  0.23087213181769012        0.0000000000000000     
   8.1476443275435587E-002  0.23931018882237204        0.0000000000000000     
   8.1918437726994212E-002  0.24786476600576873        0.0000000000000000     
   8.2265953161379815E-002  0.25653586336788020        0.0000000000000000     
   8.2518989578592397E-002  0.26532348090870639        0.0000000000000000     
   7.3392438805120183E-002  0.23073004468351463        0.0000000000000000     
   7.3843141514161076E-002  0.23918747126450030        0.0000000000000000     
   7.4213623887531374E-002  0.24774869540075550        0.0000000000000000     
   7.4503885925231120E-002  0.25641371709228017        0.0000000000000000     
   7.4713927627260271E-002  0.26518253633907451        0.0000000000000000     
   6.6033884643289464E-002  0.23060434674483477        0.0000000000000000     
   6.6411298536809382E-002  0.23907428672046821        0.0000000000000000     
   6.6721579556292668E-002  0.24763351846354115        0.0000000000000000     
   6.6964727701739293E-002  0.25628204197405346        0.0000000000000000     
   6.7140742973149287E-002  0.26501985725200522        0.0000000000000000     
   5.8864307321211784E-002  0.23049503800165047        0.0000000000000000     
   5.9180914343380533E-002  0.23897063519027592        0.0000000000000000     
   5.9442304733278051E-002  0.24751923519412569        0.0000000000000000     
   5.9648478490904343E-002  0.25614083801319987        0.0000000000000000     
   5.9799435616259403E-002  0.26483544364749850        0.0000000000000000     
   5.1883706838887128E-002  0.23040211845396183        0.0000000000000000     
   5.2151988933874502E-002  0.23887651667392326        0.0000000000000000     
   5.2375799418487558E-002  0.24740584559250919        0.0000000000000000     
   5.2555138292726261E-002  0.25599010520971954        0.0000000000000000     
   5.2690005556590633E-002  0.26462929552555442        0.0000000000000000     
   8.2518989578592397E-002  0.26532348090870639        0.0000000000000000     
   8.2716528422928967E-002  0.27425402316989683        0.0000000000000000     
   8.2897551138686562E-002  0.28335389469310107        0.0000000000000000     
   8.3062057725865168E-002  0.29262309547831905        0.0000000000000000     
   8.3210048184464813E-002  0.30206162552555083        0.0000000000000000     
   7.4713927627260271E-002  0.26518253633907451        0.0000000000000000     
   7.4884676366501160E-002  0.27404879997767667        0.0000000000000000     
   7.5057059515836050E-002  0.28300615484462505        0.0000000000000000     
   7.5231077075264954E-002  0.29205460093991981        0.0000000000000000     
   7.5406729044787887E-002  0.30119413826356078        0.0000000000000000     
   6.7140742973149287E-002  0.26501985725200522        0.0000000000000000     
   6.7289846026064914E-002  0.27381708059504339        0.0000000000000000     
   6.7452257516028499E-002  0.28264382830081525        0.0000000000000000     
   6.7627977443040013E-002  0.29150010036932067        0.0000000000000000     
   6.7817005807099484E-002  0.30038589680055955        0.0000000000000000     
   5.9799435616259403E-002  0.26483544364749850        0.0000000000000000     
   5.9932037401620238E-002  0.27355886502199717        0.0000000000000000     
   6.0083145139263883E-002  0.28226691506167140        0.0000000000000000     
   6.0252758829190345E-002  0.29095959376652147        0.0000000000000000     
   6.0440878471399596E-002  0.29963690113654717        0.0000000000000000     
   5.2690005556590633E-002  0.26462929552555442        0.0000000000000000     
   5.2811250493167136E-002  0.27327415325853777        0.0000000000000000     
   5.2949722385542235E-002  0.28187541512719377        0.0000000000000000     
   5.3105421233715928E-002  0.29043308113152239        0.0000000000000000     
   5.3278347037688231E-002  0.29894715127152360        0.0000000000000000     
   2.8962330311370771E-002   5.7186102184735507E-002   0.0000000000000000     
   3.0552406832075850E-002   6.2716570874466304E-002   0.0000000000000000     
   3.2068249210026399E-002   6.8442813304376821E-002   0.0000000000000000     
   3.3509857445222405E-002   7.4364829474467029E-002   0.0000000000000000     
   3.4877231537663880E-002   8.0482619384736942E-002   0.0000000000000000     
   2.5137378274139484E-002   5.6785976076322936E-002   0.0000000000000000     
   2.6506693949390783E-002   6.2303987317625806E-002   0.0000000000000000     
   2.7817892240154931E-002   6.8027250923723817E-002   0.0000000000000000     
   2.9070973146431922E-002   7.3955766894616970E-002   0.0000000000000000     
   3.0265936668221756E-002   8.0089535230305250E-002   0.0000000000000000     
   2.1353658621373124E-002   5.6410636887531347E-002   0.0000000000000000     
   2.2518959688878595E-002   6.1930776350395615E-002   0.0000000000000000     
   2.3637664819842946E-002   6.7660355461166929E-002   0.0000000000000000     
   2.4709774014266189E-002   7.3599374219845345E-002   0.0000000000000000     
   2.5735287272148320E-002   7.9747832626430815E-002   0.0000000000000000     
   1.7611171353071706E-002   5.6060084618360762E-002   0.0000000000000000     
   1.8589204050539290E-002   6.1596937972775712E-002   0.0000000000000000     
   1.9527566949090455E-002   6.7342126916706158E-002   0.0000000000000000     
   2.0426260048725213E-002   7.3295651450152169E-002   0.0000000000000000     
   2.1285283349443559E-002   7.9457511573113662E-002   0.0000000000000000     
   1.3909916469235220E-002   5.5734319268811179E-002   0.0000000000000000     
   1.4717427034372867E-002   6.1302472184766102E-002   0.0000000000000000     
   1.5487598627897456E-002   6.7072565290341515E-002   0.0000000000000000     
   1.6220431249808993E-002   7.3044598585537399E-002   0.0000000000000000     
   1.6915924900107480E-002   7.9218572070353765E-002   0.0000000000000000     
   3.4877231537663880E-002   8.0482619384736942E-002   0.0000000000000000     
   3.6189775260417868E-002   8.6773295275382634E-002   0.0000000000000000     
   3.7466892386551418E-002   9.3213969386600190E-002   0.0000000000000000     
   3.8708582916064528E-002   9.9804641718389583E-002   0.0000000000000000     
   3.9914846848957214E-002  0.10654531227075083        0.0000000000000000     
   3.0265936668221756E-002   8.0089535230305250E-002   0.0000000000000000     
   3.1416144038631494E-002   8.6399966652047799E-002   0.0000000000000000     
   3.2534956490768166E-002   9.2858471881103716E-002   0.0000000000000000     
   3.3622374024631786E-002   9.9465050917473014E-002   0.0000000000000000     
   3.4678396640222341E-002  0.10621970376115566        0.0000000000000000     
   2.5735287272148320E-002   7.9747832626430815E-002   0.0000000000000000     
   2.6723798799587754E-002   8.6074471099578928E-002   0.0000000000000000     
   2.7684902802682921E-002   9.2548030057945194E-002   0.0000000000000000     
   2.8618599281433815E-002   9.9168509501529639E-002   0.0000000000000000     
   2.9524888235840440E-002  0.10593590943033224        0.0000000000000000     
   2.1285283349443559E-002   7.9457511573113662E-002   0.0000000000000000     
   2.2112739543286655E-002   8.5796808617976061E-002   0.0000000000000000     
   2.2916731322295679E-002   9.2282643917124638E-002   0.0000000000000000     
   2.3697258686470626E-002   9.8915017470559488E-002   0.0000000000000000     
   2.4454321635811491E-002  0.10569392927828052        0.0000000000000000     
   1.6915924900107480E-002   7.9218572070353765E-002   0.0000000000000000     
   1.7582966269728200E-002   8.5566979207239144E-002   0.0000000000000000     
   1.8230442049606443E-002   9.2062313458642062E-002   0.0000000000000000     
   1.8858352239742214E-002   9.8704574824562519E-002   0.0000000000000000     
   1.9466696840135508E-002  0.10549376330500052        0.0000000000000000     
   3.9914846848957214E-002  0.10654531227075083        0.0000000000000000     
   4.1075158847038579E-002  0.11342991443164041        0.0000000000000000     
   4.2178993572117761E-002  0.12045238158901489        0.0000000000000000     
   4.3226351024194774E-002  0.12761271374287422        0.0000000000000000     
   4.4217231203269577E-002  0.13491091089321838        0.0000000000000000     
   3.4678396640222341E-002  0.10621970376115566        0.0000000000000000     
   3.5693580270401634E-002  0.11311788065144829        0.0000000000000000     
   3.6658480848031451E-002  0.12015503182764742        0.0000000000000000     
   3.7573098373111798E-002  0.12733115728975306        0.0000000000000000     
   3.8437432845642661E-002  0.13464625703776523        0.0000000000000000     
   2.9524888235840440E-002  0.10593590943033224        0.0000000000000000     
   3.0395534023017236E-002  0.11284662264249987        0.0000000000000000     
   3.1222301000078650E-002  0.11989704193617941        0.0000000000000000     
   3.2005189167024675E-002  0.12708716731137087        0.0000000000000000     
   3.2744198523855322E-002  0.13441699876807420        0.0000000000000000     
   2.4454321635811491E-002  0.10569392927828052        0.0000000000000000     
   2.5181020104885370E-002  0.11261614040479519        0.0000000000000000     
   2.5870454028259344E-002  0.11967841191461089        0.0000000000000000     
   2.6522623405933414E-002  0.12688074380772763        0.0000000000000000     
   2.7137528237907580E-002  0.13422313608414541        0.0000000000000000     
   1.9466696840135508E-002  0.10549376330500052        0.0000000000000000     
   2.0050038516006043E-002  0.11242643393833425        0.0000000000000000     
   2.0602939932573547E-002  0.11949914176294187        0.0000000000000000     
   2.1125401089838004E-002  0.12671188677882336        0.0000000000000000     
   2.1617421987799427E-002  0.13406466898597877        0.0000000000000000     
   4.4217231203269577E-002  0.13491091089321838        0.0000000000000000     
   4.5154172396134430E-002  0.14233277214296589        0.0000000000000000     
   4.6039712889581516E-002  0.14986409659503516        0.0000000000000000     
   4.6873852683610842E-002  0.15750488424942627        0.0000000000000000     
   4.7656591778222408E-002  0.16525513510613915        0.0000000000000000     
   3.8437432845642661E-002  0.13464625703776523        0.0000000000000000     
   3.9253913691778691E-002  0.14208557674420050        0.0000000000000000     
   4.0024970337674527E-002  0.14963436208157546        0.0000000000000000     
   4.0750602783330175E-002  0.15729261304989015        0.0000000000000000     
   4.1430811028745636E-002  0.16506032964914458        0.0000000000000000     
   3.2744198523855322E-002  0.13441699876807420        0.0000000000000000     
   3.3441630154279263E-002  0.14187149879553856        0.0000000000000000     
   3.4099785142005179E-002  0.14943562988301304        0.0000000000000000     
   3.4718663487033043E-002  0.15710939203049765        0.0000000000000000     
   3.5298265189362889E-002  0.16489278523799233        0.0000000000000000     
   2.7137528237907580E-002  0.13422313608414541        0.0000000000000000     
   2.7717321783636152E-002  0.14169053829698020        0.0000000000000000     
   2.8264157302573440E-002  0.14926789999934797        0.0000000000000000     
   2.8778034794719447E-002  0.15695522119124872        0.0000000000000000     
   2.9258954260074171E-002  0.16475250187268251        0.0000000000000000     
   2.1617421987799427E-002  0.13406466898597877        0.0000000000000000     
   2.2080988579849355E-002  0.14154269524852531        0.0000000000000000     
   2.2518086819379342E-002  0.14913117243058019        0.0000000000000000     
   2.2928716706389372E-002  0.15683010053214338        0.0000000000000000     
   2.3312878240879468E-002  0.16463947955321495        0.0000000000000000     
   4.7656591778222408E-002  0.16525513510613915        0.0000000000000000     
   4.8385625735340700E-002  0.17310459327836547        0.0000000000000000     
   4.9058650116890208E-002  0.18104300287929689        0.0000000000000000     
   4.9675664922870948E-002  0.18907036390893348        0.0000000000000000     
   5.0236670153282904E-002  0.19718667636727508        0.0000000000000000     
   4.1430811028745636E-002  0.16506032964914458        0.0000000000000000     
   4.2063051128638694E-002  0.17292731732823233        0.0000000000000000     
   4.2644779137727136E-002  0.18088338153604708        0.0000000000000000     
   4.3175995056010968E-002  0.18892852227258872        0.0000000000000000     
   4.3656698883490198E-002  0.19706273953785741        0.0000000000000000     
   3.5298265189362889E-002  0.16489278523799233        0.0000000000000000     
   3.5835975091603071E-002  0.17277546508946104        0.0000000000000000     
   3.6329178036361952E-002  0.18074708716886742        0.0000000000000000     
   3.6777874023639551E-002  0.18880765147621165        0.0000000000000000     
   3.7182063053435854E-002  0.19695715801149360        0.0000000000000000     
   2.9258954260074171E-002  0.16475250187268251        0.0000000000000000     
   2.9704397624233832E-002  0.17264903656205149        0.0000000000000000     
   3.0111846812794680E-002  0.18063411977775806        0.0000000000000000     
   3.0481301825756698E-002  0.18870775151980212        0.0000000000000000     
   3.0812762663119900E-002  0.19686993178818368        0.0000000000000000     
   2.3312878240879468E-002  0.16463947955321495        0.0000000000000000     
   2.3668318726530985E-002  0.17254803174600383        0.0000000000000000     
   2.3992785467025296E-002  0.18054447936271889        0.0000000000000000     
   2.4286278462362407E-002  0.18862882240336018        0.0000000000000000     
   2.4548797712542307E-002  0.19680106086792765        0.0000000000000000     
   5.0236670153282904E-002  0.19718667636727508        0.0000000000000000     
   5.0739360278103836E-002  0.20538323262721361        0.0000000000000000     
   5.1181429767311513E-002  0.21365132506164095        0.0000000000000000     
   5.1562878620905944E-002  0.22199095367055699        0.0000000000000000     
   5.1883706838887128E-002  0.23040211845396183        0.0000000000000000     
   4.3656698883490198E-002  0.19706273953785741        0.0000000000000000     
   4.4085855847084139E-002  0.20527546469717212        0.0000000000000000     
   4.4462431173712125E-002  0.21355612911585195        0.0000000000000000     
   4.4786424863374176E-002  0.22190473279389683        0.0000000000000000     
   4.5057836916070279E-002  0.23032127573130690        0.0000000000000000     
   3.7182063053435854E-002  0.19695715801149360        0.0000000000000000     
   3.7541663980420109E-002  0.20518333121416493        0.0000000000000000     
   3.7856595659261562E-002  0.21347389552367702        0.0000000000000000     
   3.8126858089960212E-002  0.22182885094002999        0.0000000000000000     
   3.8352451272516047E-002  0.23024819746322381        0.0000000000000000     
   3.0812762663119900E-002  0.19686993178818368        0.0000000000000000     
   3.1106784678111774E-002  0.20510683217819201        0.0000000000000000     
   3.1363923223959811E-002  0.21340462428511625        0.0000000000000000     
   3.1584178300664033E-002  0.22176330810895642        0.0000000000000000     
   3.1767549908224418E-002  0.23018288364971251        0.0000000000000000     
   2.4548797712542307E-002  0.19680106086792765        0.0000000000000000     
   2.4781217940159101E-002  0.20504596758925342        0.0000000000000000     
   2.4984413867806879E-002  0.21334831540016957        0.0000000000000000     
   2.5158385495485644E-002  0.22170810430067611        0.0000000000000000     
   2.5303132823195393E-002  0.23012533429077309        0.0000000000000000     
   5.1883706838887128E-002  0.23040211845396183        0.0000000000000000     
   5.2151988933874502E-002  0.23887651667392326        0.0000000000000000     
   5.2375799418487558E-002  0.24740584559250919        0.0000000000000000     
   5.2555138292726261E-002  0.25599010520971954        0.0000000000000000     
   5.2690005556590633E-002  0.26462929552555442        0.0000000000000000     
   4.5057836916070279E-002  0.23032127573130690        0.0000000000000000     
   4.5285402422975178E-002  0.23879050030369792        0.0000000000000000     
   4.5477856475263596E-002  0.24729714888668575        0.0000000000000000     
   4.5635199072935548E-002  0.25584122148027044        0.0000000000000000     
   4.5757430215991032E-002  0.26442271808445195        0.0000000000000000     
   3.8352451272516047E-002  0.23024819746322381        0.0000000000000000     
   3.8542034925366411E-002  0.23871115521188735        0.0000000000000000     
   3.8704268766948637E-002  0.24719694430464956        0.0000000000000000     
   3.8839152797262716E-002  0.25570556474151046        0.0000000000000000     
   3.8946687016308656E-002  0.26423701652247011        0.0000000000000000     
   3.1767549908224418E-002  0.23018288364971251        0.0000000000000000     
   3.1921886441048215E-002  0.23863848139849156        0.0000000000000000     
   3.2055036293542657E-002  0.24710523184640065        0.0000000000000000     
   3.2166999465707759E-002  0.25558313499343971        0.0000000000000000     
   3.2257775957543505E-002  0.26407219083960887        0.0000000000000000     
   2.5303132823195393E-002  0.23012533429077309        0.0000000000000000     
   2.5424956970020583E-002  0.23857247886351063        0.0000000000000000     
   2.5530159055045680E-002  0.24702201151193900        0.0000000000000000     
   2.5618739078270676E-002  0.25547393223605819        0.0000000000000000     
   2.5690697039695572E-002  0.26392824103586826        0.0000000000000000     
   5.2690005556590633E-002  0.26462929552555442        0.0000000000000000     
   5.2811250493167136E-002  0.27327415325853777        0.0000000000000000     
   5.2949722385542235E-002  0.28187541512719377        0.0000000000000000     
   5.3105421233715928E-002  0.29043308113152239        0.0000000000000000     
   5.3278347037688231E-002  0.29894715127152360        0.0000000000000000     
   4.5757430215991032E-002  0.26442271808445195        0.0000000000000000     
   4.5868730482215701E-002  0.27299166080250303        0.0000000000000000     
   4.5993280449395213E-002  0.28149807173769620        0.0000000000000000     
   4.6131080117529547E-002  0.28994195089003161        0.0000000000000000     
   4.6282129486618723E-002  0.29832329825950926        0.0000000000000000     
   3.8946687016308656E-002  0.26423701652247011        0.0000000000000000     
   3.9045722550276052E-002  0.27274010315173020        0.0000000000000000     
   3.9155110525354461E-002  0.28116362813349266        0.0000000000000000     
   3.9274850941543926E-002  0.28950759146775745        0.0000000000000000     
   3.9404943798844419E-002  0.29777199315452463        0.0000000000000000     
   3.2257775957543505E-002  0.26407219083960887        0.0000000000000000     
   3.2342226697348167E-002  0.27251948030621953        0.0000000000000000     
   3.2435212613420021E-002  0.28087208431458321        0.0000000000000000     
   3.2536733705759074E-002  0.28913000286469992        0.0000000000000000     
   3.2646789974365306E-002  0.29729323595656965        0.0000000000000000     
   2.5690697039695572E-002  0.26392824103586826        0.0000000000000000     
   2.5758242923432071E-002  0.27232979226597087        0.0000000000000000     
   2.5833586713591879E-002  0.28062344028096775        0.0000000000000000     
   2.5916728410174988E-002  0.28880918508085895        0.0000000000000000     
   2.6007668013181405E-002  0.29688702666564437        0.0000000000000000     
   1.3909916469235220E-002   5.5734319268811179E-002   0.0000000000000000     
   1.4717427034372867E-002   6.1302472184766102E-002   0.0000000000000000     
   1.5487598627897456E-002   6.7072565290341515E-002   0.0000000000000000     
   1.6220431249808993E-002   7.3044598585537399E-002   0.0000000000000000     
   1.6915924900107480E-002   7.9218572070353765E-002   0.0000000000000000     
   1.0287412681568284E-002   5.5478873919828670E-002   0.0000000000000000     
   1.0922051718055600E-002   6.1075627458650396E-002   0.0000000000000000     
   1.1521718214887068E-002   6.6867597835743378E-002   0.0000000000000000     
   1.2086412172062690E-002   7.2854785051107623E-002   0.0000000000000000     
   1.2616133589582468E-002   7.9037189104743139E-002   0.0000000000000000     
   6.7811787017755115E-003   5.5339281652359310E-002   0.0000000000000000     
   7.2215011792637635E-003   6.0944652266712133E-002   0.0000000000000000     
   7.6338840686824144E-003   6.6743151806582149E-002   0.0000000000000000     
   8.0183273700314677E-003   7.2734780271969376E-002   0.0000000000000000     
   8.3748310833109199E-003   7.8919537662873809E-002   0.0000000000000000     
   3.3912145298569049E-003   5.5315542466403113E-002   0.0000000000000000     
   3.6157754179973571E-003   6.0909546608951343E-002   0.0000000000000000     
   3.8240961892834963E-003   6.6699227202857869E-002   0.0000000000000000     
   4.0161768437153213E-003   7.2684584248122686E-002   0.0000000000000000     
   4.1920173812928299E-003   7.8865617744745792E-002   0.0000000000000000     
   1.1752016581246258E-004   5.5407656361960066E-002   0.0000000000000000     
   1.0487443425638327E-004   6.0970310485368009E-002   0.0000000000000000     
   9.2354576690312153E-005   6.6735824024570484E-002   0.0000000000000000     
   7.9960593114251764E-005   7.2704196979567495E-002   0.0000000000000000     
   6.7692483528199524E-005   7.8875429350359030E-002   0.0000000000000000     
   1.6915924900107480E-002   7.9218572070353765E-002   0.0000000000000000     
   1.7582966269728200E-002   8.5566979207239144E-002   0.0000000000000000     
   1.8230442049606443E-002   9.2062313458642062E-002   0.0000000000000000     
   1.8858352239742214E-002   9.8704574824562519E-002   0.0000000000000000     
   1.9466696840135508E-002  0.10549376330500052        0.0000000000000000     
   1.2616133589582468E-002   7.9037189104743139E-002   0.0000000000000000     
   1.3120704595931881E-002   8.5391082078709005E-002   0.0000000000000000     
   1.3609947319596400E-002   9.1892736055064261E-002   0.0000000000000000     
   1.4083861760576032E-002   9.8542151033808922E-002   0.0000000000000000     
   1.4542447918870778E-002  0.10533932701494302        0.0000000000000000     
   8.3748310833109199E-003   7.8919537662873809E-002   0.0000000000000000     
   8.7121801389172023E-003   8.5275216443726390E-002   0.0000000000000000     
   9.0391594672467410E-003   9.1779609078958060E-002   0.0000000000000000     
   9.3557690682995395E-003   9.8432715568568849E-002   0.0000000000000000     
   9.6620089420755926E-003  0.10523453591255871        0.0000000000000000     
   4.1920173812928299E-003   7.8865617744745792E-002   0.0000000000000000     
   4.3573928986841651E-003   8.5219382302291341E-002   0.0000000000000000     
   4.5180784925574653E-003   9.1722932530323500E-002   0.0000000000000000     
   4.6740741629127287E-003   9.8376268428842256E-002   0.0000000000000000     
   4.8253799097499588E-003  0.10517938999784766        0.0000000000000000     
   6.7692483528199524E-005   7.8875429350359030E-002   0.0000000000000000     
   5.6342875232769096E-005   8.5223579654403803E-002   0.0000000000000000     
   4.6704395528569809E-005   9.1722706409160526E-002   0.0000000000000000     
   3.8777044415603287E-005   9.8372809614629186E-002   0.0000000000000000     
   3.2560821893868556E-005  0.10517388927080981        0.0000000000000000     
   1.9466696840135508E-002  0.10549376330500052        0.0000000000000000     
   2.0050038516006043E-002  0.11242643393833425        0.0000000000000000     
   2.0602939932573547E-002  0.11949914176294187        0.0000000000000000     
   2.1125401089838004E-002  0.12671188677882336        0.0000000000000000     
   2.1617421987799427E-002  0.13406466898597877        0.0000000000000000     
   1.4542447918870778E-002  0.10533932701494302        0.0000000000000000     
   1.4981729918046527E-002  0.11228035580267152        0.0000000000000000     
   1.5397731881669176E-002  0.11936132920119953        0.0000000000000000     
   1.5790453809738727E-002  0.12658224721052699        0.0000000000000000     
   1.6159895702255171E-002  0.13394310983065394        0.0000000000000000     
   9.6620089420755926E-003  0.10523453591255871        0.0000000000000000     
   9.9552349726740770E-003  0.11218075855736151        0.0000000000000000     
   1.0232803044194163E-002  0.11926707194941109        0.0000000000000000     
   1.0494713156635844E-002  0.12649347608870742        0.0000000000000000     
   1.0740965309999129E-002  0.13385997097525054        0.0000000000000000     
   4.8253799097499588E-003  0.10517938999784766        0.0000000000000000     
   4.9705536798887000E-003  0.11212764220240420        0.0000000000000000     
   5.1081534201485026E-003  0.11921637000757657        0.0000000000000000     
   5.2381791305293668E-003  0.12644557341336465        0.0000000000000000     
   5.3606308110312924E-003  0.13381525241976852        0.0000000000000000     
   3.2560821893868556E-005  0.10517388927080981        0.0000000000000000     
   2.7686039690392105E-005  0.11212100673779965        0.0000000000000000     
   2.3783009532199126E-005  0.11920922337569594        0.0000000000000000     
   2.0851731419290918E-005  0.12643853918449871        0.0000000000000000     
   1.8892205351665747E-005  0.13380895416420796        0.0000000000000000     
   2.1617421987799427E-002  0.13406466898597877        0.0000000000000000     
   2.2080988579849355E-002  0.14154269524852531        0.0000000000000000     
   2.2518086819379342E-002  0.14913117243058019        0.0000000000000000     
   2.2928716706389372E-002  0.15683010053214338        0.0000000000000000     
   2.3312878240879468E-002  0.16463947955321495        0.0000000000000000     
   1.6159895702255171E-002  0.13394310983065394        0.0000000000000000     
   1.6507747899800175E-002  0.14142936808751461        0.0000000000000000     
   1.6835700742955387E-002  0.14902647300704333        0.0000000000000000     
   1.7143754231720810E-002  0.15673442458924000        0.0000000000000000     
   1.7431908366096444E-002  0.16455322283410467        0.0000000000000000     
   1.0740965309999129E-002  0.13385997097525054        0.0000000000000000     
   1.0972717100369915E-002  0.14135195525128894        0.0000000000000000     
   1.1191126123834114E-002  0.14895482755907100        0.0000000000000000     
   1.1396192380391723E-002  0.15666858789859689        0.0000000000000000     
   1.1587915870042742E-002  0.16449323626986642        0.0000000000000000     
   5.3606308110312924E-003  0.13381525241976852        0.0000000000000000     
   5.4758961815585764E-003  0.14131045673984807        0.0000000000000000     
   5.5843629620155148E-003  0.14891623608666327        0.0000000000000000     
   5.6860311524021120E-003  0.15663259046021391        0.0000000000000000     
   5.7809007527183619E-003  0.16445951986050028        0.0000000000000000     
   1.8892205351665747E-005  0.13380895416420796        0.0000000000000000     
   1.7285143366156750E-005  0.14130487255319221        0.0000000000000000     
   1.5411257499593919E-005  0.14891069858981998        0.0000000000000000     
   1.3270547751976575E-005  0.15662643227409132        0.0000000000000000     
   1.0863014123303934E-005  0.16445207360600617        0.0000000000000000     
   2.3312878240879468E-002  0.16463947955321495        0.0000000000000000     
   2.3668318726530985E-002  0.17254803174600383        0.0000000000000000     
   2.3992785467025296E-002  0.18054447936271889        0.0000000000000000     
   2.4286278462362407E-002  0.18862882240336018        0.0000000000000000     
   2.4548797712542307E-002  0.19680106086792765        0.0000000000000000     
   1.7431908366096444E-002  0.16455322283410467        0.0000000000000000     
   1.7698338200738933E-002  0.17247111361686937        0.0000000000000000     
   1.7941218790304934E-002  0.18047634281276614        0.0000000000000000     
   1.8160550134794440E-002  0.18856891042179494        0.0000000000000000     
   1.8356332234207458E-002  0.19674881644395584        0.0000000000000000     
   1.1587915870042742E-002  0.16449323626986642        0.0000000000000000     
   1.1765055849102096E-002  0.17241694515019954        0.0000000000000000     
   1.1926371573884709E-002  0.18042788701691595        0.0000000000000000     
   1.2071863044390584E-002  0.18852606187001564        0.0000000000000000     
   1.2201530260619719E-002  0.19671146970949863        0.0000000000000000     
   5.7809007527183619E-003  0.16445951986050028        0.0000000000000000     
   5.8684716716204659E-003  0.17238552634599433        0.0000000000000000     
   5.9482438177646214E-003  0.18039911197516831        0.0000000000000000     
   6.0202171911508274E-003  0.18850027674802222        0.0000000000000000     
   6.0843917917790848E-003  0.19668902066455607        0.0000000000000000     
   1.0863014123303934E-005  0.16445207360600617        0.0000000000000000     
   8.5856682940461601E-006  0.17237685720425372        0.0000000000000000     
   6.8355219446704927E-006  0.18039001768752325        0.0000000000000000     
   5.6125750751741396E-006  0.18849155505581469        0.0000000000000000     
   4.9168276855587542E-006  0.19668146930912811        0.0000000000000000     
   2.4548797712542307E-002  0.19680106086792765        0.0000000000000000     
   2.4781217940159101E-002  0.20504596758925342        0.0000000000000000     
   2.4984413867806879E-002  0.21334831540016957        0.0000000000000000     
   2.5158385495485644E-002  0.22170810430067611        0.0000000000000000     
   2.5303132823195393E-002  0.23012533429077309        0.0000000000000000     
   1.8356332234207458E-002  0.19674881644395584        0.0000000000000000     
   1.8529489574243607E-002  0.20499959947145061        0.0000000000000000     
   1.8680946640602509E-002  0.21330479809648109        0.0000000000000000     
   1.8810703433284164E-002  0.22166441231904724        0.0000000000000000     
   1.8918759952288575E-002  0.23007844213914919        0.0000000000000000     
   1.2201530260619719E-002  0.19671146970949863        0.0000000000000000     
   1.2316125388046781E-002  0.20496658984888499        0.0000000000000000     
   1.2416400592146446E-002  0.21327390160169479        0.0000000000000000     
   1.2502355872918708E-002  0.22163340496792794        0.0000000000000000     
   1.2573991230363568E-002  0.23004509994758449        0.0000000000000000     
   6.0843917917790848E-003  0.19668902066455607        0.0000000000000000     
   6.1411253815686273E-003  0.20494693872155659        0.0000000000000000     
   6.1907757224386878E-003  0.21325562591581063        0.0000000000000000     
   6.2333428143892681E-003  0.22161508224731805        0.0000000000000000     
   6.2688266574203681E-003  0.23002530771607910        0.0000000000000000     
   4.9168276855587542E-006  0.19668146930912811        0.0000000000000000     
   4.4895548091407854E-006  0.20494064608946544        0.0000000000000000     
   4.0720314792393924E-006  0.21324997103882865        0.0000000000000000     
   3.6642576958497233E-006  0.22160944415721784        0.0000000000000000     
   3.2662334589748411E-006  0.23001906544463291        0.0000000000000000     
   2.5303132823195393E-002  0.23012533429077309        0.0000000000000000     
   2.5424956970020583E-002  0.23857247886351063        0.0000000000000000     
   2.5530159055045680E-002  0.24702201151193900        0.0000000000000000     
   2.5618739078270676E-002  0.25547393223605819        0.0000000000000000     
   2.5690697039695572E-002  0.26392824103586826        0.0000000000000000     
   1.8918759952288575E-002  0.23007844213914919        0.0000000000000000     
   1.9009589355211590E-002  0.23851768251995878        0.0000000000000000     
   1.9087664799649066E-002  0.24695292842464800        0.0000000000000000     
   1.9152986285600995E-002  0.25538417985321699        0.0000000000000000     
   1.9205553813067381E-002  0.26381143680566560        0.0000000000000000     
   1.2573991230363568E-002  0.23004509994758449        0.0000000000000000     
   1.2634126439549306E-002  0.23847862728085029        0.0000000000000000     
   1.2685581275544203E-002  0.24690362770791119        0.0000000000000000     
   1.2728355738348254E-002  0.25532010122876708        0.0000000000000000     
   1.2762449827961460E-002  0.26372804784341819        0.0000000000000000     
   6.2688266574203681E-003  0.23002530771607910        0.0000000000000000     
   6.2985682230337261E-003  0.23845531314618529        0.0000000000000000     
   6.3239084827310856E-003  0.24687410936172846        0.0000000000000000     
   6.3448474365124458E-003  0.25528169636270875        0.0000000000000000     
   6.3613850843778075E-003  0.26367807414912603        0.0000000000000000     
   3.2662334589748411E-006  0.23001906544463291        0.0000000000000000     
   2.9147056648515506E-006  0.23844774011596367        0.0000000000000000     
   2.6464212097180662E-006  0.24686437338609996        0.0000000000000000     
   2.4613800935746318E-006  0.25526896525504178        0.0000000000000000     
   2.3595823164215997E-006  0.26366151572278912        0.0000000000000000     
   2.5690697039695572E-002  0.26392824103586826        0.0000000000000000     
   2.5758242923432071E-002  0.27232979226597087        0.0000000000000000     
   2.5833586713591879E-002  0.28062344028096775        0.0000000000000000     
   2.5916728410174988E-002  0.28880918508085895        0.0000000000000000     
   2.6007668013181405E-002  0.29688702666564437        0.0000000000000000     
   1.9205553813067381E-002  0.26381143680566560        0.0000000000000000     
   1.9255325222532850E-002  0.27217737768458372        0.0000000000000000     
   1.9312258354482022E-002  0.28042468089256101        0.0000000000000000     
   1.9376353208914905E-002  0.28855334642959757        0.0000000000000000     
   1.9447609785831488E-002  0.29656337429569324        0.0000000000000000     
   1.2762449827961460E-002  0.26372804784341819        0.0000000000000000     
   1.2795027588655606E-002  0.27206857521565725        0.0000000000000000     
   1.2833253064702467E-002  0.28028279100927744        0.0000000000000000     
   1.2877126256102047E-002  0.28837069522427861        0.0000000000000000     
   1.2926647162854344E-002  0.29633228786066090        0.0000000000000000     
   6.3613850843778075E-003  0.26367807414912603        0.0000000000000000     
   6.3773500218003397E-003  0.27200338485919168        0.0000000000000000     
   6.3965708442532115E-003  0.28019777063111712        0.0000000000000000     
   6.4190475517364237E-003  0.28826123146490235        0.0000000000000000     
   6.4447801442499781E-003  0.29619376736054731        0.0000000000000000     
   2.3595823164215997E-006  0.26366151572278912        0.0000000000000000     
   2.2925219670504038E-006  0.27198180661518689        0.0000000000000000     
   2.2116931342546463E-006  0.28016961975808008        0.0000000000000000     
   2.1170958180320503E-006  0.28822495515146851        0.0000000000000000     
   2.0087300183864107E-006  0.29614781279535241        0.0000000000000000     
   1.1752016581246258E-004   5.5407656361960066E-002   0.0000000000000000     
   1.0487443425638327E-004   6.0970310485368009E-002   0.0000000000000000     
   9.2354576690312153E-005   6.6735824024570484E-002   0.0000000000000000     
   7.9960593114251764E-005   7.2704196979567495E-002   0.0000000000000000     
   6.7692483528199524E-005   7.8875429350359030E-002   0.0000000000000000     
  -3.1731019542697667E-003   5.5546691646234506E-002   0.0000000000000000     
  -3.4208268507944966E-003   6.1077962863777528E-002   0.0000000000000000     
  -3.6521550646570851E-003   6.6819182157636173E-002   0.0000000000000000     
  -3.8670865958575326E-003   7.2770349527810446E-002   0.0000000000000000     
  -4.0656214443958397E-003   7.8931464974300342E-002   0.0000000000000000     
  -6.6138493943017334E-003   5.5663716626430763E-002   0.0000000000000000     
  -7.0709535159906127E-003   6.1183522711995265E-002   0.0000000000000000     
  -7.5002470303186450E-003   6.6915541487971034E-002   0.0000000000000000     
  -7.9017299372858250E-003   7.2859772954358096E-002   0.0000000000000000     
  -8.2754022368921546E-003   7.9016217111156431E-002   0.0000000000000000     
  -1.0204722154283440E-002   5.5758731302548853E-002   0.0000000000000000     
  -1.0845505561331972E-002   6.1286990030021207E-002   0.0000000000000000     
  -1.1451921320294366E-002   6.7024902015575066E-002   0.0000000000000000     
  -1.2023969431170628E-002   7.2972467259210430E-002   0.0000000000000000     
  -1.2561649893960749E-002   7.9129685760927326E-002   0.0000000000000000     
  -1.3945720234214885E-002   5.5831735674588746E-002   0.0000000000000000     
  -1.4744482986818569E-002   6.1388364817855375E-002   0.0000000000000000     
  -1.5507177934584251E-002   6.7147263740448299E-002   0.0000000000000000     
  -1.6233805077511935E-002   7.3108432442367519E-002   0.0000000000000000     
  -1.6924364415601620E-002   7.9271870923613014E-002   0.0000000000000000     
   6.7692483528199524E-005   7.8875429350359030E-002   0.0000000000000000     
   5.6342875232769096E-005   8.5223579654403803E-002   0.0000000000000000     
   4.6704395528569809E-005   9.1722706409160526E-002   0.0000000000000000     
   3.8777044415603287E-005   9.8372809614629186E-002   0.0000000000000000     
   3.2560821893868556E-005  0.10517388927080981        0.0000000000000000     
  -4.0656214443958397E-003   7.8931464974300342E-002   0.0000000000000000     
  -4.2520355237809504E-003   8.5273437973423211E-002   0.0000000000000000     
  -4.4306047475218104E-003   9.1767178001496405E-002   0.0000000000000000     
  -4.6013291156184197E-003   9.8412685058519911E-002   0.0000000000000000     
  -4.7642086280707810E-003  0.10520995914449374        0.0000000000000000     
  -8.2754022368921546E-003   7.9016217111156431E-002   0.0000000000000000     
  -8.6288078907009579E-003   8.5354586732708876E-002   0.0000000000000000     
  -8.9694908602755436E-003   9.1844594593358309E-002   0.0000000000000000     
  -9.2974511456159273E-003   9.8486240693104660E-002   0.0000000000000000     
  -9.6126887467220985E-003  0.10527952503194794        0.0000000000000000     
  -1.2561649893960749E-002   7.9129685760927326E-002   0.0000000000000000     
  -1.3073974225527248E-002   8.5467025932260854E-002   0.0000000000000000     
  -1.3569953942732636E-002   9.1954956184746250E-002   0.0000000000000000     
  -1.4049589045576918E-002   9.8593476518383433E-002   0.0000000000000000     
  -1.4512879534060082E-002  0.10538258693317247        0.0000000000000000     
  -1.6924364415601620E-002   7.9271870923613014E-002   0.0000000000000000     
  -1.7587534528259827E-002   8.5610755572079145E-002   0.0000000000000000     
  -1.8231993994893083E-002   9.2098262775660217E-002   0.0000000000000000     
  -1.8857742815501382E-002   9.8734392534356258E-002   0.0000000000000000     
  -1.9464780990084734E-002  0.10551914484816727        0.0000000000000000     
   3.2560821893868556E-005  0.10517388927080981        0.0000000000000000     
   2.7686039690392105E-005  0.11212100673779965        0.0000000000000000     
   2.3783009532199126E-005  0.11920922337569594        0.0000000000000000     
   2.0851731419290918E-005  0.12643853918449871        0.0000000000000000     
   1.8892205351665747E-005  0.13380895416420796        0.0000000000000000     
  -4.7642086280707810E-003  0.10520995914449374        0.0000000000000000     
  -4.9184712292084098E-003  0.11215392939316091        0.0000000000000000     
  -5.0633448633608273E-003  0.11923952493826451        0.0000000000000000     
  -5.1988295305280324E-003  0.12646674577980449        0.0000000000000000     
  -5.3249252307100278E-003  0.13383559191778091        0.0000000000000000     
  -9.6126887467220985E-003  0.10527952503194794        0.0000000000000000     
  -9.9130214080952687E-003  0.11221948739810125        0.0000000000000000     
  -1.0196266874236654E-002  0.11930116757977761        0.0000000000000000     
  -1.0462425145146252E-002  0.12652456557697703        0.0000000000000000     
  -1.0711496220824063E-002  0.13388968138969951        0.0000000000000000     
  -1.4512879534060082E-002  0.10538258693317247        0.0000000000000000     
  -1.4955964496970191E-002  0.11231768075262061        0.0000000000000000     
  -1.5374983023095283E-002  0.11939415130023520        0.0000000000000000     
  -1.5769935112435369E-002  0.12661199857601627        0.0000000000000000     
  -1.6140820764990443E-002  0.13397122257996374        0.0000000000000000     
  -1.9464780990084734E-002  0.10551914484816727        0.0000000000000000     
  -2.0047300495833167E-002  0.11244850945671901        0.0000000000000000     
  -2.0599493309936719E-002  0.11951847609963732        0.0000000000000000     
  -2.1121359432395379E-002  0.12672904477692221        0.0000000000000000     
  -2.1612898863209162E-002  0.13408021548857366        0.0000000000000000     
   1.8892205351665747E-005  0.13380895416420796        0.0000000000000000     
   1.7285143366156750E-005  0.14130487255319221        0.0000000000000000     
   1.5411257499593919E-005  0.14891069858981998        0.0000000000000000     
   1.3270547751976575E-005  0.15662643227409132        0.0000000000000000     
   1.0863014123303934E-005  0.16445207360600617        0.0000000000000000     
  -5.3249252307100278E-003  0.13383559191778091        0.0000000000000000     
  -5.4431774517166680E-003  0.14132989329794346        0.0000000000000000     
  -5.5551316813578144E-003  0.14893347986604205        0.0000000000000000     
  -5.6607879196334688E-003  0.15664635162207660        0.0000000000000000     
  -5.7601461665436260E-003  0.16446850856604714        0.0000000000000000     
  -1.0711496220824063E-002  0.13388968138969951        0.0000000000000000     
  -1.0945553041199225E-002  0.14138020958072417        0.0000000000000000     
  -1.1166668546200869E-002  0.14897984471283021        0.0000000000000000     
  -1.1374842735829005E-002  0.15668858678601758        0.0000000000000000     
  -1.1570075610083629E-002  0.16450643580028623        0.0000000000000000     
  -1.6140820764990443E-002  0.13397122257996374        0.0000000000000000     
  -1.6489841625081506E-002  0.14145582140153429        0.0000000000000000     
  -1.6819199337029574E-002  0.14904979313018446        0.0000000000000000     
  -1.7128893900834639E-002  0.15675313776591412        0.0000000000000000     
  -1.7418925316496702E-002  0.16456585530872350        0.0000000000000000     
  -2.1612898863209162E-002  0.13408021548857366        0.0000000000000000     
  -2.2076043203363527E-002  0.14155672876037378        0.0000000000000000     
  -2.2512724053843920E-002  0.14914332511810471        0.0000000000000000     
  -2.2922941414650368E-002  0.15684000456176639        0.0000000000000000     
  -2.3306695285782848E-002  0.16464676709135886        0.0000000000000000     
   1.0863014123303934E-005  0.16445207360600617        0.0000000000000000     
   8.5856682940461601E-006  0.17237685720425372        0.0000000000000000     
   6.8355219446704927E-006  0.18039001768752325        0.0000000000000000     
   5.6125750751741396E-006  0.18849155505581469        0.0000000000000000     
   4.9168276855587542E-006  0.19668146930912811        0.0000000000000000     
  -5.7601461665436260E-003  0.16446850856604714        0.0000000000000000     
  -5.8519698555254624E-003  0.17238988864097404        0.0000000000000000     
  -5.9350224200161424E-003  0.18040042978987758        0.0000000000000000     
  -6.0093038600156756E-003  0.18850013201275792        0.0000000000000000     
  -6.0748141755240497E-003  0.19668899530961492        0.0000000000000000     
  -1.1570075610083629E-002  0.16450643580028623        0.0000000000000000     
  -1.1750562594486362E-002  0.17242357157215141        0.0000000000000000     
  -1.1914499114558823E-002  0.18043017391812818        0.0000000000000000     
  -1.2061885170301014E-002  0.18852624283821656        0.0000000000000000     
  -1.2192720761712933E-002  0.19671177833241651        0.0000000000000000     
  -1.7418925316496702E-002  0.16456585530872350        0.0000000000000000     
  -1.7687192548588651E-002  0.17247790599778598        0.0000000000000000     
  -1.7931594561683362E-002  0.18047925007227503        0.0000000000000000     
  -1.8152131355780844E-002  0.18856988753219073        0.0000000000000000     
  -1.8348802930881095E-002  0.19674981837753305        0.0000000000000000     
  -2.3306695285782848E-002  0.16464676709135886        0.0000000000000000     
  -2.3661859717832332E-002  0.17255289191787762        0.0000000000000000     
  -2.3986308761389769E-002  0.18054765825231808        0.0000000000000000     
  -2.4280042416455171E-002  0.18863106609468036        0.0000000000000000     
  -2.4543060683028528E-002  0.19680311544496440        0.0000000000000000     
   4.9168276855587542E-006  0.19668146930912811        0.0000000000000000     
   4.4895548091407854E-006  0.20494064608946544        0.0000000000000000     
   4.0720314792393924E-006  0.21324997103882865        0.0000000000000000     
   3.6642576958497233E-006  0.22160944415721784        0.0000000000000000     
   3.2662334589748411E-006  0.23001906544463291        0.0000000000000000     
  -6.0748141755240497E-003  0.19668899530961492        0.0000000000000000     
  -6.1323841436992750E-003  0.20494765482523075        0.0000000000000000     
  -6.1828445416993510E-003  0.21325674570438763        0.0000000000000000     
  -6.2261953695242726E-003  0.22161626794708542        0.0000000000000000     
  -6.2624366271740468E-003  0.23002622155332425        0.0000000000000000     
  -1.2192720761712933E-002  0.19671177833241651        0.0000000000000000     
  -1.2308097765424224E-002  0.20496790780147181        0.0000000000000000     
  -1.2409108058064520E-002  0.21327575864612602        0.0000000000000000     
  -1.2495751639633824E-002  0.22163533086637929        0.0000000000000000     
  -1.2568028510132131E-002  0.23004662446223151        0.0000000000000000     
  -1.8348802930881095E-002  0.19674981837753305        0.0000000000000000     
  -1.8522651310365706E-002  0.20500140501818859        0.0000000000000000     
  -1.8674718517616276E-002  0.21330700986404408        0.0000000000000000     
  -1.8805004552632797E-002  0.22166663291509939        0.0000000000000000     
  -1.8913509415415281E-002  0.23008027417135463        0.0000000000000000     
  -2.4543060683028528E-002  0.19680311544496440        0.0000000000000000     
  -2.4776044778523725E-002  0.20504814647538117        0.0000000000000000     
  -2.4979675920354612E-002  0.21335049935814163        0.0000000000000000     
  -2.5153954108521209E-002  0.22171017409324578        0.0000000000000000     
  -2.5298879343023495E-002  0.23012717068069366        0.0000000000000000     
   3.2662334589748411E-006  0.23001906544463291        0.0000000000000000     
   2.9147056648515506E-006  0.23844774011596367        0.0000000000000000     
   2.6464212097180662E-006  0.24686437338609996        0.0000000000000000     
   2.4613800935746318E-006  0.25526896525504178        0.0000000000000000     
   2.3595823164215997E-006  0.26366151572278912        0.0000000000000000     
  -6.2624366271740468E-003  0.23002622155332425        0.0000000000000000     
  -6.2928450178717068E-003  0.23845585896277274        0.0000000000000000     
  -6.3186972448402937E-003  0.24687443261509950        0.0000000000000000     
  -6.3399933080798016E-003  0.25528194251030467        0.0000000000000000     
  -6.3567332075902348E-003  0.26367838864838805        0.0000000000000000     
  -1.2568028510132131E-002  0.23004662446223151        0.0000000000000000     
  -1.2628721852890341E-002  0.23847962045919979        0.0000000000000000     
  -1.2680614851239337E-002  0.24690429988280116        0.0000000000000000     
  -1.2723707505179123E-002  0.25532066273303572        0.0000000000000000     
  -1.2757999814709696E-002  0.26372870900990342        0.0000000000000000     
  -1.8913509415415281E-002  0.23008027417135463        0.0000000000000000     
  -1.9004715799391045E-002  0.23851902460524479        0.0000000000000000     
  -1.9083106397987413E-002  0.24695397518920498        0.0000000000000000     
  -1.9148681211204388E-002  0.25538512592323515        0.0000000000000000     
  -1.9201440239041963E-002  0.26381247680733522        0.0000000000000000     
  -2.5298879343023495E-002  0.23012717068069366        0.0000000000000000     
  -2.5420826857373825E-002  0.23857407140090781        0.0000000000000000     
  -2.5526171885084530E-002  0.24702345853431085        0.0000000000000000     
  -2.5614914426155596E-002  0.25547533208090278        0.0000000000000000     
  -2.5687054480587040E-002  0.26392969204068351        0.0000000000000000     
   2.3595823164215997E-006  0.26366151572278912        0.0000000000000000     
   2.2925219670504038E-006  0.27198180661518689        0.0000000000000000     
   2.2116931342546463E-006  0.28016961975808008        0.0000000000000000     
   2.1170958180320503E-006  0.28822495515146851        0.0000000000000000     
   2.0087300183864107E-006  0.29614781279535241        0.0000000000000000     
  -6.3567332075902348E-003  0.26367838864838805        0.0000000000000000     
  -6.3728351300259330E-003  0.27200382578221494        0.0000000000000000     
  -6.3922172620412433E-003  0.28019830866465051        0.0000000000000000     
  -6.4148796036361594E-003  0.28826183729569466        0.0000000000000000     
  -6.4408221548106857E-003  0.29619441167534755        0.0000000000000000     
  -1.2757999814709696E-002  0.26372870900990342        0.0000000000000000     
  -1.2790723153360287E-002  0.27206942765884790        0.0000000000000000     
  -1.2829108894660117E-002  0.28028380762531280        0.0000000000000000     
  -1.2873157038609188E-002  0.28837184890929812        0.0000000000000000     
  -1.2922867585207500E-002  0.29633355151080387        0.0000000000000000     
  -1.9201440239041963E-002  0.26381247680733522        0.0000000000000000     
  -1.9251371548036012E-002  0.27217861224508572        0.0000000000000000     
  -1.9308463204722369E-002  0.28042611664006689        0.0000000000000000     
  -1.9372715209101055E-002  0.28855498999227891        0.0000000000000000     
  -1.9444127561172048E-002  0.29656523230172149        0.0000000000000000     
  -2.5687054480587040E-002  0.26392969204068351        0.0000000000000000     
  -2.5754780314053097E-002  0.27233137954092840        0.0000000000000000     
  -2.5830280192227998E-002  0.28062523570891290        0.0000000000000000     
  -2.5913554115111745E-002  0.28881126054463691        0.0000000000000000     
  -2.6004602082704342E-002  0.29688945404810035        0.0000000000000000     
  -1.3945720234214885E-002   5.5831735674588746E-002   0.0000000000000000     
  -1.4744482986818569E-002   6.1388364817855375E-002   0.0000000000000000     
  -1.5507177934584251E-002   6.7147263740448299E-002   0.0000000000000000     
  -1.6233805077511935E-002   7.3108432442367519E-002   0.0000000000000000     
  -1.6924364415601620E-002   7.9271870923613014E-002   0.0000000000000000     
  -1.7751625194052954E-002   5.5958857971959673E-002   0.0000000000000000     
  -1.8708503081585007E-002   6.1542838052717375E-002   0.0000000000000000     
  -1.9627329452710285E-002   6.7321464181406887E-002   0.0000000000000000     
  -2.0508104307428776E-002   7.3294736358028162E-002   0.0000000000000000     
  -2.1350827645740502E-002   7.9462654582581227E-002   0.0000000000000000     
  -2.1537218593754522E-002   5.6216226424070821E-002   0.0000000000000000     
  -2.2678183134765880E-002   6.1805600711826822E-002   0.0000000000000000     
  -2.3773688454194430E-002   6.7586340857266961E-002   0.0000000000000000     
  -2.4823734552040181E-002   7.3558446860391272E-002   0.0000000000000000     
  -2.5828321428303123E-002   7.9721918721199686E-002   0.0000000000000000     
  -2.5302500433319598E-002   5.6603841030922211E-002   0.0000000000000000     
  -2.6653523146361196E-002   6.2176652795183716E-002   0.0000000000000000     
  -2.7946254939036703E-002   6.7941893768028588E-002   0.0000000000000000     
  -2.9180695811346143E-002   7.3899563949456834E-002   0.0000000000000000     
  -3.0356845763289488E-002   8.0049663339468446E-002   0.0000000000000000     
  -2.9047470712748172E-002   5.7121701792513829E-002   0.0000000000000000     
  -3.0634523116370944E-002   6.2655994302788051E-002   0.0000000000000000     
  -3.2145028907237104E-002   6.8388122913691715E-002   0.0000000000000000     
  -3.3578988085346664E-002   7.4318087625224849E-002   0.0000000000000000     
  -3.4936400650699598E-002   8.0445888437387439E-002   0.0000000000000000     
  -1.6924364415601620E-002   7.9271870923613014E-002   0.0000000000000000     
  -1.7587534528259827E-002   8.5610755572079145E-002   0.0000000000000000     
  -1.8231993994893083E-002   9.2098262775660217E-002   0.0000000000000000     
  -1.8857742815501382E-002   9.8734392534356258E-002   0.0000000000000000     
  -1.9464780990084734E-002  0.10551914484816727        0.0000000000000000     
  -2.1350827645740502E-002   7.9462654582581227E-002   0.0000000000000000     
  -2.2164044110782544E-002   8.5801260367958793E-002   0.0000000000000000     
  -2.2956298345691999E-002   9.2286595227053528E-002   0.0000000000000000     
  -2.3727590350468872E-002   9.8918659159865460E-002   0.0000000000000000     
  -2.4477920125113167E-002  0.10569745216639455        0.0000000000000000     
  -2.5828321428303123E-002   7.9721918721199686E-002   0.0000000000000000     
  -2.6798058284979238E-002   8.6054025035694898E-002   0.0000000000000000     
  -2.7743554324064508E-002   9.2532034399879448E-002   0.0000000000000000     
  -2.8664809545558920E-002   9.9155946813753337E-002   0.0000000000000000     
  -2.9561823949462496E-002  0.10592576227731658        0.0000000000000000     
  -3.0356845763289488E-002   8.0049663339468446E-002   0.0000000000000000     
  -3.1489577050849926E-002   8.6369049575287474E-002   0.0000000000000000     
  -3.2593761930010609E-002   9.2834580294137964E-002   0.0000000000000000     
  -3.3669400400771543E-002   9.9446255496019917E-002   0.0000000000000000     
  -3.4716492463132707E-002  0.10620407518093333        0.0000000000000000     
  -3.4936400650699598E-002   8.0445888437387439E-002   0.0000000000000000     
  -3.6238600408394592E-002   8.6746333986736507E-002   0.0000000000000000     
  -3.7506921163530285E-002   9.3194232909829089E-002   0.0000000000000000     
  -3.8741362916106706E-002   9.9789585206665157E-002   0.0000000000000000     
  -3.9941925666123833E-002  0.10653239087724478        0.0000000000000000     
  -1.9464780990084734E-002  0.10551914484816727        0.0000000000000000     
  -2.0047300495833167E-002  0.11244850945671901        0.0000000000000000     
  -2.0599493309936719E-002  0.11951847609963732        0.0000000000000000     
  -2.1121359432395379E-002  0.12672904477692221        0.0000000000000000     
  -2.1612898863209162E-002  0.13408021548857366        0.0000000000000000     
  -2.4477920125113167E-002  0.10569745216639455        0.0000000000000000     
  -2.5199602311370192E-002  0.11261944918578178        0.0000000000000000     
  -2.5884951550985271E-002  0.11968112515716794        0.0000000000000000     
  -2.6533967843958391E-002  0.12688248008055314        0.0000000000000000     
  -2.7146651190289566E-002  0.13422351395593732        0.0000000000000000     
  -2.9561823949462496E-002  0.10592576227731658        0.0000000000000000     
  -3.0425442850267260E-002  0.11283797561519415        0.0000000000000000     
  -3.1246511562465263E-002  0.11988908165201108        0.0000000000000000     
  -3.2025030086056519E-002  0.12707908038776727        0.0000000000000000     
  -3.2760998421041000E-002  0.13440797182246284        0.0000000000000000     
  -3.4716492463132707E-002  0.10620407518093333        0.0000000000000000     
  -3.5724822112524361E-002  0.11310408874495621        0.0000000000000000     
  -3.6684173344376715E-002  0.12014234558416666        0.0000000000000000     
  -3.7594546158689734E-002  0.12731884569856466        0.0000000000000000     
  -3.8455940555463454E-002  0.13463358908815018        0.0000000000000000     
  -3.9941925666123833E-002  0.10653239087724478        0.0000000000000000     
  -4.1097740098141516E-002  0.11341778857506796        0.0000000000000000     
  -4.2197936896719593E-002  0.12044091695363479        0.0000000000000000     
  -4.3242516061858062E-002  0.12760177601294528        0.0000000000000000     
  -4.4231477593556938E-002  0.13490036575299943        0.0000000000000000     
  -2.1612898863209162E-002  0.13408021548857366        0.0000000000000000     
  -2.2076043203363527E-002  0.14155672876037378        0.0000000000000000     
  -2.2512724053843920E-002  0.14914332511810471        0.0000000000000000     
  -2.2922941414650368E-002  0.15684000456176639        0.0000000000000000     
  -2.3306695285782848E-002  0.16464676709135886        0.0000000000000000     
  -2.7146651190289566E-002  0.13422351395593732        0.0000000000000000     
  -2.7724585567423153E-002  0.14168978237105054        0.0000000000000000     
  -2.8269354952803489E-002  0.14926684091362286        0.0000000000000000     
  -2.8780959346430584E-002  0.15695468958365424        0.0000000000000000     
  -2.9259398748304438E-002  0.16475332838114468        0.0000000000000000     
  -3.2760998421041000E-002  0.13440797182246284        0.0000000000000000     
  -3.3455896508638255E-002  0.14186183294737240        0.0000000000000000     
  -3.4111204290067823E-002  0.14942674075377066        0.0000000000000000     
  -3.4726921765329696E-002  0.15710269524165760        0.0000000000000000     
  -3.5303048934423861E-002  0.16488969641103329        0.0000000000000000     
  -3.8455940555463454E-002  0.13463358908815018        0.0000000000000000     
  -3.9269976027008865E-002  0.14207288048933930        0.0000000000000000     
  -4.0038272065636933E-002  0.14962302463854810        0.0000000000000000     
  -4.0760828671347685E-002  0.15728402153577653        0.0000000000000000     
  -4.1437645844141113E-002  0.16505587118102466        0.0000000000000000     
  -4.4231477593556938E-002  0.13490036575299943        0.0000000000000000     
  -4.5166824122534949E-002  0.14232292499695134        0.0000000000000000     
  -4.6050558279510823E-002  0.14985569256795525        0.0000000000000000     
  -4.6882680064484566E-002  0.15749866846601102        0.0000000000000000     
  -4.7663189477456194E-002  0.16525185269111878        0.0000000000000000     
  -2.3306695285782848E-002  0.16464676709135886        0.0000000000000000     
  -2.3661859717832332E-002  0.17255289191787762        0.0000000000000000     
  -2.3986308761389769E-002  0.18054765825231808        0.0000000000000000     
  -2.4280042416455171E-002  0.18863106609468036        0.0000000000000000     
  -2.4543060683028528E-002  0.19680311544496440        0.0000000000000000     
  -2.9259398748304438E-002  0.16475332838114468        0.0000000000000000     
  -2.9702639860180988E-002  0.17265132838829481        0.0000000000000000     
  -3.0108649383816188E-002  0.18063726068730510        0.0000000000000000     
  -3.0477427319210004E-002  0.18871112527817563        0.0000000000000000     
  -3.0808973666362458E-002  0.19687292216090638        0.0000000000000000     
  -3.5303048934423861E-002  0.16488969641103329        0.0000000000000000     
  -3.5837608733598245E-002  0.17277601446490584        0.0000000000000000     
  -3.6328624099100752E-002  0.18074991960628367        0.0000000000000000     
  -3.6776095030931363E-002  0.18881141183516664        0.0000000000000000     
  -3.7180021529090099E-002  0.19696049115155481        0.0000000000000000     
  -4.1437645844141113E-002  0.16505587118102466        0.0000000000000000     
  -4.2066766338084087E-002  0.17292695014771087        0.0000000000000000     
  -4.2646232907243460E-002  0.18088563500925378        0.0000000000000000     
  -4.3176045551619247E-002  0.18893192576565340        0.0000000000000000     
  -4.3656204271211453E-002  0.19706582241690965        0.0000000000000000     
  -4.7663189477456194E-002  0.16525185269111878        0.0000000000000000     
  -4.8390112673638498E-002  0.17310413543670980        0.0000000000000000     
  -4.9061475808244326E-002  0.18104440689621551        0.0000000000000000     
  -4.9677278881273663E-002  0.18907266706963585        0.0000000000000000     
  -5.0237521892726518E-002  0.19718891595697088        0.0000000000000000     
  -2.4543060683028528E-002  0.19680311544496440        0.0000000000000000     
  -2.4776044778523725E-002  0.20504814647538117        0.0000000000000000     
  -2.4979675920354612E-002  0.21335049935814163        0.0000000000000000     
  -2.5153954108521209E-002  0.22171017409324578        0.0000000000000000     
  -2.5298879343023495E-002  0.23012717068069366        0.0000000000000000     
  -3.0808973666362458E-002  0.19687292216090638        0.0000000000000000     
  -3.1103384458759729E-002  0.20510922416123462        0.0000000000000000     
  -3.1360755729887994E-002  0.21340660410489765        0.0000000000000000     
  -3.1581087479747243E-002  0.22176506199189538        0.0000000000000000     
  -3.1764379708337488E-002  0.23018459782222792        0.0000000000000000     
  -3.7180021529090099E-002  0.19696049115155481        0.0000000000000000     
  -3.7539776639935185E-002  0.20518573006393423        0.0000000000000000     
  -3.7854733409824856E-002  0.21347570108079106        0.0000000000000000     
  -3.8124891838759112E-002  0.22183040420212524        0.0000000000000000     
  -3.8350251926737952E-002  0.23024983942793681        0.0000000000000000     
  -4.3656204271211453E-002  0.19706582241690965        0.0000000000000000     
  -4.4085221322050110E-002  0.20527766418348001        0.0000000000000000     
  -4.4461608960165218E-002  0.21355779028582189        0.0000000000000000     
  -4.4785367185556826E-002  0.22190620072393533        0.0000000000000000     
  -4.5056495998224907E-002  0.23032289549782031        0.0000000000000000     
  -5.0237521892726518E-002  0.19718891595697088        0.0000000000000000     
  -5.0739718505104468E-002  0.20538502651987187        0.0000000000000000     
  -5.1181382380909093E-002  0.21365287171999012        0.0000000000000000     
  -5.1562513520140373E-002  0.22199245155732564        0.0000000000000000     
  -5.1883111922798340E-002  0.23040376603187840        0.0000000000000000     
  -2.5298879343023495E-002  0.23012717068069366        0.0000000000000000     
  -2.5420826857373825E-002  0.23857407140090781        0.0000000000000000     
  -2.5526171885084530E-002  0.24702345853431085        0.0000000000000000     
  -2.5614914426155596E-002  0.25547533208090278        0.0000000000000000     
  -2.5687054480587040E-002  0.26392969204068351        0.0000000000000000     
  -3.1764379708337488E-002  0.23018459782222792        0.0000000000000000     
  -3.1918604383363920E-002  0.23864024288452929        0.0000000000000000     
  -3.2051733472531742E-002  0.24710702846743349        0.0000000000000000     
  -3.2163766975840946E-002  0.25558495457094060        0.0000000000000000     
  -3.2254704893291554E-002  0.26407402119505052        0.0000000000000000     
  -3.8350251926737952E-002  0.23024983942793681        0.0000000000000000     
  -3.8539597733886564E-002  0.23871302109444961        0.0000000000000000     
  -3.8701713320330129E-002  0.24719896353788753        0.0000000000000000     
  -3.8836598686068646E-002  0.25570766675825057        0.0000000000000000     
  -3.8944253831102123E-002  0.26423913075553862        0.0000000000000000     
  -4.5056495998224907E-002  0.23032289549782031        0.0000000000000000     
  -4.5283806908941772E-002  0.23879240603066887        0.0000000000000000     
  -4.5476111428479696E-002  0.24729926374567299        0.0000000000000000     
  -4.5633409556838700E-002  0.25584346864283258        0.0000000000000000     
  -4.5755701294018764E-002  0.26442502072214785        0.0000000000000000     
  -5.1883111922798340E-002  0.23040376603187840        0.0000000000000000     
  -5.2151231908529515E-002  0.23887839769318694        0.0000000000000000     
  -5.2374927796980428E-002  0.24740792909078976        0.0000000000000000     
  -5.2554199588151072E-002  0.25599236022468685        0.0000000000000000     
  -5.2689047282041455E-002  0.26463169109487816        0.0000000000000000     
  -2.5687054480587040E-002  0.26392969204068351        0.0000000000000000     
  -2.5754780314053097E-002  0.27233137954092840        0.0000000000000000     
  -2.5830280192227998E-002  0.28062523570891290        0.0000000000000000     
  -2.5913554115111745E-002  0.28881126054463691        0.0000000000000000     
  -2.6004602082704342E-002  0.29688945404810035        0.0000000000000000     
  -3.2254704893291554E-002  0.26407402119505052        0.0000000000000000     
  -3.2339342422192670E-002  0.27252138333197545        0.0000000000000000     
  -3.2432474759853433E-002  0.28087419597392727        0.0000000000000000     
  -3.2534101906273843E-002  0.28913245912090613        0.0000000000000000     
  -3.2644223861453901E-002  0.29729617277291198        0.0000000000000000     
  -3.8944253831102123E-002  0.26423913075553862        0.0000000000000000     
  -3.9043450843235857E-002  0.27274227740382595        0.0000000000000000     
  -3.9152961810275118E-002  0.28116602857718664        0.0000000000000000     
  -3.9272786732219921E-002  0.28951038427562070        0.0000000000000000     
  -3.9402925609070265E-002  0.29777534449912796        0.0000000000000000     
  -4.5755701294018764E-002  0.26442502072214785        0.0000000000000000     
  -4.5867105577182626E-002  0.27299406175648011        0.0000000000000000     
  -4.5991741343493021E-002  0.28150073351869098        0.0000000000000000     
  -4.6129608592949962E-002  0.28994503600878041        0.0000000000000000     
  -4.6280707325553429E-002  0.29832696922674834        0.0000000000000000     
  -5.2689047282041455E-002  0.26463169109487816        0.0000000000000000     
  -5.2810306624033014E-002  0.27327673638993794        0.0000000000000000     
  -5.2948813359507192E-002  0.28187831079844033        0.0000000000000000     
  -5.3104567488463983E-002  0.29043641432038536        0.0000000000000000     
  -5.3277569010903400E-002  0.29895104695577313        0.0000000000000000     
  -2.9047470712748172E-002   5.7121701792513829E-002   0.0000000000000000     
  -3.0634523116370944E-002   6.2655994302788051E-002   0.0000000000000000     
  -3.2145028907237104E-002   6.8388122913691715E-002   0.0000000000000000     
  -3.3578988085346664E-002   7.4318087625224849E-002   0.0000000000000000     
  -3.4936400650699598E-002   8.0445888437387439E-002   0.0000000000000000     
  -3.2891812172889834E-002   5.7709168307758227E-002   0.0000000000000000     
  -3.4714800117832983E-002   6.3202358145695761E-002   0.0000000000000000     
  -3.6443617139251962E-002   6.8898512863083475E-002   0.0000000000000000     
  -3.8078263237146762E-002   7.4797632459921368E-002   0.0000000000000000     
  -3.9618738411517390E-002   8.0899716936209426E-002   0.0000000000000000     
  -3.6955207554594173E-002   5.8305600175567969E-002   0.0000000000000000     
  -3.8987971223785153E-002   6.3774477234962795E-002   0.0000000000000000     
  -4.0915626415537594E-002   6.9446548185030918E-002   0.0000000000000000     
  -4.2738173129851453E-002   7.5321813025772386E-002   0.0000000000000000     
  -4.4455611366726766E-002   8.1400271757187170E-002   0.0000000000000000     
  -4.1237656857861175E-002   5.8910997395943021E-002   0.0000000000000000     
  -4.3454036434227461E-002   6.4372351570589140E-002   0.0000000000000000     
  -4.5561056736093994E-002   7.0032228879534100E-002   0.0000000000000000     
  -4.7558717763460753E-002   7.5890629322777917E-002   0.0000000000000000     
  -4.9447019516327767E-002   8.1947552900320630E-002   0.0000000000000000     
  -4.5739160082690855E-002   5.9525359968883418E-002   0.0000000000000000     
  -4.8112995749159906E-002   6.4995981152574767E-002   0.0000000000000000     
  -5.0379908100921182E-002   7.0655554946592952E-002   0.0000000000000000     
  -5.2539897137974662E-002   7.6504081350937975E-002   0.0000000000000000     
  -5.4592962860320365E-002   8.2541560365609848E-002   0.0000000000000000     
  -3.4936400650699598E-002   8.0445888437387439E-002   0.0000000000000000     
  -3.6238600408394592E-002   8.6746333986736507E-002   0.0000000000000000     
  -3.7506921163530285E-002   9.3194232909829089E-002   0.0000000000000000     
  -3.8741362916106706E-002   9.9789585206665157E-002   0.0000000000000000     
  -3.9941925666123833E-002  0.10653239087724478        0.0000000000000000     
  -3.9618738411517390E-002   8.0899716936209426E-002   0.0000000000000000     
  -4.1092385637025698E-002   8.7177862787304133E-002   0.0000000000000000     
  -4.2526547888333557E-002   9.3605166508561960E-002   0.0000000000000000     
  -4.3921225165440968E-002  0.10018162809998291        0.0000000000000000     
  -4.5276417468347943E-002  0.10690724756156697        0.0000000000000000     
  -4.4455611366726766E-002   8.1400271757187170E-002   0.0000000000000000     
  -4.6098190016155699E-002   8.7655620494252531E-002   0.0000000000000000     
  -4.7696157968130391E-002   9.4061555351945755E-002   0.0000000000000000     
  -4.9249515222650871E-002  0.10061807633026687        0.0000000000000000     
  -5.0758261779717116E-002  0.10732518342921588        0.0000000000000000     
  -4.9447019516327767E-002   8.1947552900320630E-002   0.0000000000000000     
  -5.1256013545784587E-002   8.8179607107581673E-002   0.0000000000000000     
  -5.3015751402920801E-002   9.4563399439980503E-002   0.0000000000000000     
  -5.4726233087736387E-002  0.10109892989751713        0.0000000000000000     
  -5.6387458600231380E-002  0.10778619848019155        0.0000000000000000     
  -5.4592962860320365E-002   8.2541560365609848E-002   0.0000000000000000     
  -5.6565856225912363E-002   8.8749822627291558E-002   0.0000000000000000     
  -5.8485328192704758E-002   9.5110698772666161E-002   0.0000000000000000     
  -6.0351378760697551E-002  0.10162418880173360        0.0000000000000000     
  -6.2164007929890720E-002  0.10829029271449393        0.0000000000000000     
  -3.9941925666123833E-002  0.10653239087724478        0.0000000000000000     
  -4.1097740098141516E-002  0.11341778857506796        0.0000000000000000     
  -4.2197936896719593E-002  0.12044091695363479        0.0000000000000000     
  -4.3242516061858062E-002  0.12760177601294528        0.0000000000000000     
  -4.4231477593556938E-002  0.13490036575299943        0.0000000000000000     
  -4.5276417468347943E-002  0.10690724756156697        0.0000000000000000     
  -4.6580696273106501E-002  0.11377608890271448        0.0000000000000000     
  -4.7822633055768712E-002  0.12078221613282585        0.0000000000000000     
  -4.9002227816334579E-002  0.12792562925190101        0.0000000000000000     
  -5.0119480554804093E-002  0.13520632825994003        0.0000000000000000     
  -5.0758261779717116E-002  0.10732518342921588        0.0000000000000000     
  -5.2210190103407127E-002  0.11417600352508094        0.0000000000000000     
  -5.3593092657798873E-002  0.12116366349415023        0.0000000000000000     
  -5.4906969442892362E-002  0.12828816333642379        0.0000000000000000     
  -5.6151820458687579E-002  0.13554950305190161        0.0000000000000000     
  -5.6387458600231380E-002  0.10778619848019155        0.0000000000000000     
  -5.7986221589043395E-002  0.11461753244216731        0.0000000000000000     
  -5.9509315702810060E-002  0.12158525903760800        0.0000000000000000     
  -6.0956740941531397E-002  0.12868937826651355        0.0000000000000000     
  -6.2328497305207384E-002  0.13592989012888407        0.0000000000000000     
  -6.2164007929890720E-002  0.10829029271449393        0.0000000000000000     
  -6.3908790730015291E-002  0.11510067565397361        0.0000000000000000     
  -6.5571302190802289E-002  0.12204700276319910        0.0000000000000000     
  -6.7151542312251691E-002  0.12912927404217039        0.0000000000000000     
  -6.8649511094363513E-002  0.13634748949088749        0.0000000000000000     
  -4.4231477593556938E-002  0.13490036575299943        0.0000000000000000     
  -4.5166824122534949E-002  0.14232292499695134        0.0000000000000000     
  -4.6050558279510823E-002  0.14985569256795525        0.0000000000000000     
  -4.6882680064484566E-002  0.15749866846601102        0.0000000000000000     
  -4.7663189477456194E-002  0.16525185269111878        0.0000000000000000     
  -5.0119480554804093E-002  0.13520632825994003        0.0000000000000000     
  -5.1177032523325568E-002  0.14261038586193539        0.0000000000000000     
  -5.2177524974047297E-002  0.15012387476287964        0.0000000000000000     
  -5.3120957906969316E-002  0.15774679496277275        0.0000000000000000     
  -5.4007331322091588E-002  0.16547914646161477        0.0000000000000000     
  -5.6151820458687579E-002  0.13554950305190161        0.0000000000000000     
  -5.7331192957489771E-002  0.14293368247601840        0.0000000000000000     
  -5.8448634191604211E-002  0.15042670144420903        0.0000000000000000     
  -5.9504144161030899E-002  0.15802855995647347        0.0000000000000000     
  -6.0497722865769800E-002  0.16573925801281175        0.0000000000000000     
  -6.2328497305207384E-002  0.13592989012888407        0.0000000000000000     
  -6.3629305425027594E-002  0.14329281483920039        0.0000000000000000     
  -6.4863885932181578E-002  0.15076417261194344        0.0000000000000000     
  -6.6032238826669309E-002  0.15834396344711316        0.0000000000000000     
  -6.7134364108490815E-002  0.16603218734470968        0.0000000000000000     
  -6.8649511094363513E-002  0.13634748949088749        0.0000000000000000     
  -7.0071369925938987E-002  0.14368778295148132        0.0000000000000000     
  -7.1423280195779329E-002  0.15113628826608280        0.0000000000000000     
  -7.2705241903884568E-002  0.15869300543469181        0.0000000000000000     
  -7.3917255050254663E-002  0.16635793445730851        0.0000000000000000     
  -4.7663189477456194E-002  0.16525185269111878        0.0000000000000000     
  -4.8390112673638498E-002  0.17310413543670980        0.0000000000000000     
  -4.9061475808244326E-002  0.18104440689621551        0.0000000000000000     
  -4.9677278881273663E-002  0.18907266706963585        0.0000000000000000     
  -5.0237521892726518E-002  0.19718891595697088        0.0000000000000000     
  -5.4007331322091588E-002  0.16547914646161477        0.0000000000000000     
  -5.4834601954116984E-002  0.17331048590722722        0.0000000000000000     
  -5.5600726537748370E-002  0.18123036994743175        0.0000000000000000     
  -5.6305705072985754E-002  0.18923879858222833        0.0000000000000000     
  -5.6949537559829136E-002  0.19733577181161691        0.0000000000000000     
  -6.0497722865769800E-002  0.16573925801281175        0.0000000000000000     
  -6.1427188393375014E-002  0.17354891713458775        0.0000000000000000     
  -6.2290358831400654E-002  0.18144765884316547        0.0000000000000000     
  -6.3087234179846685E-002  0.18943548313854491        0.0000000000000000     
  -6.3817814438713136E-002  0.19751239002072613        0.0000000000000000     
  -6.7134364108490815E-002  0.16603218734470968        0.0000000000000000     
  -6.8167871991412596E-002  0.17381942911879131        0.0000000000000000     
  -6.9130372689201150E-002  0.18169627358341670        0.0000000000000000     
  -7.0021866201856450E-002  0.18966272073858575        0.0000000000000000     
  -7.0842352529378524E-002  0.19771877058429849        0.0000000000000000     
  -7.3917255050254663E-002  0.16635793445730851        0.0000000000000000     
  -7.5056652748229730E-002  0.17412202185983799        0.0000000000000000     
  -7.6120768111149859E-002  0.18197621416818544        0.0000000000000000     
  -7.7109601139015049E-002  0.18992051138235078        0.0000000000000000     
  -7.8023151831825288E-002  0.19795491350233407        0.0000000000000000     
  -5.0237521892726518E-002  0.19718891595697088        0.0000000000000000     
  -5.0739718505104468E-002  0.20538502651987187        0.0000000000000000     
  -5.1181382380909093E-002  0.21365287171999012        0.0000000000000000     
  -5.1562513520140373E-002  0.22199245155732564        0.0000000000000000     
  -5.1883111922798340E-002  0.23040376603187840        0.0000000000000000     
  -5.6949537559829136E-002  0.19733577181161691        0.0000000000000000     
  -5.7529160876211058E-002  0.20551426501780037        0.0000000000000000     
  -5.8041511900064124E-002  0.21376725358298143        0.0000000000000000     
  -5.8486590631388322E-002  0.22209473750716008        0.0000000000000000     
  -5.8864397070183622E-002  0.23049671679033637        0.0000000000000000     
  -6.3817814438713136E-002  0.19751239002072613        0.0000000000000000     
  -6.4479441122482675E-002  0.20567182762195599        0.0000000000000000     
  -6.5069455745638022E-002  0.21390724407448150        0.0000000000000000     
  -6.5587858308179162E-002  0.22221863937830258        0.0000000000000000     
  -6.6034648810106095E-002  0.23060601353341928        0.0000000000000000     
  -7.0842352529378524E-002  0.19771877058429849        0.0000000000000000     
  -7.1590559243919313E-002  0.20585771433233874        0.0000000000000000     
  -7.2265213917630758E-002  0.21407284319449030        0.0000000000000000     
  -7.2866316550512913E-002  0.22236415717075317        0.0000000000000000     
  -7.3393867142565752E-002  0.23073165626112727        0.0000000000000000     
  -7.8023151831825288E-002  0.19795491350233407        0.0000000000000000     
  -7.8862515240520945E-002  0.20607192514894862        0.0000000000000000     
  -7.9628786416042388E-002  0.21426405094300785        0.0000000000000000     
  -8.0321965358389619E-002  0.22253129088451173        0.0000000000000000     
  -8.0942052067562609E-002  0.23087364497346030        0.0000000000000000     
  -5.1883111922798340E-002  0.23040376603187840        0.0000000000000000     
  -5.2151231908529515E-002  0.23887839769318694        0.0000000000000000     
  -5.2374927796980428E-002  0.24740792909078976        0.0000000000000000     
  -5.2554199588151072E-002  0.25599236022468685        0.0000000000000000     
  -5.2689047282041455E-002  0.26463169109487816        0.0000000000000000     
  -5.8864397070183622E-002  0.23049671679033637        0.0000000000000000     
  -5.9180952665885238E-002  0.23897245981061263        0.0000000000000000     
  -5.9442278867928341E-002  0.24752123494609127        0.0000000000000000     
  -5.9648375676312912E-002  0.25614304219677231        0.0000000000000000     
  -5.9799243091038970E-002  0.26483788156265575        0.0000000000000000     
  -6.6034648810106095E-002  0.23060601353341928        0.0000000000000000     
  -6.6412049114244337E-002  0.23907605611155441        0.0000000000000000     
  -6.6722281083419419E-002  0.24763545668443071        0.0000000000000000     
  -6.6965344717631325E-002  0.25628421525204820        0.0000000000000000     
  -6.7141240016880058E-002  0.26502233181440682        0.0000000000000000     
  -7.3393867142565752E-002  0.23073165626112727        0.0000000000000000     
  -7.3844521253606812E-002  0.23918918659601238        0.0000000000000000     
  -7.4214934443453673E-002  0.24775059430580812        0.0000000000000000     
  -7.4505106712106306E-002  0.25641587939051447        0.0000000000000000     
  -7.4715038059564726E-002  0.26518504185013142        0.0000000000000000     
  -8.0942052067562609E-002  0.23087364497346030        0.0000000000000000     
  -8.1478369083972657E-002  0.23931185126398655        0.0000000000000000     
  -8.1920238948031091E-002  0.24786664781022344        0.0000000000000000     
  -8.2267661659737853E-002  0.25653803461217112        0.0000000000000000     
  -8.2520637219092946E-002  0.26532601166982939        0.0000000000000000     
  -5.2689047282041455E-002  0.26463169109487816        0.0000000000000000     
  -5.2810306624033014E-002  0.27327673638993794        0.0000000000000000     
  -5.2948813359507192E-002  0.28187831079844033        0.0000000000000000     
  -5.3104567488463983E-002  0.29043641432038536        0.0000000000000000     
  -5.3277569010903400E-002  0.29895104695577313        0.0000000000000000     
  -5.9799243091038970E-002  0.26483788156265575        0.0000000000000000     
  -5.9931776718671531E-002  0.27356159020112752        0.0000000000000000     
  -6.0082872165775632E-002  0.28227000526957358        0.0000000000000000     
  -6.0252529432351258E-002  0.29096312676799402        0.0000000000000000     
  -6.0440748518398410E-002  0.29964095469638874        0.0000000000000000     
  -6.7141240016880058E-002  0.26502233181440682        0.0000000000000000     
  -6.7290238595982710E-002  0.27381991208697715        0.0000000000000000     
  -6.7452612069756376E-002  0.28264706178522980        0.0000000000000000     
  -6.7628360438201029E-002  0.29150378090916468        0.0000000000000000     
  -6.7817483701316725E-002  0.30039006945878183        0.0000000000000000     
  -7.4715038059564726E-002  0.26518504185013142        0.0000000000000000     
  -7.4885692255966543E-002  0.27405170204748686        0.0000000000000000     
  -7.5058033071449440E-002  0.28300948034540890        0.0000000000000000     
  -7.5232060506013346E-002  0.29205837674389740        0.0000000000000000     
  -7.5407774559658330E-002  0.30119839124295245        0.0000000000000000     
  -8.2520637219092946E-002  0.26532601166982939        0.0000000000000000     
  -8.2718137698623059E-002  0.27425696008265660        0.0000000000000000     
  -8.2899135170854801E-002  0.28335726095011088        0.0000000000000000     
  -8.3063629635788214E-002  0.29262691427219212        0.0000000000000000     
  -8.3211621093423241E-002  0.30206592004890054        0.0000000000000000     
  -4.5739160082690855E-002   5.9525359968883418E-002   0.0000000000000000     
  -4.8112995749159906E-002   6.4995981152574767E-002   0.0000000000000000     
  -5.0379908100921182E-002   7.0655554946592952E-002   0.0000000000000000     
  -5.2539897137974662E-002   7.6504081350937975E-002   0.0000000000000000     
  -5.4592962860320365E-002   8.2541560365609848E-002   0.0000000000000000     
  -5.0410156077064436E-002   6.0201544310258231E-002   0.0000000000000000     
  -5.2945546256574764E-002   6.5673860018002739E-002   0.0000000000000000     
  -5.5374671390086470E-002   7.1327990822917506E-002   0.0000000000000000     
  -5.7697531477599547E-002   7.7163936725002533E-002   0.0000000000000000     
  -5.9914126519113979E-002   8.3181697724257819E-002   0.0000000000000000     
  -5.5201083688963169E-002   6.0992406835936555E-002   0.0000000000000000     
  -5.7932385044464345E-002   6.6434482203956063E-002   0.0000000000000000     
  -6.0547837483657212E-002   7.2061000945217724E-002   0.0000000000000000     
  -6.3047441006541777E-002   7.7871963059721591E-002   0.0000000000000000     
  -6.5431195613118040E-002   8.3867368547467611E-002   0.0000000000000000     
  -6.0111942918387049E-002   6.1897947545918396E-002   0.0000000000000000     
  -6.3073512112828634E-002   6.7277847710434727E-002   0.0000000000000000     
  -6.5899406381633427E-002   7.2854585313493647E-002   0.0000000000000000     
  -6.8589625724801373E-002   7.8628160355095109E-002   0.0000000000000000     
  -7.1144170142332527E-002   8.4598572835239153E-002   0.0000000000000000     
  -6.5142733765336081E-002   6.2918166440203746E-002   0.0000000000000000     
  -6.8368927461667645E-002   6.8203956537438756E-002   0.0000000000000000     
  -7.1429378084015061E-002   7.3708743927745221E-002   0.0000000000000000     
  -7.4324085632378342E-002   7.9432528611123154E-002   0.0000000000000000     
  -7.7053050106757448E-002   8.5375310587572542E-002   0.0000000000000000     
  -5.4592962860320365E-002   8.2541560365609848E-002   0.0000000000000000     
  -5.6565856225912363E-002   8.8749822627291558E-002   0.0000000000000000     
  -5.8485328192704758E-002   9.5110698772666161E-002   0.0000000000000000     
  -6.0351378760697551E-002  0.10162418880173360        0.0000000000000000     
  -6.2164007929890720E-002  0.10829029271449393        0.0000000000000000     
  -5.9914126519113979E-002   8.3181697724257819E-002   0.0000000000000000     
  -6.2048943620078033E-002   8.9366756461474253E-002   0.0000000000000000     
  -6.4126469885939896E-002   9.5704595577442694E-002   0.0000000000000000     
  -6.6146705316699653E-002  0.10219521507216313        0.0000000000000000     
  -6.8109649912357212E-002  0.10883861494563557        0.0000000000000000     
  -6.5431195613118040E-002   8.3867368547467611E-002   0.0000000000000000     
  -6.7726501291820534E-002   9.0030898018221769E-002   0.0000000000000000     
  -6.9960758031083869E-002   9.6346232081750041E-002   0.0000000000000000     
  -7.2133965830907976E-002  0.10281337073805245        0.0000000000000000     
  -7.4246124691292936E-002  0.10943231398712897        0.0000000000000000     
  -7.1144170142332527E-002   8.4598572835239153E-002   0.0000000000000000     
  -7.3598529241139909E-002   9.0742247297534107E-002   0.0000000000000000     
  -7.5988192628136580E-002   9.7035608285588243E-002   0.0000000000000000     
  -7.8313160303322568E-002  0.10347865579940156        0.0000000000000000     
  -8.0573432266697886E-002  0.11007138983897406        0.0000000000000000     
  -7.7053050106757448E-002   8.5375310587572542E-002   0.0000000000000000     
  -7.9665027468036123E-002   9.1500804299411279E-002   0.0000000000000000     
  -8.2208773677098126E-002   9.7772724188957258E-002   0.0000000000000000     
  -8.4684288733943444E-002  0.10419107025621048        0.0000000000000000     
  -8.7091572638572062E-002  0.11075584250117093        0.0000000000000000     
  -6.2164007929890720E-002  0.10829029271449393        0.0000000000000000     
  -6.3908790730015291E-002  0.11510067565397361        0.0000000000000000     
  -6.5571302190802289E-002  0.12204700276319910        0.0000000000000000     
  -6.7151542312251691E-002  0.12912927404217039        0.0000000000000000     
  -6.8649511094363513E-002  0.13634748949088749        0.0000000000000000     
  -6.8109649912357212E-002  0.10883861494563557        0.0000000000000000     
  -6.9999643356316588E-002  0.11562620499309838        0.0000000000000000     
  -7.1801025331981738E-002  0.12254939500978983        0.0000000000000000     
  -7.3513795839352691E-002  0.12960818499571000        0.0000000000000000     
  -7.5137954878429392E-002  0.13680257495085879        0.0000000000000000     
  -7.4246124691292936E-002  0.10943231398712897        0.0000000000000000     
  -7.6280525297941049E-002  0.11619489229214015        0.0000000000000000     
  -7.8220458336554652E-002  0.12309293611624654        0.0000000000000000     
  -8.0065923807133788E-002  0.13012644545944815        0.0000000000000000     
  -8.1816921709678428E-002  0.13729542032174499        0.0000000000000000     
  -8.0573432266697886E-002  0.11007138983897406        0.0000000000000000     
  -8.2751436554888633E-002  0.11680673755109890        0.0000000000000000     
  -8.4829601204521016E-002  0.12367762608256916        0.0000000000000000     
  -8.6807926215594994E-002  0.13068405543338488        0.0000000000000000     
  -8.8686411588110595E-002  0.13782602560354598        0.0000000000000000     
  -8.7091572638572062E-002  0.11075584250117093        0.0000000000000000     
  -8.9412377127159395E-002  0.11746174076997468        0.0000000000000000     
  -9.1628453935880816E-002  0.12430346490875774        0.0000000000000000     
  -9.3739803064736338E-002  0.13128101491752014        0.0000000000000000     
  -9.5746424513725947E-002  0.13839439079626187        0.0000000000000000     
  -6.8649511094363513E-002  0.13634748949088749        0.0000000000000000     
  -7.0071369925938987E-002  0.14368778295148132        0.0000000000000000     
  -7.1423280195779329E-002  0.15113628826608280        0.0000000000000000     
  -7.2705241903884568E-002  0.15869300543469181        0.0000000000000000     
  -7.3917255050254663E-002  0.16635793445730851        0.0000000000000000     
  -7.5137954878429392E-002  0.13680257495085879        0.0000000000000000     
  -7.6680863427340679E-002  0.14411889496619901        0.0000000000000000     
  -7.8149882464215364E-002  0.15154347513269326        0.0000000000000000     
  -7.9545011989053421E-002  0.15907631545034157        0.0000000000000000     
  -8.0866252001854905E-002  0.16671741591914402        0.0000000000000000     
  -8.1816921709678428E-002  0.13729542032174499        0.0000000000000000     
  -8.3481262896349370E-002  0.14458645903669121        0.0000000000000000     
  -8.5066758219307481E-002  0.15198615993784106        0.0000000000000000     
  -8.6573407678552747E-002  0.15949452302519457        0.0000000000000000     
  -8.8001211274085139E-002  0.16711154829875172        0.0000000000000000     
  -8.8686411588110595E-002  0.13782602560354598        0.0000000000000000     
  -9.0472568332965075E-002  0.14509047516295798        0.0000000000000000     
  -9.2173907461055707E-002  0.15246434268152623        0.0000000000000000     
  -9.3790428972382447E-002  0.15994762815925079        0.0000000000000000     
  -9.5322132866945353E-002  0.16754033159613160        0.0000000000000000     
  -9.5746424513725947E-002  0.13839439079626187        0.0000000000000000     
  -9.7654779737187794E-002  0.14563094334499926        0.0000000000000000     
  -9.9471330189460014E-002  0.15297802336374872        0.0000000000000000     
 -0.10119607587054259       0.16043563085251022        0.0000000000000000     
 -0.10282901678043554       0.16800376581128376        0.0000000000000000     
  -7.3917255050254663E-002  0.16635793445730851        0.0000000000000000     
  -7.5056652748229730E-002  0.17412202185983799        0.0000000000000000     
  -7.6120768111149859E-002  0.18197621416818544        0.0000000000000000     
  -7.7109601139015049E-002  0.18992051138235078        0.0000000000000000     
  -7.8023151831825288E-002  0.19795491350233407        0.0000000000000000     
  -8.0866252001854905E-002  0.16671741591914402        0.0000000000000000     
  -8.2111078066371426E-002  0.17445783510312804        0.0000000000000000     
  -8.3276965746354653E-002  0.18228863156632114        0.0000000000000000     
  -8.4363915041804627E-002  0.19020980530872339        0.0000000000000000     
  -8.5371925952721278E-002  0.19822135633033475        0.0000000000000000     
  -8.8001211274085139E-002  0.16711154829875172        0.0000000000000000     
  -8.9348695348382662E-002  0.17482800859406158        0.0000000000000000     
  -9.0614386243923400E-002  0.18263467674667339        0.0000000000000000     
  -9.1798283960707286E-002  0.19053155275658709        0.0000000000000000     
  -9.2900388498734360E-002  0.19851863662380267        0.0000000000000000     
  -9.5322132866945353E-002  0.16754033159613160        0.0000000000000000     
  -9.6769504594263506E-002  0.17523254233263874        0.0000000000000000     
  -9.8133029603856087E-002  0.18301434970924213        0.0000000000000000     
  -9.9412707895723096E-002  0.19088575372594183        0.0000000000000000     
 -0.10060853946986446       0.19884675438273774        0.0000000000000000     
 -0.10282901678043554       0.16800376581128376        0.0000000000000000     
 -0.10437350580401392       0.17567143631885945        0.0000000000000000     
 -0.10583289582615270       0.18342765045402740        0.0000000000000000     
 -0.10720718684685196       0.19127240821678759        0.0000000000000000     
 -0.10849637886611165       0.19920570960714007        0.0000000000000000     
  -7.8023151831825288E-002  0.19795491350233407        0.0000000000000000     
  -7.8862515240520945E-002  0.20607192514894862        0.0000000000000000     
  -7.9628786416042388E-002  0.21426405094300785        0.0000000000000000     
  -8.0321965358389619E-002  0.22253129088451173        0.0000000000000000     
  -8.0942052067562609E-002  0.23087364497346030        0.0000000000000000     
  -8.5371925952721278E-002  0.19822135633033475        0.0000000000000000     
  -8.6304462835042603E-002  0.20631523376022134        0.0000000000000000     
  -8.7164990044706528E-002  0.21448338672744918        0.0000000000000000     
  -8.7953507581713053E-002  0.22272581523201829        0.0000000000000000     
  -8.8670015446062150E-002  0.23104251927392869        0.0000000000000000     
  -9.2900388498734360E-002  0.19851863662380267        0.0000000000000000     
  -9.3925555750239295E-002  0.20658841385459259        0.0000000000000000     
  -9.4878641607456890E-002  0.21473336995522924        0.0000000000000000     
  -9.5759646070387047E-002  0.22295350492571264        0.0000000000000000     
  -9.6568569139029878E-002  0.23124881876604275        0.0000000000000000     
 -0.10060853946986446       0.19884675438273774        0.0000000000000000     
 -0.10172579398611099       0.20689146543206244        0.0000000000000000     
 -0.10276974110429341       0.21501400062634807        0.0000000000000000     
 -0.10374038082441164       0.22321435996559477        0.0000000000000000     
 -0.10463771314646578       0.23149254344980250        0.0000000000000000     
 -0.10849637886611165       0.19920570960714007        0.0000000000000000     
 -0.10970517754265771       0.20722438849263075        0.0000000000000000     
 -0.11083828853521611       0.21532527874080562        0.0000000000000000     
 -0.11189571184378683       0.22350838035166470        0.0000000000000000     
 -0.11287744746836986       0.23177369332520795        0.0000000000000000     
  -8.0942052067562609E-002  0.23087364497346030        0.0000000000000000     
  -8.1478369083972657E-002  0.23931185126398655        0.0000000000000000     
  -8.1920238948031091E-002  0.24786664781022344        0.0000000000000000     
  -8.2267661659737853E-002  0.25653803461217112        0.0000000000000000     
  -8.2520637219092946E-002  0.26532601166982939        0.0000000000000000     
  -8.8670015446062150E-002  0.23104251927392869        0.0000000000000000     
  -8.9300114309731699E-002  0.23945902467544636        0.0000000000000000     
  -8.9829404844699562E-002  0.24800085725883733        0.0000000000000000     
  -9.0257887050965727E-002  0.25666801702410158        0.0000000000000000     
  -9.0585560928530179E-002  0.26546050397123916        0.0000000000000000     
  -9.6568569139029878E-002  0.23124881876604275        0.0000000000000000     
  -9.7296278635273722E-002  0.23964568139036133        0.0000000000000000     
  -9.7933642381006991E-002  0.24817046271281024        0.0000000000000000     
  -9.8480660376229712E-002  0.25682316273338945        0.0000000000000000     
  -9.8937332620941884E-002  0.26560378145209879        0.0000000000000000     
 -0.10463771314646578       0.23149254344980250        0.0000000000000000     
 -0.10546686206059873       0.23987182140873159        0.0000000000000000     
 -0.10623295155695339       0.24837546417214226        0.0000000000000000     
 -0.10693598163552984       0.25700347174003452        0.0000000000000000     
 -0.10757595229632803       0.26575584411240838        0.0000000000000000     
 -0.11287744746836986       0.23177369332520795        0.0000000000000000     
 -0.11381186458570666       0.24013744473055695        0.0000000000000000     
 -0.11472733237253874       0.24861586163683327        0.0000000000000000     
 -0.11562385082886605       0.25720894404403694        0.0000000000000000     
 -0.11650141995468860       0.26591669195216783        0.0000000000000000     
  -8.2520637219092946E-002  0.26532601166982939        0.0000000000000000     
  -8.2718137698623059E-002  0.27425696008265660        0.0000000000000000     
  -8.2899135170854801E-002  0.28335726095011088        0.0000000000000000     
  -8.3063629635788214E-002  0.29262691427219212        0.0000000000000000     
  -8.3211621093423241E-002  0.30206592004890054        0.0000000000000000     
  -9.0585560928530179E-002  0.26546050397123916        0.0000000000000000     
  -9.0842732959131811E-002  0.27444138510823701        0.0000000000000000     
  -9.1059709624509391E-002  0.28367372744308222        0.0000000000000000     
  -9.1236490924662961E-002  0.29315753097577479        0.0000000000000000     
  -9.1373076859592492E-002  0.30289279570631461        0.0000000000000000     
  -9.8937332620941884E-002  0.26560378145209879        0.0000000000000000     
  -9.9314636072672366E-002  0.27461067603997874        0.0000000000000000     
  -9.9623547688950098E-002  0.28394220366806949        0.0000000000000000     
  -9.9864067469775025E-002  0.29359836433637104        0.0000000000000000     
 -0.10003619541514719       0.30357915804488350        0.0000000000000000     
 -0.10757595229632803       0.26575584411240838        0.0000000000000000     
 -0.10813384703924479       0.27476483287788178        0.0000000000000000     
 -0.10859064936417691       0.28416268962507268        0.0000000000000000     
 -0.10894635927112443       0.29394941435398114        0.0000000000000000     
 -0.10920097676008730       0.30412500706460699        0.0000000000000000     
 -0.11650141995468860       0.26591669195216783        0.0000000000000000     
 -0.11730036585884901       0.27490385562194614        0.0000000000000000     
 -0.11796101465018985       0.28433518531409180        0.0000000000000000     
 -0.11848336632871112       0.29421068102860487        0.0000000000000000     
 -0.11886742089441282       0.30453034276548530        0.0000000000000000     
 </DataArray>
 <DataArray  type="Float64" Name="stress" NumberOfComponents="3" format="ascii">
   6326466203.0934181        274463523.26271915        103562246.00675577     
   5995014215.1296902        117740635.43647432        57034325.676759318     
   5676964154.0569477        5690837.2468433380        25500999.906729732     
   5372316019.8751898       -61685871.306181192        8962268.6966606136     
   5081069812.5844173       -84389490.222587824        7418132.0465634884     
   5843294270.1089554        172389302.08869004        201356108.02138880     
   5562315954.5786819        70908987.767985821        180654410.69357890     
   5289664500.7340984       -2815120.9337263107        171035734.48409933     
   5025339908.5752230       -48783024.016415119        172500079.39295268     
   4769342178.1020451       -66994721.480114222        185047445.42013639     
   5403284860.1338587        83263837.817470312        317533683.11428970     
   5161604292.9180622        33673319.766614199        316737299.38250685     
   4923175522.1826916       -5077876.6828444004        323112363.32741916     
   4687998547.9277344       -32989751.530909061        336658874.94902664     
   4456073370.1531897       -50062304.777588606        357376834.24733239     
   5006437973.1681108        7087130.4490520954        452094971.28546667     
   4792879230.1478462        6033631.4323596954        465282991.74354595     
   4577497218.4027090       -1097430.0005474091        481730886.43669122     
   4360291937.9327164       -14306053.849666595        501438655.36488533     
   4141263388.7378550       -33592240.115001917        524406298.52814680     
   4652753609.2117119       -56140820.016558409        605039972.53492439     
   4456140766.2680140       -12010077.234771967        626291487.77670729     
   4252629589.3941660        9126219.1131834984        646891303.81190908     
   4042220078.5901766        7268069.0273227692        666839420.64053512     
   3824912233.8560371       -17584527.492367029        686135838.26258850     
   5081069812.5844173       -84389490.222587824        7418132.0465634884     
   4953510711.0429592       -42423798.151362181        3483433.2963550575     
   4822811119.4871168       -10926406.128079653        3962841.8666277812     
   4688971037.9168787        10102685.847225666        8856357.7574015167     
   4551990466.3322659        20663477.774594545        18163980.968657687     
   4769342178.1020451       -66994721.480114222        185047445.42013639     
   4649983449.2096300       -34669113.034911156        177407633.67195460     
   4528591664.4126225       -9120357.6050033569        173886328.24700928     
   4405166823.7110052        9651544.8095331192        174483529.14531010     
   4279708927.1048069        21646594.208785772        179199236.36684102     
   4456073370.1531897       -50062304.777588606        357376834.24733239     
   4344070439.6319523       -27630152.241759539        347323915.96260172     
   4231141887.3159127       -8283405.6886107922        341093903.00386006     
   4117287713.2050610        7977934.8818325996        338686795.37109834     
   4002507917.2994022        21153869.469589949        340102593.06433082     
   4141263388.7378550       -33592240.115001917        524406298.52814680     
   4035771682.3099332       -21306915.771909475        513232280.16829103     
   3930461788.1969953       -8415550.3788743019        505585566.13716811     
   3825333706.3990345        5081856.0641012192        501466156.43478137     
   3720387436.9160657        19185303.557022810        500874051.06112504     
   3824912233.8560371       -17584527.492367029        686135838.26258850     
   3725087177.2435632       -15699403.625370026        675132726.28902733     
   3626551367.0558672       -9516791.6757934093        667361317.64694691     
   3529304803.2929411        963308.35635614395        662821612.33635104     
   3433347485.9547830        15740896.471065283        661513610.35723734     
   4551990466.3322659        20663477.774594545        18163980.968657687     
   4350249500.5484571        8399901.9449486732        14342426.680738270     
   4149409739.3962026       -859658.44615888596        13194895.229455657     
   3949471182.8755360       -7115203.3986446857        14721386.614775255     
   3750433830.9864311       -10366732.912603617        18921900.836723968     
   4279708927.1048069        21646594.208785772        179199236.36684102     
   4086197057.6910224        11083453.332120419        174838484.00041732     
   3893305937.5222988        2589476.6056754589        173741374.86208400     
   3701035566.5986404       -3835335.9705710411        175907908.95186126     
   3509385944.9200449       -8190984.3965988159        181338086.26972312     
   4002507917.2994022        21153869.469589949        340102593.06433082     
   3818909773.9455767        12796552.452910900        334875444.66847521     
   3635651924.4503031        5573548.2980754375        333501559.89218950     
   3452734368.8135843       -515142.99491214752        335980938.73546535     
   3270157107.0354104       -5469521.4260776043        342313581.19831884     
   3720387436.9160657        19185303.557022810        500874051.06112504     
   3548387649.3121138        13539199.307291508        494453308.68490803     
   3376447700.1802158        8092556.6310577393        492475450.31973094     
   3204567589.5203485        2845375.5282764435        494940475.96559876     
   3032747317.3325291       -2202344.0010328293        501848385.62250388     
   3433347485.9547830        15740896.471065283        661513610.35723734     
   3274630683.7906399        13311393.895272374        653572076.04972088     
   3115693264.7120318        10146501.604600310        650663046.14472806     
   2956535228.7189522        6246219.5990222692        652786520.64224458     
   2797156575.8114004        1610547.8785346746        659942499.54228461     
   3750433830.9864311       -10366732.912603617        18921900.836723968     
   3575288657.7785497       -6276821.1352844238        9791509.4708629530     
   3399356865.2271380       -4808973.8363554478        6251734.2682136055     
   3222638453.3322062       -5963191.0158486366        8302575.2287535071     
   3045133422.0937700       -9739472.6736901999        15944032.352511482     
   3509385944.9200449       -8190984.3965988159        181338086.26972312     
   3348011647.2503281       -3300980.3784861565        171699666.40480095     
   3186124109.2859573       -121777.34255874157        166878974.88894030     
   3023723331.0269489        1346624.7112561464        166876011.72211686     
   2860809312.4732924        1104225.7828884125        171690776.90434468     
   3270157107.0354104       -5469521.4260776043        342313581.19831884     
   3120345434.0062690       -441900.43647563457        332486075.05802155     
   2970293899.7313571        3786183.0672259331        326703409.45262766     
   2820002504.2106714        7214729.0850218534        324965584.38212579     
   2669471247.4442167        9843737.6169078350        327272599.84652311     
   3032747317.3325291       -2202344.0010328293        501848385.62250388     
   2892290018.0463781        2300418.6907902956        492150735.43052620     
   2751866236.5633297        6914907.3929691315        485725037.95928520     
   2611475972.8833780        11641122.105472326        482571293.20878172     
   2471119227.0065370        16479062.828322411        482689501.17901927     
   2797156575.8114004        1610547.8785346746        659942499.54228461     
   2663845399.3706541        4925977.0033332109        650693647.52230287     
   2530841119.7818775        9264395.6346768141        643943860.40890229     
   2398143737.0450830        14625803.772639036        639693138.20208359     
   2265753251.1602635        21010201.417172074        637941480.90185165     
   3045133422.0937700       -9739472.6736901999        15944032.352511482     
   2881470019.0363221       -9769101.1414500475        11284456.296892017     
   2718325651.6316891       -8068610.7664716244        7194130.2272393592     
   2555700319.8798933       -4638001.5487082005        3673054.1435868139     
   2393594023.7809544        522726.51189911366        721228.04590619879     
   2860809312.4732924        1104225.7828884125        171690776.90434468     
   2699446548.2551575        986958.84026098251        165373337.46478376     
   2538372687.4207163        1832703.1765974760        160276594.48676345     
   2377587729.9699583        3641458.7918893099        156400547.97027549     
   2217091675.9028873        6413225.6861397028        153745197.91532174     
   2669471247.4442167        9843737.6169078350        327272599.84652311     
   2512270397.7098193        10197214.892710090        319028809.37569642     
   2355128319.0899763        10746595.883696198        312657161.84194452     
   2198045011.5846729        11491880.589815140        308157657.24529004     
   2041020475.1939249        12433069.011111498        305530295.58570850     
   2471119227.0065370        16479062.828322411        482689501.17901927     
   2319941567.4003143        17861667.015927434        472250872.02959961     
   2168592546.6394882        18673067.354870915        464335832.29280376     
   2017072164.7240739        18913263.845167041        458944381.96864367     
   1865380421.6540582        18582256.486812234        456076521.05712056     
   2265753251.1602635        21010201.417172074        637941480.90185165     
   2122460057.3266294        23980315.209877372        625039525.42649233     
   1978765370.0692651        25612117.590154767        615312605.83931959     
   1834669189.3881450        25905608.557914138        608760722.14032257     
   1690171515.2833016        24860788.113252580        605383874.32951081     
   2393594023.7809544        522726.51189911366        721228.04590619879     
   2250410526.4995699        7332419.1713356972       -6374624.9343952741     
   2104052251.7765088        3559520.3585040569       -11213037.544413393     
   1954519199.6117873       -10795969.926516652       -13794009.784146875     
   1801811370.0053949       -35734051.683785439       -14117541.653584193     
   2217091675.9028873        6413225.6861397028        153745197.91532174     
   2078543789.1636057        13016108.895800710        143270140.78249127     
   1937891614.0628781        12604697.567310214        134151222.80017604     
   1795135150.6007185        5178991.7007122040        126388443.96837737     
   1650274398.7770929       -9261008.7040833235        119981804.28707859     
   2041020475.1939249        12433069.011111498        305530295.58570850     
   1904533052.6545272        18056598.868344903        292924938.22729796     
   1767011830.8339050        20234131.121512055        280774418.79962111     
   1628456809.7320657        18965665.770625591        269078737.30266553     
   1488867989.3490031        14251202.815655887        257837893.73645329     
   1865380421.6540582        18582256.486812234        456076521.05712056     
   1728378316.9723210        22453889.088957429        442589767.40003312     
   1591412902.0895875        26447821.021111310        428656550.45391947     
   1454484177.0058527        30564052.283264339        414276870.21875155     
   1317592141.7211282        34802582.875459433        399450726.69453126     
   1690171515.2833016        24860788.113252580        605383874.32951081     
   1550079582.1169972        26207979.557607949        592264628.30070257     
   1411094827.8299301        31245767.266098619        577797617.76307702     
   1273217252.4220910        39974151.238672853        561982842.71662211     
   1136446855.8934841        52393131.475352228        544820303.16134620     
   1801811370.0053949       -35734051.683785439       -14117541.653584193     
   1771096301.6107142       -16707921.969538093       -8370971.7708623484     
   1748412966.5530925        29090652.201562285       -41466495.115103021     
   1733761364.8325090        101661670.82946181       -113404111.68631133     
   1727141496.4489970        201005133.91426647       -224183821.48447192     
   1650274398.7770929       -9261008.7040833235        119981804.28707859     
   1527649092.0889761       -13925232.812851012        135606539.73898351     
   1409175420.6339786       -4750672.8112213612        124840189.84359469     
   1294853384.4121113        18262671.300853908        87682754.600919187     
   1184682983.4233758        55114799.523346961        24134234.010940980     
   1488867989.3490031        14251202.815655887        257837893.73645329     
   1309906752.5950825       -3431082.6478271484        278814013.63629621     
   1131217052.9703615       -20208244.347314179        285850056.06849438     
   952798890.47483528       -36080282.282817066        278946021.03309000     
   774652265.10849464       -51047196.454357266        258101908.53005108     
   1317592141.7211282        34802582.875459433        399450726.69453126     
   1117869283.1290483        14774528.525576055        421251449.92105472     
   914537863.56223226       -17282062.406768262        441563103.55960941     
   707597883.02068019       -61367189.921551973        460385687.61022156     
   497049341.50438780       -117480854.01882583        477719202.07289267     
   1136446855.8934841        52393131.475352228        544820303.16134620     
   951536683.69086218        40691600.707317114        562918848.59327888     
   759137852.40958369        4027873.0104202926        591979332.31693566     
   559250362.04963636       -57598051.615367293        632001754.33231604     
   351874212.61101478       -144186173.17007428        682986114.63941669     
   1727141496.4489970        201005133.91426647       -224183821.48447192     
   1456620807.7954159        184593802.58457249       -96641053.867977470     
   1153946705.5849288        61004426.065204024        60085050.552009903     
   819119189.81753767       -169762995.64382750        245994491.77546588     
   452138260.49326754       -507708462.54250050        461087269.80243784     
   1184682983.4233758        55114799.523346961        24134234.010940980     
   977630706.93713975        11846835.699026942        155538475.73682380     
   732763808.80185425       -157469866.95546868        312778920.59440827     
   450082289.01748824       -452835308.44020987        495855568.58369821     
   129586147.58407289       -874249488.75517154        704768419.70465660     
   774652265.10849464       -51047196.454357266        258101908.53005108     
   621505161.72737646       -124040764.49192485        386762881.59114611     
   424882228.60501182       -341953765.00030005        537912924.11212146     
   184783465.74141449       -704786197.97944653        711552036.09301257     
  -98791126.863416851       -1212538063.4293842        907680217.53382564     
   497049341.50438780       -117480854.01882583        477719202.07289267     
   388244172.16609752       -223068997.98837796        597032163.69496489     
   230301964.99442387       -492447268.06924093        735487061.10516298     
   23222719.989338517       -925615664.26144707        893083894.30347002     
  -232993562.84915560       -1522574186.5650187        1069822663.2899014     
   351874212.61101478       -144186173.17007428        682986114.63941669     
   277847738.25332677       -285237864.79023862        786346322.04830265     
   149023017.97006553       -608950376.16231966        905501331.57351649     
  -34599948.238762856       -1115323707.2862935        1040451143.2150389     
  -273021160.37315863       -1804357858.1621590        1191195756.9729121     
   4652753609.2117119       -56140820.016558409        605039972.53492439     
   4456140766.2680140       -12010077.234771967        626291487.77670729     
   4252629589.3941660        9126219.1131834984        646891303.81190908     
   4042220078.5901766        7268069.0273227692        666839420.64053512     
   3824912233.8560371       -17584527.492367029        686135838.26258850     
   4341325495.8574543        15413078.925104856        770296469.58526707     
   4136316178.2324924        21766094.343447685        773700777.13530552     
   3928051679.9762688        17268507.657576561        780015894.29789698     
   3716532001.0887794        1920318.8674821854        789241821.07304692     
   3501757141.5700226       -24278472.026830196        801378557.46074748     
   3990738586.4827647        75219339.060638666        919866722.73983169     
   3787511390.8026342        46848206.103374243        909674168.11348748     
   3584672167.7901182        19770315.371493578        905954931.91883349     
   3382220917.4452209       -6014333.1350030899        908709014.15585971     
   3180157639.7679358       -30505739.416115046        917936414.82457340     
   3600992881.0876551        123277960.39004529        1053750731.9986112     
   3409726403.9784346        63236258.044997215        1034211660.7112505     
   3222491052.8357205        16631642.254936218        1024708416.6747054     
   3039286827.6594958       -16535886.980138898        1025240999.8889757     
   2860113728.4497676       -36266329.660224199        1035809410.3540611     
   3172088379.6721106        159588942.91332328        1171948497.3616173     
   3002961217.7598963        70930250.168316364        1147313254.9285939     
   2841508335.1130633        7852488.3079029322        1136276348.5655215     
   2687729731.7316065       -29644342.667923331        1138837778.2723951     
   2541625407.6155272       -41560242.759158373        1154997544.0492146     
   3824912233.8560371       -17584527.492367029        686135838.26258850     
   3725087177.2435632       -15699403.625370026        675132726.28902733     
   3626551367.0558672       -9516791.6757934093        667361317.64694691     
   3529304803.2929411        963308.35635614395        662821612.33635104     
   3433347485.9547830        15740896.471065283        661513610.35723734     
   3501757141.5700226       -24278472.026830196        801378557.46074748     
   3411863822.2813282       -17037697.122988701        791993016.81617236     
   3322571905.8628821       -7792245.9849731922        785779651.31144285     
   3233881392.3146958        3457881.3872352839        782738460.94655466     
   3145792281.6367621        16712684.993615270        782869445.72151244     
   3180157639.7679358       -30505739.416115046        917936414.82457340     
   3100025977.2554722       -17960337.639697552        909365961.36204946     
   3019807874.0587482       -5703071.4774912596        903908154.84772789     
   2939503330.1777639        6266059.0705084801        901562995.28161490     
   2859112345.6125097        17947054.004292488        902330482.66370320     
   2860113728.4497676       -36266329.660224199        1035809410.3540611     
   2789573642.1660061       -18467325.175490856        1027251559.9266489     
   2718259271.6434617       -3249268.1533633471        1021746828.2558053     
   2646170616.8821440        9387841.4061836004        1019295215.3415257     
   2573307677.8820400        19444003.503107905        1019896721.1838133     
   2541625407.6155272       -41560242.759158373        1154997544.0492146     
   2480506817.0129304       -18558659.730357289        1145649812.5099783     
   2417926098.6170273       -430836.01257324219        1139295671.5356684     
   2353883252.4278345        12823228.394244313        1135935121.1262901     
   2288378278.4453382        21203533.490046978        1135568161.2818353     
   3433347485.9547830        15740896.471065283        661513610.35723734     
   3274630683.7906399        13311393.895272374        653572076.04972088     
   3115693264.7120318        10146501.604600310        650663046.14472806     
   2956535228.7189522        6246219.5990222692        652786520.64224458     
   2797156575.8114004        1610547.8785346746        659942499.54228461     
   3145792281.6367621        16712684.993615270        782869445.72151244     
   2999768851.7881618        13559897.514291167        775061878.77787459     
   2853785362.8047967        10540246.252413392        772152851.88294828     
   2707841814.6866693        7653731.2079956532        774142365.03675103     
   2561938207.4337740        4900352.3810219765        781030418.23926723     
   2859112345.6125097        17947054.004292488        902330482.66370320     
   2725399532.7828960        13956155.032458425        894960867.16025674     
   2591987218.5982232        10966918.210428596        892355827.35173297     
   2458875403.0584931        8979343.5382013321        894515363.23813581     
   2326064086.1637006        7993431.0157763958        901439474.81946015     
   2573307677.8820400        19444003.503107905        1019896721.1838133     
   2451522726.7748513        14500166.449799657        1013269041.1968781     
   2330298832.0923095        11426517.478643417        1011271972.5510795     
   2209635993.8344145        10223056.589642882        1013905515.2464001     
   2089534212.0011582        10889783.782776356        1021169669.2828577     
   2288378278.4453382        21203533.490046978        1135568161.2818353     
   2178138433.7640224        15191931.766302347        1129986400.8877418     
   2068720203.2870533        11919044.057051182        1128901287.4809799     
   1960123587.0144370        11384870.362306833        1132312821.0615489     
   1852348584.9461706        13589410.682062507        1140221001.6294558     
   2797156575.8114004        1610547.8785346746        659942499.54228461     
   2663845399.3706541        4925977.0033332109        650693647.52230287     
   2530841119.7818775        9264395.6346768141        643943860.40890229     
   2398143737.0450830        14625803.772639036        639693138.20208359     
   2265753251.1602635        21010201.417172074        637941480.90185165     
   2561938207.4337740        4900352.3810219765        781030418.23926723     
   2435801855.5397658        8467845.1237909794        772089443.05802476     
   2309883163.8544054        12760871.895388842        766110330.24815333     
   2184182132.3777032        17779432.695852160        763093079.80965281     
   2058698761.1096544        23523527.525154948        763037691.74252200     
   2326064086.1637006        7993431.0157763958        901439474.81946015     
   2208424837.2872462        12209670.917759299        892702267.05974293     
   2090914011.9761310        16853989.370857239        887389719.13618922     
   1973531610.2303514        21926386.375070453        885501831.04879618     
   1856277632.0498986        27426861.930393696        887038602.79756570     
   2089534212.0011582        10889783.782776356        1021169669.2828577     
   1981714344.6130991        16151454.385239363        1012532119.5274614     
   1873933664.1470554        21543748.061089873        1007782027.0730144     
   1766192170.6030192        27066664.810302854        1006919391.9195251     
   1658489863.9809959        32720204.632881701        1009944214.0669811     
   1852348584.9461706        13589410.682062507        1140221001.6294558     
   1755670377.5173225        20293195.526227474        1131579000.4611697     
   1658942120.3671775        26830147.966078699        1127287254.0586288     
   1562163813.4957151        33200268.001534522        1127345762.4218254     
   1465335456.9029477        39403555.632639349        1131754525.5507672     
   2265753251.1602635        21010201.417172074        637941480.90185165     
   2122460057.3266294        23980315.209877372        625039525.42649233     
   1978765370.0692651        25612117.590154767        615312605.83931959     
   1834669189.3881450        25905608.557914138        608760722.14032257     
   1690171515.2833016        24860788.113252580        605383874.32951081     
   2058698761.1096544        23523527.525154948        763037691.74252200     
   1923857618.7450833        26394862.341694117        751458225.49590075     
   1788755676.3803461        28396863.824328542        743228096.56257463     
   1653392934.0154467        29529531.973097801        738347304.94253922     
   1517769391.6503553        29792866.787893355        736815850.63579524     
   1856277632.0498986        27426861.930393696        887038602.79756570     
   1730386545.2261381        30348818.992291093        876945768.10717702     
   1604375351.8257790        32870420.798848033        870376572.15519595     
   1478244051.8488142        34991667.350048006        867331014.94161630     
   1351992645.2952363        36712558.645892322        867809096.46643925     
   1658489863.9809959        32720204.632881701        1009944214.0669811     
   1542046836.7697952        35842185.161675394        1001502153.2603194     
   1425624396.4055483        39032788.513641834        996758032.61717045     
   1309222542.8882735        42292014.688845634        995711852.13754487     
   1192841276.2179537        45619863.687233925        998363611.82142675     
   1465335456.9029477        39403555.632639349        1131754525.5507672     
   1358838493.3760452        42874960.849824190        1125127380.9553316     
   1252502810.1196637        46883966.968754232        1122372477.9485192     
   1146328407.1338179        51430573.989465952        1123489816.5303280     
   1040315284.4185017        56514781.911938012        1128479396.7007682     
   1690171515.2833016        24860788.113252580        605383874.32951081     
   1550079582.1169972        26207979.557607949        592264628.30070257     
   1411094827.8299301        31245767.266098619        577797617.76307702     
   1273217252.4220910        39974151.238672853        561982842.71662211     
   1136446855.8934841        52393131.475352228        544820303.16134620     
   1517769391.6503553        29792866.787893355        736815850.63579524     
   1375643946.2705162        28100388.864886224        727727833.75165892     
   1233775844.7369621        27265723.762807250        719124803.37378740     
   1092165087.0496829        27288871.481659174        711006759.50218499     
   950811673.20869374        28169832.021468937        703373702.13686132     
   1351992645.2952363        36712558.645892322        867809096.46643925     
   1213070119.1735544        33551340.796993554        861760834.52185786     
   1073555101.8652169        28415152.325887561        858030310.09863913     
   933447593.37020206        21303993.232543230        856617523.19678378     
   792747593.68852425        12217863.516975313        857522473.81629097     
   1192841276.2179537        45619863.687233925        998363611.82142675     
   1062358100.8261249        42560835.353980601        994363630.61130214     
   930432599.21468604        34694052.955343068        994514137.93762636     
   797064771.38362396        22019516.491298378        998815133.80040884     
   662254617.33294296        4537225.9618563950        1007266618.1996516     
   1040315284.4185017        56514781.911938012        1128479396.7007682     
   923507891.22821689        55128872.535807461        1125536222.0199833     
   804408336.78537178        46102425.651145250        1128576286.8907585     
   683016621.08995759        29435441.257912487        1137599591.3130672     
   559332744.14197814        5127919.3561290801        1152606135.2869360     
   1136446855.8934841        52393131.475352228        544820303.16134620     
   951536683.69086218        40691600.707317114        562918848.59327888     
   759137852.40958369        4027873.0104202926        591979332.31693566     
   559250362.04963636       -57598051.615367293        632001754.33231604     
   351874212.61101478       -144186173.17007428        682986114.63941669     
   950811673.20869374        28169832.021468937        703373702.13686132     
   791646015.12796378        11027786.710723519        721294515.18079472     
   623863013.69855297       -34838736.428958446        749312365.69048524     
   447462668.92047441       -109429737.39753839        787427253.66589987     
   262444980.79371145       -212745216.19505501        835639179.10706329     
   792747593.68852425        12217863.516975313        857522473.81629097     
   656855304.51257348       -11106039.901655942        873948756.15722787     
   511216987.71794474       -66916702.049216211        899607175.13792574     
   355832643.30462742       -155214122.92573476        934497730.75837648     
   190702271.27263758       -275998302.53116691        978620423.01858270     
   662254617.33294296        4537225.9618563950        1007266618.1996516     
   547164551.84469104       -25709879.129757255        1020881571.5225805     
   421199774.46774912       -92206023.850354016        1042863760.6592788     
   284360285.20212370       -194951208.19988495        1073213185.6097523     
   136646084.04780257       -333945432.17840713        1111929846.3740168     
   559332744.14197814        5127919.3561290801        1152606135.2869360     
   462573757.12432545       -32783730.973623484        1162092961.2768412     
   353811373.94797647       -110706701.83235821        1179082122.2545445     
   233045594.61292750       -228640993.22010118        1203573618.2200363     
   100276419.11919612       -386586605.13678551        1235567449.1733291     
   351874212.61101478       -144186173.17007428        682986114.63941669     
   277847738.25332677       -285237864.79023862        786346322.04830265     
   149023017.97006553       -608950376.16231966        905501331.57351649     
  -34599948.238762856       -1115323707.2862935        1040451143.2150389     
  -273021160.37315863       -1804357858.1621590        1191195756.9729121     
   262444980.79371145       -212745216.19505501        835639179.10706329     
   223700166.45599177       -352354821.92250329        885022563.20734596     
   140709405.97245005       -639450914.80267775        945418094.61602914     
   13472699.343086302       -1074033494.8356023        1016825773.3331275     
  -158009953.43210638       -1656102562.0212841        1099245599.3585994     
   190702271.27263758       -275998302.53116691        978620423.01858270     
   173574388.93224245       -418265240.77267218        986338000.21998310     
   122752860.22576621       -672844333.56776309        1000285069.9218534     
   38237685.153212488       -1039735580.9164412        1020461632.1241964     
  -79971136.285412312       -1518938982.8187170        1046867686.8270235     
   136646084.04780257       -333945432.17840713        1111929846.3740168     
   127470405.68208727       -482969121.34073955        1090292633.0862164     
   95153380.730028450       -709130632.45756149        1070102257.4909780     
   39695009.191635966       -1012429965.5288175        1051358719.5882882     
  -38904708.933065057       -1392867120.5544467        1034062019.3781477     
   100276419.11919612       -386586605.13678551        1235567449.1733291     
   85388216.705503166       -546466463.62678230        1196886461.8060606     
   57910967.485222042       -748309811.47207856        1154869657.3234041     
   17844671.458355784       -992116648.67264462        1109517035.7253809     
  -34810671.375091314       -1277886975.2285023        1060828597.0119740     
   3172088379.6721106        159588942.91332328        1171948497.3616173     
   3002961217.7598963        70930250.168316364        1147313254.9285939     
   2841508335.1130633        7852488.3079029322        1136276348.5655215     
   2687729731.7316065       -29644342.667923331        1138837778.2723951     
   2541625407.6155272       -41560242.759158373        1154997544.0492146     
   2704994263.7311702        67051593.803357363        1189697881.0386319     
   2579103938.9477682        19368438.576457262        1184428690.7828810     
   2457538648.6978550       -13897934.872123837        1189364376.6674633     
   2340298392.9814429       -32747526.542380691        1204504938.6923862     
   2227383171.7985263       -37180336.434317708        1229850376.8576558     
   2278080669.0075445       -13431598.941415787        1220171947.1090441     
   2185731581.5540676       -23047896.589874983        1230361356.8433580     
   2094358283.9022098       -29411561.566279411        1247362182.7884061     
   2003960776.0519667       -32522593.870627046        1271174424.9441907     
   1914539058.0033412       -32380993.502924085        1301798083.3107128     
   1891347595.5012119       -81860635.321001053        1263370695.5728431     
   1822844145.5787978       -56318755.330680847        1285111253.1100330     
   1751967240.7261181       -38688391.774569869        1310269766.9283552     
   1678716880.9431739       -28969544.652672529        1338846237.0278025     
   1603093066.2299678       -27162213.964987636        1370840663.4083831     
   1544795043.2121944       -138235515.33539015        1319294126.4300325     
   1490441631.0219619       -80444137.645949662        1348678379.5829062     
   1430365519.1695867       -41728425.496991634        1378087129.0873034     
   1364566707.6550689       -22088378.888504744        1407520374.9432271     
   1293045196.4784036       -21523997.820511818        1436978117.1506710     
   2541625407.6155272       -41560242.759158373        1154997544.0492146     
   2480506817.0129304       -18558659.730357289        1145649812.5099783     
   2417926098.6170273       -430836.01257324219        1139295671.5356684     
   2353883252.4278345        12823228.394244313        1135935121.1262901     
   2288378278.4453382        21203533.490046978        1135568161.2818353     
   2227383171.7985263       -37180336.434317708        1229850376.8576558     
   2172524908.8055849       -19113736.129886866        1219554531.6806173     
   2116692593.3051019       -4293977.5172652006        1212219574.7286315     
   2059886225.2970817        7278939.4035714865        1207845506.0016875     
   2002105804.7815223        15605014.632606149        1206432325.4997900     
   1914539058.0033412       -32380993.502924085        1301798083.3107128     
   1865847687.3632476       -19277406.499902487        1291123545.6626005     
   1816670339.5013695       -7793743.5694924593        1283377193.8996496     
   1767007014.4177141        2069995.2883243561        1278559028.0218592     
   1716857712.1122773        10313810.073538184        1276669048.0292349     
   1603093066.2299678       -27162213.964987636        1370840663.4083831     
   1560475152.6859102       -19049670.840418935        1360356854.4559116     
   1517859337.2058289       -10930134.169265568        1352768529.0487189     
   1475245619.7897298       -2803603.9515026808        1348075687.1868045     
   1432634000.4376066        5329919.8128433824        1346278328.8701687     
   1293045196.4784036       -21523997.820511818        1436978117.1506710     
   1256407304.7735710       -18430529.151447594        1427254458.0605597     
   1220259586.4184804       -13703149.316579401        1420393580.1758451     
   1184602041.4131246       -7341858.3159273863        1416395483.4965258     
   1149434669.7575073        653343.85052001476        1415260168.0226042     
   2288378278.4453382        21203533.490046978        1135568161.2818353     
   2178138433.7640224        15191931.766302347        1129986400.8877418     
   2068720203.2870533        11919044.057051182        1128901287.4809799     
   1960123587.0144370        11384870.362306833        1132312821.0615489     
   1852348584.9461706        13589410.682062507        1140221001.6294558     
   2002105804.7815223        15605014.632606149        1206432325.4997900     
   1904277806.8398504        11323224.477020979        1202105812.6044509     
   1807032481.9616866        8983677.8664532900        1202431039.8519332     
   1710369830.1470261        8586374.8009004593        1207408007.2422302     
   1614289851.3958683        10131315.280358851        1217036714.7753518     
   1716857712.1122773        10313810.073538184        1276669048.0292349     
   1631884684.2116401        7894768.4765264988        1273319017.9683366     
   1547255388.2336597        6621499.9550476670        1274775821.2057414     
   1462969824.1783421        6494004.5091058016        1281039457.7414451     
   1379027992.0456831        7512282.1386934519        1292109927.5754561     
   1432634000.4376066        5329919.8128433824        1346278328.8701687     
   1360959065.8793855        4906563.7648261786        1343626016.9793916     
   1289388922.1029735        4832510.3228390217        1345935631.5424020     
   1217923569.1083875        5107759.4869363904        1353207172.5592058     
   1146563006.8956118        5732311.2570671439        1365440640.0297880     
   1149434669.7575073        653343.85052001476        1415260168.0226042     
   1091500951.8430843        2358610.3418969512        1413026809.6376243     
   1033433083.5696372        3616708.9698545933        1415910470.8619192     
   975231064.93716168        4427639.7343854308        1423911151.6954892     
   916894895.94565058        4791402.6354672909        1437028852.1383333     
   1852348584.9461706        13589410.682062507        1140221001.6294558     
   1755670377.5173225        20293195.526227474        1131579000.4611697     
   1658942120.3671775        26830147.966078699        1127287254.0586288     
   1562163813.4957151        33200268.001534522        1127345762.4218254     
   1465335456.9029477        39403555.632639349        1131754525.5507672     
   1614289851.3958683        10131315.280358851        1217036714.7753518     
   1528779415.7049761        15811411.181269526        1209438573.0295756     
   1443322104.2055571        21668587.720427036        1206317006.0726151     
   1357917916.8976030        27702844.897803128        1207672013.9044895     
   1272566853.7811208        33914182.713412583        1213503596.5251813     
   1379027992.0456831        7512282.1386934519        1292109927.5754561     
   1305046242.4444005        12276963.401827872        1285676014.8170969     
   1231220790.9473748        17562638.345813572        1283844996.8706398     
   1157551637.5545902        23369306.970601499        1286616873.7360842     
   1084038782.2660480        29696969.276205420        1293991645.4134378     
   1146563006.8956118        5732311.2570671439        1365440640.0297880     
   1084470857.7356076        9689852.1879351139        1360291325.8237455     
   1022638180.5926317        14512299.842231870        1359871226.4526947     
   961064975.46667612        20199654.219929397        1364180341.9166245     
   899751242.35774457        26751915.321039110        1373218672.2155430     
   916894895.94565058        4791402.6354672909        1437028852.1383333     
   867053261.57857943        8050077.5395451188        1433284506.0495198     
   817574273.14132333        12517572.209678859        1434395694.8187745     
   768457930.63385916        18193886.645782769        1440362418.4461002     
   719704234.05619454        25079020.847885460        1451184676.9314914     
   1465335456.9029477        39403555.632639349        1131754525.5507672     
   1358838493.3760452        42874960.849824190        1125127380.9553316     
   1252502810.1196637        46883966.968754232        1122372477.9485192     
   1146328407.1338179        51430573.989465952        1123489816.5303280     
   1040315284.4185017        56514781.911938012        1128479396.7007682     
   1272566853.7811208        33914182.713412583        1213503596.5251813     
   1176506006.8326950        36988740.701510787        1208640459.0147107     
   1080442247.9930801        40053592.385641634        1208024442.0288582     
   984375577.26226115        43108737.765763819        1211655545.5676134     
   888305994.64024389        46154176.841880292        1219533769.6309845     
   1084038782.2660480        29696969.276205420        1293991645.4134378     
   999485134.57035971        32696004.837514997        1290700957.4659283     
   914764382.82174885        35138026.889077276        1292032268.9790177     
   829876527.02021372        37023035.430894285        1297985579.9527049     
   744821567.16575265        38351030.462962538        1308560890.3869929     
   899751242.35774457        26751915.321039110        1373218672.2155430     
   827775876.58903944        29996753.257827163        1371308876.3089724     
   755469214.60568011        32137270.479098678        1374395958.7989938     
   682831256.40767205        33173466.984879881        1382479919.6856010     
   609862001.99502063        33105342.775174260        1395560758.9687943     
   719704234.05619454        25079020.847885460        1451184676.9314914     
   661378232.88872087        28890985.962416470        1450464215.5438542     
   602556743.34487557        31051323.155709356        1455115511.4887905     
   543239765.42465103        31560032.427737534        1465138564.7662969     
   483427299.12804896        30417113.778507426        1480533375.3763847     
   1040315284.4185017        56514781.911938012        1128479396.7007682     
   923507891.22821689        55128872.535807461        1125536222.0199833     
   804408336.78537178        46102425.651145250        1128576286.8907585     
   683016621.08995759        29435441.257912487        1137599591.3130672     
   559332744.14197814        5127919.3561290801        1152606135.2869360     
   888305994.64024389        46154176.841880292        1219533769.6309845     
   786737793.02750516        44115981.381477892        1216871365.0378292     
   682908295.28003430        34540132.138640702        1220098703.5106885     
   576817501.39784908        17426629.113418132        1229215785.0495627     
   468465411.38092989       -7224527.6942480505        1244222609.6544430     
   744821567.16575265        38351030.462962538        1308560890.3869929     
   658225424.31473660        35580409.073532969        1306215265.1856153     
   569398850.44683051        25375017.627802044        1309665886.5647142     
   478341845.56204295        7734856.1258009970        1318912754.5242839     
   385054409.66036695       -17340075.432496279        1333955869.0643353     
   609862001.99502063        33105342.775174260        1395560758.9687943     
   537970785.08990502        29522155.611951619        1393567922.4633360     
   463880002.28574812        18607082.118600279        1397277836.0528176     
   387589653.58253920        360122.29506799579        1406690499.7372453     
   309099738.98028749       -25218723.858601123        1421805913.5166001     
   483427299.12804896        30417113.778507426        1480533375.3763847     
   425973875.35302353        25941220.996781960        1478929336.8710001     
   366351750.79678452        14236325.611014143        1482934551.9750135     
   304560925.45934606       -4697572.3787535131        1492549020.6884325     
   240601399.34070042       -30860472.972544909        1507772743.0112469     
   559332744.14197814        5127919.3561290801        1152606135.2869360     
   462573757.12432545       -32783730.973623484        1162092961.2768412     
   353811373.94797647       -110706701.83235821        1179082122.2545445     
   233045594.61292750       -228640993.22010118        1203573618.2200363     
   100276419.11919612       -386586605.13678551        1235567449.1733291     
   468465411.38092989       -7224527.6942480505        1244222609.6544430     
   390763379.95520115       -41517989.567942113        1242800915.7676642     
   302902431.93230617       -109674506.76552074        1247701116.9354911     
   204882567.31223091       -211694079.28703356        1258923213.1579082     
   96703786.094987214       -347576707.13244426        1276467204.4349236     
   385054409.66036695       -17340075.432496279        1333955869.0643353     
   323036648.30315006       -49027154.507122099        1323777548.1226468     
   252704449.91027164       -108429023.70061253        1318740682.3023598     
   174057814.48174775       -195545683.01292199        1318845271.6034706     
   87096742.017572537       -310377132.44407469        1324091316.0259812     
   309099738.98028749       -25218723.858601123        1421805913.5166001     
   259393562.16815427       -55311225.791207150        1405022858.3417780     
   203217427.88188654       -106970252.63758619        1392200818.3551636     
   140571336.12148467       -180195804.39775437        1383339793.5567501     
   71455286.886956915       -274987881.07166708        1378439783.9465277     
   240601399.34070042       -30860472.972544909        1507772743.0112469     
   199834121.55023199       -60370203.420140207        1486536846.4250751     
   154441365.84713766       -105298193.57649398        1468081525.0938942     
   104423132.23145035       -165644443.44149104        1452406779.0177262     
   49779420.703142017       -241408953.01521927        1439512608.1965454     
   100276419.11919612       -386586605.13678551        1235567449.1733291     
   85388216.705503166       -546466463.62678230        1196886461.8060606     
   57910967.485222042       -748309811.47207856        1154869657.3234041     
   17844671.458355784       -992116648.67264462        1109517035.7253809     
  -34810671.375091314       -1277886975.2285023        1060828597.0119740     
   96703786.094987214       -347576707.13244426        1276467204.4349236     
   79790981.656508625       -488750808.03831875        1222089493.0534785     
   51495599.687213987       -667866834.04691625        1165173499.3258662     
   11817640.187127590       -884924785.15816414        1105719223.2520869     
  -39242896.843784213       -1139924661.3721385        1043726664.8320991     
   87096742.017572537       -310377132.44407469        1324091316.0259812     
   70438006.323455036       -432161874.53507638        1255424428.1187916     
   43603162.374303371       -587866977.47619903        1185016792.6346135     
   6592210.1701192558       -777492441.26742780        1112868409.5734584     
  -40594850.289098740       -1001038265.9087611        1038979278.9353454     
   71455286.886956915       -274987881.07166708        1378439783.9465277     
   57329290.706345230       -376699663.11705583        1296891267.0019705     
   34233655.546478361       -508310241.75996232        1214399537.2496421     
   2168381.4073491693       -669819617.00041485        1130964594.6895466     
  -38866531.711035728       -861227788.83837044        1046586439.3216509     
   49779420.703142017       -241408953.01521927        1439512608.1965454     
   40464834.805179447       -322364173.78424543        1346490009.7030463     
   23387079.203739047       -429196626.89820325        1253321733.1709635     
  -1453846.1011913121       -561906312.35712051        1160007778.6003141     
  -34057941.109596163       -720493230.16096675        1066548145.9910736     
   1544795043.2121944       -138235515.33539015        1319294126.4300325     
   1490441631.0219619       -80444137.645949662        1348678379.5829062     
   1430365519.1695867       -41728425.496991634        1378087129.0873034     
   1364566707.6550689       -22088378.888504744        1407520374.9432271     
   1293045196.4784036       -21523997.820511818        1436978117.1506710     
   1250889840.2056265       -3969159.7321035266        1428757835.7830656     
   1188880412.7324054        13157002.487906933        1437340822.4512997     
   1124082365.4111147        20987765.214353383        1449394350.7355802     
   1056495698.2417566        19523128.447237551        1464918420.6359055     
   986120411.22432518        8763092.1865479946        1483913032.1522717     
   906815057.95351386        115246322.09751973        1521752917.4684572     
   846995458.81022239        94661021.931984037        1512957730.7684720     
   787321319.63293266        74560588.319788337        1511079130.9490526     
   727792640.42164814        54945021.260942638        1516117118.0101969     
   668409421.17636561        35814320.755438507        1528071691.9519081     
   512570696.45585400        219410930.15347794        1598279371.4861996     
   464786769.25540853        164067920.68626848        1575529104.5344169     
   420082381.83503687        118990043.81930937        1563141469.7277150     
   378457534.19474453        84177299.552613318        1561116467.0661039     
   339912226.33452713        59629687.886166163        1569454096.5495777     
   68156755.712650254        308524664.43577462        1658337197.8363044     
   42254344.067963585        221377698.75076032        1625054943.7491367     
   22365552.017427921        154276131.71291396        1605581367.0715754     
   8490379.5610430911        107219963.32223739        1599916467.8036230     
   628826.69880876690        80209193.578729853        1608060245.9452791     
   1293045196.4784036       -21523997.820511818        1436978117.1506710     
   1256407304.7735710       -18430529.151447594        1427254458.0605597     
   1220259586.4184804       -13703149.316579401        1420393580.1758451     
   1184602041.4131246       -7341858.3159273863        1416395483.4965258     
   1149434669.7575073        653343.85052001476        1415260168.0226042     
   986120411.22432518        8763092.1865479946        1483913032.1522717     
   956080774.63923478        6731979.4195357561        1471296302.5883510     
   926606611.76857209        6585779.0339467525        1462074968.3963933     
   897697922.61233270        8324491.0297698379        1456249029.5763967     
   869354707.17052066        11948115.407016218        1453818486.1283634     
   668409421.17636561        35814320.755438507        1528071691.9519081     
   646489794.47263765        29115152.980830044        1512649742.3396459     
   625210941.84802485        24551898.803271204        1501155802.2659111     
   604572863.30252624        22124558.222759366        1493589871.7307098     
   584575558.83614337        21833131.239300311        1489951950.7340360     
   339912226.33452713        59629687.886166163        1569454096.5495777     
   327634364.27378386        48718991.532449372        1551314777.3144431     
   316072576.65684694        40195209.991418101        1537636081.7844050     
   305226863.48370862        34058343.263050564        1528418009.9594643     
   295097224.75437510        30308391.347364552        1523660561.8396254     
   628826.69880876690        80209193.578729853        1608060245.9452791     
  -485515.95732485875        65543495.074398890        1587291407.5127406     
  -808483.80497134477        53515712.598358750        1571515806.9518695     
  -340076.84412377700        44125846.150632113        1560733444.2626643     
   919704.92521568574        37373895.731211454        1554944319.4451232     
   1149434669.7575073        653343.85052001476        1415260168.0226042     
   1091500951.8430843        2358610.3418969512        1413026809.6376243     
   1033433083.5696372        3616708.9698545933        1415910470.8619192     
   975231064.93716168        4427639.7343854308        1423911151.6954892     
   916894895.94565058        4791402.6354672909        1437028852.1383333     
   869354707.17052066        11948115.407016218        1453818486.1283634     
   824525378.64430404        11509247.859470606        1450042575.8490634     
   779712999.70071161        11126878.920671582        1451724745.6527085     
   734917570.33974230        10801008.590619564        1458864995.5392981     
   690139090.56139576        10531636.869304121        1471463325.5088255     
   584575558.83614337        21833131.239300311        1489951950.7340360     
   553825078.19433033        19542467.201687038        1484809771.8256791     
   523242647.07679367        17811968.244991362        1485466733.4739332     
   492828265.48353493        16641634.369224012        1491922835.6788023     
   462581933.41454929        16031465.574366808        1504178078.4402828     
   295097224.75437510        30308391.347364552        1523660561.8396254     
   279400050.49316394        26458268.368536904        1517328397.5674670     
   264022025.69788694        23671976.942820914        1517136434.3255923     
   248963150.36853409        21949517.070187047        1523084672.1140022     
   234223424.50511286        21290888.750657506        1535173110.9326925     
   919704.92521568574        37373895.731211454        1554944319.4451232     
   1250295.5408105515        32256651.360044014        1547598453.0744276     
   2051135.5639887732        28706905.014153041        1546733848.2076876     
   3322224.9947433043        26724656.693516437        1552350504.8448994     
   5063563.8330802787        26309906.398156028        1564448422.9860671     
   916894895.94565058        4791402.6354672909        1437028852.1383333     
   867053261.57857943        8050077.5395451188        1433284506.0495198     
   817574273.14132333        12517572.209678859        1434395694.8187745     
   768457930.63385916        18193886.645782769        1440362418.4461002     
   719704234.05619454        25079020.847885460        1451184676.9314914     
   690139090.56139576        10531636.869304121        1471463325.5088255     
   652571120.73420179        12660938.873313308        1467726165.0128994     
   615141489.72435951        15251370.268497467        1468835374.5895872     
   577850197.53187430        18302931.054871976        1474790954.2389019     
   540697244.15674341        21815621.232424796        1485592903.9608421     
   462581933.41454929        16031465.574366808        1504178078.4402828     
   437261443.02595782        17023539.147901610        1500186411.9060452     
   411854984.34227133        17729051.737789646        1501031950.6589792     
   386362557.36349380        18148003.344039395        1506714694.6991005     
   360784162.08962482        18280393.966650575        1517234644.0263960     
   234223424.50511286        21290888.750657506        1535173110.9326925     
   221124228.45385498        21137878.363335572        1530665246.7289567     
   207714756.99505892        19950616.617552444        1530985423.0269551     
   193995010.12872338        17729103.513304710        1536133639.8266914     
   179964987.85484892        14473339.050592467        1546109897.1281619     
   5063563.8330802787        26309906.398156028        1564448422.9860671     
   4159477.0178961316        25003956.519619383        1559162669.4816408     
   2720807.6827150742        21916064.907762483        1558695791.6935146     
   747555.82755144872        17046231.562627923        1563047789.6216750     
  -1760278.5475967806        10394456.484213434        1572218663.2661314     
   719704234.05619454        25079020.847885460        1451184676.9314914     
   661378232.88872087        28890985.962416470        1450464215.5438542     
   602556743.34487557        31051323.155709356        1455115511.4887905     
   543239765.42465103        31560032.427737534        1465138564.7662969     
   483427299.12804896        30417113.778507426        1480533375.3763847     
   540697244.15674341        21815621.232424796        1485592903.9608421     
   495807766.64671916        22899198.021893680        1484254929.6858742     
   450708638.57366395        23283939.601257131        1488510613.5821531     
   405399859.93758225        22969845.970529065        1498359955.6496787     
   359881430.73847210        21956917.129709199        1513802955.8884606     
   360784162.08962482        18280393.966650575        1517234644.0263960     
   329965210.63327098        16825783.149938643        1515612634.3129976     
   299222446.42722839        15625129.834264368        1519806183.6095245     
   268555869.47149700        14678434.019629017        1529815291.9159744     
   237965479.76608276        13985695.706050567        1545639959.2323444     
   179964987.85484892        14473339.050592467        1546109897.1281619     
   163850564.84837124        10670741.346540608        1544537329.4252329     
   148098166.90555400        8074893.8546900004        1549002221.5709081     
   132707794.02639331        6685796.5750267580        1559504573.5651748     
   117679446.21088822        6503449.5075487196        1576044385.4080403     
  -1760278.5475967806        10394456.484213434        1572218663.2661314     
  -2536170.7079737559        4434072.6117190039        1571029015.0225782     
  -2664199.9913551244        633231.66254187201        1576098727.4662955     
  -2144366.3977354667       -1008066.3632988492        1587427800.5972834     
  -976669.92710871901       -489821.46578052419        1605016234.4155502     
   483427299.12804896        30417113.778507426        1480533375.3763847     
   425973875.35302353        25941220.996781960        1478929336.8710001     
   366351750.79678452        14236325.611014143        1482934551.9750135     
   304560925.45934606       -4697572.3787535131        1492549020.6884325     
   240601399.34070042       -30860472.972544909        1507772743.0112469     
   359881430.73847210        21956917.129709199        1513802955.8884606     
   317328616.38806725        18995954.162732348        1510482129.3832350     
   273114429.36064351        10497082.272357658        1512664457.3303013     
   227238869.65619919       -3539698.5414166003        1520349939.7296505     
   179701937.27473176       -23114388.278604127        1533538576.5812953     
   237965479.76608276        13985695.706050567        1545639959.2323444     
   210010134.39141500        12448720.419190615        1541194227.5154924     
   180900744.44390854        7064929.8895363435        1542145551.0938222     
   150637309.92356217       -2165675.8829200864        1548493929.9673283     
   119219830.83037475       -15243096.898176536        1560239364.1360049     
   117679446.21088822        6503449.5075487196        1576044385.4080403     
   104018429.36306292        6299519.7661439143        1571065631.2677834     
   89710696.046573371        3939868.4625249617        1571377833.2655835     
   74756246.261431545       -575504.40326832980        1576980991.4014468     
   59155080.007627890       -7246598.8312675580        1587875105.6753740     
  -976669.92710871901       -489821.46578052419        1605016234.4155502     
  -646498.69700081437        548352.20355708676        1600096340.6400917     
  -455715.83135775675        1121897.9913431262        1600361303.8455861     
  -404321.33020294766        1230815.8975027113        1605811124.0320170     
  -492315.19350955408        875105.92212424439        1616445801.1994023     
   240601399.34070042       -30860472.972544909        1507772743.0112469     
   199834121.55023199       -60370203.420140207        1486536846.4250751     
   154441365.84713766       -105298193.57649398        1468081525.0938942     
   104423132.23145035       -165644443.44149104        1452406779.0177262     
   49779420.703142017       -241408953.01521927        1439512608.1965454     
   179701937.27473176       -23114388.278604127        1533538576.5812953     
   148482854.57132301       -45552662.982488647        1507811355.7024939     
   113809360.01518732       -79505643.862132385        1485016450.6178715     
   75681453.606326833       -124973330.91752267        1465153861.3274419     
   34099135.344747931       -181955724.14864382        1448223587.8311920     
   119219830.83037475       -15243096.898176536        1560239364.1360049     
   97982487.611702949       -30479852.539018780        1531387062.7011096     
   74461798.600182384       -53327760.822688028        1505618817.5995815     
   48657763.795829192       -83786821.749133468        1482934628.8314264     
   20570383.198628061       -121857035.31840611        1463334496.3966463     
   59155080.007627890       -7246598.8312675580        1587875105.6753740     
   48333020.671358913       -15151772.089768592        1557263967.4209170     
   36398681.602120042       -26764544.458170462        1529888626.0390117     
   23352062.799936965       -42084915.936385855        1505749081.5296605     
   9193164.2647909783       -61112886.524480209        1484845333.8928683     
  -492315.19350955408        875105.92212424439        1616445801.1994023     
  -465546.24971589376        431578.36523571424        1585442069.8619163     
  -379990.97898859752        184005.23145652784        1557825875.9361703     
  -235649.38133830269        132386.52075435058        1533597219.4221618     
  -32521.456760914443        276722.23314456624        1512756100.3198829     
   49779420.703142017       -241408953.01521927        1439512608.1965454     
   40464834.805179447       -322364173.78424543        1346490009.7030463     
   23387079.203739047       -429196626.89820325        1253321733.1709635     
  -1453846.1011913121       -561906312.35712051        1160007778.6003141     
  -34057941.109596163       -720493230.16096675        1066548145.9910736     
   34099135.344747931       -181955724.14864382        1448223587.8311920     
   29896537.656849995       -241799407.00401920        1347702923.8592944     
   19867996.351600960       -321062901.91723162        1246388343.1844010     
   4013511.4289719164       -419746208.88837391        1144279845.8065116     
  -17666917.111023962       -537849327.91740966        1041377431.7256626     
   20570383.198628061       -121857035.31840611        1463334496.3966463     
   19627663.251064740       -161144813.40100634        1357575864.0467904     
   14796225.772255242       -213394983.25442728        1250375076.3295529     
   6076070.7621831745       -278607544.87872583        1141732133.2449179     
  -6532801.7791417390       -356782498.27385956        1031647034.7928734     
   9193164.2647909783       -61112886.524480209        1484845333.8928683     
   9658211.5878191553       -80400392.975229979        1376108830.2655551     
   8171767.4657073468       -106192870.90978111        1265281932.6064339     
   4733831.8984523788       -138490320.32814059        1152364640.9155104     
  -655595.11394669116       -177292741.23032221        1037356955.1927748     
  -32521.456760914443        276722.23314456624        1512756100.3198829     
  -11817.332898863591        433854.27327137225        1403301822.5155663     
  -5378.5680442877347        543435.11670728878        1291108912.0150325     
  -13205.162236029486        605464.76332492218        1176177368.8182764     
  -35297.115442749462        619943.21322110447        1058507192.9253134     
   68156755.712650254        308524664.43577462        1658337197.8363044     
   42254344.067963585        221377698.75076032        1625054943.7491367     
   22365552.017427921        154276131.71291396        1605581367.0715754     
   8490379.5610430911        107219963.32223739        1599916467.8036230     
   628826.69880876690        80209193.578729853        1608060245.9452791     
  -458931055.51162022        108138537.23838708        1521683002.5807579     
  -437896554.61887890        73314771.176490396        1512613868.7340295     
  -413901896.48479170        48358195.919077098        1513766790.2857695     
  -386947081.10935682        33268811.466158181        1525141767.2359707     
  -357032108.49257463        28046617.817728892        1546738799.5846357     
  -926671072.18740273       -74443251.594454080        1401518503.6445615     
  -868947150.21764278       -60018065.471361786        1413100117.2933347     
  -811316533.35933948       -45903896.386456907        1431317164.3294342     
  -753779221.61249256       -32100744.339741886        1456169644.7528529     
  -696335214.97710466       -18608609.331221074        1487657558.5635908     
  -1335063294.3146963       -239220702.06274939        1297843701.0277183     
  -1250897442.7283268       -178620811.19278705        1326513689.4270566     
  -1169878358.6062174       -128510145.20369726        1358232489.2025721     
  -1092006041.9483657       -88888704.095464766        1393000100.3542674     
  -1017280492.7547792       -59756487.868116856        1430816522.8821411     
  -1684107721.8935013       -386193814.16649652        1210658594.7302172     
  -1583747432.1509283       -282493465.98778760        1252854585.1351838     
  -1489587372.2254210       -199460550.53262788        1294512764.9051812     
  -1401627542.1169751       -137095067.80100918        1335633134.0402160     
  -1319867941.8255968       -95397017.792948961        1376215692.5402887     
   628826.69880876690        80209193.578729853        1608060245.9452791     
  -485515.95732485875        65543495.074398890        1587291407.5127406     
  -808483.80497134477        53515712.598358750        1571515806.9518695     
  -340076.84412377700        44125846.150632113        1560733444.2626643     
   919704.92521568574        37373895.731211454        1554944319.4451232     
  -357032108.49257463        28046617.817728892        1546738799.5846357     
  -343575749.94403183        22694070.189669043        1532515296.4660921     
  -329909946.28023911        18039672.945777074        1522357598.5080295     
  -316034697.50118959        14083426.086073548        1516265705.7104535     
  -301950003.60688704        10825329.610546723        1514239618.0733583     
  -696335214.97710466       -18608609.331221074        1487657558.5635908     
  -670957962.97011709       -15442948.406874329        1479300472.7835929     
  -645953195.54111791       -13518902.742484212        1474081759.4528983     
  -621320912.69010139       -12836472.338038683        1472001418.5715067     
  -597061114.41707134       -13395657.193549126        1473059450.1394157     
  -1017280492.7547792       -59756487.868116856        1430816522.8821411     
  -982632155.03558278       -48867560.715235114        1427646936.4652457     
  -948938231.58760953       -41160014.466431201        1426688289.7864728     
  -916198722.41086042       -36633849.121708512        1427940582.8458188     
  -884413627.50533712       -35289064.681069404        1431403815.6432858     
  -1319867941.8255968       -95397017.792948961        1376215692.5402887     
  -1278598326.1404243       -77579766.735401988        1377554687.5110524     
  -1238865054.4197135       -64883662.226061046        1380177189.5087538     
  -1200668126.6634648       -57308704.264926732        1384083198.5333948     
  -1164007542.8716800       -54854892.852006257        1389272714.5849741     
   919704.92521568574        37373895.731211454        1554944319.4451232     
   1250295.5408105515        32256651.360044014        1547598453.0744276     
   2051135.5639887732        28706905.014153041        1546733848.2076876     
   3322224.9947433043        26724656.693516437        1552350504.8448994     
   5063563.8330802787        26309906.398156028        1564448422.9860671     
  -301950003.60688704        10825329.610546723        1514239618.0733583     
  -284404786.49624044        9219997.9406801462        1509732312.3637378     
  -266663778.56188536        8267302.3498426080        1511175324.1383622     
  -248726979.80381602        7967242.8380516917        1518568653.3972373     
  -230594390.22204328        8319819.4052733332        1531912300.1403546     
  -597061114.41707134       -13395657.193549126        1473059450.1394157     
  -563818253.72481918       -11944171.036147088        1471070503.4096806     
  -530654060.79272848       -10754910.745951891        1474500930.1444890     
  -497568535.62079680       -9827876.3229528368        1483350730.3438370     
  -464561678.20902967       -9163067.7671682537        1497619904.0077274     
  -884413627.50533712       -35289064.681069404        1431403815.6432858     
  -836990106.14492404       -31235855.570432872        1431613026.2122574     
  -789919711.12854457       -28359734.273241550        1436710666.2260659     
  -743202442.45619500       -26660700.789482564        1446696735.6847088     
  -696838300.12788022       -26138755.119172364        1461571234.5881863     
  -1164007542.8716800       -54854892.852006257        1389272714.5849741     
  -1103920343.7565529       -48655055.662167668        1391359880.7714701     
  -1044460729.5693302       -44547168.232013762        1397804532.3830926     
  -985628700.31000674       -42531230.561524272        1408606669.4198472     
  -927424255.97859395       -42607242.650735497        1423766291.8817322     
   5063563.8330802787        26309906.398156028        1564448422.9860671     
   4159477.0178961316        25003956.519619383        1559162669.4816408     
   2720807.6827150742        21916064.907762483        1558695791.6935146     
   747555.82755144872        17046231.562627923        1563047789.6216750     
  -1760278.5475967806        10394456.484213434        1572218663.2661314     
  -230594390.22204328        8319819.4052733332        1531912300.1403546     
  -219012229.33260125        6619877.6309189051        1526787605.0569015     
  -207683478.87163115        4075234.4283227175        1526539761.3905172     
  -196608138.83914214        685889.79745746404        1531168769.1412072     
  -185786209.23511922       -3548156.2616286352        1540674628.3089647     
  -464561678.20902967       -9163067.7671682537        1497619904.0077274     
  -440327624.75558949       -11207307.979512170        1492984301.4520087     
  -416065809.63911217       -13159009.315067485        1493283526.0141351     
  -391776232.85960126       -15018171.773842648        1498517577.6941113     
  -367458894.41704834       -16784795.355809346        1508686456.4919374     
  -696838300.12788022       -26138755.119172364        1461571234.5881863     
  -659786709.25107527       -28477600.311694205        1457752758.6669614     
  -622426184.61972260       -29786666.322391510        1458927085.5643620     
  -584756726.23382592       -30065953.151272416        1465094215.2803888     
  -546778334.09337425       -29315460.798307419        1476254147.8150408     
  -927424255.97859395       -42607242.650735497        1423766291.8817322     
  -877389482.81905961       -45190999.365629196        1421092976.7017620     
  -826764603.81346345       -45807736.593649656        1423470440.0412011     
  -775549618.96181679       -44457454.334837466        1430898681.9000430     
  -723744528.26409924       -41140152.589118600        1443377702.2782862     
  -1760278.5475967806        10394456.484213434        1572218663.2661314     
  -2536170.7079737559        4434072.6117190039        1571029015.0225782     
  -2664199.9913551244        633231.66254187201        1576098727.4662955     
  -2144366.3977354667       -1008066.3632988492        1587427800.5972834     
  -976669.92710871901       -489821.46578052419        1605016234.4155502     
  -185786209.23511922       -3548156.2616286352        1540674628.3089647     
  -169700511.40558502       -6064360.2398918867        1540716170.2338648     
  -153269944.94107842       -7431002.1015844047        1546673994.5650651     
  -136494509.84159845       -7648081.8466969207        1558548101.3025582     
  -119374206.10715260       -6715599.4752568752        1576338490.4463563     
  -367458894.41704834       -16784795.355809346        1508686456.4919374     
  -335491830.25752342       -16150886.537792593        1509605695.3029239     
  -303482891.70506591       -15377396.409996614        1516098138.2392304     
  -271432078.75966442       -14464324.972389191        1528163785.3008602     
  -239339391.42132270       -13411672.224981092        1545802636.4878132     
  -546778334.09337425       -29315460.798307419        1476254147.8150408     
  -499910127.26379806       -25825506.282008380        1477697590.2297447     
  -453303040.28331172       -23205951.262676299        1484371158.4887955     
  -406957073.15191877       -21456795.740324691        1496274852.5921905     
  -360872225.86961800       -20578039.714941204        1513408672.5399275     
  -723744528.26409924       -41140152.589118600        1443377702.2782862     
  -662955402.42439485       -35088219.472494096        1444991855.0143368     
  -602730390.67582321       -30916666.659649044        1451493055.3137560     
  -543069493.01836634       -28625494.150518119        1462881303.1765456     
  -483972709.45203197       -28214701.945130244        1479156598.6027052     
  -976669.92710871901       -489821.46578052419        1605016234.4155502     
  -646498.69700081437        548352.20355708676        1600096340.6400917     
  -455715.83135775675        1121897.9913431262        1600361303.8455861     
  -404321.33020294766        1230815.8975027113        1605811124.0320170     
  -492315.19350955408        875105.92212424439        1616445801.1994023     
  -119374206.10715260       -6715599.4752568752        1576338490.4463563     
  -105338218.09939896       -5430221.9037066884        1571137135.2145202     
  -90804336.143243849       -2485197.8374849036        1571236811.9301860     
  -75772560.238688499        2119472.7234043702        1576637520.5933511     
  -60242890.385732472        8383789.7789624967        1587339261.2040143     
  -239339391.42132270       -13411672.224981092        1545802636.4878132     
  -211265658.16006714       -11779512.208484776        1541063315.8312924     
  -182056748.63752902       -6363431.3210468143        1541741202.0888214     
  -151712662.85371721        2836570.4373028949        1547836295.2604024     
  -120233400.80862571        15820493.066586331        1559348595.3460426     
  -360872225.86961800       -20578039.714941204        1513408672.5399275     
  -318428818.87898743       -18499518.710718542        1509874882.4904089     
  -274212953.31420785       -10512802.459326386        1511874474.3214929     
  -228224629.17527241        3382109.0392502397        1519407448.0331805     
  -180463846.46217740        23185215.785022624        1532473803.6254766     
  -483972709.45203197       -28214701.945130244        1479156598.6027052     
  -426827700.25617266       -25590241.410445079        1477571835.1918719     
  -367272950.17327708       -14933311.252311453        1481636628.6281989     
  -305308459.20335495        3756088.5292489678        1491350978.9116867     
  -240934227.34639895        30477957.934251294        1506714886.0423298     
  -492315.19350955408        875105.92212424439        1616445801.1994023     
  -465546.24971589376        431578.36523571424        1585442069.8619163     
  -379990.97898859752        184005.23145652784        1557825875.9361703     
  -235649.38133830269        132386.52075435058        1533597219.4221618     
  -32521.456760914443        276722.23314456624        1512756100.3198829     
  -60242890.385732472        8383789.7789624967        1587339261.2040143     
  -49262257.261091881        15826452.328345813        1556889047.3427978     
  -37102777.527271099        27198603.574997466        1529657455.4152021     
  -23764451.184263185        42500243.518938698        1505644485.4212301     
  -9247278.2320854031        61731372.160113528        1484850137.3608739     
  -120233400.80862571        15820493.066586331        1559348595.3460426     
  -98781519.154898584        31004561.026726700        1530758635.9570563     
  -75030730.609736964        53851651.958315030        1505218383.0235732     
  -48981035.173149727        84361765.861320809        1482727836.5455928     
  -20632432.845131546        122534902.73576598        1463286996.5231118     
  -180463846.46217740        23185215.785022624        1532473803.6254766     
  -149023331.93113184        45965904.460386291        1507050835.7046802     
  -114163850.22640108        80143150.381357312        1484508658.7612731     
  -75885401.347991824        125716953.54792979        1464847272.7952442     
  -34187985.295902058        182687313.96010113        1448066677.8066022     
  -240934227.34639895        30477957.934251294        1506714886.0423298     
  -199987695.58979622        60710482.629306525        1485765646.5856836     
  -154502136.37726170        106073098.84413564        1467528282.6283071     
  -104477549.70879559        166565806.57873568        1452002794.1701992     
  -49913935.584392324        242188605.83312699        1439189181.2113543     
  -32521.456760914443        276722.23314456624        1512756100.3198829     
  -11817.332898863591        433854.27327137225        1403301822.5155663     
  -5378.5680442877347        543435.11670728878        1291108912.0150325     
  -13205.162236029486        605464.76332492218        1176177368.8182764     
  -35297.115442749462        619943.21322110447        1058507192.9253134     
  -9247278.2320854031        61731372.160113528        1484850137.3608739     
  -9703111.7567080483        81205268.387532309        1376087756.6529636     
  -8216031.7613025382        107155543.01504840        1265239726.4069078     
  -4786038.2458790839        139582196.04262292        1152306046.6227129     
   586868.78957426548        178485227.47029361        1037286717.3003521     
  -20632432.845131546        122534902.73576598        1463286996.5231118     
  -19699137.852333538        161885263.00023168        1357499888.2705119     
  -14865750.460454017        214235931.26163319        1250280113.6378248     
  -6132270.6695003211        279586907.51995039        1141627672.6250730     
   6501301.5205190480        357938191.77515781        1031542565.2322198     
  -34187985.295902058        182687313.96010113        1448066677.8066022     
  -29999895.619764492        242473838.11140445        1347538217.3681951     
  -19954534.665504992        321784599.85644901        1246230073.7077858     
  -4051902.4331199229        420619599.19524693        1144142246.8253706     
   17708001.077388883        538978836.12778616        1041274736.7209363     
  -49913935.584392324        242188605.83312699        1439189181.2113543     
  -40605385.059014767        322970993.72100472        1346202743.9460387     
  -23482384.376457185        429801548.79948604        1253089606.6167867     
   1455066.4632870257        562680271.06858587        1159849769.2235870     
   34206967.460186273        721607160.52820611        1066483231.7664626     
  -1684107721.8935013       -386193814.16649652        1210658594.7302172     
  -1583747432.1509283       -282493465.98778760        1252854585.1351838     
  -1489587372.2254210       -199460550.53262788        1294512764.9051812     
  -1401627542.1169751       -137095067.80100918        1335633134.0402160     
  -1319867941.8255968       -95397017.792948961        1376215692.5402887     
  -1937364465.8914373       -212098220.26463270        1248670432.2623937     
  -1846716649.2827022       -153468536.57222784        1266057622.7076502     
  -1759519744.1387317       -106341891.09569412        1286912413.1817591     
  -1675773750.4595268       -70718283.835055470        1311234803.6847196     
  -1595478668.2450891       -46597714.790297925        1339024794.2165294     
  -2251140275.2528415       -56158345.971811056        1268864299.7764418     
  -2158760901.3098984       -39166117.625288129        1264650228.3396742     
  -2067083120.4794240       -24512532.986983538        1267909167.5955744     
  -1976106932.7614124       -12197592.056900382        1278641117.5441384     
  -1885832338.1558697       -2221294.8350384235        1296846078.1853709     
  -2625435149.9777117        81625808.711973310        1271240197.2723608     
  -2519880188.2325215        60413790.853020191        1248632402.0312502     
  -2412277501.2474923        46027523.793520331        1237503028.1466229     
  -2302627089.0226359        38467007.533452392        1237852075.6184781     
  -2190928951.5579433        37732242.072835565        1249679544.4468141     
  -3060249090.0660548        201254243.78671253        1255798124.7501476     
  -2930074510.0505633        145271188.86269963        1218004143.7823787     
  -2795102886.4429445        105278279.24580324        1195693994.8349094     
  -2655334219.2431903        81275514.936007977        1188867677.9077344     
  -2510768508.4513030        73262895.933327198        1197525193.0008600     
  -1319867941.8255968       -95397017.792948961        1376215692.5402887     
  -1278598326.1404243       -77579766.735401988        1377554687.5110524     
  -1238865054.4197135       -64883662.226061046        1380177189.5087538     
  -1200668126.6634648       -57308704.264926732        1384083198.5333948     
  -1164007542.8716800       -54854892.852006257        1389272714.5849741     
  -1595478668.2450891       -46597714.790297925        1339024794.2165294     
  -1553395897.1781340       -40480084.082313955        1334184697.0164509     
  -1512173804.7513676       -37231382.174959004        1331386509.3176274     
  -1471812390.9647946       -36851609.068246424        1330630231.1200569     
  -1432311655.8184125       -39340764.762171566        1331915862.4237404     
  -1885832338.1558697       -2221294.8350384235        1296846078.1853709     
  -1840769547.4947982       -7153225.2129056454        1286615165.0260994     
  -1795891770.1496506       -12701866.643839478        1279184563.8423996     
  -1751199006.1204226       -18867219.127849102        1274554274.6342678     
  -1706691255.4071171       -25649282.664925277        1272724297.4017065     
  -2190928951.5579433        37732242.072835565        1249679544.4468141     
  -2140719277.0904260        22400809.872816920        1234846091.5400014     
  -2090018950.6145630        8704884.3672831059        1223571353.0830703     
  -2038827972.1303508       -3355534.4437485933        1215855329.0760288     
  -1987146341.6377833       -13780446.560265899        1211698019.5188706     
  -2510768508.4513030        73262895.933327198        1197525193.0008600     
  -2453245085.9650135        48182021.174839973        1178877476.5581532     
  -2394555346.1461034        26988870.858427286        1164546877.0396426     
  -2334699288.9945769        9683444.9840712547        1154533394.4453382     
  -2273676914.5104237       -3734256.4482052326        1148837028.7752309     
  -1164007542.8716800       -54854892.852006257        1389272714.5849741     
  -1103920343.7565529       -48655055.662167668        1391359880.7714701     
  -1044460729.5693302       -44547168.232013762        1397804532.3830926     
  -985628700.31000674       -42531230.561524272        1408606669.4198472     
  -927424255.97859395       -42607242.650735497        1423766291.8817322     
  -1432311655.8184125       -39340764.762171566        1331915862.4237404     
  -1361081225.4905198       -34436855.511007428        1331272850.3406608     
  -1290391771.6494930       -31336201.216067433        1335143129.4435074     
  -1220243294.2953269       -30038801.877325773        1343526699.7322752     
  -1150635793.4280264       -30544657.494809806        1356423561.2069705     
  -1706691255.4071171       -25649282.664925277        1272724297.4017065     
  -1623872434.5499015       -21907753.557472646        1269452150.2302692     
  -1541507981.7385139       -19680784.602772713        1270849100.0055478     
  -1459597896.9729471       -18968375.800814152        1276915146.7275457     
  -1378142180.2532060       -19770527.151598096        1287650290.3962572     
  -1987146341.6377833       -13780446.560265899        1211698019.5188706     
  -1892293970.9346950       -11067749.801555872        1205897780.4402852     
  -1797809359.8363941       -9580918.3921337128        1204922444.0692112     
  -1703692508.3428779       -9319952.3319939375        1208772010.4056492     
  -1609943416.4541385       -10284851.621114016        1217446479.4495986     
  -2273676914.5104237       -3734256.4482052326        1148837028.7752309     
  -2166345834.6449080       -1916844.2432732582        1140609740.9707139     
  -2059295905.9431396       -1036602.5841667652        1137363161.6345026     
  -1952527128.4051130       -1093531.4708656073        1139097290.7665963     
  -1846039502.0308261       -2087630.9033664465        1145812128.3669951     
  -927424255.97859395       -42607242.650735497        1423766291.8817322     
  -877389482.81905961       -45190999.365629196        1421092976.7017620     
  -826764603.81346345       -45807736.593649656        1423470440.0412011     
  -775549618.96181679       -44457454.334837466        1430898681.9000430     
  -723744528.26409924       -41140152.589118600        1443377702.2782862     
  -1150635793.4280264       -30544657.494809806        1356423561.2069705     
  -1087830336.4371052       -33449081.412479520        1352667194.7362907     
  -1024719917.3355424       -35336964.961344957        1353757652.8171499     
  -961304536.12334919       -36208308.141440213        1359694935.4495416     
  -897584192.80051112       -36063110.952721775        1370479042.6334653     
  -1378142180.2532060       -19770527.151598096        1287650290.3962572     
  -1303148765.0533869       -23170435.958788991        1282478204.9435458     
  -1228135531.4783487       -26504283.515250921        1281948990.0744984     
  -1153102479.5280991       -29772069.821004629        1286062645.7891109     
  -1078049609.2026305       -32973794.876033962        1294819172.0873847     
  -1609943416.4541385       -10284851.621114016        1217446479.4495986     
  -1523344768.6679125       -14355063.004574180        1210526007.3235290     
  -1437011446.2418888       -19309692.255377471        1208044451.8132501     
  -1350943449.1760721       -25148739.373541057        1210001812.9187586     
  -1265140777.4704642       -31872204.359062016        1216398090.6400619     
  -1846039502.0308261       -2087630.9033664465        1145812128.3669951     
  -1748418347.2806768       -7002962.5498310328        1136810601.8762369     
  -1651347661.6261570       -13753191.181723237        1132044038.0333977     
  -1554827445.0672653       -22338316.799042046        1131512436.8384781     
  -1458857697.6040025       -32758339.401794851        1135215798.2914829     
  -723744528.26409924       -41140152.589118600        1443377702.2782862     
  -662955402.42439485       -35088219.472494096        1444991855.0143368     
  -602730390.67582321       -30916666.659649044        1451493055.3137560     
  -543069493.01836634       -28625494.150518119        1462881303.1765456     
  -483972709.45203197       -28214701.945130244        1479156598.6027052     
  -897584192.80051112       -36063110.952721775        1370479042.6334653     
  -825298150.05179262       -33391799.868406117        1369175368.7610502     
  -753345813.98436213       -31832844.388377279        1372608573.1088779     
  -681727184.59822285       -31386244.512651324        1380778655.6769578     
  -610442261.89337170       -32052000.241222233        1393685616.4652896     
  -1078049609.2026305       -32973794.876033962        1294819172.0873847     
  -994695704.81095815       -33811822.403831840        1290866480.2513108     
  -911445099.69073808       -34994180.836476594        1291500497.2923646     
  -828297793.84196925       -36520870.173958093        1296721223.2105474     
  -745253787.26465476       -38391890.416283876        1306528658.0058568     
  -1265140777.4704642       -31872204.359062016        1216398090.6400619     
  -1171148066.7018905       -36348287.078789175        1210065189.4851384     
  -1077028247.7949376       -40400676.003909707        1208168827.8642175     
  -982781320.74960017       -44029371.134420335        1210709005.7773077     
  -888407285.56588137       -47234372.470325261        1217685723.2244055     
  -1458857697.6040025       -32758339.401794851        1135215798.2914829     
  -1354655235.7245998       -41001193.893293083        1126771496.4625154     
  -1250095258.2969704       -48052329.890706122        1122613564.8244348     
  -1145177765.3211265       -53911747.394062757        1122742003.3772416     
  -1039902756.7970635       -58579446.403366625        1127156812.1209364     
  -483972709.45203197       -28214701.945130244        1479156598.6027052     
  -426827700.25617266       -25590241.410445079        1477571835.1918719     
  -367272950.17327708       -14933311.252311453        1481636628.6281989     
  -305308459.20335495        3756088.5292489678        1491350978.9116867     
  -240934227.34639895        30477957.934251294        1506714886.0423298     
  -610442261.89337170       -32052000.241222233        1393685616.4652896     
  -538556821.40793204       -29486801.411414802        1391981568.9525371     
  -464326158.26919651       -19104193.737282827        1395980433.6703463     
  -387750272.47717452       -904177.21886372566        1405682210.6187255     
  -308829164.03185880        25113248.143865108        1421086899.7976654     
  -745253787.26465476       -38391890.416283876        1306528658.0058568     
  -658475471.53703928       -35840220.105565548        1304630055.1184833     
  -569416451.38987601       -25686201.729681373        1308487719.8450832     
  -478076726.82315743       -7929835.2886185646        1318101652.1856575     
  -384456297.83688945        17428879.217614308        1333471852.1402071     
  -888407285.56588137       -47234372.470325261        1217685723.2244055     
  -786583650.64350474       -44650497.492948771        1215517293.6897180     
  -682543829.53531003       -34679335.229506731        1219158487.1524079     
  -576287822.24130762       -17320885.680033624        1228609303.6124878     
  -467815628.76148844        7424851.1554797292        1243869743.0699403     
  -1039902756.7970635       -58579446.403366625        1127156812.1209364     
  -922881358.72731984       -55917633.573513538        1124643284.6662381     
  -803708292.70550573       -46083594.236758888        1127992735.5923254     
  -682383558.73161769       -29077328.393089622        1137205164.8992057     
  -558907156.80565417       -4898836.0425048769        1152280572.5868783     
  -240934227.34639895        30477957.934251294        1506714886.0423298     
  -199987695.58979622        60710482.629306525        1485765646.5856836     
  -154502136.37726170        106073098.84413564        1467528282.6283071     
  -104477549.70879559        166565806.57873568        1452002794.1701992     
  -49913935.584392324        242188605.83312699        1439189181.2113543     
  -308829164.03185880        25113248.143865108        1421086899.7976654     
  -259167144.93017286        55641562.321045890        1404428222.2865765     
  -203088623.89876524        107558216.26395993        1391693631.1996405     
  -140593600.93765101        180863209.97256863        1382883126.5368612     
  -71682076.046825349        275556543.44687587        1377996708.2982287     
  -384456297.83688945        17428879.217614308        1333471852.1402071     
  -322615331.60471797        49292020.812566325        1323294123.4607475     
  -252480388.96905577        108801750.41915396        1318252692.1303267     
  -174051469.92989922        195958068.03738350        1318347558.1489434     
  -87328574.487255424        310760973.66724896        1323578721.5166051     
  -467815628.76148844        7424851.1554797292        1243869743.0699403     
  -390332255.61344379        41661858.103823379        1242363350.1081896     
  -302677431.58813685        109803701.30970791        1247205465.4203606     
  -204851156.68555036        211850380.77319098        1258396089.0064590     
  -96853430.905702457        347801896.49421191        1275935220.8664892     
  -558907156.80565417       -4898836.0425048769        1152280572.5868783     
  -462317916.95635056        32751074.194819540        1161635902.2289038     
  -353679751.75600505        110564068.93562573        1178551951.0697434     
  -232992661.20460010        228540148.17995885        1203028719.1093972     
  -100256645.30215484        386679311.92776000        1235066206.3478601     
  -49913935.584392324        242188605.83312699        1439189181.2113543     
  -40605385.059014767        322970993.72100472        1346202743.9460387     
  -23482384.376457185        429801548.79948604        1253089606.6167867     
   1455066.4632870257        562680271.06858587        1159849769.2235870     
   34206967.460186273        721607160.52820611        1066483231.7664626     
  -71682076.046825349        275556543.44687587        1377996708.2982287     
  -57495041.082320333        377213436.05695421        1296555415.2716334     
  -34308525.994603574        508868595.74441534        1214176309.2493277     
  -2122530.7836528122        670522022.50932038        1130859390.2313433     
   39062944.550544530        862173716.35170364        1046604658.2176254     
  -87328574.487255424        310760973.66724896        1323578721.5166051     
  -70580520.602967560        432597131.34366786        1255065107.6891248     
  -43647956.629400700        588381655.98435020        1184802567.9341834     
  -6530882.5665411353        778114547.58933365        1112791102.2517641     
   40770701.585597157        1001795806.1585960        1039030710.6418929     
  -96853430.905702457        347801896.49421191        1275935220.8664892     
  -79861823.620945901        489122079.58118540        1221731821.1985173     
  -51500676.280858338        668340729.51927340        1164968382.6713259     
  -11769988.885420322        885457846.30853808        1105644905.2849076     
   39330238.565357447        1140473429.9489074        1043761389.0392537     
  -100256645.30215484        386679311.92776000        1235066206.3478601     
  -85338950.136250943        546788280.76951838        1196555555.7998130     
  -57866684.948966563        748745816.34921455        1154673753.4607732     
  -17839849.740272999        992551918.66693687        1109420799.3307385     
   34741555.489808917        1278206587.7226262        1060796693.4097115     
  -3060249090.0660548        201254243.78671253        1255798124.7501476     
  -2930074510.0505633        145271188.86269963        1218004143.7823787     
  -2795102886.4429445        105278279.24580324        1195693994.8349094     
  -2655334219.2431903        81275514.936007977        1188867677.9077344     
  -2510768508.4513030        73262895.933327198        1197525193.0008600     
  -3570965062.1477590        65252929.087636232        1061788783.2291292     
  -3392977673.8915539        55850312.720279932        1047100226.9209964     
  -3213294633.4016819        52099870.465135813        1042957589.8800443     
  -3031915940.6781540        54001602.322186947        1049360872.1062733     
  -2848841595.7209592        61555508.291447759        1066310073.5996810     
  -4019432533.8356962       -52073835.493308067        881987277.46891856     
  -3807740659.4905396       -19128509.949540138        886785855.90221095     
  -3597454524.2701888        9131018.5115325451        897192440.84956205     
  -3388574128.1746492        32704749.889903069        913207032.31097794     
  -3181099471.2039151        51592684.185580254        934829630.28645813     
  -4405651505.1298857       -150726049.95613074        716393607.46953058     
  -4174363466.8475323       -79665279.146766424        737061030.72602236     
  -3947582559.0484648       -23628276.614999771        758398547.74346340     
  -3725308781.7326732        17384957.639163971        780406158.52185249     
  -3507542134.9001632        43374423.615727425        803083863.06118226     
  -4729621976.0303020       -230703714.30081773        565007773.23095179     
  -4492846095.9625263       -125759994.87138653        597925751.39243674     
  -4263678737.7365022       -46178014.914456844        626575910.56174672     
  -4042119901.3522301        8042225.5699613094        650958250.73888922     
  -3828169586.8097119        36900726.581877470        671072771.92385674     
  -2510768508.4513030        73262895.933327198        1197525193.0008600     
  -2453245085.9650135        48182021.174839973        1178877476.5581532     
  -2394555346.1461034        26988870.858427286        1164546877.0396426     
  -2334699288.9945769        9683444.9840712547        1154533394.4453382     
  -2273676914.5104237       -3734256.4482052326        1148837028.7752309     
  -2848841595.7209592        61555508.291447759        1066310073.5996810     
  -2779805036.8999071        38973536.145408034        1050779063.8491460     
  -2709777015.3286352        19696439.833434224        1039210526.0598142     
  -2638757531.0071483        3724219.3555059433        1031604460.2316918     
  -2566746583.9354477       -8943125.2883738279        1027960866.3647749     
  -3181099471.2039151        51592684.185580254        934829630.28645813     
  -3101563047.3709359        31205633.255144596        922211330.21528327     
  -3021210015.3701401        13540609.550752401        913200857.14232528     
  -2940040375.2015367       -1402386.9276075363        907798211.06757629     
  -2858054126.8651242       -13623356.179938078        906003391.99104393     
  -3507542134.9001632        43374423.615727425        803083863.06118226     
  -3418519117.3780942        24878312.504044533        793174275.65656698     
  -3328854346.2706199        8521380.0103797913        786517870.28717291     
  -3238547821.5777411       -5696373.8652725220        783114646.95299816     
  -3147599543.2994561       -17774949.122900605        782964605.65404010     
  -3828169586.8097119        36900726.581877470        671072771.92385674     
  -3730673246.9213953        19991573.892086506        663667900.17299318     
  -3632710008.0300760        4638751.2123084068        659161565.49435961     
  -3534279870.1357560       -9157741.4574673176        657553767.88794482     
  -3435382833.2384405       -21397904.117255688        658844507.35376191     
  -2273676914.5104237       -3734256.4482052326        1148837028.7752309     
  -2166345834.6449080       -1916844.2432732582        1140609740.9707139     
  -2059295905.9431396       -1036602.5841667652        1137363161.6345026     
  -1952527128.4051130       -1093531.4708656073        1139097290.7665963     
  -1846039502.0308261       -2087630.9033664465        1145812128.3669951     
  -2566746583.9354477       -8943125.2883738279        1027960866.3647749     
  -2446155009.1430840       -5960150.7304661274        1020006855.1359746     
  -2325845360.2533059       -3916929.1811698675        1017003540.2242185     
  -2205817637.2661071       -2813460.6404699087        1018950921.6295059     
  -2086071840.1814864       -2649745.1083747149        1025848999.3518364     
  -2858054126.8651242       -13623356.179938078        906003391.99104393     
  -2724287806.1495237       -9500543.9701423645        898321753.47598672     
  -2590804186.0753422       -6320067.2317410707        895560799.12670946     
  -2457603266.6425719       -4081925.9647221565        897720528.94321287     
  -2324685047.8512249       -2786120.1690913439        904800942.92550063     
  -3147599543.2994561       -17774949.122900605        782964605.65404010     
  -3000744225.6642213       -12538023.962293983        775554435.99074793     
  -2854172383.4092431       -8246016.7358679771        773034938.34197581     
  -2707884016.5345163       -4898927.4436182976        775406112.70772147     
  -2561879125.0400424       -2496756.0855460167        782667959.08798671     
  -3435382833.2384405       -21397904.117255688        658844507.35376191     
  -3275524267.6871815       -15072590.706924081        651704902.68026257     
  -3115949952.2550106       -9694777.6935559511        649425957.87001836     
  -2956659886.9419284       -5264465.0771530867        652007672.92302978     
  -2797654071.7479362       -1781652.8577067852        659450047.83929431     
  -1846039502.0308261       -2087630.9033664465        1145812128.3669951     
  -1748418347.2806768       -7002962.5498310328        1136810601.8762369     
  -1651347661.6261570       -13753191.181723237        1132044038.0333977     
  -1554827445.0672653       -22338316.799042046        1131512436.8384781     
  -1458857697.6040025       -32758339.401794851        1135215798.2914829     
  -2086071840.1814864       -2649745.1083747149        1025848999.3518364     
  -1977829108.2441454       -7021552.5688674450        1016557908.1789923     
  -1870019573.5570269       -12837350.863439202        1011076869.6900777     
  -1762643236.1201243       -20097139.992073178        1009405883.8850923     
  -1655700095.9334545       -28800919.954794466        1011544950.7640351     
  -2324685047.8512249       -2786120.1690913439        904800942.92550063     
  -2207034767.1952376       -6978611.9841842651        895357104.22354794     
  -2089700411.9440663       -12224188.481998920        889298408.24153066     
  -1972681982.0977073       -18522849.662521124        886624854.97945178     
  -1855979477.6561642       -25874595.525761485        887336444.43730879     
  -2561879125.0400424       -2496756.0855460167        782667959.08798671     
  -2436035324.1339564       -6874140.7957990170        773208190.00989747     
  -2310390176.7872753       -11913704.037413120        766708653.68775976     
  -2184943683.0000010       -17615445.810385704        763169350.12156367     
  -2059695842.7721331       -23979366.114701271        762590279.31131828     
  -2797654071.7479362       -1781652.8577067852        659450047.83929431     
  -2664830779.0602961       -6708139.0036934614        650111165.53804934     
  -2532088868.0866556       -11905897.529679656        643307606.02875876     
  -2399428338.8270121       -17374928.435655713        639039369.31142318     
  -2266849191.2813716       -23115231.721635103        637306455.38604152     
  -1458857697.6040025       -32758339.401794851        1135215798.2914829     
  -1354655235.7245998       -41001193.893293083        1126771496.4625154     
  -1250095258.2969704       -48052329.890706122        1122613564.8244348     
  -1145177765.3211265       -53911747.394062757        1122742003.3772416     
  -1039902756.7970635       -58579446.403366625        1127156812.1209364     
  -1655700095.9334545       -28800919.954794466        1011544950.7640351     
  -1540178327.5183225       -35063068.292676449        1002146867.4758594     
  -1424310366.3653040       -40171240.837608278        996712486.83498704     
  -1308096212.4744020       -44125437.589595795        995241808.84141362     
  -1191535865.8456218       -46925658.548648119        997734833.49514353     
  -1855979477.6561642       -25874595.525761485        887336444.43730879     
  -1730060309.9727001       -30432609.890269756        876971369.74453866     
  -1603806272.3616810       -33874391.162936747        870247330.15548205     
  -1477217364.8231134       -36199939.343769789        867164325.67014337     
  -1350293587.3569987       -37409254.432778656        867722356.28851628     
  -2059695842.7721331       -23979366.114701271        762590279.31131828     
  -1924301183.0877206       -27109818.686042786        751245003.26855481     
  -1788582976.2860925       -29161780.866665602        743218094.78592765     
  -1652541222.3672514       -30135252.656579971        738509553.86342466     
  -1516175921.3311894       -30030234.055758238        737119380.50105405     
  -2266849191.2813716       -23115231.721635103        637306455.38604152     
  -2122900946.8634052       -25094694.680034757        624967768.04790580     
  -1978640478.1385455       -26033409.948815227        615624780.72631526     
  -1834067785.1068101       -25931377.527993441        609277493.42126298     
  -1689182867.7681937       -24788597.417575240        605925906.13275719     
  -1039902756.7970635       -58579446.403366625        1127156812.1209364     
  -922881358.72731984       -55917633.573513538        1124643284.6662381     
  -803708292.70550573       -46083594.236758888        1127992735.5923254     
  -682383558.73161769       -29077328.393089622        1137205164.8992057     
  -558907156.80565417       -4898836.0425048769        1152280572.5868783     
  -1191535865.8456218       -46925658.548648119        997734833.49514353     
  -1061205109.0388583       -43032474.710883558        993880303.01032150     
  -929531128.43587303       -34661878.219052136        994116599.86367118     
  -796513924.03665400       -21813869.073116571        998443724.05518949     
  -662153495.84122014       -4488447.2731204033        1006861675.5848777     
  -1350293587.3569987       -37409254.432778656        867722356.28851628     
  -1211716760.5064173       -33803686.195078194        861583637.92508209     
  -1072605154.0154572       -28415519.156124592        857763595.85720515     
  -932958767.88411498       -21244753.315897763        856262230.08487236     
  -792777602.11239851       -12291388.674412906        857079540.60808933     
  -1516175921.3311894       -30030234.055758238        737119380.50105405     
  -1374416313.1299927       -28231268.026081800        727753289.41052711     
  -1232930369.4442611       -27344517.047955930        718933723.57293069     
  -1091718090.2739985       -27369981.121398985        710660682.98826146     
  -950779475.61920416       -28307660.246403635        702934167.65652585     
  -1689182867.7681937       -24788597.417575240        605925906.13275719     
  -1549303766.9095781       -26315220.203868508        592389257.46664631     
  -1410506774.7222764       -31448871.894547403        577626983.01084399     
  -1272791891.2062929       -40189552.489622533        561639082.76534641     
  -1136159116.3616226       -52537261.989064872        544425556.73016250     
  -558907156.80565417       -4898836.0425048769        1152280572.5868783     
  -462317916.95635056        32751074.194819540        1161635902.2289038     
  -353679751.75600505        110564068.93562573        1178551951.0697434     
  -232992661.20460010        228540148.17995885        1203028719.1093972     
  -100256645.30215484        386679311.92776000        1235066206.3478601     
  -662153495.84122014       -4488447.2731204033        1006861675.5848777     
  -547077913.56604469        25628707.562943548        1020443427.7071124     
  -421096860.48569137        92097431.749581814        1042423052.2045689     
  -284210336.60016006        194917725.28682953        1072800549.0772517     
  -136418341.90944478        334089588.17467684        1111575918.3251677     
  -792777602.11239851       -12291388.674412906        857079540.60808933     
  -656823811.19302154        11010570.625892699        873553684.90701103     
  -511108004.01434320        66852584.123868257        899262854.75757420     
  -355630180.57635725        155234651.81954235        934207050.15977371     
  -190390340.87906882        276156773.71288007        978386271.11361861     
  -950779475.61920416       -28307660.246403635        702934167.65652585     
  -791555609.83730137       -11103336.616360754        720966673.82861137     
  -623713182.34196317        34829526.058467597        749071358.72875440     
  -447252193.13320076        109490927.77803126        787248222.35694647     
  -262172642.21100330        212880868.54239023        835497264.71319687     
  -1136159116.3616226       -52537261.989064872        544425556.73016250     
  -951273309.49886858       -40713014.163787067        562682394.47189856     
  -758912395.46855879       -3971742.4466507733        591848564.11810732     
  -559076374.27068675        57686553.162351161        631924065.66878486     
  -351765245.90526098        144261872.66321003        682908899.12392485     
  -100256645.30215484        386679311.92776000        1235066206.3478601     
  -85338950.136250943        546788280.76951838        1196555555.7998130     
  -57866684.948966563        748745816.34921455        1154673753.4607732     
  -17839849.740272999        992551918.66693687        1109420799.3307385     
   34741555.489808917        1278206587.7226262        1060796693.4097115     
  -136418341.90944478        334089588.17467684        1111575918.3251677     
  -127306935.16471055        483256588.60826600        1090040025.2190254     
  -95079473.557329744        709477105.25067723        1069933977.8279359     
  -39735957.087290227        1012751138.1019341        1051257776.1519059     
   38723614.245401800        1393078687.1620545        1034011420.1909261     
  -190390340.87906882        276156773.71288007        978386271.11361861     
  -173368086.82393157        418496946.45778519        986146867.76417708     
  -122668293.06488615        673095584.88237524        1000138307.6358409     
  -38290959.601932406        1039952688.9866636        1020360590.7286050     
   79763913.564922512        1519068258.7706349        1046813717.0424718     
  -262172642.21100330        212880868.54239023        835497264.71319687     
  -223522405.11390108        352509354.31809980        884876083.43526173     
  -140633143.47164118        639601255.24432373        945286742.88447380     
  -13504857.284217358        1074156571.3210769        1016729243.0608324     
   157862453.44836682        1656175302.5483987        1099203583.9643433     
  -351765245.90526098        144261872.66321003        682908899.12392485     
  -277769890.03464001        285293812.18913698        786227672.23229206     
  -148974024.77758870        608994116.33650935        905379283.57384706     
   34622349.865877986        1115362785.1052332        1040363733.1485994     
   273019233.89575171        1804399818.4953580        1191181020.9565563     
  -4729621976.0303020       -230703714.30081773        565007773.23095179     
  -4492846095.9625263       -125759994.87138653        597925751.39243674     
  -4263678737.7365022       -46178014.914456844        626575910.56174672     
  -4042119901.3522301        8042225.5699613094        650958250.73888922     
  -3828169586.8097119        36900726.581877470        671072771.92385674     
  -4997202297.9200287       -90795697.004996538        480329616.75559986     
  -4782029008.4652090       -53647693.213517904        482605741.79254967     
  -4568282818.2196112       -21256686.786094427        488177473.57430661     
  -4355963727.1832228        6377322.2772879601        497044812.10087222     
  -4145071735.3560443        29254333.976632118        509207757.37224889     
  -5348076297.0858469        24124217.108003616        368462961.77509242     
  -5132895810.4240370       -40558.392494201660        347308893.42546409     
  -4912961000.3389130       -8357589.1485838890        337013857.55762792     
  -4688271866.8304520       -826875.16024637222        337577854.17157763     
  -4458828409.8986721        22551583.572491407        349000883.26732695     
  -5782243973.5277538        114056028.03816867        229407808.28942114     
  -5545446501.8390121        35061409.591682434        192035206.29117399     
  -5297713284.0944042       -7480722.0019299984        173085062.51170444     
  -5039044320.2939348       -13570366.742667913        172557376.95100531     
  -4769439610.4376049        16792475.369466305        190452149.60908580     
  -6299705327.2457571        178999735.78551531        63164156.298587918     
  -6019681082.7101173        51658210.739033461        16784680.389690343     
  -5722539669.4860983       -18626085.346139908       -3608911.5634510345     
  -5408281087.5736599       -31853152.469948769        1983380.4391532098     
  -5076905336.9728279        11977009.367553473        33561556.397528380     
  -3828169586.8097119        36900726.581877470        671072771.92385674     
  -3730673246.9213953        19991573.892086506        663667900.17299318     
  -3632710008.0300760        4638751.2123084068        659161565.49435961     
  -3534279870.1357560       -9157741.4574673176        657553767.88794482     
  -3435382833.2384405       -21397904.117255688        658844507.35376191     
  -4145071735.3560443        29254333.976632118        509207757.37224889     
  -4038351559.9615355        18326907.304528236        502985644.53293568     
  -3931887511.8028474        6545723.1796784401        499579854.39130896     
  -3825679590.8799863       -6089218.3979222775        498990386.94737017     
  -3719727797.1929440       -19577917.428265095        501217242.20112258     
  -4458828409.8986721        22551583.572491407        349000883.26732695     
  -4343119297.2109280        17535413.454186678        343117998.72759521     
  -4228389337.9978385        9255398.4203791618        339969222.51101571     
  -4114638532.2593918       -2288461.5289235115        339554554.61758804     
  -4001866879.9955997       -17096166.393730402        341873995.04731721     
  -4769439610.4376049        16792475.369466305        190452149.60908580     
  -4644976458.6695862        17617092.341071129        184064962.75697878     
  -4522215486.6150484        12767776.934420347        180329669.85348350     
  -4401156694.2739801        2244529.1495320797        179246270.89860496     
  -4281800081.6463938       -13952651.013628960        180814765.89234346     
  -5076905336.9728279        11977009.367553473        33561556.397528380     
  -4943923044.3375044        18571943.965167046        25826536.621077649     
  -4813365957.6544838        17082858.721779346        20661196.418702371     
  -4685234076.9237528        7509753.6374180317        18065535.790416561     
  -4559527402.1453333       -10147371.287971020        18039554.736204445     
  -3435382833.2384405       -21397904.117255688        658844507.35376191     
  -3275524267.6871815       -15072590.706924081        651704902.68026257     
  -3115949952.2550106       -9694777.6935559511        649425957.87001836     
  -2956659886.9419284       -5264465.0771530867        652007672.92302978     
  -2797654071.7479362       -1781652.8577067852        659450047.83929431     
  -3719727797.1929440       -19577917.428265095        501217242.20112258     
  -3547896715.4369159       -13921041.991199017        494416798.60745442     
  -3376217118.7219577       -8769116.6910431385        492119577.91725791     
  -3204689007.0480638       -4122141.5277577639        494325580.13053435     
  -3033312380.4152403        19883.498611569405        501034805.24728572     
  -4001866879.9955997       -17096166.393730402        341873995.04731721     
  -3819084530.4913263       -12414103.466896296        335567605.12450242     
  -3636320900.9500980       -7794440.4168782234        333407001.14538008     
  -3453575991.3719215       -3237177.2436990738        335392183.10994750     
  -3270849801.7567897        1257686.0526616573        341523151.01820785     
  -4281800081.6463938       -13952651.013628960        180814765.89234346     
  -4089087712.8503947       -10551775.133964539        175157322.23141593     
  -3896261298.9394350       -6770748.8710939884        173288227.55438781     
  -3703320839.9134917       -2609572.2249405384        175207481.86126828     
  -3510266335.7725801        1931754.8044300079        180915085.15205911     
  -4559527402.1453333       -10147371.287971020        18039554.736204445     
  -4357906262.5141420       -8334056.9924597740        13185949.928180305     
  -4156038312.6899533       -5698042.0536293983        11763257.144276703     
  -3953923552.6727762       -2239326.4714963436        13771476.384496676     
  -3751561982.4626007        2042089.7539560795        19210607.648837503     
  -2797654071.7479362       -1781652.8577067852        659450047.83929431     
  -2664830779.0602961       -6708139.0036934614        650111165.53804934     
  -2532088868.0866556       -11905897.529679656        643307606.02875876     
  -2399428338.8270121       -17374928.435655713        639039369.31142318     
  -2266849191.2813716       -23115231.721635103        637306455.38604152     
  -3033312380.4152403        19883.498611569405        501034805.24728572     
  -2893001944.8506408       -5171541.6536890268        491448816.52580518     
  -2752548986.5690680       -9887891.0827330351        485147985.45764291     
  -2611953505.5705123       -14129164.788520694        482132312.04279894     
  -2471215501.8549881       -17895362.771050930        482401796.28126937     
  -3270849801.7567897        1257686.0526616573        341523151.01820785     
  -3120909837.9970584       -3555962.5105031729        331951277.71263331     
  -2970603447.0893707       -7148187.2471594810        326414396.92173320     
  -2819930629.0337286       -9518988.1572971344        324912508.64551711     
  -2668891383.8301368       -10668365.240929842        327445612.88397813     
  -3510266335.7725801        1931754.8044300079        180915085.15205911     
  -3348554458.4995284       -1861401.5741279125        171618549.09853315     
  -3186252249.6475558       -3686786.0229343176        167106840.42103758     
  -3023359709.2166576       -3544398.5419925451        167379959.11958110     
  -2859876837.2068229       -1434239.1312683821        172437905.19416904     
  -3751561982.4626007        2042089.7539560795        19210607.648837503     
  -3575935806.3580713       -87858.844581365585        10450630.683483953     
  -3399495394.2436371        496312.58989858627        7225315.9555282136     
  -3222240746.1192880        3794604.0574226379        9534663.4649912640     
  -3044171861.9850507        9807015.5579172373        17378673.211844761     
  -2266849191.2813716       -23115231.721635103        637306455.38604152     
  -2122900946.8634052       -25094694.680034757        624967768.04790580     
  -1978640478.1385455       -26033409.948815227        615624780.72631526     
  -1834067785.1068101       -25931377.527993441        609277493.42126298     
  -1689182867.7681937       -24788597.417575240        605925906.13275719     
  -2471215501.8549881       -17895362.771050930        482401796.28126937     
  -2319737379.4103012       -18173948.968443751        472310048.13200921     
  -2168226674.5179434       -18343927.006935477        464622303.81114334     
  -2016683387.1779120       -18405296.886508942        459338563.31866121     
  -1865107517.3902037       -18358058.607170701        456458826.65457147     
  -2668891383.8301368       -10668365.240929842        327445612.88397813     
  -2511573943.8963223       -9753242.8386131525        319274555.08785492     
  -2354503563.3740435       -9661651.8080723286        312915804.93196481     
  -2197680242.2633009       -10393592.149320364        308369362.41630900     
  -2041103980.5640874       -11949063.862338305        305635227.54089302     
  -2859876837.2068229       -1434239.1312683821        172437905.19416904     
  -2698410640.3214459        167423.70953142643        165861288.91543522     
  -2537471144.7068400        13415.647784829140        160505284.08877951     
  -2377058350.3629565       -1896263.3163666725        156369890.71420771     
  -2217172257.2898226       -5561613.1830428839        153455108.79172066     
  -3044171861.9850507        9807015.5579172373        17378673.211844761     
  -2880247468.6857095        11588050.675880790        12070249.614754003     
  -2717129418.5163345        10681275.360646009        7390741.2815906648     
  -2554817711.4769082        7086689.6122314930        3340148.2123531480     
  -2393312347.5674310        804293.43066358566       -81529.592951182873     
  -1689182867.7681937       -24788597.417575240        605925906.13275719     
  -1549303766.9095781       -26315220.203868508        592389257.46664631     
  -1410506774.7222764       -31448871.894547403        577626983.01084399     
  -1272791891.2062929       -40189552.489622533        561639082.76534641     
  -1136159116.3616226       -52537261.989064872        544425556.73016250     
  -1865107517.3902037       -18358058.607170701        456458826.65457147     
  -1728123935.2531581       -22608023.157733560        442703958.42315948     
  -1591119869.5426993       -26789709.130288959        428575857.37199140     
  -1454095320.2588372       -30903116.524808764        414074523.50106597     
  -1317050287.4015708       -34948245.341325343        399199956.81038183     
  -2041103980.5640874       -11949063.862338305        305635227.54089302     
  -1904580508.6630716       -18191747.631508708        292948497.36302227     
  -1766933960.9439254       -20690845.340246320        280740927.33532697     
  -1628164337.4066598       -19446356.988585532        269012517.45780689     
  -1488271638.0512726       -14458282.576518655        257763267.73046640     
  -2217172257.2898226       -5561613.1830428839        153455108.79172066     
  -2078673487.1393137       -13066393.625154138        143122874.28622344     
  -1937949048.9259615       -13152280.524439216        134122192.90084733     
  -1794998942.6497746       -5819273.8809597492        126453064.63556747     
  -1649823168.3107369        8932626.3053760529        120115489.49041638     
  -2393312347.5674310        804293.43066358566       -81529.592951182873     
  -2250402870.6819119       -7231961.1387596130       -6772910.8072225656     
  -2104165133.4888132       -4174014.6829066277       -11280345.931457462     
  -1954599135.9881623        9978132.7981133461       -13603834.965636814     
  -1801704878.1799521        35224481.304332018       -13743377.909778079     
  -1136159116.3616226       -52537261.989064872        544425556.73016250     
  -951273309.49886858       -40713014.163787067        562682394.47189856     
  -758912395.46855879       -3971742.4466507733        591848564.11810732     
  -559076374.27068675        57686553.162351161        631924065.66878486     
  -351765245.90526098        144261872.66321003        682908899.12392485     
  -1317050287.4015708       -34948245.341325343        399199956.81038183     
  -1117440380.5450170       -14755192.843670726        421081267.79357415     
  -914245208.39524126        17388743.964730620        441448215.02005458     
  -707464770.95223165        61483565.083904862        460300798.48982644     
  -497099068.21600497        117529270.51380843        477639018.20289028     
  -1488271638.0512726       -14458282.576518655        257763267.73046640     
  -1309433904.5185711        3454692.5982304811        278730903.10172576     
  -1130900747.5669816        20352412.502620399        285760479.05509043     
  -952672167.19649243        36234877.136656880        278851995.59056789     
  -774748163.40711761        51102086.500312835        258005452.70815283     
  -1649823168.3107369        8932626.3053760529        120115489.49041638     
  -1527253881.4195426        13916642.161889970        135631300.39634466     
  -1408879012.9837863        4919263.1669746041        124785356.22320627     
  -1294698563.0034778       -18059510.679441690        87577656.971007481     
  -1184712531.4786000       -55019679.377308667        24008202.639737457     
  -1801704878.1799521        35224481.304332018       -13743377.909778079     
  -1770900311.2479203        16630655.847354293       -8217540.3225556081     
  -1748180004.6456552       -28910704.042180419       -41477153.475579277     
  -1733543958.3731697       -101399598.36430818       -113522217.36884652     
  -1726992172.4304638       -200836027.11904454       -224352732.00237015     
  -351765245.90526098        144261872.66321003        682908899.12392485     
  -277769890.03464001        285293812.18913698        786227672.23229206     
  -148974024.77758870        608994116.33650935        905379283.57384706     
   34622349.865877986        1115362785.1052332        1040363733.1485994     
   273019233.89575171        1804399818.4953580        1191181020.9565563     
  -497099068.21600497        117529270.51380843        477639018.20289028     
  -388255552.12224740        223090653.39259937        596944651.49307752     
  -230268290.26133010        492464522.16191721        735409236.71722245     
  -23137282.633248508        925650876.82180476        893032773.87529421     
   233137470.76201287        1522649717.3722754        1069815262.9673030     
  -774748163.40711761        51102086.500312835        258005452.70815283     
  -621553305.08812237        124043867.33253825        386698388.62439573     
  -424871464.62119997        341942255.32449901        537876390.17532480     
  -184702642.00635648        704797250.47620177        711539457.36092758     
   98953162.756397069        1212608852.7876160        907687590.18123353     
  -1184712531.4786000       -55019679.377308667        24008202.639737457     
  -977663148.93223250       -11846545.990998447        155488883.62623042     
  -732783547.85717618        157427315.82426932        312780743.94815725     
  -450073728.25345987        452801906.06837034        495883783.60550195     
  -129533690.12108779        874277224.74139619        704798002.59828806     
  -1726992172.4304638       -200836027.11904454       -224352732.00237015     
  -1456585083.6545835       -184580586.57799399       -96683863.501423329     
  -1154004539.9692822       -61080296.338862538        60122298.035724580     
  -819250541.37454700        169664843.59838110        246065752.60902601     
  -452323087.87040412        507654833.23364007        461146500.21850711     
 </DataArray>
 <DataArray  type="Float64" Name="VM" NumberOfComponents="1" format="ascii">
   6196393794.5368996     
   5937841380.2169037     
   5674292785.5379400     
   5403445338.4414959     
   5123801909.1037502     
   5769585550.4665508     
   5536052448.9414902     
   5299359316.7393684     
   5058739081.0135107     
   4813871781.2758808     
   5390269458.1904221     
   5174017004.9711361     
   4957407294.4680624     
   4740579311.7084160     
   4523862511.4702473     
   5063808815.1885748     
   4857187873.6501245     
   4653461014.3906097     
   4452982280.8680210     
   4256208536.4134135     
   4796946679.6865768     
   4592121127.3775702     
   4393351381.3339005     
   4200504885.4620738     
   4013710160.4731941     
   5123801909.1037502     
   4974861936.2285223     
   4828288473.7675905     
   4683952984.6658354     
   4541802948.3539076     
   4813871781.2758808     
   4677518490.8868580     
   4543152802.2718420     
   4410714764.9647226     
   4280195445.5664797     
   4523862511.4702473     
   4399277263.9595919     
   4276296727.5654521     
   4154924854.1417508     
   4035202337.6321077     
   4256208536.4134135     
   4142960176.4830327     
   4030946288.8029704     
   3920225620.2199602     
   3810892079.2102795     
   4013710160.4731941     
   3911830158.7355771     
   3810851860.9301548     
   3710874692.4466414     
   3612046447.3580256     
   4541802948.3539076     
   4346126634.3427448     
   4149902566.9668560     
   3953115821.5942168     
   3755770926.2659898     
   4280195445.5664797     
   4091887773.3007855     
   3903628363.4470673     
   3715468270.2403092     
   3527499487.2770882     
   4035202337.6321077     
   3856396170.5693870     
   3678505453.2996793     
   3501685752.9571276     
   3326165867.5328951     
   3810892079.2102795     
   3643713506.2341857     
   3478611314.1313229     
   3315877192.8428512     
   3155914400.0469131     
   3612046447.3580256     
   3458505860.2397847     
   3308492297.6201558     
   3162445751.3483620     
   3020952640.6394854     
   3755770926.2659898     
   3578471385.0062499     
   3401781135.5473223     
   3225656238.2685814     
   3050139840.3902192     
   3527499487.2770882     
   3362839118.0192356     
   3199268764.7507825     
   3036836443.6205812     
   2875674760.9678993     
   3326165867.5328951     
   3173259471.7626657     
   3021856956.0354109     
   2872094795.6294398     
   2724191279.8841491     
   3155914400.0469131     
   3014188182.8370628     
   2874295241.8287601     
   2736451519.9584303     
   2600951273.7151227     
   3020952640.6394854     
   2890187053.5654850     
   2761482749.4043946     
   2635119437.7364450     
   2511450435.6455350     
   3050139840.3902192     
   2886433144.0128775     
   2722397441.4011006     
   2558030385.2992868     
   2393333029.3499975     
   2875674760.9678993     
   2714110060.5120177     
   2552597292.0885115     
   2391163352.9307971     
   2229849922.5695019     
   2724191279.8841491     
   2567357886.4119439     
   2411368652.6444550     
   2256359388.6223669     
   2102519749.6115854     
   2600951273.7151227     
   2451544931.2474885     
   2304229011.5240850     
   2159323562.6995578     
   2017261465.3248246     
   2511450435.6455350     
   2372032401.6137681     
   2236362405.2745986     
   2104975715.6921728     
   1978572141.6816666     
   2393333029.3499975     
   2246780420.1550846     
   2102364461.3145320     
   1960085102.5492079     
   1820105785.6887562     
   2229849922.5695019     
   2086872815.9560773     
   1945545142.1847935     
   1805868809.5033164     
   1667921300.0595868     
   2102519749.6115854     
   1962294029.5377185     
   1823043911.7167940     
   1684801653.2134497     
   1547628497.1359365     
   2017261465.3248246     
   1880596733.8331425     
   1744260423.0188725     
   1608377887.0700479     
   1473121621.3069906     
   1978572141.6816666     
   1848010087.8772867     
   1717447068.1210871     
   1587217210.1347911     
   1457807248.9773345     
   1820105785.6887562     
   1779568156.1965265     
   1735537410.9460137     
   1696640199.3278852     
   1681377905.8496933     
   1667921300.0595868     
   1552528882.4343288     
   1428022298.6244688     
   1294757169.0890305     
   1158863767.2147636     
   1547628497.1359365     
   1397702984.8116422     
   1244207003.8180578     
   1084867463.4891355     
   917652199.92377388     
   1473121621.3069906     
   1328793581.1957111     
   1198923349.2083728     
   1088002267.3683376     
   1001948346.0577459     
   1457807248.9773345     
   1348699820.6758845     
   1274585180.1768012     
   1243611228.1011133     
   1262834355.1544704     
   1681377905.8496933     
   1383818758.2550595     
   1129490736.0157170     
   1010134505.5098776     
   1153063624.3297346     
   1158863767.2147636     
   1008413094.2261147     
   985200353.97638452     
   1161492690.5988085     
   1544179697.3631291     
   917652199.92377388     
   963069744.32587981     
   1144901002.3211627     
   1476489163.7080932     
   1957516378.5439472     
   1001948346.0577459     
   1164663370.6798158     
   1425404690.4514391     
   1808755232.9797163     
   2334808292.3785038     
   1262834355.1544704     
   1446663165.8252168     
   1715684711.0722549     
   2110490400.3960407     
   2663543120.0658245     
   4796946679.6865768     
   4592121127.3775702     
   4393351381.3339005     
   4200504885.4620738     
   4013710160.4731941     
   4534368906.9862061     
   4337671324.4113379     
   4145760605.4231019     
   3959063630.7857347     
   3778165244.2184920     
   4262620796.9492788     
   4080749986.4630895     
   3904056650.7983131     
   3733236200.2912545     
   3569197116.8815532     
   3983666143.5121756     
   3824054904.5519457     
   3671676986.9341469     
   3527201792.2689347     
   3391753973.5967922     
   3701590594.4898849     
   3571944778.4284143     
   3453301346.5435562     
   3345937885.6628079     
   3251042219.9100232     
   4013710160.4731941     
   3911830158.7355771     
   3810851860.9301548     
   3710874692.4466414     
   3612046447.3580256     
   3778165244.2184920     
   3685240038.7764521     
   3594131893.4570885     
   3504976024.5917315     
   3417947844.0607758     
   3569197116.8815532     
   3485254725.5088820     
   3404062889.9311209     
   3325770210.5679312     
   3250558991.5801539     
   3391753973.5967922     
   3316521583.3509226     
   3244946243.3229160     
   3177161223.9837756     
   3113329895.2183099     
   3251042219.9100232     
   3183839483.0435195     
   3121120378.1930270     
   3062971142.0305643     
   3009509623.9053679     
   3612046447.3580256     
   3458505860.2397847     
   3308492297.6201558     
   3162445751.3483620     
   3020952640.6394854     
   3417947844.0607758     
   3280287064.3567643     
   3146868677.4772444     
   3018216357.9832540     
   2894999574.2335820     
   3250558991.5801539     
   3129349157.6358695     
   3013136019.2776780     
   2902506329.8159938     
   2798182298.4497104     
   3113329895.2183099     
   3009114304.3545380     
   2910637218.7579751     
   2818513736.6825728     
   2733473928.0133095     
   3009509623.9053679     
   2922676085.2925820     
   2842242517.1830802     
   2768807561.5564799     
   2703057421.5614128     
   3020952640.6394854     
   2890187053.5654850     
   2761482749.4043946     
   2635119437.7364450     
   2511450435.6455350     
   2894999574.2335820     
   2775057245.3972921     
   2658387116.5992947     
   2545401210.3727474     
   2436605352.8275676     
   2798182298.4497104     
   2690924973.0050168     
   2588309633.8708057     
   2490858455.3845806     
   2399191417.5914745     
   2733473928.0133095     
   2640285765.5009260     
   2553153696.5554447     
   2472654937.8839383     
   2399448907.4723010     
   2703057421.5614128     
   2624609538.3656631     
   2553552194.9826570     
   2490445579.5844712     
   2435903555.6792550     
   2511450435.6455350     
   2372032401.6137681     
   2236362405.2745986     
   2104975715.6921728     
   1978572141.6816666     
   2436605352.8275676     
   2311971726.2427945     
   2192446626.6846457     
   2078755997.2611954     
   1971797563.9214087     
   2399191417.5914745     
   2291232222.9030762     
   2189755779.3611732     
   2095588923.8886566     
   2009695175.7282035     
   2399448907.4723010     
   2309316450.7560644     
   2226850266.4978633     
   2152860631.7548795     
   2088234644.3869574     
   2435903555.6792550     
   2363843276.5879030     
   2300304117.5260625     
   2245984349.1274757     
   2201602567.7867303     
   1978572141.6816666     
   1848010087.8772867     
   1717447068.1210871     
   1587217210.1347911     
   1457807248.9773345     
   1971797563.9214087     
   1855611265.5903702     
   1743768307.9649823     
   1637179630.7531815     
   1536963196.3065462     
   2009695175.7282035     
   1913076027.0489521     
   1825231707.2132804     
   1747361683.1175961     
   1680757781.7415578     
   2088234644.3869574     
   2012828457.7996609     
   1949821307.9143417     
   1900300276.9392552     
   1865302947.5592422     
   2201602567.7867303     
   2146040407.3930144     
   2105508569.5378475     
   2080786328.4647686     
   2072562160.7865894     
   1457807248.9773345     
   1348699820.6758845     
   1274585180.1768012     
   1243611228.1011133     
   1262834355.1544704     
   1536963196.3065462     
   1476107128.5080190     
   1447950434.4586666     
   1456464372.8244648     
   1504941966.3602107     
   1680757781.7415578     
   1652342755.4767294     
   1651638222.2124457     
   1681010580.5774400     
   1743063314.8213301     
   1865302947.5592422     
   1854916474.7760272     
   1867469632.1990223     
   1905167381.5817192     
   1971037287.6542153     
   2072562160.7865894     
   2069201367.5215905     
   2085020792.5838416     
   2122649074.2920377     
   2185898178.8535299     
   1262834355.1544704     
   1446663165.8252168     
   1715684711.0722549     
   2110490400.3960407     
   2663543120.0658245     
   1504941966.3602107     
   1613323380.3172925     
   1788887779.7737157     
   2066398691.4340198     
   2476082554.3065081     
   1743063314.8213301     
   1787809264.3636241     
   1884699443.3239741     
   2060654048.7155862     
   2340917683.5011959     
   1971037287.6542153     
   1969082584.2530963     
   2003684885.7226620     
   2093524305.4251688     
   2257267392.6126771     
   2185898178.8535299     
   2156429954.2538476     
   2146585282.6012564     
   2166887636.7295403     
   2228406322.3447886     
   3701590594.4898849     
   3571944778.4284143     
   3453301346.5435562     
   3345937885.6628079     
   3251042219.9100232     
   3374353101.0967751     
   3287980081.8639283     
   3212103195.1012206     
   3147571189.7319279     
   3095646762.0668535     
   3112376736.4819307     
   3060996156.9471521     
   3019360404.7984042     
   2988267687.0413837     
   2968591881.5649271     
   2920109646.8626962     
   2895362791.3136945     
   2879077523.3745399     
   2871426301.2888141     
   2872594836.5710425     
   2800117372.2216268     
   2793668720.7232199     
   2793697565.4125719     
   2799287780.8865614     
   2809800525.3253369     
   3251042219.9100232     
   3183839483.0435195     
   3121120378.1930270     
   3062971142.0305643     
   3009509623.9053679     
   3095646762.0668535     
   3037053613.1850328     
   2982938801.7973151     
   2933404635.6104250     
   2888574933.7128859     
   2968591881.5649271     
   2918685996.4150720     
   2873270191.4551024     
   2832454755.5250058     
   2796363890.5799150     
   2872594836.5710425     
   2831410327.8257127     
   2794737003.9299784     
   2762683057.9177022     
   2735366297.0922098     
   2809800525.3253369     
   2777268643.0216179     
   2749271976.6657023     
   2725905643.4074450     
   2707274190.1033568     
   3009509623.9053679     
   2922676085.2925820     
   2842242517.1830802     
   2768807561.5564799     
   2703057421.5614128     
   2888574933.7128859     
   2817803181.5678883     
   2754402751.3090138     
   2698935918.6830564     
   2652020849.0440211     
   2796363890.5799150     
   2741213337.6902881     
   2694245369.7071519     
   2655938369.5386381     
   2626796372.9022141     
   2735366297.0922098     
   2694726079.1109967     
   2662882711.1023879     
   2640199235.7262082     
   2627042359.0946074     
   2707274190.1033568     
   2679317032.3326697     
   2660576399.3139148     
   2651291414.7575493     
   2651694130.3181195     
   2703057421.5614128     
   2624609538.3656631     
   2553552194.9826570     
   2490445579.5844712     
   2435903555.6792550     
   2652020849.0440211     
   2588719631.1024232     
   2533372382.8088002     
   2486464439.0611281     
   2448508002.9838548     
   2626796372.9022141     
   2578015294.5668015     
   2537590101.8132949     
   2505906957.1531401     
   2483359108.1897936     
   2627042359.0946074     
   2591686718.2461729     
   2564938182.6756587     
   2547077688.0039077     
   2538382646.3353300     
   2651694130.3181195     
   2628265538.7195315     
   2613584390.1928382     
   2607836087.9470634     
   2611199832.2604814     
   2435903555.6792550     
   2363843276.5879030     
   2300304117.5260625     
   2245984349.1274757     
   2201602567.7867303     
   2448508002.9838548     
   2392582778.7003450     
   2345986638.0121174     
   2309273897.8027701     
   2282981945.1757593     
   2483359108.1897936     
   2442352815.8263540     
   2411208761.9659476     
   2390322343.2173309     
   2380054643.3626628     
   2538382646.3353300     
   2510527080.3313932     
   2492865935.9402723     
   2485650681.1094975     
   2489097714.1319118     
   2611199832.2604814     
   2594356819.8084083     
   2587935873.3919015     
   2592075202.5489082     
   2606887016.7312226     
   2201602567.7867303     
   2146040407.3930144     
   2105508569.5378475     
   2080786328.4647686     
   2072562160.7865894     
   2282981945.1757593     
   2242436759.8906379     
   2215827510.5834117     
   2203607149.9482760     
   2206165493.3220592     
   2380054643.3626628     
   2351531777.7729940     
   2335826329.1256185     
   2333187391.9600024     
   2343834301.0881939     
   2489097714.1319118     
   2469918364.9680514     
   2462530300.3421540     
   2467067241.8338685     
   2483660584.8555818     
   2606887016.7312226     
   2594758631.8121724     
   2593546882.5124917     
   2603328227.2829123     
   2624195573.6646767     
   2072562160.7865894     
   2069201367.5215905     
   2085020792.5838416     
   2122649074.2920377     
   2185898178.8535299     
   2206165493.3220592     
   2191872674.4962001     
   2192549494.7962370     
   2210164393.4165301     
   2247638481.8555679     
   2343834301.0881939     
   2319429864.5215893     
   2306566246.7077703     
   2306648877.1454182     
   2321767878.8744497     
   2483660584.8555818     
   2450909917.7789822     
   2426756587.1820617     
   2412145962.9885807     
   2408456402.8838983     
   2624195573.6646767     
   2585540108.2758775     
   2552840052.7370367     
   2526676817.2876611     
   2507860266.9657569     
   2185898178.8535299     
   2156429954.2538476     
   2146585282.6012564     
   2166887636.7295403     
   2228406322.3447886     
   2247638481.8555679     
   2182830741.7126350     
   2134473695.9099069     
   2112234422.7661097     
   2127047330.2928109     
   2321767878.8744497     
   2224957865.5650845     
   2141475209.9259770     
   2079685466.1513364     
   2049761542.0620077     
   2408456402.8838983     
   2283104483.7105341     
   2168236903.7985077     
   2070593680.3062456     
   1998944846.4890862     
   2507860266.9657569     
   2357478847.2274837     
   2215229210.7223864     
   2086091568.3338342     
   1976943794.1450720     
   2800117372.2216268     
   2793668720.7232199     
   2793697565.4125719     
   2799287780.8865614     
   2809800525.3253369     
   2773761523.2885842     
   2756050355.0552254     
   2746387013.0742202     
   2744794372.8232474     
   2751338302.3760190     
   2770971668.8027925     
   2741041379.8211575     
   2723382349.3699565     
   2718187971.2930803     
   2725642030.3695111     
   2803907471.6923561     
   2759268798.5015230     
   2733290321.2395148     
   2725749852.9688563     
   2736491484.5204310     
   2886009625.2285619     
   2822029421.5786157     
   2784694857.7441583     
   2773058957.3145480     
   2786387757.6970387     
   2809800525.3253369     
   2777268643.0216179     
   2749271976.6657023     
   2725905643.4074450     
   2707274190.1033568     
   2751338302.3760190     
   2720631890.0420609     
   2695464783.4271846     
   2675900163.9702044     
   2662010102.4970050     
   2725642030.3695111     
   2695236877.5720520     
   2671431756.5298619     
   2654252069.8709087     
   2643730811.0322847     
   2736491484.5204310     
   2704346208.5895572     
   2679885647.7554026     
   2663102087.2571974     
   2653993513.8554411     
   2786387757.6970387     
   2750056371.2361245     
   2722479319.7059693     
   2703632531.2899437     
   2693495645.1992402     
   2707274190.1033568     
   2679317032.3326697     
   2660576399.3139148     
   2651291414.7575493     
   2651694130.3181195     
   2662010102.4970050     
   2641657682.4392943     
   2630953174.9192185     
   2630046363.0171304     
   2639080813.5328913     
   2643730811.0322847     
   2628737566.2782078     
   2623854874.2816710     
   2629155076.8854671     
   2644707594.7352004     
   2653993513.8554411     
   2641633658.3365388     
   2639910405.7364893     
   2648841362.9185181     
   2668444590.2527266     
   2693495645.1992402     
   2680705996.6217165     
   2679165206.4351821     
   2688868298.8961177     
   2709812029.1846180     
   2651694130.3181195     
   2628265538.7195315     
   2613584390.1928382     
   2607836087.9470634     
   2611199832.2604814     
   2639080813.5328913     
   2623053085.6827431     
   2615660906.7280240     
   2617001064.5511832     
   2627164367.4853954     
   2644707594.7352004     
   2633575790.5463142     
   2630955681.8339839     
   2636884749.1768389     
   2651397179.3943052     
   2668444590.2527266     
   2659600896.7321067     
   2659163121.4458041     
   2667138673.8735933     
   2683534911.6609936     
   2709812029.1846180     
   2700648660.1228871     
   2699819586.6440644     
   2707329600.8731689     
   2723186371.8467660     
   2611199832.2604814     
   2594356819.8084083     
   2587935873.3919015     
   2592075202.5489082     
   2606887016.7312226     
   2627164367.4853954     
   2616110510.5477629     
   2615373335.9216843     
   2625035686.9965792     
   2645164084.0255804     
   2651397179.3943052     
   2644778477.6788549     
   2648496806.6370635     
   2662592761.5732212     
   2687099497.0755033     
   2683534911.6609936     
   2679925213.7492800     
   2686824527.4428582     
   2704243396.2327628     
   2732192002.5701180     
   2723186371.8467660     
   2721108935.1320167     
   2729884756.2053514     
   2749506231.8839703     
   2779969793.6538334     
   2606887016.7312226     
   2594758631.8121724     
   2593546882.5124917     
   2603328227.2829123     
   2624195573.6646767     
   2645164084.0255804     
   2634330868.8849664     
   2633684881.8789201     
   2643264309.1737385     
   2663118934.4727597     
   2687099497.0755033     
   2677215682.4806190     
   2676963885.4070573     
   2686358664.4972019     
   2705421153.8498726     
   2732192002.5701180     
   2723039827.9674764     
   2723122282.9395447     
   2732441946.6539049     
   2751003919.2065353     
   2779969793.6538334     
   2771448352.6035852     
   2771907445.4493842     
   2781346845.3653064     
   2799766512.3467169     
   2624195573.6646767     
   2585540108.2758775     
   2552840052.7370367     
   2526676817.2876611     
   2507860266.9657569     
   2663118934.4727597     
   2617512415.5953088     
   2577623669.2146602     
   2543782948.9354215     
   2516451837.5081539     
   2705421153.8498726     
   2654986833.9575973     
   2610176883.3244233     
   2571137886.0381069     
   2538074559.3198709     
   2751003919.2065353     
   2697871601.9634638     
   2650413745.6716056     
   2608666348.5713363     
   2572679170.9662008     
   2799766512.3467169     
   2746066327.4176388     
   2698233612.4546900     
   2656268322.0096164     
   2620170441.7455950     
   2507860266.9657569     
   2357478847.2274837     
   2215229210.7223864     
   2086091568.3338342     
   1976943794.1450720     
   2516451837.5081539     
   2348510003.0029545     
   2184103181.3786492     
   2026330856.7244678     
   1879758693.5374155     
   2538074559.3198709     
   2357658260.2468071     
   2176976637.9188747     
   1997500616.7981007     
   1821508290.5177557     
   2572679170.9662008     
   2385028420.4707599     
   2194316885.5030904     
   2000922378.4999831     
   1805448772.7718835     
   2620170441.7455950     
   2430590094.7553272     
   2236266300.4050927     
   2037199053.4844816     
   1833388349.4452453     
   2886009625.2285619     
   2822029421.5786157     
   2784694857.7441583     
   2773058957.3145480     
   2786387757.6970387     
   2686726125.0479059     
   2663312764.5059237     
   2658597098.1222382     
   2672429673.0479565     
   2704713445.9647985     
   2586124323.0245194     
   2587870672.1134038     
   2601750481.8167872     
   2627985312.2761660     
   2666766997.0647082     
   2563872185.2794480     
   2579172191.8453727     
   2601763916.6143708     
   2631474726.1175237     
   2668210841.7094007     
   2594620433.7896743     
   2617172906.0754924     
   2643639731.2964282     
   2672629081.5891786     
   2703173950.4727559     
   2786387757.6970387     
   2750056371.2361245     
   2722479319.7059693     
   2703632531.2899437     
   2693495645.1992402     
   2704713445.9647985     
   2678089963.1386056     
   2658540096.2168088     
   2646074865.7509184     
   2640705315.5517325     
   2666766997.0647082     
   2646705720.2976799     
   2632006233.6152782     
   2622707267.6318526     
   2618850095.5387626     
   2668210841.7094007     
   2652256111.2567902     
   2639969323.9621468     
   2631395290.8106818     
   2626589671.6487393     
   2703173950.4727559     
   2689722976.6607165     
   2678298272.0885353     
   2668920831.4909039     
   2661636176.5950894     
   2693495645.1992402     
   2680705996.6217165     
   2679165206.4351821     
   2688868298.8961177     
   2709812029.1846180     
   2640705315.5517325     
   2630868348.5638900     
   2631413135.5646572     
   2642359271.7364035     
   2663724344.1924062     
   2618850095.5387626     
   2608341354.7320237     
   2607385902.0618820     
   2616059854.1312761     
   2634433683.9579358     
   2626589671.6487393     
   2612265603.8102512     
   2606681439.4543667     
   2609988639.9403119     
   2622331746.1157532     
   2661636176.5950894     
   2641011754.5157194     
   2628293634.7048974     
   2623713224.8683648     
   2627498334.7444892     
   2709812029.1846180     
   2700648660.1228871     
   2699819586.6440644     
   2707329600.8731689     
   2723186371.8467660     
   2663724344.1924062     
   2653808807.4315205     
   2652351093.4855161     
   2659365240.2404847     
   2674865386.7808170     
   2634433683.9579358     
   2622229110.2645764     
   2618682105.7180090     
   2623832157.6140833     
   2637715776.5960054     
   2622331746.1157532     
   2606236683.3099146     
   2599070280.4463081     
   2600916434.8404074     
   2611852945.8758969     
   2627498334.7444892     
   2605901028.1890788     
   2593563210.0774984     
   2590634638.1800346     
   2597256488.7437263     
   2723186371.8467660     
   2721108935.1320167     
   2729884756.2053514     
   2749506231.8839703     
   2779969793.6538334     
   2674865386.7808170     
   2673803445.7795696     
   2683096957.4212322     
   2702750797.8745222     
   2732768329.0744252     
   2637715776.5960054     
   2635170809.3961816     
   2642599524.6094327     
   2660039881.7304883     
   2687521283.3924785     
   2611852945.8758969     
   2605462946.2911043     
   2608749900.3745394     
   2621804295.1710682     
   2644701042.9316645     
   2597256488.7437263     
   2584856573.8280377     
   2581879474.0304198     
   2588486697.3035402     
   2604819233.0223608     
   2779969793.6538334     
   2771448352.6035852     
   2771907445.4493842     
   2781346845.3653064     
   2799766512.3467169     
   2732768329.0744252     
   2723227737.5484643     
   2722936153.2038341     
   2731897542.9090691     
   2750116788.0620770     
   2687521283.3924785     
   2677108843.3287425     
   2676364035.4071808     
   2685301977.9221797     
   2703943903.9628339     
   2644701042.9316645     
   2633441635.4494338     
   2632434955.4140062     
   2641716635.0729523     
   2661337393.8167915     
   2604819233.0223608     
   2592599025.4430065     
   2591402925.1184874     
   2601299166.9483542     
   2622382625.5025191     
   2799766512.3467169     
   2746066327.4176388     
   2698233612.4546900     
   2656268322.0096164     
   2620170441.7455950     
   2750116788.0620770     
   2697251825.5731668     
   2650034210.4576869     
   2608500903.6302376     
   2572704202.3713694     
   2703943903.9628339     
   2653949463.2794504     
   2609524340.0899220     
   2570815763.0931702     
   2538029786.1542802     
   2661337393.8167915     
   2616252563.1645651     
   2576801046.5846906     
   2543312018.9765043     
   2516243329.7170439     
   2622382625.5025191     
   2584244736.9260721     
   2551946064.0399666     
   2526063826.6847477     
   2507395422.7802143     
   2620170441.7455950     
   2430590094.7553272     
   2236266300.4050927     
   2037199053.4844816     
   1833388349.4452453     
   2572704202.3713694     
   2385021788.5412722     
   2194293713.8761177     
   2000900251.5349617     
   1805448358.4677570     
   2538029786.1542802     
   2357583876.4472919     
   2176902361.2345881     
   1997463935.8202982     
   1821558438.1512156     
   2516243329.7170439     
   2348306940.6581197     
   2183948892.2482352     
   2026283794.9383388     
   1879900729.6356754     
   2507395422.7802143     
   2357086953.2258220     
   2214965969.3850799     
   2086036176.3354607     
   1977210780.1158407     
   2594620433.7896743     
   2617172906.0754924     
   2643639731.2964282     
   2672629081.5891786     
   2703173950.4727559     
   2839892378.0202980     
   2821206795.8366694     
   2808654188.1135540     
   2802270691.0382061     
   2802202716.8803773     
   3126406214.4930053     
   3061903481.5825524     
   3007581257.4036150     
   2964087206.4021053     
   2932167935.7886405     
   3458616874.4466853     
   3344088834.0541344     
   3244452753.5584235     
   3160534714.0457935     
   3093438046.2290802     
   3840911697.8512349     
   3671879361.1863260     
   3522357118.7395411     
   3393145774.6358814     
   3285646342.8850498     
   2703173950.4727559     
   2689722976.6607165     
   2678298272.0885353     
   2668920831.4909039     
   2661636176.5950894     
   2802202716.8803773     
   2773435103.1356249     
   2747640002.3172898     
   2724900280.0738664     
   2705312501.9072409     
   2932167935.7886405     
   2888157198.8211226     
   2848072480.6181259     
   2812024088.1925750     
   2780136495.2359185     
   3093438046.2290802     
   3034084585.9141011     
   2979568581.2692723     
   2930000332.0468984     
   2885514337.4000621     
   3285646342.8850498     
   3210637254.4813242     
   3141298829.5251288     
   3077720674.1233516     
   3020034721.5926208     
   2661636176.5950894     
   2641011754.5157194     
   2628293634.7048974     
   2623713224.8683648     
   2627498334.7444892     
   2705312501.9072409     
   2669029570.4734597     
   2640734449.7211399     
   2620769611.9674392     
   2609483581.3240695     
   2780136495.2359185     
   2726974976.3107157     
   2681691333.7386184     
   2644737509.5701275     
   2616591285.7028608     
   2885514337.4000621     
   2814697834.9216433     
   2751454145.0325027     
   2696324537.3933253     
   2649904402.8366265     
   3020034721.5926208     
   2931190397.3684402     
   2849447475.5031233     
   2775401979.2818775     
   2709735900.9110913     
   2627498334.7444892     
   2605901028.1890788     
   2593563210.0774984     
   2590634638.1800346     
   2597256488.7437263     
   2609483581.3240695     
   2576282666.0871267     
   2552071406.9057231     
   2537108825.8782816     
   2531645052.4698715     
   2616591285.7028608     
   2569589478.1896391     
   2531135742.6779556     
   2501614047.6872640     
   2481411072.2702951     
   2649904402.8366265     
   2587477011.5210257     
   2532931247.5314336     
   2486768847.1291709     
   2449519778.1534891     
   2709735900.9110913     
   2630928863.3483348     
   2559101026.1161838     
   2494837938.7159619     
   2438789425.3365722     
   2597256488.7437263     
   2584856573.8280377     
   2581879474.0304198     
   2588486697.3035402     
   2604819233.0223608     
   2531645052.4698715     
   2505712958.2984843     
   2489322194.9515467     
   2482738262.9623499     
   2486197896.9756618     
   2481411072.2702951     
   2440479280.6938434     
   2409145510.6159220     
   2387806241.1388059     
   2376829157.8320932     
   2449519778.1534891     
   2392302876.8080354     
   2344594877.9590850     
   2306940692.0058417     
   2279870784.0557685     
   2438789425.3365722     
   2364333191.2654290     
   2299078258.6205015     
   2243713189.0529828     
   2198945157.2652845     
   2604819233.0223608     
   2592599025.4430065     
   2591402925.1184874     
   2601299166.9483542     
   2622382625.5025191     
   2486197896.9756618     
   2467361073.7408442     
   2460361210.9114923     
   2465325116.1113467     
   2482383081.1437960     
   2376829157.8320932     
   2348925989.5353255     
   2333814274.7850122     
   2331738635.8257008     
   2342915404.8977914     
   2279870784.0557685     
   2240096656.1381469     
   2214145618.4367471     
   2202468686.3667369     
   2205451397.2233863     
   2198945157.2652845     
   2144224567.4407101     
   2104313613.7997091     
   2079989827.5344307     
   2071935029.8410444     
   2622382625.5025191     
   2584244736.9260721     
   2551946064.0399666     
   2526063826.6847477     
   2507395422.7802143     
   2482383081.1437960     
   2449885701.8195939     
   2425920670.2895203     
   2411431835.2992015     
   2407788815.0765200     
   2342915404.8977914     
   2318563074.1257319     
   2305737399.8140249     
   2305844990.5906682     
   2320973690.4299064     
   2205451397.2233863     
   2191062990.4947476     
   2191682002.8527522     
   2209281450.2129583     
   2246789847.0433321     
   2071935029.8410444     
   2068367908.6760855     
   2084075851.9562030     
   2121697116.4206855     
   2185064085.5611711     
   2507395422.7802143     
   2357086953.2258220     
   2214965969.3850799     
   2086036176.3354607     
   1977210780.1158407     
   2407788815.0765200     
   2282641319.3282127     
   2168007191.8613892     
   2070641536.5446591     
   1999333468.5685577     
   2320973690.4299064     
   2224459505.6536961     
   2141273254.2039220     
   2079783351.2370853     
   2050162828.2780685     
   2246789847.0433321     
   2182330504.2182879     
   2134292774.6257212     
   2112332343.4025939     
   2127365725.9049625     
   2185064085.5611711     
   2155958740.9250479     
   2146418113.9243450     
   2166939795.7810402     
   2228560307.8506756     
   3840911697.8512349     
   3671879361.1863260     
   3522357118.7395411     
   3393145774.6358814     
   3285646342.8850498     
   4046140334.9837980     
   3872230916.7650719     
   3709268207.4207373     
   3558459425.5123062     
   3421417970.6311607     
   4275856286.4890027     
   4097021587.3759627     
   3922941967.6181035     
   3754486375.4889250     
   3592756104.1797132     
   4506450541.2138624     
   4327687831.6545811     
   4149240515.4379587     
   3971157691.1709790     
   3793639658.7526569     
   4721134210.5754852     
   4550714990.9507866     
   4377441339.6909122     
   4200303030.3708434     
   4018522400.5698586     
   3285646342.8850498     
   3210637254.4813242     
   3141298829.5251288     
   3077720674.1233516     
   3020034721.5926208     
   3421417970.6311607     
   3339099240.0417871     
   3261369027.7106743     
   3188339030.9435372     
   3120164081.8525596     
   3592756104.1797132     
   3502695330.7517390     
   3416227414.3746977     
   3333468025.4005651     
   3254573572.2933626     
   3793639658.7526569     
   3695851074.9089570     
   3600769554.7381349     
   3508501405.5812821     
   3419188665.9227819     
   4018522400.5698586     
   3913345092.5474048     
   3810109797.1952624     
   3708905892.0896449     
   3609851983.5789595     
   3020034721.5926208     
   2931190397.3684402     
   2849447475.5031233     
   2775401979.2818775     
   2709735900.9110913     
   3120164081.8525596     
   3015024436.5777698     
   2916050481.9137402     
   2823865493.5037827     
   2739210414.2081828     
   3254573572.2933626     
   3133192942.2372928     
   3016955361.2860217     
   2906459214.9219942     
   2802442813.1947083     
   3419188665.9227819     
   3281989298.6496367     
   3148901631.5946598     
   3020456594.2989421     
   2897333584.5842590     
   3609851983.5789595     
   3457466357.7673883     
   3308215814.5815315     
   3162537301.8473148     
   3021011441.2012162     
   2709735900.9110913     
   2630928863.3483348     
   2559101026.1161838     
   2494837938.7159619     
   2438789425.3365722     
   2739210414.2081828     
   2645399741.9305615     
   2557334787.4189653     
   2475599260.8394904     
   2400865714.0666595     
   2802442813.1947083     
   2694557877.9474449     
   2591140159.7481155     
   2492707064.0306296     
   2399875933.2027850     
   2897333584.5842590     
   2776890782.8241320     
   2659707856.0400066     
   2546189862.4535022     
   2436834745.3887086     
   3021011441.2012162     
   2889883320.7485147     
   2760978635.1234632     
   2634574404.3811936     
   2511019589.6978273     
   2438789425.3365722     
   2364333191.2654290     
   2299078258.6205015     
   2243713189.0529828     
   2198945157.2652845     
   2400865714.0666595     
   2309170923.3856187     
   2225615595.2476811     
   2151013996.1760850     
   2086257540.6086149     
   2399875933.2027850     
   2290986887.6626873     
   2188836521.8882871     
   2094260801.0188558     
   2008234301.7723172     
   2436834745.3887086     
   2311841191.3751903     
   2191994666.2706780     
   2078025495.8149426     
   1970836133.4533670     
   2511019589.6978273     
   2371880847.7858825     
   2236328851.7984481     
   2104892957.9740286     
   1978261704.7342718     
   2198945157.2652845     
   2144224567.4407101     
   2104313613.7997091     
   2079989827.5344307     
   2071935029.8410444     
   2086257540.6086149     
   2011401492.8521378     
   1948798017.2741857     
   1899527529.6583474     
   1864619708.8000650     
   2008234301.7723172     
   1911914956.0541973     
   1824304192.0091612     
   1746596101.9215217     
   1680077106.5024421     
   1970836133.4533670     
   1854694110.0139232     
   1742913718.3680820     
   1636408573.6800053     
   1536300076.3845556     
   1978261704.7342718     
   1847441333.3774176     
   1716717315.3209808     
   1586435261.7734849     
   1457094565.5290248     
   2071935029.8410444     
   2068367908.6760855     
   2084075851.9562030     
   2121697116.4206855     
   2185064085.5611711     
   1864619708.8000650     
   1854153807.3946226     
   1866687949.6897135     
   1904434068.6082661     
   1970432650.7661624     
   1680077106.5024421     
   1651683649.4381709     
   1651027133.7705333     
   1680477666.4464414     
   1742643886.2721343     
   1536300076.3845556     
   1475558705.5338733     
   1447507708.3225541     
   1456115426.7150605     
   1504669842.9645269     
   1457094565.5290248     
   1348215000.0314708     
   1274285589.1461353     
   1243434515.3580427     
   1262691681.5878551     
   2185064085.5611711     
   2155958740.9250479     
   2146418113.9243450     
   2166939795.7810402     
   2228560307.8506756     
   1970432650.7661624     
   1968712185.9496584     
   2003529567.9293487     
   2093541302.5626411     
   2257379355.9094124     
   1742643886.2721343     
   1787514234.0904076     
   1884543065.6211290     
   2060629948.5001721     
   2340987121.2769775     
   1504669842.9645269     
   1613082731.3808742     
   1788719558.9766603     
   2066329139.6010156     
   2476112850.2916236     
   1262691681.5878551     
   1446463466.4152536     
   1715495945.7082720     
   2110375905.0669894     
   2663550079.3184233     
   4721134210.5754852     
   4550714990.9507866     
   4377441339.6909122     
   4200303030.3708434     
   4018522400.5698586     
   5021822360.5992842     
   4828339216.9191065     
   4635461674.3181715     
   4443354665.4527788     
   4252248163.1145911     
   5398038076.3388309     
   5168005574.9455194     
   4943372345.9963322     
   4724181790.3597355     
   4510833387.9590921     
   5853608951.3402376     
   5572994701.2119722     
   5302458542.7838840     
   5041140573.5509682     
   4789231978.7098274     
   6392021811.3337336     
   6045745614.7868624     
   5713252817.8214626     
   5392426164.9873590     
   5083236815.8801289     
   4018522400.5698586     
   3913345092.5474048     
   3810109797.1952624     
   3708905892.0896449     
   3609851983.5789595     
   4252248163.1145911     
   4140243153.2334266     
   4029176018.9807982     
   3919124931.7806487     
   3810195510.4732790     
   4510833387.9590921     
   4392304747.6513853     
   4273784587.5590882     
   4155325641.0187678     
   4037009748.2559977     
   4789231978.7098274     
   4664717287.7116432     
   4539371204.4268541     
   4413213283.6346006     
   4286297480.5888290     
   5083236815.8801289     
   4953437117.5137691     
   4822062875.1720324     
   4689097865.9406099     
   4554569371.4352655     
   3609851983.5789595     
   3457466357.7673883     
   3308215814.5815315     
   3162537301.8473148     
   3021011441.2012162     
   3810195510.4732790     
   3643036973.7209473     
   3477909936.3236461     
   3315103585.0814900     
   3155020116.9954190     
   4037009748.2559977     
   3856937529.0921788     
   3678046770.5872240     
   3500497324.5757771     
   3324528221.8153715     
   4286297480.5888290     
   4095075431.7701321     
   3904433861.0468268     
   3714434136.5948844     
   3525187265.6215825     
   4554569371.4352655     
   4353805119.4366608     
   4153242199.2707963     
   3952876333.7563705     
   3752730958.5172386     
   3021011441.2012162     
   2889883320.7485147     
   2760978635.1234632     
   2634574404.3811936     
   2511019589.6978273     
   3155020116.9954190     
   3013153088.6240263     
   2873240764.8253589     
   2735498259.1854730     
   2600218737.3165655     
   3324528221.8153715     
   3171682199.6724029     
   3020420596.9229941     
   2870881553.1573043     
   2723285554.7700973     
   3525187265.6215825     
   3360795471.4616065     
   3197537184.9068861     
   3035465146.3120127     
   2874717434.3240614     
   3752730958.5172386     
   3575937690.7840171     
   3399766611.0698428     
   3224182017.5360336     
   3049235772.8642364     
   2511019589.6978273     
   2371880847.7858825     
   2236328851.7984481     
   2104892957.9740286     
   1978261704.7342718     
   2600218737.3165655     
   2451241187.1948195     
   2304211638.6073675     
   2159446394.3012595     
   2017371383.2413092     
   2723285554.7700973     
   2566984911.4091973     
   2411385677.7328677     
   2256621295.8559675     
   2102878416.5353534     
   2874717434.3240614     
   2713743114.4513302     
   2552661295.7617826     
   2391496831.7896824     
   2230291036.3502922     
   3049235772.8642364     
   2886134662.5187812     
   2722515866.4900384     
   2558374958.8270044     
   2393714599.7897387     
   1978261704.7342718     
   1847441333.3774176     
   1716717315.3209808     
   1586435261.7734849     
   1457094565.5290248     
   2017371383.2413092     
   1880376126.4090035     
   1743785045.7664793     
   1607726736.3975019     
   1472377689.1063843     
   2102878416.5353534     
   1962286083.1248438     
   1822737167.2703836     
   1684262036.9493170     
   1546922546.6204121     
   2230291036.3502922     
   2086946549.9166477     
   1945327051.4409869     
   1805430865.5460000     
   1667338215.4759805     
   2393714599.7897387     
   2246826244.3923841     
   2102172032.4081771     
   1959748909.4940431     
   1819728549.3301141     
   1457094565.5290248     
   1348215000.0314708     
   1274285589.1461353     
   1243434515.3580427     
   1262691681.5878551     
   1472377689.1063843     
   1328281210.3399382     
   1198613292.5065002     
   1087848593.5434430     
   1001878934.3222624     
   1546922546.6204121     
   1397220643.2246921     
   1243923001.7270458     
   1084754575.8079908     
   917680678.93532169     
   1667338215.4759805     
   1552140420.8188782     
   1427798681.3254962     
   1294680821.8420579     
   1158929516.8848512     
   1819728549.3301141     
   1779330859.7939534     
   1735393069.4530389     
   1696566460.3969004     
   1681367678.9207096     
   1262691681.5878551     
   1446463466.4152536     
   1715495945.7082720     
   2110375905.0669894     
   2663550079.3184233     
   1001878934.3222624     
   1164541432.9381845     
   1425280320.1362364     
   1808674799.7391832     
   2334811047.7629471     
   917680678.93532169     
   963027621.15078771     
   1144838332.5105250     
   1476447541.4416735     
   1957526694.8922296     
   1158929516.8848512     
   1008421549.1392821     
   985195724.79351175     
   1161504347.6269505     
   1544217818.5369737     
   1681367678.9207096     
   1383797701.2950530     
   1129519549.9663258     
   1010247834.6856737     
   1153213723.1484892     
 </DataArray>
 <DataArray  type="Float64" Name="strain" NumberOfComponents="3" format="ascii">
  0.10406878576857670       -2.7057938961088435E-002   4.4876973269594167E-003
   9.9328200408312473E-002  -2.8012727151707217E-002   2.4714874459929037E-003
   9.4587615048048246E-002  -2.8289973482837349E-002   1.1050433292916217E-003
   8.9847029687784075E-002  -2.7889677954478970E-002   3.8836497685529325E-004
   8.5106444327519903E-002  -2.6811840566631884E-002   3.2145238868441783E-004
   9.6526291324705804E-002  -2.6343316315733278E-002   8.7254313475935152E-003
   9.2350720970804767E-002  -2.6629763310093646E-002   7.8283577967217521E-003
   8.8175150616903619E-002  -2.6495241185899271E-002   7.4115484943109711E-003
   8.3999580263002471E-002  -2.5939749943149702E-002   7.4750034403612831E-003
   7.9824009909101323E-002  -2.4963289581845460E-002   8.0187226348725771E-003
   8.9638428479810295E-002  -2.5628693670378122E-002   1.3759792934952553E-002
   8.5858371616467977E-002  -2.5246799468480075E-002   1.3725282973241965E-002
   8.2078314753125742E-002  -2.4700508888960859E-002   1.4001535744188165E-002
   7.8298257889783451E-002  -2.3989821931820490E-002   1.4588551247791154E-002
   7.4518201026441105E-002  -2.3114738597059092E-002   1.5486329484051070E-002
   8.3405197233889922E-002  -2.4914071025023021E-002   1.9590782089036890E-002
   7.9851152345302309E-002  -2.3863835626866572E-002   2.0162262975553659E-002
   7.6297107456714558E-002  -2.2905776592022670E-002   2.0875005078923287E-002
   7.2743062568126945E-002  -2.2039893920491362E-002   2.1729008399145031E-002
   6.9189017679539264E-002  -2.1266187612272641E-002   2.2724272936219696E-002
   7.7826597586944657E-002  -2.4199448379667865E-002   2.6218398809846721E-002
   7.4329063157307418E-002  -2.2480871785252932E-002   2.7139297803657314E-002
   7.0831528727670179E-002  -2.1111044295084438E-002   2.8031956498516059E-002
   6.7333994298032995E-002  -2.0089965909162167E-002   2.8896374894423191E-002
   6.3836459868395784E-002  -1.9417636627486301E-002   2.9732552991378836E-002
   8.5106444327519903E-002  -2.6811840566631884E-002   3.2145238868441783E-004
   8.2770630841472792E-002  -2.5474616857737498E-002   1.5094877617538582E-004
   8.0434817355425681E-002  -2.4296162366236912E-002   1.7172314755387053E-004
   7.8099003869378514E-002  -2.3276477092130633E-002   3.8377550282073236E-004
   7.5763190383331458E-002  -2.2415561035418086E-002   7.8710584197516642E-004
   7.9824009909101323E-002  -2.4963289581845460E-002   8.0187226348725771E-003
   7.7673069718668386E-002  -2.3827735796630001E-002   7.6876641257846989E-003
   7.5522129528235393E-002  -2.2794964282146501E-002   7.5350742240370694E-003
   7.3371189337802428E-002  -2.1864975038396142E-002   7.5609529296301048E-003
   7.1220249147369519E-002  -2.1037768065377604E-002   7.7653002425631112E-003
   7.4518201026441105E-002  -2.3114738597059092E-002   1.5486329484051070E-002
   7.2539324755074672E-002  -2.2180854735522421E-002   1.5050703025046075E-002
   7.0560448483708266E-002  -2.1293766198056410E-002   1.4780735796833935E-002
   6.8581572212341846E-002  -2.0453472984661426E-002   1.4676427799414263E-002
   6.6602695940975426E-002  -1.9659975095337179E-002   1.4737779032787668E-002
   6.9189017679539264E-002  -2.1266187612272641E-002   2.2724272936219696E-002
   6.7369395950691774E-002  -2.0533973674414827E-002   2.2240065473959278E-002
   6.5549774221844298E-002  -1.9792568113966215E-002   2.1908707865943951E-002
   6.3730152492996739E-002  -1.9041970930926820E-002   2.1730200112173859E-002
   6.1910530764149312E-002  -1.8282182125296614E-002   2.1704542212648753E-002
   6.3836459868395784E-002  -1.9417636627486301E-002   2.9732552991378836E-002
   6.2163283305519568E-002  -1.8887092613307316E-002   2.9255751472524516E-002
   6.0490106742643421E-002  -1.8291370029875895E-002   2.8918990431367697E-002
   5.8816930179767239E-002  -1.7630468877192104E-002   2.8722269867908545E-002
   5.7143753616891058E-002  -1.6904389155256161E-002   2.8665589782146950E-002
   7.5763190383331458E-002  -2.2415561035418086E-002   7.8710584197516642E-004
   7.2462158832749535E-002  -2.1611249136993138E-002   6.2150515616532509E-004
   6.9161127282167500E-002  -2.0761376337750326E-002   5.7177879327641179E-004
   6.5860095731585494E-002  -1.9865942637688427E-002   6.3792675330692772E-004
   6.2559064181003543E-002  -1.8924948036808886E-002   8.1994903625803861E-004
   7.1220249147369519E-002  -2.1037768065377604E-002   7.7653002425631112E-003
   6.8047867028189768E-002  -2.0246261066253102E-002   7.5763343066847511E-003
   6.4875484909009934E-002  -1.9423371744183571E-002   7.5287929106903073E-003
   6.1703102789830197E-002  -1.8569100099169386E-002   7.6226760545806543E-003
   5.8530720670650405E-002  -1.7683446131210201E-002   7.8579837383546680E-003
   6.6602695940975426E-002  -1.9659975095337179E-002   1.4737779032787668E-002
   6.3584513470161724E-002  -1.8881272995512705E-002   1.4511269268967258E-002
   6.0566330999348009E-002  -1.8085367150616927E-002   1.4451734261994878E-002
   5.7548148528534300E-002  -1.7272257560649790E-002   1.4559174011870166E-002
   5.4529966057720564E-002  -1.6441944225611682E-002   1.4833588518593815E-002
   6.1910530764149312E-002  -1.8282182125296614E-002   2.1704542212648753E-002
   5.9072098158665438E-002  -1.7516284924772377E-002   2.1426310043012681E-002
   5.6233665553181642E-002  -1.6747362557050116E-002   2.1340602847188340E-002
   5.3395232947697768E-002  -1.5975415022130471E-002   2.1447420625175947E-002
   5.0556800342213978E-002  -1.5200442320013191E-002   2.1746763376975169E-002
   5.7143753616891058E-002  -1.6904389155256161E-002   2.8665589782146950E-002
   5.4510621093700973E-002  -1.6151296854031993E-002   2.8321456628821240E-002
   5.1877488570510860E-002  -1.5409357963483486E-002   2.8195398666271548E-002
   4.9244356047320761E-002  -1.4678572483611058E-002   2.8287415894497264E-002
   4.6611223524130663E-002  -1.3958940414414756E-002   2.8597508313498998E-002
   6.2559064181003543E-002  -1.8924948036808886E-002   8.1994903625803861E-004
   5.9619528401985589E-002  -1.7981056974480825E-002   4.2429874373739462E-004
   5.6679992622967412E-002  -1.7076933890074947E-002   2.7090848495592290E-004
   5.3740456843949347E-002  -1.6212578783591843E-002   3.5977825991265200E-004
   5.0800921064931281E-002  -1.5387991655030353E-002   6.9090806860883092E-004
   5.8530720670650405E-002  -1.7683446131210201E-002   7.8579837383546680E-003
   5.5816699022731231E-002  -1.6795074575893076E-002   7.4403188775413742E-003
   5.3102677374812085E-002  -1.5932650168805768E-002   7.2314222451874133E-003
   5.0388655726892870E-002  -1.5096172909947143E-002   7.2312938412917305E-003
   4.7674634078973765E-002  -1.4285642799318321E-002   7.4399336658549364E-003
   5.4529966057720564E-002  -1.6441944225611682E-002   1.4833588518593815E-002
   5.2007966735620192E-002  -1.5609092177305939E-002   1.4407729919180934E-002
   4.9485967413519821E-002  -1.4788366447536352E-002   1.4157147742947199E-002
   4.6963968091419422E-002  -1.3979767036302996E-002   1.4081841989892117E-002
   4.4441968769319079E-002  -1.3183293943605956E-002   1.4181812660016002E-002
   5.0556800342213978E-002  -1.5200442320013191E-002   2.1746763376975169E-002
   4.8193331540652348E-002  -1.4423109778718718E-002   2.1326531868656136E-002
   4.5829862739090656E-002  -1.3644082726267166E-002   2.1048084978235692E-002
   4.3466393937528935E-002  -1.2863361162659017E-002   2.0911422705713875E-002
   4.1102925135967340E-002  -1.2080945087893979E-002   2.0916545051090835E-002
   4.6611223524130663E-002  -1.3958940414414756E-002   2.8597508313498998E-002
   4.4372793437827573E-002  -1.3237127380131053E-002   2.8196724725966460E-002
   4.2134363351524567E-002  -1.2499799004998105E-002   2.7904233951052432E-002
   3.9895933265221520E-002  -1.1746955289014763E-002   2.7720035988756955E-002
   3.7657503178918528E-002  -1.0978596232181781E-002   2.7644130839080239E-002
   5.0800921064931281E-002  -1.5387991655030353E-002   6.9090806860883092E-004
   4.8073345822979285E-002  -1.4570168447539111E-002   4.8899310619865410E-004
   4.5345770581027178E-002  -1.3726105104266306E-002   3.1174564318037223E-004
   4.2618195339075099E-002  -1.2855801625211272E-002   1.5916567955542860E-004
   3.9890620097123075E-002  -1.1959258010373119E-002   3.1253215322601946E-005
   4.7674634078973765E-002  -1.4285642799318321E-002   7.4399336658549364E-003
   4.4985841010051320E-002  -1.3480783427271437E-002   7.1661779568072959E-003
   4.2297047941128957E-002  -1.2661318384160292E-002   6.9453190944264165E-003
   3.9608254872206525E-002  -1.1827247669984969E-002   6.7773570787119375E-003
   3.6919461803284093E-002  -1.0978571284745442E-002   6.6622919096639421E-003
   4.4441968769319079E-002  -1.3183293943605956E-002   1.4181812660016002E-002
   4.1820187220700106E-002  -1.2391398407003928E-002   1.3824581739613512E-002
   3.9198405672081119E-002  -1.1596531664054943E-002   1.3548477013150928E-002
   3.6576624123462138E-002  -1.0798693714759777E-002   1.3353498480629236E-002
   3.3954842574843186E-002  -9.9978845591177645E-003   1.3239646142047368E-002
   4.1102925135967340E-002  -1.2080945087893979E-002   2.0916545051090835E-002
   3.8576384454925602E-002  -1.1302013386736115E-002   2.0464204454615983E-002
   3.6049843773883788E-002  -1.0531744943949595E-002   2.0121219399354830E-002
   3.3523303092842065E-002  -9.7701397595342521E-003   1.9887589885307894E-002
   3.0996762411800244E-002  -9.0171978334900871E-003   1.9763315912475224E-002
   3.7657503178918528E-002  -1.0978596232181781E-002   2.7644130839080239E-002
   3.5254432712727768E-002  -1.0212628366468524E-002   2.7085046101814669E-002
   3.2851362246536980E-002  -9.4669582238437466E-003   2.6663546253037185E-002
   3.0448291780346179E-002  -8.7415858043088240E-003   2.6379631292747313E-002
   2.8045221314155433E-002  -8.0365111078622986E-003   2.6233301220945471E-002
   3.9890620097123075E-002  -1.1959258010373119E-002   3.1253215322601946E-005
   3.7470180012469489E-002  -1.1129845646308922E-002  -2.7623374715712856E-004
   3.5049739927815959E-002  -1.0460935919574144E-002  -4.8589829359124703E-004
   3.2629299843162374E-002  -9.9525288301675480E-003  -5.9774042397969795E-004
   3.0208859758508844E-002  -9.6046243780900653E-003  -6.1176013832198173E-004
   3.6919461803284093E-002  -1.0978571284745442E-002   6.6622919096639421E-003
   3.4577315941581088E-002  -1.0175783797554683E-002   6.2083727672412881E-003
   3.2235170079878084E-002  -9.4793797775258870E-003   5.8132196546742954E-003
   2.9893024218175079E-002  -8.8893592246583886E-003   5.4768325719630195E-003
   2.7550878356471964E-002  -8.4057221389535197E-003   5.1992115191067390E-003
   3.3954842574843186E-002  -9.9978845591177645E-003   1.3239646142047368E-002
   3.1651934549900396E-002  -9.2217219488002211E-003   1.2693413989849578E-002
   2.9349026524957522E-002  -8.4978236354776582E-003   1.2166891481316916E-002
   2.7046118500014635E-002  -7.8261896191499022E-003   1.1660078616448841E-002
   2.4743210475071775E-002  -7.2068198998174182E-003   1.1172975395246310E-002
   3.0996762411800244E-002  -9.0171978334900871E-003   1.9763315912475224E-002
   2.8694035837427231E-002  -8.2676601000456484E-003   1.9178889920668102E-002
   2.6391309263054233E-002  -7.5162674934294155E-003   1.8575117186336511E-002
   2.4088582688681220E-002  -6.7630200136415235E-003   1.7951997709479233E-002
   2.1785856114308173E-002  -6.0079176606813167E-003   1.7309531490096355E-002
   2.8045221314155433E-002  -8.0365111078622986E-003   2.6233301220945471E-002
   2.5703619804161915E-002  -7.3135982512915199E-003   2.5664800559697110E-002
   2.3362018294168341E-002  -6.5347113513813393E-003   2.5037896769733337E-002
   2.1020416784174822E-002  -5.6998504081325757E-003   2.4352589851053624E-002
   1.8678815274181304E-002  -4.8090154215448822E-003   2.3608879803658334E-002
   3.0208859758508844E-002  -9.6046243780900653E-003  -6.1176013832198173E-004
   2.9601811303359593E-002  -9.1339468742125396E-003  -3.6274211007070178E-004
   2.8994762848210398E-002  -8.2572206294060924E-003  -1.7968814549877976E-003
   2.8387714393061175E-002  -6.9744456436715146E-003  -4.9141781730734913E-003
   2.7780665937911952E-002  -5.2856219170072105E-003  -9.7146322643271166E-003
   2.7550878356471964E-002  -8.4057221389535197E-003   5.1992115191067390E-003
   2.5530444365547189E-002  -7.8703326739923973E-003   5.8762833886892851E-003
   2.3510010374622414E-002  -7.1250549833569155E-003   5.4097415598891030E-003
   2.1489576383697584E-002  -6.1698890670463247E-003   3.7995860327064979E-003
   1.9469142392772865E-002  -5.0048349250610968E-003   1.0458168071407759E-003
   2.4743210475071775E-002  -7.2068198998174182E-003   1.1172975395246310E-002
   2.1848934623157179E-002  -6.6067184737725326E-003   1.2081940590906171E-002
   1.8954658771242597E-002  -5.9928893373070447E-003   1.2386835762968090E-002
   1.6060382919328008E-002  -5.3653324904211278E-003   1.2087660911433901E-002
   1.3166107067413363E-002  -4.7240479331150942E-003   1.1184416036302214E-002
   2.1785856114308173E-002  -6.0079176606813167E-003   1.7309531490096355E-002
   1.8557282076189591E-002  -5.3431042735523071E-003   1.8254229496579039E-002
   1.5328708038071046E-002  -4.8607236912572988E-003   1.9134401154249740E-002
   1.2100133999952431E-002  -4.5607759137959343E-003   1.9950046463109602E-002
   8.8715599618339261E-003  -4.4432609411690360E-003   2.0701165423158682E-002
   1.8678815274181304E-002  -4.8090154215448822E-003   2.3608879803658334E-002
   1.5655486724644452E-002  -4.0794900733323591E-003   2.4393150105708750E-002
   1.2632158175107627E-002  -3.7285580452075806E-003   2.5652437733733879E-002
   9.6088296255707750E-003  -3.7562193371709698E-003   2.7386742687733695E-002
   6.5855010760339505E-003  -4.1624739492229779E-003   2.9596064967708058E-002
   2.7780665937911952E-002  -5.2856219170072105E-003  -9.7146322643271166E-003
   2.3354044450334066E-002  -4.2065406625675372E-003  -4.1877790009456906E-003
   1.8927422962756124E-002  -4.7529930935045761E-003   2.6036855239204293E-003
   1.4500801475178099E-002  -6.9249792098181467E-003   1.0659761310270188E-002
   1.0074179987600296E-002  -1.0722499011508013E-002   1.9980448358105640E-002
   1.9469142392772865E-002  -5.0048349250610968E-003   1.0458168071407759E-003
   1.6234610937123861E-002  -4.6907062730352500E-003   6.7400006152623648E-003
   1.3000079481474913E-002  -6.2883168266004152E-003   1.3553753225757692E-002
   9.7655480258258542E-003  -9.7976665857576056E-003   2.1487074638626924E-002
   6.5310165701770728E-003  -1.5218755550506557E-002   3.0539964853868451E-002
   1.3166107067413363E-002  -4.7240479331150942E-003   1.1184416036302214E-002
   1.0978623184582564E-002  -5.1748718835022967E-003   1.6759724868949666E-002
   8.7911393017516964E-003  -7.8236405596967262E-003   2.3309560044858596E-002
   6.6036554189208077E-003  -1.2670353961697849E-002   3.0833921564030545E-002
   4.4161715360899745E-003  -1.9715012089505990E-002   3.9332809426465776E-002
   8.8715599618339261E-003  -4.4432609411690360E-003   2.0701165423158682E-002
   7.5860811927101826E-003  -5.6590374939701205E-003   2.5871393760115144E-002
   6.3006024235866022E-003  -9.3589642927928013E-003   3.1871105981223731E-002
   5.0151236544628778E-003  -1.5543041337637478E-002   3.8700302086483701E-002
   3.7296448853391673E-003  -2.4211268628504534E-002   4.6358982075895727E-002
   6.5855010760339505E-003  -4.1624739492229779E-003   2.9596064967708058E-002
   6.0569849615066396E-003  -6.1432031044372781E-003   3.4075007288759784E-002
   5.5284688469793564E-003  -1.0894288025888987E-002   3.9238391034852382E-002
   4.9999527324520870E-003  -1.8415728713577745E-002   4.5086216205985019E-002
   4.4714366179248177E-003  -2.8707525167503523E-002   5.1618482802159527E-002
   7.7826597586944657E-002  -2.4199448379667865E-002   2.6218398809846721E-002
   7.4329063157307418E-002  -2.2480871785252932E-002   2.7139297803657314E-002
   7.0831528727670179E-002  -2.1111044295084438E-002   2.8031956498516059E-002
   6.7333994298032995E-002  -2.0089965909162167E-002   2.8896374894423191E-002
   6.3836459868395784E-002  -1.9417636627486301E-002   2.9732552991378836E-002
   7.2278359536332049E-002  -2.1449742830535523E-002   3.3379513682028239E-002
   6.8829772498824299E-002  -2.0318812652105001E-002   3.3527033675863238E-002
   6.5381185461316604E-002  -1.9352449938921740E-002   3.3800688752908870E-002
   6.1932598423808910E-002  -1.8550654690985859E-002   3.4200478913165369E-002
   5.8484011386301188E-002  -1.7913426908297281E-002   3.4726404156632390E-002
   6.6136213079409562E-002  -1.8700037281403181E-002   3.9860891318726041E-002
   6.2890948816193698E-002  -1.8156753518956931E-002   3.9419213951584459E-002
   5.9645684552977835E-002  -1.7593855582759034E-002   3.9258047049816121E-002
   5.6400420289762034E-002  -1.7011343472809491E-002   3.9377390613420590E-002
   5.3155156026546170E-002  -1.6409217189108261E-002   3.9777244642398180E-002
   5.9400158216177355E-002  -1.5950331732270853E-002   4.5662531719939822E-002
   5.6512592109415595E-002  -1.5994694385808889E-002   4.4815838630820858E-002
   5.3625026002653994E-002  -1.5835261226596332E-002   4.4404031389237236E-002
   5.0737459895892290E-002  -1.5472032254633127E-002   4.4427109995188951E-002
   4.7849893789130578E-002  -1.4905007469919240E-002   4.4885074448675982E-002
   5.2070194946635229E-002  -1.3200626183138497E-002   5.0784434885670082E-002
   4.9694702378490024E-002  -1.3832635252660874E-002   4.9716907713572400E-002
   4.7319209810344875E-002  -1.4076666870433602E-002   4.9238641771172598E-002
   4.4943717242199727E-002  -1.3932721036456756E-002   4.9349637058470452E-002
   4.2568224674054578E-002  -1.3400797750730276E-002   5.0049893575465965E-002
   6.3836459868395784E-002  -1.9417636627486301E-002   2.9732552991378836E-002
   6.2163283305519568E-002  -1.8887092613307316E-002   2.9255751472524516E-002
   6.0490106742643421E-002  -1.8291370029875895E-002   2.8918990431367697E-002
   5.8816930179767239E-002  -1.7630468877192104E-002   2.8722269867908545E-002
   5.7143753616891058E-002  -1.6904389155256161E-002   2.8665589782146950E-002
   5.8484011386301188E-002  -1.7913426908297281E-002   3.4726404156632390E-002
   5.6949585523637075E-002  -1.7343280730123117E-002   3.4319697395367471E-002
   5.5415159660972907E-002  -1.6742730295730632E-002   3.4050451556829189E-002
   5.3880733798308753E-002  -1.6111775605119557E-002   3.3918666641017371E-002
   5.2346307935644626E-002  -1.5450416658290222E-002   3.3924342647932204E-002
   5.3155156026546170E-002  -1.6409217189108261E-002   3.9777244642398180E-002
   5.1756901309123027E-002  -1.5799468846938988E-002   3.9405858325688811E-002
   5.0358646591699932E-002  -1.5194090561585265E-002   3.9169353376734876E-002
   4.8960391874276858E-002  -1.4593082333047012E-002   3.9067729795536646E-002
   4.7562137156853701E-002  -1.3996444161324340E-002   3.9100987582093807E-002
   4.7849893789130578E-002  -1.4905007469919240E-002   4.4885074448675982E-002
   4.6585230661977561E-002  -1.4255656963754880E-002   4.4514234263488120E-002
   4.5320567534824517E-002  -1.3645450827440033E-002   4.4275695891084897E-002
   4.4055904407671487E-002  -1.3074389060974329E-002   4.4169459331466113E-002
   4.2791241280518463E-002  -1.2542471664358401E-002   4.4195524584631912E-002
   4.2568224674054578E-002  -1.3400797750730276E-002   5.0049893575465965E-002
   4.1434573582200623E-002  -1.2711845080570605E-002   4.9644825208765730E-002
   4.0300922490346655E-002  -1.2096811093294690E-002   4.9369479099878960E-002
   3.9167271398492687E-002  -1.1555695788901768E-002   4.9223855248805903E-002
   3.8033620306638732E-002  -1.1088499167392574E-002   4.9207953655546199E-002
   5.7143753616891058E-002  -1.6904389155256161E-002   2.8665589782146950E-002
   5.4510621093700973E-002  -1.6151296854031993E-002   2.8321456628821240E-002
   5.1877488570510860E-002  -1.5409357963483486E-002   2.8195398666271548E-002
   4.9244356047320761E-002  -1.4678572483611058E-002   2.8287415894497264E-002
   4.6611223524130663E-002  -1.3958940414414756E-002   2.8597508313498998E-002
   5.2346307935644626E-002  -1.5450416658290222E-002   3.3924342647932204E-002
   4.9928348042231244E-002  -1.4772845967035958E-002   3.3586014747041232E-002
   4.7510388148817875E-002  -1.4093256043150426E-002   3.3459956914927758E-002
   4.5092428255404514E-002  -1.3411646886633419E-002   3.3546169151592545E-002
   4.2674468361991125E-002  -1.2728018497485172E-002   3.3844651457034913E-002
   4.7562137156853701E-002  -1.3996444161324340E-002   3.9100987582093807E-002
   4.5353544771219306E-002  -1.3394395080040172E-002   3.8781637576944458E-002
   4.3144952385584905E-002  -1.2777154122817304E-002   3.8668752518575093E-002
   4.0936359999950545E-002  -1.2144721289655777E-002   3.8762332406985886E-002
   3.8727767614316122E-002  -1.1497096580555560E-002   3.9062377242176607E-002
   4.2791241280518463E-002  -1.2542471664358401E-002   4.4195524584631912E-002
   4.0786211280665188E-002  -1.2015944193044262E-002   4.3908325118531384E-002
   3.8781181280811941E-002  -1.1461052202484157E-002   4.3821785477213444E-002
   3.6776151280958694E-002  -1.0877795692678025E-002   4.3935905660677337E-002
   3.4771121281105419E-002  -1.0266174663626185E-002   4.4250685668923831E-002
   3.8033620306638732E-002  -1.1088499167392574E-002   4.9207953655546199E-002
   3.6226347570568862E-002  -1.0637493306048407E-002   4.8966077371802141E-002
   3.4419074834498964E-002  -1.0144950282151080E-002   4.8919055790842464E-002
   3.2611802098429080E-002  -9.6108700957004030E-003   4.9066888912667125E-002
   3.0804529362359195E-002  -9.0352527466964760E-003   4.9409576737276417E-002
   4.6611223524130663E-002  -1.3958940414414756E-002   2.8597508313498998E-002
   4.4372793437827573E-002  -1.3237127380131053E-002   2.8196724725966460E-002
   4.2134363351524567E-002  -1.2499799004998105E-002   2.7904233951052432E-002
   3.9895933265221520E-002  -1.1746955289014763E-002   2.7720035988756955E-002
   3.7657503178918528E-002  -1.0978596232181781E-002   2.7644130839080239E-002
   4.2674468361991125E-002  -1.2728018497485172E-002   3.3844651457034913E-002
   4.0554358366710480E-002  -1.2037878525635648E-002   3.3457209199181076E-002
   3.8434248371429808E-002  -1.1336734621015546E-002   3.3198114310753313E-002
   3.6314138376149122E-002  -1.0624586783624313E-002   3.3067366791751623E-002
   3.4194028380868463E-002  -9.9014350134623563E-003   3.3064966642175952E-002
   3.8727767614316122E-002  -1.1497096580555560E-002   3.9062377242176607E-002
   3.6746032266865306E-002  -1.0838629671140243E-002   3.8683764905922194E-002
   3.4764296919414565E-002  -1.0173670237033035E-002   3.8453554495901536E-002
   3.2782561571963839E-002  -9.5022182782339166E-003   3.8371746012114502E-002
   3.0800826224513009E-002  -8.8242737947429317E-003   3.8438339454561182E-002
   3.4771121281105419E-002  -1.0266174663626185E-002   4.4250685668923831E-002
   3.2947815138292119E-002  -9.6393808166448380E-003   4.3876391846189994E-002
   3.1124508995478806E-002  -9.0106058530504442E-003   4.3670554506497289E-002
   2.9301202852665471E-002  -8.3798497728433813E-003   4.3633173649846091E-002
   2.7477896709852189E-002  -7.7471125760236181E-003   4.3764249276235845E-002
   3.0804529362359195E-002  -9.0352527466964760E-003   4.9409576737276417E-002
   2.9159706980990907E-002  -8.4401319621494886E-003   4.9035090019984018E-002
   2.7514884599622563E-002  -7.8475414690679091E-003   4.8849114342540578E-002
   2.5870062218254247E-002  -7.2574812674530004E-003   4.8851649704945765E-002
   2.4225239836885931E-002  -6.6699513573040825E-003   4.9042696107199912E-002
   3.7657503178918528E-002  -1.0978596232181781E-002   2.7644130839080239E-002
   3.5254432712727768E-002  -1.0212628366468524E-002   2.7085046101814669E-002
   3.2851362246536980E-002  -9.4669582238437466E-003   2.6663546253037185E-002
   3.0448291780346179E-002  -8.7415858043088240E-003   2.6379631292747313E-002
   2.8045221314155433E-002  -8.0365111078622986E-003   2.6233301220945471E-002
   3.4194028380868463E-002  -9.9014350134623563E-003   3.3064966642175952E-002
   3.1932319334042919E-002  -9.1793737213638482E-003   3.2563189771489032E-002
   2.9670610287217458E-002  -8.4704973181629201E-003   3.2206550851044902E-002
   2.7408901240391956E-002  -7.7748058038589370E-003   3.1995049880843368E-002
   2.5147192193566453E-002  -7.0922991784535538E-003   3.1928686860884459E-002
   3.0800826224513009E-002  -8.8242737947429317E-003   3.8438339454561182E-002
   2.8688031658807511E-002  -8.1461190762591729E-003   3.8000983284644338E-002
   2.6575237093102076E-002  -7.4740364124814274E-003   3.7716318126725157E-002
   2.4462442527396665E-002  -6.8080258034099381E-003   3.7584343980803375E-002
   2.2349647961691144E-002  -6.1480872490446425E-003   3.7605060846879035E-002
   2.7477896709852189E-002  -7.7471125760236181E-003   4.3764249276235845E-002
   2.5521569687021545E-002  -7.1128644311543865E-003   4.3398426641280505E-002
   2.3565242664190932E-002  -6.4775755068003787E-003   4.3192848080077388E-002
   2.1608915641360329E-002  -5.8412458029606061E-003   4.3147513592626946E-002
   1.9652588618529726E-002  -5.2038753196358700E-003   4.3262423178928491E-002
   2.4225239836885931E-002  -6.6699513573040825E-003   4.9042696107199912E-002
   2.2432933418684964E-002  -6.0796097860498222E-003   4.8755519841397699E-002
   2.0640627000483955E-002  -5.4811146011190803E-003   4.8636140711102505E-002
   1.8848320582282967E-002  -4.8744658025113227E-003   4.8684558716314219E-002
   1.7056014164082006E-002  -4.2596633902268755E-003   4.8900773857033286E-002
   2.8045221314155433E-002  -8.0365111078622986E-003   2.6233301220945471E-002
   2.5703619804161915E-002  -7.3135982512915199E-003   2.5664800559697110E-002
   2.3362018294168341E-002  -6.5347113513813393E-003   2.5037896769733337E-002
   2.1020416784174822E-002  -5.6998504081325757E-003   2.4352589851053624E-002
   1.8678815274181304E-002  -4.8090154215448822E-003   2.3608879803658334E-002
   2.5147192193566453E-002  -7.0922991784535538E-003   3.1928686860884459E-002
   2.2786897160184172E-002  -6.4098799169378107E-003   3.1534872795905222E-002
   2.0426602126802001E-002  -5.7144504943046903E-003   3.1162074812864121E-002
   1.8066307093419755E-002  -5.0060109105540956E-003   3.0810292911761350E-002
   1.5706012060037550E-002  -4.2845611656856519E-003   3.0479527092597325E-002
   2.2349647961691144E-002  -6.1480872490446425E-003   3.7605060846879035E-002
   2.0050078615574271E-002  -5.5061615825845456E-003   3.7342969495947176E-002
   1.7750509269457510E-002  -4.8941896372279581E-003   3.7181313437607694E-002
   1.5450939923340651E-002  -4.3121714129752894E-003   3.7120092671860630E-002
   1.3151370577223861E-002  -3.7601069098263662E-003   3.7159307198705943E-002
   1.9652588618529726E-002  -5.2038753196358700E-003   4.3262423178928491E-002
   1.7493164170332177E-002  -4.6024432482309474E-003   4.3089090659823095E-002
   1.5333739722134719E-002  -4.0739287801510454E-003   4.3095612643963811E-002
   1.3174315273937240E-002  -3.6183319153964798E-003   4.3281989131351048E-002
   1.1014890825739768E-002  -3.2356526539671082E-003   4.3648220121984903E-002
   1.7056014164082006E-002  -4.2596633902268755E-003   4.8900773857033286E-002
   1.5116153824457912E-002  -3.6987249138776268E-003   4.8773236287532606E-002
   1.3176293484833804E-002  -3.2536679230744381E-003   4.8904972431932869E-002
   1.1236433145209730E-002  -2.9244924178179130E-003   4.9295982290232909E-002
   9.2965728055856567E-003  -2.7111983981077392E-003   4.9946265862433892E-002
   1.8678815274181304E-002  -4.8090154215448822E-003   2.3608879803658334E-002
   1.5655486724644452E-002  -4.0794900733323591E-003   2.4393150105708750E-002
   1.2632158175107627E-002  -3.7285580452075806E-003   2.5652437733733879E-002
   9.6088296255707750E-003  -3.7562193371709698E-003   2.7386742687733695E-002
   6.5855010760339505E-003  -4.1624739492229779E-003   2.9596064967708058E-002
   1.5706012060037550E-002  -4.2845611656856519E-003   3.0479527092597325E-002
   1.3138961318579112E-002  -3.7744336304610937E-003   3.1256095657834437E-002
   1.0571910577120675E-002  -3.6999606756420722E-003   3.2470202513254359E-002
   8.0048598356622647E-003  -4.0611423012280115E-003   3.4121847658855661E-002
   5.4378090942037993E-003  -4.8579785072194737E-003   3.6211031094639412E-002
   1.3151370577223861E-002  -3.7601069098263662E-003   3.7159307198705943E-002
   1.1003118608051171E-002  -3.4693771875904666E-003   3.7871112766813209E-002
   8.8548666388784947E-003  -3.6713633060766609E-003   3.8982977589310117E-002
   6.7066146697057974E-003  -4.3660652652853828E-003   4.0494901666196313E-002
   4.5583627005331279E-003  -5.5534830652159695E-003   4.2406884997471916E-002
   1.1014890825739768E-002  -3.2356526539671082E-003   4.3648220121984903E-002
   9.2479585930603028E-003  -3.1643207447194094E-003   4.4238201432645154E-002
   7.4810263603809213E-003  -3.6427659365113121E-003   4.5190762961902081E-002
   5.7140941277014860E-003  -4.6709882293420341E-003   4.6505904709755935E-002
   3.9471618950220784E-003  -6.2489876232124653E-003   4.8183626676207389E-002
   9.2965728055856567E-003  -2.7111983981077392E-003   4.9946265862433892E-002
   7.8734812736068749E-003  -2.8592643018486852E-003   5.0357361655329780E-002
   6.4503897416280653E-003  -3.6141685669458523E-003   5.1093558631030267E-002
   5.0272982096492974E-003  -4.9759111933996569E-003   5.2154856789534909E-002
   3.6042066776705295E-003  -6.9444921812090721E-003   5.3541256130844261E-002
   6.5855010760339505E-003  -4.1624739492229779E-003   2.9596064967708058E-002
   6.0569849615066396E-003  -6.1432031044372781E-003   3.4075007288759784E-002
   5.5284688469793564E-003  -1.0894288025888987E-002   3.9238391034852382E-002
   4.9999527324520870E-003  -1.8415728713577745E-002   4.5086216205985019E-002
   4.4714366179248177E-003  -2.8707525167503523E-002   5.1618482802159527E-002
   5.4378090942037993E-003  -4.8579785072194737E-003   3.6211031094639412E-002
   5.4901102172123795E-003  -6.9910811976550136E-003   3.8350977738984993E-002
   5.5424113402208902E-003  -1.1361062276573547E-002   4.0968117433361262E-002
   5.5947124632294495E-003  -1.7967921743975469E-002   4.4062450177768858E-002
   5.6470135862379811E-003  -2.6811659599860871E-002   4.7633975972205977E-002
   4.5583627005331279E-003  -5.5534830652159695E-003   4.2406884997471916E-002
   4.9842326860674024E-003  -7.8389592908724159E-003   4.2741313342865933E-002
   5.4101026716015868E-003  -1.1827836527258218E-002   4.3345686363280317E-002
   5.8359726571357469E-003  -1.7520114774373416E-002   4.4220004058715179E-002
   6.2618426426700458E-003  -2.4915794032218219E-002   4.5364266429171018E-002
   3.9471618950220784E-003  -6.2489876232124653E-003   4.8183626676207389E-002
   4.5393523680718195E-003  -8.6868373840894297E-003   4.7246014100402710E-002
   5.1315428411216144E-003  -1.2294610777942833E-002   4.6371097824609048E-002
   5.7237333141713547E-003  -1.7072307804771807E-002   4.5558877848825820E-002
   6.3159237872211504E-003  -2.3019928464575456E-002   4.4809354173053068E-002
   3.6042066776705295E-003  -6.9444921812090721E-003   5.3541256130844261E-002
   4.1554692632256307E-003  -9.5347154773072207E-003   5.1865080011595954E-002
   4.7067318487807597E-003  -1.2761385028627420E-002   5.0044351817347510E-002
   5.2579944343358193E-003  -1.6624500835169191E-002   4.8079071548099844E-002
   5.8092570198909899E-003  -2.1124062896932916E-002   4.5969239203852208E-002
   5.2070194946635229E-002  -1.3200626183138497E-002   5.0784434885670082E-002
   4.9694702378490024E-002  -1.3832635252660874E-002   4.9716907713572400E-002
   4.7319209810344875E-002  -1.4076666870433602E-002   4.9238641771172598E-002
   4.4943717242199727E-002  -1.3932721036456756E-002   4.9349637058470452E-002
   4.2568224674054578E-002  -1.3400797750730276E-002   5.0049893575465965E-002
   4.4747979759836048E-002  -1.2407444755266561E-002   5.1553574845007388E-002
   4.2888223456247182E-002  -1.2572712385131218E-002   5.1325243267258180E-002
   4.1028467152658205E-002  -1.2519325491358008E-002   5.1539122988923408E-002
   3.9168710849069290E-002  -1.2247284073946894E-002   5.2195214010003405E-002
   3.7308954545480361E-002  -1.1756588132897927E-002   5.3293516330498419E-002
   3.8035169144832820E-002  -1.1614263327394653E-002   5.2874117708058582E-002
   3.6544099175517174E-002  -1.1312789517601590E-002   5.3315658796545512E-002
   3.5053029206201555E-002  -1.0961984112282372E-002   5.4052361254164266E-002
   3.3561959236885916E-002  -1.0561847111436953E-002   5.5084225080914935E-002
   3.2070889267570304E-002  -1.0112378515065440E-002   5.6411250276797553E-002
   3.1931763101625203E-002  -1.0821081899522744E-002   5.4746063474823199E-002
   3.0662329536300034E-002  -1.0052866650072004E-002   5.5688154301434763E-002
   2.9392895970974820E-002  -9.4046427332067570E-003   5.6778356566895394E-002
   2.8123462405649592E-002  -8.8764101489270785E-003   5.8016670271204773E-002
   2.6854028840324402E-002  -8.4681688972329666E-003   5.9403095414363269E-002
   2.6437761630213524E-002  -1.0027900471650808E-002   5.7169412145301413E-002
   2.5242914538595784E-002  -8.7929437825423062E-003   5.8442729781925939E-002
   2.4048067446978072E-002  -7.8473013541311282E-003   5.9717108927116486E-002
   2.2853220355360339E-002  -7.1909731864170899E-003   6.0992549580873176E-002
   2.1658373263742620E-002  -6.8239592794005488E-003   6.2269051743195747E-002
   4.2568224674054578E-002  -1.3400797750730276E-002   5.0049893575465965E-002
   4.1434573582200623E-002  -1.2711845080570605E-002   4.9644825208765730E-002
   4.0300922490346655E-002  -1.2096811093294690E-002   4.9369479099878960E-002
   3.9167271398492687E-002  -1.1555695788901768E-002   4.9223855248805903E-002
   3.8033620306638732E-002  -1.1088499167392574E-002   4.9207953655546199E-002
   3.7308954545480361E-002  -1.1756588132897927E-002   5.3293516330498419E-002
   3.6304317160742519E-002  -1.1181186812859373E-002   5.2847363039493417E-002
   3.5299679776004692E-002  -1.0655029258479928E-002   5.2529514904907371E-002
   3.4295042391266836E-002  -1.0178115469759216E-002   5.2339971926739795E-002
   3.3290405006529009E-002  -9.7504454466975088E-003   5.2278734104990898E-002
   3.2070889267570304E-002  -1.0112378515065440E-002   5.6411250276797553E-002
   3.1193848488553638E-002  -9.6505285451479461E-003   5.5948686978712692E-002
   3.0316807709536951E-002  -9.2132474236650552E-003   5.5613011735651488E-002
   2.9439766930520278E-002  -8.8005351506164967E-003   5.5404224547613901E-002
   2.8562726151503598E-002  -8.4123917260024161E-003   5.5322325414600179E-002
   2.6854028840324402E-002  -8.4681688972329666E-003   5.9403095414363269E-002
   2.6103167565633932E-002  -8.1198702774365333E-003   5.8948797026422833E-002
   2.5352306290943479E-002  -7.7714655888502376E-003   5.8619969592111153E-002
   2.4601445016253012E-002  -7.4229548314736944E-003   5.8416613111428192E-002
   2.3850583741562559E-002  -7.0743380053073096E-003   5.8338727584373973E-002
   2.1658373263742620E-002  -6.8239592794005488E-003   6.2269051743195747E-002
   2.1032274391983422E-002  -6.5892120097253148E-003   6.1847693182624258E-002
   2.0406175520224237E-002  -6.3296837540353923E-003   6.1550388474286621E-002
   1.9780076648465046E-002  -6.0453745123310795E-003   6.1377137618182781E-002
   1.9153977776705855E-002  -5.7362842846122031E-003   6.1327940614312848E-002
   3.8033620306638732E-002  -1.1088499167392574E-002   4.9207953655546199E-002
   3.6226347570568862E-002  -1.0637493306048407E-002   4.8966077371802141E-002
   3.4419074834498964E-002  -1.0144950282151080E-002   4.8919055790842464E-002
   3.2611802098429080E-002  -9.6108700957004030E-003   4.9066888912667125E-002
   3.0804529362359195E-002  -9.0352527466964760E-003   4.9409576737276417E-002
   3.3290405006529009E-002  -9.7504454466975088E-003   5.2278734104990898E-002
   3.1681347324945736E-002  -9.3326686262489023E-003   5.2091251879526207E-002
   3.0072289643362511E-002  -8.8854344453675460E-003   5.2105345060250441E-002
   2.8463231961779262E-002  -8.4087429040534539E-003   5.2321013647163309E-002
   2.6854174280196014E-002  -7.9025940023066954E-003   5.2738257640265240E-002
   2.8562726151503598E-002  -8.4123917260024161E-003   5.5322325414600179E-002
   2.7158604227811370E-002  -8.0278439464494256E-003   5.5177157445294583E-002
   2.5754482304119093E-002  -7.6259186085841715E-003   5.5240285585582131E-002
   2.4350360380426841E-002  -7.2066157124066142E-003   5.5511709835462622E-002
   2.2946238456734588E-002  -6.7699352579168592E-003   5.5991430194936437E-002
   2.3850583741562559E-002  -7.0743380053073096E-003   5.8338727584373973E-002
   2.2658118279165626E-002  -6.7230192666498240E-003   5.8223794069106966E-002
   2.1465652816768696E-002  -6.3664027718008838E-003   5.8323877366837425E-002
   2.0273187354371777E-002  -6.0044885207596642E-003   5.8638977477565586E-002
   1.9080721891974860E-002  -5.6372765135269398E-003   5.9169094401290812E-002
   1.9153977776705855E-002  -5.7362842846122031E-003   6.1327940614312848E-002
   1.8179889479008587E-002  -5.4181945868504722E-003   6.1231161750963714E-002
   1.7205801181311348E-002  -5.1068869350172769E-003   6.1356120404016501E-002
   1.6231712883614101E-002  -4.8023613291127178E-003   6.1702816573471195E-002
   1.5257624585916840E-002  -4.5046177691371314E-003   6.2271250259327782E-002
   3.0804529362359195E-002  -9.0352527466964760E-003   4.9409576737276417E-002
   2.9159706980990907E-002  -8.4401319621494886E-003   4.9035090019984018E-002
   2.7514884599622563E-002  -7.8475414690679091E-003   4.8849114342540578E-002
   2.5870062218254247E-002  -7.2574812674530004E-003   4.8851649704945765E-002
   2.4225239836885931E-002  -6.6699513573040825E-003   4.9042696107199912E-002
   2.6854174280196014E-002  -7.9025940023066954E-003   5.2738257640265240E-002
   2.5400599872509921E-002  -7.3803735588370556E-003   5.2409004831281608E-002
   2.3947025464823815E-002  -6.8554673923540005E-003   5.2273736929813325E-002
   2.2493451057137702E-002  -6.3278755028579638E-003   5.2332453935861209E-002
   2.1039876649451617E-002  -5.7975978903487269E-003   5.2585155849424525E-002
   2.2946238456734588E-002  -6.7699352579168592E-003   5.5991430194936437E-002
   2.1689385890397539E-002  -6.3206151555248724E-003   5.5712627308740867E-002
   2.0432533324060510E-002  -5.8633933156399809E-003   5.5633283197727729E-002
   1.9175680757723499E-002  -5.3982697382629272E-003   5.5753397861896981E-002
   1.7918828191386439E-002  -4.9252444233934822E-003   5.6072971301248969E-002
   1.9080721891974860E-002  -5.6372765135269398E-003   5.9169094401290812E-002
   1.8026065034653788E-002  -5.2608567522124533E-003   5.8945957452362308E-002
   1.6971408177332704E-002  -4.8713192389259613E-003   5.8927753146283436E-002
   1.5916751320011621E-002  -4.4686639736678906E-003   5.9114481483053732E-002
   1.4862094462690547E-002  -4.0528909564380711E-003   5.9506142462673529E-002
   1.5257624585916840E-002  -4.5046177691371314E-003   6.2271250259327782E-002
   1.4410637305278598E-002  -4.2010983489004783E-003   6.2108995262145861E-002
   1.3563650024640328E-002  -3.8792451622119695E-003   6.2157146775480232E-002
   1.2716662744002072E-002  -3.5390582090729164E-003   6.2415704799331007E-002
   1.1869675463363816E-002  -3.1805374894828820E-003   6.2884669333697962E-002
   2.4225239836885931E-002  -6.6699513573040825E-003   4.9042696107199912E-002
   2.2432933418684964E-002  -6.0796097860498222E-003   4.8755519841397699E-002
   2.0640627000483955E-002  -5.4811146011190803E-003   4.8636140711102505E-002
   1.8848320582282967E-002  -4.8744658025113227E-003   4.8684558716314219E-002
   1.7056014164082006E-002  -4.2596633902268755E-003   4.8900773857033286E-002
   2.1039876649451617E-002  -5.7975978903487269E-003   5.2585155849424525E-002
   1.9423489743704031E-002  -5.2660510224716295E-003   5.2374419890637458E-002
   1.7807102837956459E-002  -4.7346513668713730E-003   5.2347725821250524E-002
   1.6190715932208867E-002  -4.2033989235485750E-003   5.2505073641263250E-002
   1.4574329026461330E-002  -3.6722936925032146E-003   5.2846463350675998E-002
   1.7918828191386439E-002  -4.9252444233934822E-003   5.6072971301248969E-002
   1.6494605551985085E-002  -4.4524922588932148E-003   5.5930374823523560E-002
   1.5070382912583762E-002  -3.9881881326241236E-003   5.5988064989090772E-002
   1.3646160273182424E-002  -3.5323320445861638E-003   5.6246041797950543E-002
   1.2221937633781065E-002  -3.0849239947793872E-003   5.6704305250103032E-002
   1.4862094462690547E-002  -4.0528909564380711E-003   5.9506142462673529E-002
   1.3646280843528188E-002  -3.6389334953147445E-003   5.9423384640055470E-002
   1.2430467224365842E-002  -3.2417248983767563E-003   5.9557158214623068E-002
   1.1214653605203467E-002  -2.8612651656236953E-003   5.9907463186376048E-002
   9.9988399860411383E-003  -2.4975542970555320E-003   6.0474299555314422E-002
   1.1869675463363816E-002  -3.1805374894828820E-003   6.2884669333697962E-002
   1.0878515618333265E-002  -2.8253747317366629E-003   6.2853449340233680E-002
   9.8873557733027140E-003  -2.4952616641292225E-003   6.3055005497847594E-002
   8.8961959282721631E-003  -2.1901982866609632E-003   6.3489337806539536E-002
   7.9050360832416122E-003  -1.9101845993317879E-003   6.4156446266310008E-002
   1.7056014164082006E-002  -4.2596633902268755E-003   4.8900773857033286E-002
   1.5116153824457912E-002  -3.6987249138776268E-003   4.8773236287532606E-002
   1.3176293484833804E-002  -3.2536679230744381E-003   4.8904972431932869E-002
   1.1236433145209730E-002  -2.9244924178179130E-003   4.9295982290232909E-002
   9.2965728055856567E-003  -2.7111983981077392E-003   4.9946265862433892E-002
   1.4574329026461330E-002  -3.6722936925032146E-003   5.2846463350675998E-002
   1.2891716643551029E-002  -3.1984226087795609E-003   5.2731092484972597E-002
   1.1209104260640701E-002  -2.8388726074228265E-003   5.2870943818796506E-002
   9.5264918777303934E-003  -2.5936436884322761E-003   5.3266017352147713E-002
   7.8438794948200719E-003  -2.4627358518087838E-003   5.3916313085025869E-002
   1.2221937633781065E-002  -3.0849239947793872E-003   5.6704305250103032E-002
   1.0792521693211279E-002  -2.6981203036814672E-003   5.6602661491376660E-002
   9.3631057526414978E-003  -2.4240772917707848E-003   5.6752188417804286E-002
   7.9336898120717109E-003  -2.2627949590468648E-003   5.7152886029385640E-002
   6.5042738715019310E-003  -2.2142733055101060E-003   5.7804754326121199E-002
   9.9988399860411383E-003  -2.4975542970555320E-003   6.0474299555314422E-002
   8.8185689734386584E-003  -2.1978179985836649E-003   6.0387943306744560E-002
   7.6382979608361342E-003  -2.0092819761187361E-003   6.0548706228955432E-002
   6.4580269482336465E-003  -1.9319462296615627E-003   6.0956588321947301E-002
   5.2777559356311302E-003  -1.9658107592114560E-003   6.1611589585719342E-002
   7.9050360832416122E-003  -1.9101845993317879E-003   6.4156446266310008E-002
   6.9698584842331490E-003  -1.6975156934854185E-003   6.4086937931076671E-002
   6.0346808852246719E-003  -1.5944866604670205E-003   6.4260497252250581E-002
   5.0995032862162018E-003  -1.6010975002759553E-003   6.4677124229832073E-002
   4.1643256872077317E-003  -1.7173482129125839E-003   6.5336818863820700E-002
   9.2965728055856567E-003  -2.7111983981077392E-003   4.9946265862433892E-002
   7.8734812736068749E-003  -2.8592643018486852E-003   5.0357361655329780E-002
   6.4503897416280653E-003  -3.6141685669458523E-003   5.1093558631030267E-002
   5.0272982096492974E-003  -4.9759111933996569E-003   5.2154856789534909E-002
   3.6042066776705295E-003  -6.9444921812090721E-003   5.3541256130844261E-002
   7.8438794948200719E-003  -2.4627358518087838E-003   5.3916313085025869E-002
   6.7203129470930628E-003  -2.6457833925750407E-003   5.3854706349932113E-002
   5.5967463993660399E-003  -3.3424206057535433E-003   5.4067048400537943E-002
   4.4731798516390170E-003  -4.5526474913450479E-003   5.4553339236842691E-002
   3.3496133039120080E-003  -6.2764640493490065E-003   5.5313578858846690E-002
   6.5042738715019310E-003  -2.2142733055101060E-003   5.7804754326121199E-002
   5.6290799109214446E-003  -2.4323024833011186E-003   5.7363693751981359E-002
   4.7538859503409234E-003  -3.0706726445615673E-003   5.7145429566435590E-002
   3.8786919897604057E-003  -4.1293837892907720E-003   5.7149961769483726E-002
   3.0034980291799157E-003  -5.6084359174891074E-003   5.7377290361125849E-002
   5.2777559356311302E-003  -1.9658107592114560E-003   6.1611589585719342E-002
   4.5997821650919403E-003  -2.2188215740275574E-003   6.0884323861477053E-002
   3.9218083945527071E-003  -2.7989246833692027E-003   6.0328702128723752E-002
   3.2438346240135163E-003  -3.7061200872366626E-003   5.9944724387459174E-002
   2.5658608534742840E-003  -4.9404077856292361E-003   5.9732390637682868E-002
   4.1643256872077317E-003  -1.7173482129125839E-003   6.5336818863820700E-002
   3.6324197096045674E-003  -2.0053406647534966E-003   6.4416596678419924E-002
   3.1005137320014309E-003  -2.5271767221772545E-003   6.3616866087402080E-002
   2.5686077543982944E-003  -3.2828563851821022E-003   6.2937627090768139E-002
   2.0367017767951301E-003  -4.2723796537693648E-003   6.2378879688516964E-002
   3.6042066776705295E-003  -6.9444921812090721E-003   5.3541256130844261E-002
   4.1554692632256307E-003  -9.5347154773072207E-003   5.1865080011595954E-002
   4.7067318487807597E-003  -1.2761385028627420E-002   5.0044351817347510E-002
   5.2579944343358193E-003  -1.6624500835169191E-002   4.8079071548099844E-002
   5.8092570198909899E-003  -2.1124062896932916E-002   4.5969239203852208E-002
   3.3496133039120080E-003  -6.2764640493490065E-003   5.5313578858846690E-002
   3.7736037344667378E-003  -8.5448017089211903E-003   5.2957211365650736E-002
   4.1975941650214815E-003  -1.1388591899218009E-002   5.0490851637454204E-002
   4.6215845955762808E-003  -1.4807834620238373E-002   4.7914499674257094E-002
   5.0455750261309551E-003  -1.8802529871983387E-002   4.5228155476057630E-002
   3.0034980291799157E-003  -5.6084359174891074E-003   5.7377290361125849E-002
   3.3347761447329663E-003  -7.5548879405352154E-003   5.4401725218480967E-002
   3.6660542602860516E-003  -1.0015798769808168E-002   5.1350727680833250E-002
   3.9973323758391265E-003  -1.2991168405307726E-002   4.8224297748183202E-002
   4.3286104913921597E-003  -1.6480996847033857E-002   4.5022435420531637E-002
   2.5658608534742840E-003  -4.9404077856292361E-003   5.9732390637682868E-002
   2.8389864940243665E-003  -6.5649741721493238E-003   5.6198621570085393E-002
   3.1121121345744508E-003  -8.6430056403984309E-003   5.2623979947484495E-002
   3.3852377751245602E-003  -1.1174502190376993E-002   4.9008465769880355E-002
   3.6583634156745898E-003  -1.4159463822084328E-002   4.5352079037271537E-002
   2.0367017767951301E-003  -4.2723796537693648E-003   6.2378879688516964E-002
   2.2862347823408846E-003  -5.5750604037633211E-003   5.8347900420465337E-002
   2.5357677878866669E-003  -7.2702125109887494E-003   5.4310608437408425E-002
   2.7853007934324145E-003  -9.3578359754460522E-003   5.0267003739346949E-002
   3.0348337989782315E-003  -1.1837930797134799E-002   4.6217086326279855E-002
   2.6437761630213524E-002  -1.0027900471650808E-002   5.7169412145301413E-002
   2.5242914538595784E-002  -8.7929437825423062E-003   5.8442729781925939E-002
   2.4048067446978072E-002  -7.8473013541311282E-003   5.9717108927116486E-002
   2.2853220355360339E-002  -7.1909731864170899E-003   6.0992549580873176E-002
   2.1658373263742620E-002  -6.8239592794005488E-003   6.2269051743195747E-002
   2.0868009802087625E-002  -6.3206018632298577E-003   6.1912839550599508E-002
   1.9748888533100556E-002  -5.7251186888635786E-003   6.2284768972889648E-002
   1.8629767264113480E-002  -5.2706157401496839E-003   6.2807088531875138E-002
   1.7510645995126421E-002  -4.9570930170881565E-003   6.3479798227555909E-002
   1.6391524726139348E-002  -4.7845505196791593E-003   6.4302898059931779E-002
   1.4537352688737633E-002  -2.6133032548089075E-003   6.5942626423633147E-002
   1.3643285870510453E-002  -2.6572935951847121E-003   6.5561501666633784E-002
   1.2749219052283271E-002  -2.6939301261681911E-003   6.5480095674458949E-002
   1.1855152234056089E-002  -2.7232128477591971E-003   6.5698408447108531E-002
   1.0961085415828901E-002  -2.7451417599578531E-003   6.6216439984582681E-002
   7.4457902901635103E-003   1.0939953536120289E-003   6.9258772764401982E-002
   6.9261065508254664E-003   4.1053149849409887E-004   6.8272927863158070E-002
   6.4064228114874009E-003  -1.1724451218669482E-004   6.7736130354867655E-002
   5.8867390721493423E-003  -4.8933267843016739E-004   6.7648380239531167E-002
   5.3670553328112880E-003  -7.0573300023653307E-004   6.8009677517148370E-002
  -4.0667739363470234E-004   4.8012939620329931E-003   7.1861278572906528E-002
  -4.0264942595440861E-004   3.4783565921728543E-003   7.0419047562462589E-002
  -3.9862145827410447E-004   2.4594411017947598E-003   6.9575192573101602E-002
  -3.9459349059380207E-004   1.7445474908987409E-003   6.9329713604823665E-002
  -3.9056552291350313E-004   1.3336757594847870E-003   6.9682610657628763E-002
   2.1658373263742620E-002  -6.8239592794005488E-003   6.2269051743195747E-002
   2.1032274391983422E-002  -6.5892120097253148E-003   6.1847693182624258E-002
   2.0406175520224237E-002  -6.3296837540353923E-003   6.1550388474286621E-002
   1.9780076648465046E-002  -6.0453745123310795E-003   6.1377137618182781E-002
   1.9153977776705855E-002  -5.7362842846122031E-003   6.1327940614312848E-002
   1.6391524726139348E-002  -4.7845505196791593E-003   6.4302898059931779E-002
   1.5901019680222901E-002  -4.6682042162039111E-003   6.3756173112161876E-002
   1.5410514634306469E-002  -4.5232700749437485E-003   6.3356581963843708E-002
   1.4920009588390029E-002  -4.3497480958988328E-003   6.3104124614977192E-002
   1.4429504542473597E-002  -4.1476382790689992E-003   6.2998801065562410E-002
   1.0961085415828901E-002  -2.7451417599578531E-003   6.6216439984582681E-002
   1.0629254142973145E-002  -2.7471964226826878E-003   6.5548155501384653E-002
   1.0297422870117392E-002  -2.7168563958522712E-003   6.5050084764856145E-002
   9.9655915972616405E-003  -2.6541216794666415E-003   6.4722227774997421E-002
   9.6337603244058892E-003  -2.5589922735257120E-003   6.4564584531808231E-002
   5.3670553328112880E-003  -7.0573300023653307E-004   6.8009677517148370E-002
   5.2169777802341510E-003  -8.2618862916142982E-004   6.7223640350292532E-002
   5.0669002276570252E-003  -9.1044271676059968E-004   6.6630896877324222E-002
   4.9168226750798908E-003  -9.5849526303436704E-004   6.6231447098243454E-002
   4.7667451225027625E-003  -9.7034626798246648E-004   6.6025291013050436E-002
  -3.9056552291350313E-004   1.3336757594847870E-003   6.9682610657628763E-002
  -3.3580940799407544E-004   1.0948191643599392E-003   6.8782627658885431E-002
  -2.8105329307464948E-004   8.9597096233083595E-004   6.8099018301247677E-002
  -2.2629717815522352E-004   7.3713115339782073E-004   6.7631782584715458E-002
  -1.7154106323579582E-004   6.1829973756077905E-004   6.7380920509288678E-002
   1.9153977776705855E-002  -5.7362842846122031E-003   6.1327940614312848E-002
   1.8179889479008587E-002  -5.4181945868504722E-003   6.1231161750963714E-002
   1.7205801181311348E-002  -5.1068869350172769E-003   6.1356120404016501E-002
   1.6231712883614101E-002  -4.8023613291127178E-003   6.1702816573471195E-002
   1.5257624585916840E-002  -4.5046177691371314E-003   6.2271250259327782E-002
   1.4429504542473597E-002  -4.1476382790689992E-003   6.2998801065562410E-002
   1.3684543404774381E-002  -3.9308060955636770E-003   6.2835178286792748E-002
   1.2939582267075169E-002  -3.7131170164923649E-003   6.2908072311617366E-002
   1.2194621129375941E-002  -3.4945710418550525E-003   6.3217483140036251E-002
   1.1449659991676742E-002  -3.2751681716519099E-003   6.3763410772049112E-002
   9.6337603244058892E-003  -2.5589922735257120E-003   6.4564584531808231E-002
   9.1327056338970716E-003  -2.4434176042768679E-003   6.4341756779112760E-002
   8.6316509433882714E-003  -2.3193470979674460E-003   6.4370225117203778E-002
   8.1305962528794625E-003  -2.1867807545972746E-003   6.4649989546081435E-002
   7.6295415623706536E-003  -2.0457185741666328E-003   6.5181050065745594E-002
   4.7667451225027625E-003  -9.7034626798246648E-004   6.6025291013050436E-002
   4.5243761663767146E-003  -9.5602911299020460E-004   6.5750897227923571E-002
   4.2820072102506780E-003  -9.2557717944241960E-004   6.5742578820775666E-002
   4.0396382541246327E-003  -8.7899046733955297E-004   6.6000335791606760E-002
   3.7972692979985935E-003  -8.1626897668127252E-004   6.6524168140416673E-002
  -1.7154106323579582E-004   6.1829973756077905E-004   6.7380920509288678E-002
  -1.4044499778671088E-004   5.3135937829668078E-004   6.7062599633225195E-002
  -1.0934893233761900E-004   4.6819273908260683E-004   6.7025133422333127E-002
  -7.8252866888527117E-005   4.2879981991822413E-004   6.7268521876612308E-002
  -4.7156801439442175E-005   4.1318062080386575E-004   6.7792764996062904E-002
   1.5257624585916840E-002  -4.5046177691371314E-003   6.2271250259327782E-002
   1.4410637305278598E-002  -4.2010983489004783E-003   6.2108995262145861E-002
   1.3563650024640328E-002  -3.8792451622119695E-003   6.2157146775480232E-002
   1.2716662744002072E-002  -3.5390582090729164E-003   6.2415704799331007E-002
   1.1869675463363816E-002  -3.1805374894828820E-003   6.2884669333697962E-002
   1.1449659991676742E-002  -3.2751681716519099E-003   6.3763410772049112E-002
   1.0812880651203463E-002  -3.0518399557824538E-003   6.3601467150558977E-002
   1.0176101310730171E-002  -2.8215179441468397E-003   6.3649532898882116E-002
   9.5393219702568782E-003  -2.5842021367448384E-003   6.3907608017019085E-002
   8.9025426297835997E-003  -2.3398925335766374E-003   6.4375692504969828E-002
   7.6295415623706536E-003  -2.0457185741666328E-003   6.5181050065745594E-002
   7.2025730213597892E-003  -1.9025815626647624E-003   6.5008077849261964E-002
   6.7756044803489075E-003  -1.7637907260815294E-003   6.5044717861889104E-002
   6.3486359393380327E-003  -1.6293460644168124E-003   6.5290970103627693E-002
   5.9216673983271614E-003  -1.4992475776706149E-003   6.5746834574477164E-002
   3.7972692979985935E-003  -8.1626897668127252E-004   6.6524168140416673E-002
   3.5797144157475721E-003  -7.5332316954701550E-004   6.6328827358254794E-002
   3.3621595334965533E-003  -7.0606350801608736E-004   6.6342701664501388E-002
   3.1446046512455328E-003  -6.7448999208853840E-004   6.6565791059156623E-002
   2.9270497689945201E-003  -6.5860262176437034E-004   6.6998095542220346E-002
  -4.7156801439442175E-005   4.1318062080386575E-004   6.7792764996062904E-002
  -5.5695165633161403E-005   3.9593522357084243E-004   6.7563715677537772E-002
  -6.4233529826894509E-005   3.5166371004913266E-004   6.7543484306718971E-002
  -7.2771894020615471E-005   2.8036608023937482E-004   6.7732070883605916E-002
  -8.1310258214346842E-005   1.8204233414154114E-004   6.8129475408199025E-002
   1.1869675463363816E-002  -3.1805374894828820E-003   6.2884669333697962E-002
   1.0878515618333265E-002  -2.8253747317366629E-003   6.2853449340233680E-002
   9.8873557733027140E-003  -2.4952616641292225E-003   6.3055005497847594E-002
   8.8961959282721631E-003  -2.1901982866609632E-003   6.3489337806539536E-002
   7.9050360832416122E-003  -1.9101845993317879E-003   6.4156446266310008E-002
   8.9025426297835997E-003  -2.3398925335766374E-003   6.4375692504969828E-002
   8.1489667873358498E-003  -2.0973855328687008E-003   6.4317713619721217E-002
   7.3953909448881139E-003  -1.8654775328473677E-003   6.4502126588559971E-002
   6.6418151024403918E-003  -1.6441685335124266E-003   6.4928931411486077E-002
   5.8882392599926558E-003  -1.4334585348638740E-003   6.5598128088499963E-002
   5.9216673983271614E-003  -1.4992475776706149E-003   6.5746834574477164E-002
   5.4152912614714895E-003  -1.3693963340007109E-003   6.5676547486896567E-002
   4.9089151246158175E-003  -1.2356934015650689E-003   6.5858267956412725E-002
   4.4025389877601386E-003  -1.0981387803636680E-003   6.6291995983025556E-002
   3.8961628509044596E-003  -9.5673247039623766E-004   6.6977731566734922E-002
   2.9270497689945201E-003  -6.5860262176437034E-004   6.6998095542220346E-002
   2.6774890407401507E-003  -6.4140713513284597E-004   6.6929950941760089E-002
   2.4279283124857831E-003  -6.0590927028293662E-004   6.7123429601406021E-002
   2.1783675842314216E-003  -5.5210902721485391E-004   6.7578531521157573E-002
   1.9288068559770600E-003  -4.8000640592862909E-004   6.8295256701015078E-002
  -8.1310258214346842E-005   1.8204233414154114E-004   6.8129475408199025E-002
  -6.4439874858157609E-005   8.6582063735185510E-005   6.8077923984311728E-002
  -4.7569491501961436E-005   2.3874860999140157E-005   6.8297611523539470E-002
  -3.0699108145763529E-005  -6.0792740663034861E-006   6.8788538025882279E-002
  -1.3828724789576030E-005  -3.2803414607984749E-006   6.9550703491340515E-002
   7.9050360832416122E-003  -1.9101845993317879E-003   6.4156446266310008E-002
   6.9698584842331490E-003  -1.6975156934854185E-003   6.4086937931076671E-002
   6.0346808852246719E-003  -1.5944866604670205E-003   6.4260497252250581E-002
   5.0995032862162018E-003  -1.6010975002759553E-003   6.4677124229832073E-002
   4.1643256872077317E-003  -1.7173482129125839E-003   6.5336818863820700E-002
   5.8882392599926558E-003  -1.4334585348638740E-003   6.5598128088499963E-002
   5.1938305023207926E-003  -1.2700438458947971E-003   6.5454225606606853E-002
   4.4994217446489362E-003  -1.1906207755972564E-003   6.5548793150979723E-002
   3.8050129869770695E-003  -1.1951893239712727E-003   6.5881830721618184E-002
   3.1106042293052166E-003  -1.2837494910170610E-003   6.6453338318522792E-002
   3.8961628509044596E-003  -9.5673247039623766E-004   6.6977731566734922E-002
   3.4379253044276303E-003  -8.4257199830389817E-004   6.6785083192338002E-002
   2.9796877579507941E-003  -7.8675489072727034E-004   6.6826307214065628E-002
   2.5214502114739700E-003  -7.8928114766647905E-004   6.7101403631917564E-002
   2.0632126649971286E-003  -8.5015076912148269E-004   6.7610372445893546E-002
   1.9288068559770600E-003  -4.8000640592862909E-004   6.8295256701015078E-002
   1.7021428905536623E-003  -4.1510015071291595E-004   6.8079510688270617E-002
   1.4754789251302646E-003  -3.8288900585745078E-004   6.8093039441508615E-002
   1.2488149597068674E-003  -3.8337297136162990E-004   6.8335842960729365E-002
   1.0221509942834692E-003  -4.1655204722593209E-004   6.8807921245932879E-002
  -1.3828724789576030E-005  -3.2803414607984749E-006   6.9550703491340515E-002
  -1.3516739301132341E-005   1.2371696877622185E-005   6.9337508094403977E-002
  -1.3204753812678244E-005   2.0976879012507554E-005   6.9348989833308727E-002
  -1.2892768324229351E-005   2.2535204942726594E-005   6.9585148708054073E-002
  -1.2580782835780457E-005   1.7046674669618511E-005   7.0045984718640764E-002
   4.1643256872077317E-003  -1.7173482129125839E-003   6.5336818863820700E-002
   3.6324197096045674E-003  -2.0053406647534966E-003   6.4416596678419924E-002
   3.1005137320014309E-003  -2.5271767221772545E-003   6.3616866087402080E-002
   2.5686077543982944E-003  -3.2828563851821022E-003   6.2937627090768139E-002
   2.0367017767951301E-003  -4.2723796537693648E-003   6.2378879688516964E-002
   3.1106042293052166E-003  -1.2837494910170610E-003   6.6453338318522792E-002
   2.7024775577678267E-003  -1.5016253225647591E-003   6.5338492080441402E-002
   2.2943508862304507E-003  -1.8941408644448099E-003   6.4350712860107767E-002
   1.8862242146930608E-003  -2.4612961166570121E-003   6.3490000657522486E-002
   1.4780975431556848E-003  -3.2030910792011369E-003   6.2756355472684988E-002
   2.0632126649971286E-003  -8.5015076912148269E-004   6.7610372445893546E-002
   1.7854407228901428E-003  -9.9790998037549428E-004   6.6360106050381423E-002
   1.5076687807831467E-003  -1.2611050067123791E-003   6.5243482095981867E-002
   1.2298968386761540E-003  -1.6397358481313705E-003   6.4260500582695140E-002
   9.5212489656916477E-004  -2.1338025046332421E-003   6.3411161510521341E-002
   1.0221509942834692E-003  -4.1655204722593209E-004   6.8807921245932879E-002
   8.8130920497149143E-004  -4.9419463818627107E-004   6.7481438588239739E-002
   7.4046741565951969E-004  -6.2806914898010796E-004   6.6295173795023837E-002
   5.9962562634754534E-004  -8.1817557960611569E-004   6.5249126866285284E-002
   4.5878383703558401E-004  -1.0645139300652917E-003   6.4343297802024288E-002
  -1.2580782835780457E-005   1.7046674669618511E-005   7.0045984718640764E-002
  -9.9169959881101333E-006   9.5207040025080403E-006   6.8702489694016378E-002
  -7.2532091404259313E-006   4.9667087525517850E-006   6.7505787957234054E-002
  -4.5894222927434641E-006   3.3846889192640228E-006   6.6455879508293680E-002
  -1.9256354450714053E-006   4.7746445028806761E-006   6.5552764347194925E-002
   2.0367017767951301E-003  -4.2723796537693648E-003   6.2378879688516964E-002
   2.2862347823408846E-003  -5.5750604037633211E-003   5.8347900420465337E-002
   2.5357677878866669E-003  -7.2702125109887494E-003   5.4310608437408425E-002
   2.7853007934324145E-003  -9.3578359754460522E-003   5.0267003739346949E-002
   3.0348337989782315E-003  -1.1837930797134799E-002   4.6217086326279855E-002
   1.4780975431556848E-003  -3.2030910792011369E-003   6.2756355472684988E-002
   1.7072726626342627E-003  -4.1794728050179031E-003   5.8400460033902757E-002
   1.9364477821128406E-003  -5.4503883470451986E-003   5.4010161537990709E-002
   2.1656229015914012E-003  -7.0158377052844251E-003   4.9585459984948843E-002
   2.3947980210699826E-003  -8.8758208797350413E-003   4.5126355374778715E-002
   9.5212489656916477E-004  -2.1338025046332421E-003   6.3411161510521341E-002
   1.1328517878561109E-003  -2.7838852062720965E-003   5.8828287442027588E-002
   1.3135786791430570E-003  -3.6305641831017310E-003   5.4182919974280624E-002
   1.4943055704300153E-003  -4.6738394351230131E-003   4.9475059107279770E-002
   1.6750324617169354E-003  -5.9137109623352835E-003   4.4704704841024512E-002
   4.5878383703558401E-004  -1.0645139300652917E-003   6.4343297802024288E-002
   5.6297215800646914E-004  -1.3882976075262621E-003   5.9631382644840719E-002
   6.6716047897736122E-004  -1.8107400191582218E-003   5.4828883746278805E-002
   7.7134879994824245E-004  -2.3318411649612715E-003   4.9935801106338787E-002
   8.7553712091916619E-004  -2.9516010449356367E-003   4.4952134725020243E-002
  -1.9256354450714053E-006   4.7746445028806761E-006   6.5552764347194925E-002
  -2.3662269146712545E-006   7.2899912190171889E-006   6.0809745642341206E-002
  -2.8068183842745731E-006   9.0841447853429180E-006   5.5948052853984742E-002
  -3.2474098538917695E-006   1.0157105199928851E-005   5.0967685982125310E-002
  -3.6880013234846798E-006   1.0508872464232155E-005   4.5868645026763577E-002
  -4.0667739363470234E-004   4.8012939620329931E-003   7.1861278572906528E-002
  -4.0264942595440861E-004   3.4783565921728543E-003   7.0419047562462589E-002
  -3.9862145827410447E-004   2.4594411017947598E-003   6.9575192573101602E-002
  -3.9459349059380207E-004   1.7445474908987409E-003   6.9329713604823665E-002
  -3.9056552291350313E-004   1.3336757594847870E-003   6.9682610657628763E-002
  -8.1895436113856059E-003   4.0969642315312194E-003   6.5939596778499504E-002
  -7.6648497661971002E-003   3.4113956260359013E-003   6.5546600978474617E-002
  -7.1401559210085806E-003   2.8754794144085771E-003   6.5596560912383348E-002
  -6.6154620758200706E-003   2.4892155966494203E-003   6.6089476580225404E-002
  -6.0907682306315554E-003   2.2526041727583546E-003   6.7025347982000882E-002
  -1.5072301611817775E-002   3.3926345010294456E-003   6.0732468491264333E-002
  -1.4182362176270571E-002   3.3444346598988511E-003   6.1234338416044504E-002
  -1.3292422740723373E-002   3.2915177270224152E-003   6.2023743787608811E-002
  -1.2402483305176166E-002   3.2338837024000981E-003   6.3100684605956955E-002
  -1.1512543869628973E-002   3.1715325860318389E-003   6.4465160871088931E-002
  -2.1054951394931191E-002   2.6883047705276580E-003   5.6239893711201125E-002
  -1.9955186656174843E-002   3.2774736937618495E-003   5.7482259875172449E-002
  -1.8855421917418468E-002   3.7075560396361319E-003   5.8856741198778130E-002
  -1.7755657178662104E-002   3.9785518081507489E-003   6.0363337682018250E-002
  -1.6655892439905735E-002   4.0904609993052815E-003   6.2002049324892783E-002
  -2.6137492960725872E-002   1.9839750400258982E-003   5.2461872438309409E-002
  -2.4983323205909867E-002   3.2105127276248480E-003   5.4290365355857961E-002
  -2.3829153451093876E-002   4.1235943522499735E-003   5.6095553145891180E-002
  -2.2674983696277871E-002   4.7232199139013893E-003   5.7877435808409358E-002
  -2.1520813941461870E-002   5.0093894125788352E-003   5.9636013343412508E-002
  -3.9056552291350313E-004   1.3336757594847870E-003   6.9682610657628763E-002
  -3.3580940799407544E-004   1.0948191643599392E-003   6.8782627658885431E-002
  -2.8105329307464948E-004   8.9597096233083595E-004   6.8099018301247677E-002
  -2.2629717815522352E-004   7.3713115339782073E-004   6.7631782584715458E-002
  -1.7154106323579582E-004   6.1829973756077905E-004   6.7380920509288678E-002
  -6.0907682306315554E-003   2.2526041727583546E-003   6.7025347982000882E-002
  -5.8397328500155426E-003   2.0961132528813098E-003   6.6408996180197327E-002
  -5.5886974693995367E-003   1.9502109471641466E-003   6.5968829268681278E-002
  -5.3376620887835274E-003   1.8148972556071737E-003   6.5704847247452985E-002
  -5.0866267081675180E-003   1.6901721782102141E-003   6.5617050116512199E-002
  -1.1512543869628973E-002   3.1715325860318389E-003   6.4465160871088931E-002
  -1.1105417974134248E-002   3.0974073414026804E-003   6.4103020487289025E-002
  -1.0698292078639544E-002   3.0044509319975196E-003   6.3876876242958930E-002
  -1.0291166183144828E-002   2.8926633578165283E-003   6.3786728138098631E-002
  -9.8840402876501105E-003   2.7620446188595382E-003   6.3832576172708017E-002
  -1.6655892439905735E-002   4.0904609993052815E-003   6.2002049324892783E-002
  -1.6132864780350205E-002   4.0987014299239954E-003   6.1864700580160650E-002
  -1.5609837120794671E-002   4.0586909168308614E-003   6.1823159224080493E-002
  -1.5086809461239132E-002   3.9704294600258266E-003   6.1877425256652151E-002
  -1.4563781801683605E-002   3.8339170595088623E-003   6.2027498677875714E-002
  -2.1520813941461870E-002   5.0093894125788352E-003   5.9636013343412508E-002
  -2.0922073268663396E-002   5.0999955184454215E-003   5.9694036458812272E-002
  -2.0323332595864919E-002   5.1129309016642172E-003   5.9807678212045995E-002
  -1.9724591923066446E-002   5.0481955622352116E-003   5.9976938603113775E-002
  -1.9125851250267972E-002   4.9057895001582974E-003   6.0201817632015542E-002
  -1.7154106323579582E-004   6.1829973756077905E-004   6.7380920509288678E-002
  -1.4044499778671088E-004   5.3135937829668078E-004   6.7062599633225195E-002
  -1.0934893233761900E-004   4.6819273908260683E-004   6.7025133422333127E-002
  -7.8252866888527117E-005   4.2879981991822413E-004   6.7268521876612308E-002
  -4.7156801439442175E-005   4.1318062080386575E-004   6.7792764996062904E-002
  -5.0866267081675180E-003   1.6901721782102141E-003   6.5617050116512199E-002
  -4.7861797646407411E-003   1.5756905648258712E-003   6.5421733535761972E-002
  -4.4857328211139694E-003   1.4711072653068036E-003   6.5484264045995694E-002
  -4.1852858775871917E-003   1.3764222796532749E-003   6.5804641647213613E-002
  -3.8848389340604209E-003   1.2916356078647717E-003   6.6382866339415370E-002
  -9.8840402876501105E-003   2.7620446188595382E-003   6.3832576172708017E-002
  -9.3372500402329195E-003   2.6200217513549784E-003   6.3746388481086158E-002
  -8.7904597928157163E-003   2.4740217915311113E-003   6.3895040306261197E-002
  -8.2436695453985166E-003   2.3240447393881036E-003   6.4278531648232939E-002
  -7.6968792979813204E-003   2.1700905949256777E-003   6.4896862507001524E-002
  -1.4563781801683605E-002   3.8339170595088623E-003   6.2027498677875714E-002
  -1.3793655824563236E-002   3.6643529378840717E-003   6.2036564469197822E-002
  -1.3023529847442868E-002   3.4769363177553636E-003   6.2257462203129527E-002
  -1.2253403870322505E-002   3.2716671991229324E-003   6.2690191879670717E-002
  -1.1483277893202141E-002   3.0485455819865281E-003   6.3334753498821408E-002
  -1.9125851250267972E-002   4.9057895001582974E-003   6.0201817632015542E-002
  -1.8155397117631710E-002   4.7086841244133038E-003   6.0292261500097033E-002
  -1.7184942984995434E-002   4.4798508439797546E-003   6.0571529736600682E-002
  -1.6214488852359158E-002   4.2192896588579623E-003   6.1039622341526711E-002
  -1.5244034719722889E-002   3.9270005690473786E-003   6.1696539314875065E-002
  -4.7156801439442175E-005   4.1318062080386575E-004   6.7792764996062904E-002
  -5.5695165633161403E-005   3.9593522357084243E-004   6.7563715677537772E-002
  -6.4233529826894509E-005   3.5166371004913266E-004   6.7543484306718971E-002
  -7.2771894020615471E-005   2.8036608023937482E-004   6.7732070883605916E-002
  -8.1310258214346842E-005   1.8204233414154114E-004   6.8129475408199025E-002
  -3.8848389340604209E-003   1.2916356078647717E-003   6.6382866339415370E-002
  -3.6833032103646152E-003   1.2053924405116545E-003   6.6160796219132401E-002
  -3.4817674866687992E-003   1.1063379681635344E-003   6.6150056326922418E-002
  -3.2802317629729901E-003   9.9447219082000188E-004   6.6350646662785645E-002
  -3.0786960392771776E-003   8.6979510848178565E-004   6.6762567226721803E-002
  -7.6968792979813204E-003   2.1700905949256777E-003   6.4896862507001524E-002
  -7.2827572060289300E-003   2.0148496574527441E-003   6.4695986396253707E-002
  -6.8686351140765326E-003   1.8610122262777695E-003   6.4708952793945854E-002
  -6.4545130221241413E-003   1.7085783014006289E-003   6.4935761700078157E-002
  -6.0403909301717587E-003   1.5575478828217526E-003   6.5376413114650617E-002
  -1.1483277893202141E-002   3.0485455819865281E-003   6.3334753498821408E-002
  -1.0854057152626117E-002   2.8243068743938060E-003   6.3169286208901665E-002
  -1.0224836412050086E-002   2.6156864843920880E-003   6.3220173707789026E-002
  -9.5956156714740708E-003   2.4226844119812560E-003   6.3487415995483520E-002
  -8.9663949308980331E-003   2.2453006571617473E-003   6.3971013071985106E-002
  -1.5244034719722889E-002   3.9270005690473786E-003   6.1696539314875065E-002
  -1.4397203050156182E-002   3.6337640913348124E-003   6.1580695657076356E-002
  -1.3550371380589475E-002   3.3703607425064896E-003   6.1683719068452048E-002
  -1.2703539711022758E-002   3.1367905225617929E-003   6.2005609549001861E-002
  -1.1856708041456061E-002   2.9330534315018530E-003   6.2546367098725741E-002
  -8.1310258214346842E-005   1.8204233414154114E-004   6.8129475408199025E-002
  -6.4439874858157609E-005   8.6582063735185510E-005   6.8077923984311728E-002
  -4.7569491501961436E-005   2.3874860999140157E-005   6.8297611523539470E-002
  -3.0699108145763529E-005  -6.0792740663034861E-006   6.8788538025882279E-002
  -1.3828724789576030E-005  -3.2803414607984749E-006   6.9550703491340515E-002
  -3.0786960392771776E-003   8.6979510848178565E-004   6.6762567226721803E-002
  -2.7980200555602908E-003   7.4742988636306018E-004   6.6764367376800804E-002
  -2.5173440718433849E-003   6.4249968967898530E-004   6.7022539764486161E-002
  -2.2366680881264894E-003   5.5500451842971019E-004   6.7537084389777527E-002
  -1.9559921044095922E-003   4.8494437261481504E-004   6.8308001252675443E-002
  -6.0403909301717587E-003   1.5575478828217526E-003   6.5376413114650617E-002
  -5.5107760716030935E-003   1.4082777089910736E-003   6.5416246796460034E-002
  -4.9811612130344490E-003   1.2611245183587194E-003   6.5697585990366653E-002
  -4.4515463544657942E-003   1.1160883109251687E-003   6.6220430696370611E-002
  -3.9219314958971394E-003   9.7316908669026203E-004   6.6984780914471909E-002
  -8.9663949308980331E-003   2.2453006571617473E-003   6.3971013071985106E-002
  -8.2027079229865935E-003   2.0691255316188512E-003   6.4033562243288933E-002
  -7.4390209150751469E-003   1.8797493470386201E-003   6.4322750201181139E-002
  -6.6753339071636900E-003   1.6771721034208494E-003   6.4838576945661586E-002
  -5.9116468992522608E-003   1.4613938007657368E-003   6.5581042476730189E-002
  -1.1856708041456061E-002   2.9330534315018530E-003   6.2546367098725741E-002
  -1.0873815609710777E-002   2.7299733542470728E-003   6.2616313717287930E-002
  -9.8909231779654751E-003   2.4983741757182987E-003   6.2898032396929426E-002
  -8.9080307462201819E-003   2.2382558959165300E-003   6.3391523137650313E-002
  -7.9251383144748819E-003   1.9496185148413225E-003   6.4096785939450562E-002
  -1.3828724789576030E-005  -3.2803414607984749E-006   6.9550703491340515E-002
  -1.3516739301132341E-005   1.2371696877622185E-005   6.9337508094403977E-002
  -1.3204753812678244E-005   2.0976879012507554E-005   6.9348989833308727E-002
  -1.2892768324229351E-005   2.2535204942726594E-005   6.9585148708054073E-002
  -1.2580782835780457E-005   1.7046674669618511E-005   7.0045984718640764E-002
  -1.9559921044095922E-003   4.8494437261481504E-004   6.8308001252675443E-002
  -1.7284858588047826E-003   4.3618739210188329E-004   6.8082609192629207E-002
  -1.5009796131999729E-003   4.1260171675813750E-004   6.8086928516974732E-002
  -1.2734733675951633E-003   4.1418734658351525E-004   6.8320959225711880E-002
  -1.0459671219903537E-003   4.4094428157803733E-004   6.8784701318840624E-002
  -3.9219314958971394E-003   9.7316908669026203E-004   6.6984780914471909E-002
  -3.4621967416253617E-003   8.6000308732558928E-004   6.6779410352689333E-002
  -3.0024619873535831E-003   8.0422655450353153E-004   6.6808785423848924E-002
  -2.5427272330818015E-003   8.0583948822363430E-004   6.7072906127950777E-002
  -2.0829924788100269E-003   8.6484188848623411E-004   6.7571772464995183E-002
  -5.9116468992522608E-003   1.4613938007657368E-003   6.5581042476730189E-002
  -5.2146493877628652E-003   1.2838187825496283E-003   6.5427911574584385E-002
  -4.5176518762734983E-003   1.1958513922489325E-003   6.5514560553931359E-002
  -3.8206543647841245E-003   1.1974916298638661E-003   6.5840989414771151E-002
  -3.1236568532947363E-003   1.2887394953945974E-003   6.6407198157103983E-002
  -7.9251383144748819E-003   1.9496185148413225E-003   6.4096785939450562E-002
  -6.9858437972173185E-003   1.7076344777734453E-003   6.4028112858314445E-002
  -6.0465492799597273E-003   1.5874762299945278E-003   6.4204253907221953E-002
  -5.1072547627021604E-003   1.5891437715042575E-003   6.4625209086173085E-002
  -4.1679602454445727E-003   1.7126371023028497E-003   6.5290978395167620E-002
  -1.2580782835780457E-005   1.7046674669618511E-005   7.0045984718640764E-002
  -9.9169959881101333E-006   9.5207040025080403E-006   6.8702489694016378E-002
  -7.2532091404259313E-006   4.9667087525517850E-006   6.7505787957234054E-002
  -4.5894222927434641E-006   3.3846889192640228E-006   6.6455879508293680E-002
  -1.9256354450714053E-006   4.7746445028806761E-006   6.5552764347194925E-002
  -1.0459671219903537E-003   4.4094428157803733E-004   6.8784701318840624E-002
  -9.0016988265992706E-004   5.1008549177788964E-004   6.7465192051521239E-002
  -7.5437264332950567E-004   6.3882394721964664E-004   6.6285156401325429E-002
  -6.0857540399907994E-004   8.2715964790362750E-004   6.5244594368253306E-002
  -4.6277816466865768E-004   1.0750925938289857E-003   6.4343505952304536E-002
  -2.0829924788100269E-003   8.6484188848623411E-004   6.7571772464995183E-002
  -1.8013814577152766E-003   1.0106502795532712E-003   6.6332874224805771E-002
  -1.5197704366205246E-003   1.2726811856872688E-003   6.5226129931021504E-002
  -1.2381594155257661E-003   1.6509346068877620E-003   6.4251539583642353E-002
  -9.5654839443102234E-004   2.1454105431550907E-003   6.3409103182668181E-002
  -3.1236568532947363E-003   1.2887394953945974E-003   6.6407198157103983E-002
  -2.7135517211541284E-003   1.5112150673287639E-003   6.5305536213869475E-002
  -2.3034465890134715E-003   1.9065384241546274E-003   6.4328708546321833E-002
  -1.8933414568728458E-003   2.4747095658721220E-003   6.3476715154460586E-002
  -1.4832363247322066E-003   3.2157284924811957E-003   6.2749556038286095E-002
  -4.1679602454445727E-003   1.7126371023028497E-003   6.5290978395167620E-002
  -3.6366806729764695E-003   2.0117798551040900E-003   6.4383178018712961E-002
  -3.1054011005083731E-003   2.5403956626219026E-003   6.3592892247226640E-002
  -2.5741215280402716E-003   3.2984845248562392E-003   6.2920121080708630E-002
  -2.0428419555721736E-003   4.2860464418074118E-003   6.2364864519158680E-002
  -1.9256354450714053E-006   4.7746445028806761E-006   6.5552764347194925E-002
  -2.3662269146712545E-006   7.2899912190171889E-006   6.0809745642341206E-002
  -2.8068183842745731E-006   9.0841447853429180E-006   5.5948052853984742E-002
  -3.2474098538917695E-006   1.0157105199928851E-005   5.0967685982125310E-002
  -3.6880013234846798E-006   1.0508872464232155E-005   4.5868645026763577E-002
  -4.6277816466865768E-004   1.0750925938289857E-003   6.4343505952304536E-002
  -5.6774487121612899E-004   1.4019366985757453E-003   5.9630469454961754E-002
  -6.7271157776361765E-004   1.8270058757239860E-003   5.4827054810966003E-002
  -7.7767828431109937E-004   2.3503001252731109E-003   4.9933262020317559E-002
  -8.8264499085856374E-004   2.9718194472236892E-003   4.4949091083015258E-002
  -9.5654839443102234E-004   2.1454105431550907E-003   6.3409103182668181E-002
  -1.1377452792067175E-003   2.7965834059321959E-003   5.8824995158388849E-002
  -1.3189421639823997E-003   3.6449276066628233E-003   5.4178804924305740E-002
  -1.5001390487580906E-003   4.6904431453466747E-003   4.9470532480419827E-002
  -1.6813359335338049E-003   5.9331300219833683E-003   4.4700177826729526E-002
  -1.4832363247322066E-003   3.2157284924811957E-003   6.2749556038286095E-002
  -1.7123674508864304E-003   4.1912301132888963E-003   5.8393322752621782E-002
  -1.9414985770406614E-003   5.4628493376016746E-003   5.4003303194004058E-002
  -2.1706297031948998E-003   7.0305861654197145E-003   4.9579497362432723E-002
  -2.3997608293491162E-003   8.8944405967428253E-003   4.5121905257907241E-002
  -2.0428419555721736E-003   4.2860464418074118E-003   6.2364864519158680E-002
  -2.2916113862552698E-003   5.5858768206451526E-003   5.8335452237661678E-002
  -2.5403808169383833E-003   7.2807710685403870E-003   5.4300549620060756E-002
  -2.7891502476214795E-003   9.3707291854933303E-003   5.0260156666355443E-002
  -3.0379196783045931E-003   1.1855751171502504E-002   4.6214273376546711E-002
  -2.6137492960725872E-002   1.9839750400258982E-003   5.2461872438309409E-002
  -2.4983323205909867E-002   3.2105127276248480E-003   5.4290365355857961E-002
  -2.3829153451093876E-002   4.1235943522499735E-003   5.6095553145891180E-002
  -2.2674983696277871E-002   4.7232199139013893E-003   5.7877435808409358E-002
  -2.1520813941461870E-002   5.0093894125788352E-003   5.9636013343412508E-002
  -3.1228916663534126E-002   6.1518519917133085E-003   5.4109052064703733E-002
  -3.0011268138517230E-002   6.6757743035430472E-003   5.4862496983998171E-002
  -2.8793619613500392E-002   7.0252338690987570E-003   5.5766204571209566E-002
  -2.7575971088483503E-002   7.2002306883800424E-003   5.6820174826337846E-002
  -2.6358322563466662E-002   7.2007647613871462E-003   5.8024407749382945E-002
  -3.7238212857688302E-002   1.0319728943400691E-002   5.4984119656979150E-002
  -3.5783517767038538E-002   1.0141035879461358E-002   5.4801509894719214E-002
  -3.4328822676388815E-002   9.9268733859473948E-003   5.4942730595808224E-002
  -3.2874127585739037E-002   9.6772414628587215E-003   5.5407781760245994E-002
  -3.1419432495089300E-002   9.3921401101953739E-003   5.6196663388032739E-002
  -4.4165381543188401E-002   1.4487605895088115E-002   5.5087075215135631E-002
  -4.2300072091473795E-002   1.3606297455379612E-002   5.4107404088020845E-002
  -4.0434762639759141E-002   1.2828512902796133E-002   5.3625131219686990E-002
  -3.8569453188044528E-002   1.2154252237337387E-002   5.3640256610134052E-002
  -3.6704143736329901E-002   1.1583515459003643E-002   5.4152780259361946E-002
  -5.2010422720034477E-002   1.8655482846775484E-002   5.4417918739173066E-002
  -4.9560931111822887E-002   1.7071559031297812E-002   5.2780179563903074E-002
  -4.7111439503611421E-002   1.5730152419644775E-002   5.1813406442846072E-002
  -4.4661947895399880E-002   1.4631263011816085E-002   5.1517599376001824E-002
  -4.2212456287188352E-002   1.3774890807811968E-002   5.1892758363370595E-002
  -2.1520813941461870E-002   5.0093894125788352E-003   5.9636013343412508E-002
  -2.0922073268663396E-002   5.0999955184454215E-003   5.9694036458812272E-002
  -2.0323332595864919E-002   5.1129309016642172E-003   5.9807678212045995E-002
  -1.9724591923066446E-002   5.0481955622352116E-003   5.9976938603113775E-002
  -1.9125851250267972E-002   4.9057895001582974E-003   6.0201817632015542E-002
  -2.6358322563466662E-002   7.2007647613871462E-003   5.8024407749382945E-002
  -2.5687531199223998E-002   7.0923114178521041E-003   5.7814670204046209E-002
  -2.5016739834981330E-002   6.9403459875075207E-003   5.7693415403763854E-002
  -2.4345948470738676E-002   6.7448684703531984E-003   5.7660643348535795E-002
  -2.3675157106496019E-002   6.5058788663892031E-003   5.7716354038362089E-002
  -3.1419432495089300E-002   9.3921401101953739E-003   5.6196663388032739E-002
  -3.0643726332182111E-002   9.0846273172588976E-003   5.5753323817797643E-002
  -2.9868020169274978E-002   8.7677610733509284E-003   5.5431331099837312E-002
  -2.9092314006367800E-002   8.4415413784712946E-003   5.5230685234151602E-002
  -2.8316607843460660E-002   8.1059682326201643E-003   5.5151386220740617E-002
  -3.6704143736329901E-002   1.1583515459003643E-002   5.4152780259361946E-002
  -3.5790658667537854E-002   1.1076943216665747E-002   5.3509997300066725E-002
  -3.4877173598745800E-002   1.0595176159194201E-002   5.3021425300266378E-002
  -3.3963688529953774E-002   1.0138214286589280E-002   5.2687064259961246E-002
  -3.3050203461161727E-002   9.7060575988511533E-003   5.2506914179151064E-002
  -4.2212456287188352E-002   1.3774890807811968E-002   5.1892758363370595E-002
  -4.1128328205291095E-002   1.3069259116072401E-002   5.1084690650853304E-002
  -4.0044200123393860E-002   1.2422591245037640E-002   5.0463698005051183E-002
  -3.8960072041496638E-002   1.1834887194707405E-002   5.0029780425964662E-002
  -3.7875943959599367E-002   1.1306146965082031E-002   4.9782937913593339E-002
  -1.9125851250267972E-002   4.9057895001582974E-003   6.0201817632015542E-002
  -1.8155397117631710E-002   4.7086841244133038E-003   6.0292261500097033E-002
  -1.7184942984995434E-002   4.4798508439797546E-003   6.0571529736600682E-002
  -1.6214488852359158E-002   4.2192896588579623E-003   6.1039622341526711E-002
  -1.5244034719722889E-002   3.9270005690473786E-003   6.1696539314875065E-002
  -2.3675157106496019E-002   6.5058788663892031E-003   5.7716354038362089E-002
  -2.2512502813953623E-002   6.2314585356024743E-003   5.7688490181428631E-002
  -2.1349848521411210E-002   5.9296888379796742E-003   5.7856202275885324E-002
  -2.0187194228868822E-002   5.6005697735212051E-003   5.8219490321731925E-002
  -1.9024539936326395E-002   5.2441013422266369E-003   5.8778354318968717E-002
  -2.8316607843460660E-002   8.1059682326201643E-003   5.5151386220740617E-002
  -2.6955001808044332E-002   7.7542329467916310E-003   5.5009593176645000E-002
  -2.5593395772628036E-002   7.3795268319796908E-003   5.5070127666907068E-002
  -2.4231789737211715E-002   6.9818498881844999E-003   5.5332989691526981E-002
  -2.2870183701795443E-002   6.5612021154060618E-003   5.5798179250504482E-002
  -3.3050203461161727E-002   9.7060575988511533E-003   5.2506914179151064E-002
  -3.1482894099903805E-002   9.2770073579808779E-003   5.2255570485745695E-002
  -2.9915584738645900E-002   8.8293648259797422E-003   5.2213305909665816E-002
  -2.8348275377387995E-002   8.3631300028478243E-003   5.2380120450911463E-002
  -2.6780966016130073E-002   7.8783028885854589E-003   5.2756014109482600E-002
  -3.7875943959599367E-002   1.1306146965082031E-002   4.9782937913593339E-002
  -3.6096179689532104E-002   1.0799781769169986E-002   4.9426422108730939E-002
  -3.4316415419464827E-002   1.0279202819979585E-002   4.9285737004161778E-002
  -3.2536651149397557E-002   9.7444101175111382E-003   4.9360882599885844E-002
  -3.0756886879330272E-002   9.1954036617646895E-003   4.9651858895903123E-002
  -1.5244034719722889E-002   3.9270005690473786E-003   6.1696539314875065E-002
  -1.4397203050156182E-002   3.6337640913348124E-003   6.1580695657076356E-002
  -1.3550371380589475E-002   3.3703607425064896E-003   6.1683719068452048E-002
  -1.2703539711022758E-002   3.1367905225617929E-003   6.2005609549001861E-002
  -1.1856708041456061E-002   2.9330534315018530E-003   6.2546367098725741E-002
  -1.9024539936326395E-002   5.2441013422266369E-003   5.8778354318968717E-002
  -1.7963260200222691E-002   4.8816669919775346E-003   5.8615578438572596E-002
  -1.6901980464118983E-002   4.5346501706552966E-003   5.8662831622076500E-002
  -1.5840700728015286E-002   4.2030508782594095E-003   5.8920113869480137E-002
  -1.4779420991911575E-002   3.8868691147905254E-003   5.9387425180783493E-002
  -2.2870183701795443E-002   6.5612021154060618E-003   5.5798179250504482E-002
  -2.1603293904429170E-002   6.1295698926204512E-003   5.5574055547553652E-002
  -2.0336404107062892E-002   5.6989395988042285E-003   5.5551122903228264E-002
  -1.9069514309696629E-002   5.2693112339570851E-003   5.5729381317528144E-002
  -1.7802624512330341E-002   4.8406847980792533E-003   5.6108830790453340E-002
  -2.6780966016130073E-002   7.8783028885854589E-003   5.2756014109482600E-002
  -2.5317304162775670E-002   7.3774727932633261E-003   5.2456126984019594E-002
  -2.3853642309421261E-002   6.8632290269531535E-003   5.2348592911907507E-002
  -2.2389980456066830E-002   6.3355715896546757E-003   5.2433411893146209E-002
  -2.0926318602712424E-002   5.7945004813679535E-003   5.2710583927736018E-002
  -3.0756886879330272E-002   9.1954036617646895E-003   4.9651858895903123E-002
  -2.9105290975262127E-002   8.6253756939062010E-003   4.9261792747970268E-002
  -2.7453695071194002E-002   8.0275184551020645E-003   4.9055241648113895E-002
  -2.5802099167125874E-002   7.4018319453522906E-003   4.9032205596334047E-002
  -2.4150503263057732E-002   6.7483161646567646E-003   4.9192684592630931E-002
  -1.1856708041456061E-002   2.9330534315018530E-003   6.2546367098725741E-002
  -1.0873815609710777E-002   2.7299733542470728E-003   6.2616313717287930E-002
  -9.8909231779654751E-003   2.4983741757182987E-003   6.2898032396929426E-002
  -8.9080307462201819E-003   2.2382558959165300E-003   6.3391523137650313E-002
  -7.9251383144748819E-003   1.9496185148413225E-003   6.4096785939450562E-002
  -1.4779420991911575E-002   3.8868691147905254E-003   5.9387425180783493E-002
  -1.3588010168187847E-002   3.5699607524521948E-003   5.9330932646312173E-002
  -1.2396599344464149E-002   3.2361816634488560E-003   5.9479704834718039E-002
  -1.1205188520740459E-002   2.8855318477802594E-003   5.9833741746001506E-002
  -1.0013777697016751E-002   2.5180113054464881E-003   6.0393043380162548E-002
  -1.7802624512330341E-002   4.8406847980792533E-003   5.6108830790453340E-002
  -1.6409202634830145E-002   4.4099481506575944E-003   5.5937547477556804E-002
  -1.5015780757329917E-002   3.9739891511790804E-003   5.5965021549335803E-002
  -1.3622358879829696E-002   3.5328077996438778E-003   5.6191253005790393E-002
  -1.2228937002329493E-002   3.0864040960518757E-003   5.6616241846920462E-002
  -2.0926318602712424E-002   5.7945004813679535E-003   5.2710583927736018E-002
  -1.9337393009637563E-002   5.2499355488629662E-003   5.2436158211022668E-002
  -1.7748467416562747E-002   4.7117966389095267E-003   5.2353982540782759E-002
  -1.6159541823487902E-002   4.1800837515076628E-003   5.2464056917016673E-002
  -1.4570616230413063E-002   3.6547968866573188E-003   5.2766381339724243E-002
  -2.4150503263057732E-002   6.7483161646567646E-003   4.9192684592630931E-002
  -2.2372581292610202E-002   6.0899229470681160E-003   4.8826764846709003E-002
  -2.0594659322162645E-002   5.4496041266397510E-003   4.8646587809058839E-002
  -1.8816737351715129E-002   4.8273597033712534E-003   4.8652153479680466E-002
  -1.7038815381267558E-002   4.2231896772625399E-003   4.8843461858573911E-002
  -7.9251383144748819E-003   1.9496185148413225E-003   6.4096785939450562E-002
  -6.9858437972173185E-003   1.7076344777734453E-003   6.4028112858314445E-002
  -6.0465492799597273E-003   1.5874762299945278E-003   6.4204253907221953E-002
  -5.1072547627021604E-003   1.5891437715042575E-003   6.4625209086173085E-002
  -4.1679602454445727E-003   1.7126371023028497E-003   6.5290978395167620E-002
  -1.0013777697016751E-002   2.5180113054464881E-003   6.0393043380162548E-002
  -8.8285130164084610E-003   2.2013374168494138E-003   6.0319201321276605E-002
  -7.6432483358001950E-003   2.0032275623912688E-003   6.0492485459048340E-002
  -6.4579836551919238E-003   1.9236817420714772E-003   6.0912895793478111E-002
  -5.2727189745836386E-003   1.9626999558903790E-003   6.1580432324565504E-002
  -1.2228937002329493E-002   3.0864040960518757E-003   5.6616241846920462E-002
  -1.0795390091756162E-002   2.6950403559257707E-003   5.6533969055134276E-002
  -9.3618431811828603E-003   2.4189788947880236E-003   5.6701134526620275E-002
  -7.9282962706095309E-003   2.2582197126388114E-003   5.7117738261378496E-002
  -6.4947493600362293E-003   2.2127628094780194E-003   5.7783780259408973E-002
  -1.4570616230413063E-002   3.6547968866573188E-003   5.2766381339724243E-002
  -1.2886475023260336E-002   3.1887432950017114E-003   5.2672416059887782E-002
  -1.1202333816107635E-002   2.8347302271847716E-003   5.2830201109937677E-002
  -9.5181926089549576E-003   2.5927576832059773E-003   5.3239736489874470E-002
  -7.8340514018022060E-003   2.4628256630654377E-003   5.3901022199697411E-002
  -1.7038815381267558E-002   4.2231896772625399E-003   4.8843461858573911E-002
  -1.5101767810921096E-002   3.6824462340780406E-003   4.8734542335536979E-002
  -1.3164720240574634E-002   3.2504815595815473E-003   4.8879685209000767E-002
  -1.1227672670228180E-002   2.9272956537732611E-003   4.9278890478965581E-002
  -9.2906250998817108E-003   2.7128885166531891E-003   4.9932158145431393E-002
  -4.1679602454445727E-003   1.7126371023028497E-003   6.5290978395167620E-002
  -3.6366806729764695E-003   2.0117798551040900E-003   6.4383178018712961E-002
  -3.1054011005083731E-003   2.5403956626219026E-003   6.3592892247226640E-002
  -2.5741215280402716E-003   3.2984845248562392E-003   6.2920121080708630E-002
  -2.0428419555721736E-003   4.2860464418074118E-003   6.2364864519158680E-002
  -5.2727189745836386E-003   1.9626999558903790E-003   6.1580432324565504E-002
  -4.5976602271081100E-003   2.2231950966682956E-003   6.0858556299084987E-002
  -3.9226014796325537E-003   2.8080800572264919E-003   6.0306724018651087E-002
  -3.2475427321570268E-003   3.7173548375643989E-003   5.9924935483263983E-002
  -2.5724839846814687E-003   4.9510194376820582E-003   5.9713190692923246E-002
  -6.4947493600362293E-003   2.2127628094780194E-003   5.7783780259408973E-002
  -5.6233822974747980E-003   2.4346103382330286E-003   5.7342745349965724E-002
  -4.7520152349133657E-003   3.0757644518311783E-003   5.7124283325647493E-002
  -3.8806481723519044E-003   4.1362251502725551E-003   5.7128394186454219E-002
  -3.0092811097905021E-003   5.6159924335570932E-003   5.7355077932386228E-002
  -7.8340514018022060E-003   2.4628256630654377E-003   5.3901022199697411E-002
  -6.7138468840765141E-003   2.6460255797976090E-003   5.3835745171354879E-002
  -5.5936423663508206E-003   3.3434488464358161E-003   5.4045570168215623E-002
  -4.4734378486251279E-003   4.5550954629809352E-003   5.4530497190279893E-002
  -3.3532333308994343E-003   6.2809654294320449E-003   5.5290526237547870E-002
  -9.2906250998817108E-003   2.7128885166531891E-003   4.9932158145431393E-002
  -7.8690539869132742E-003   2.8574408213620783E-003   5.0337555763252495E-002
  -6.4474828739448792E-003   3.6111332410404540E-003   5.1070584546355546E-002
  -5.0259117609764634E-003   4.9739657756889821E-003   5.2131244494740547E-002
  -3.6043406480080475E-003   6.9459384253067746E-003   5.3519535608407276E-002
  -2.0428419555721736E-003   4.2860464418074118E-003   6.2364864519158680E-002
  -2.2916113862552698E-003   5.5858768206451526E-003   5.8335452237661678E-002
  -2.5403808169383833E-003   7.2807710685403870E-003   5.4300549620060756E-002
  -2.7891502476214795E-003   9.3707291854933303E-003   5.0260156666355443E-002
  -3.0379196783045931E-003   1.1855751171502504E-002   4.6214273376546711E-002
  -2.5724839846814687E-003   4.9510194376820582E-003   5.9713190692923246E-002
  -2.8443178649901098E-003   6.5743658063608379E-003   5.6184067995104114E-002
  -3.1161517452988029E-003   8.6526858923799410E-003   5.2614306734137528E-002
  -3.3879856256074821E-003   1.1185979695740270E-002   4.9003906910024875E-002
  -3.6598195059161093E-003   1.4174247216442337E-002   4.5352868522763767E-002
  -3.0092811097905021E-003   5.6159924335570932E-003   5.7355077932386228E-002
  -3.3393276667677985E-003   7.5628547920759681E-003   5.4386154666528741E-002
  -3.6693742237450967E-003   1.0024600716219509E-002   5.1341444610481277E-002
  -3.9994207807223540E-003   1.3001230205988267E-002   4.8220947764243106E-002
  -4.3294673376996946E-003   1.6492743261381948E-002   4.5024664127815361E-002
  -3.3532333308994343E-003   6.2809654294320449E-003   5.5290526237547870E-002
  -3.7766407915883586E-003   8.5513437777911538E-003   5.2941712251935752E-002
  -4.2000482522773393E-003   1.1396515540058848E-002   5.0481963249090794E-002
  -4.6234557129663624E-003   1.4816480716236069E-002   4.7911279229012664E-002
  -5.0468631736552460E-003   1.8811239306321670E-002   4.5229660191700993E-002
  -3.6043406480080475E-003   6.9459384253067746E-003   5.3519535608407276E-002
  -4.1562572394517744E-003   9.5398327635065616E-003   5.1850740751325231E-002
  -4.7081738308955151E-003   1.2768430363898409E-002   5.0035862649966845E-002
  -5.2600904223392350E-003   1.6631731226483648E-002   4.8074901304332007E-002
  -5.8120070137829827E-003   2.1129735351261392E-002   4.5967856714420829E-002
  -5.2010422720034477E-002   1.8655482846775484E-002   5.4417918739173066E-002
  -4.9560931111822887E-002   1.7071559031297812E-002   5.2780179563903074E-002
  -4.7111439503611421E-002   1.5730152419644775E-002   5.1813406442846072E-002
  -4.4661947895399880E-002   1.4631263011816085E-002   5.1517599376001824E-002
  -4.2212456287188352E-002   1.3774890807811968E-002   5.1892758363370595E-002
  -5.9842349014567503E-002   1.8942374128866069E-002   4.6010847273262268E-002
  -5.6828879461793963E-002   1.7895726914795768E-002   4.5374343166576514E-002
  -5.3815409909020381E-002   1.6934804341427342E-002   4.5194828894801919E-002
  -5.0801940356246834E-002   1.6059606408760554E-002   4.5472304457938512E-002
  -4.7788470803473225E-002   1.5270133116795592E-002   4.6206769855986179E-002
  -6.6730173053128394E-002   1.9229265410956681E-002   3.8219448690319804E-002
  -6.3366701775094625E-002   1.8719894798293696E-002   3.8427387089095807E-002
  -6.0003230497060814E-002   1.8139456263209820E-002   3.8878339103481020E-002
  -5.6639759219027003E-002   1.7487949805704964E-002   3.9572304733475713E-002
  -5.3276287940993150E-002   1.6765375425779244E-002   4.0509283979079852E-002
  -7.2673894835717442E-002   1.9516156693047251E-002   3.1043722990346325E-002
  -6.9174398051725039E-002   1.9544062681791555E-002   3.1939311331460968E-002
  -6.5674901267732747E-002   1.9344108184992329E-002   3.2863937068883416E-002
  -6.2175404483740378E-002   1.8916293202649433E-002   3.3817600202613610E-002
  -5.8675907699748023E-002   1.8260617734762938E-002   3.4800300732651231E-002
  -7.7673514362334273E-002   1.9803047975137877E-002   2.4483670173341243E-002
  -7.4251968291685178E-002   2.0368230565289525E-002   2.5910115893672259E-002
  -7.0830422221036082E-002   2.0548760106774894E-002   2.7151622791009022E-002
  -6.7408876150386973E-002   2.0344636599593839E-002   2.8208190865351868E-002
  -6.3987330079737920E-002   1.9755860043746520E-002   2.9079820116700461E-002
  -4.2212456287188352E-002   1.3774890807811968E-002   5.1892758363370595E-002
  -4.1128328205291095E-002   1.3069259116072401E-002   5.1084690650853304E-002
  -4.0044200123393860E-002   1.2422591245037640E-002   5.0463698005051183E-002
  -3.8960072041496638E-002   1.1834887194707405E-002   5.0029780425964662E-002
  -3.7875943959599367E-002   1.1306146965082031E-002   4.9782937913593339E-002
  -4.7788470803473225E-002   1.5270133116795592E-002   4.6206769855986179E-002
  -4.6524951629058821E-002   1.4548584120256336E-002   4.5533759433462995E-002
  -4.5261432454644424E-002   1.3877159073867079E-002   4.5032456129258616E-002
  -4.3997913280230005E-002   1.3255857977627510E-002   4.4702859943373315E-002
  -4.2734394105815594E-002   1.2684680831537676E-002   4.4544970875806916E-002
  -5.3276287940993150E-002   1.6765375425779244E-002   4.0509283979079852E-002
  -5.1848745622457990E-002   1.6027909124440423E-002   3.9962490975995607E-002
  -5.0421203303922767E-002   1.5331726902696574E-002   3.9572037142834096E-002
  -4.8993660985387572E-002   1.4676828760547558E-002   3.9337922479594972E-002
  -4.7566118666852383E-002   1.4063214697993320E-002   3.9260146986278568E-002
  -5.8675907699748023E-002   1.8260617734762938E-002   3.4800300732651231E-002
  -5.7099710185488463E-002   1.7507234128624545E-002   3.4370885278451238E-002
  -5.5523512671228896E-002   1.6786294731526097E-002   3.4082441045777491E-002
  -5.3947315156969322E-002   1.6097799543467496E-002   3.3934968034629920E-002
  -5.2371117642709769E-002   1.5441748564448937E-002   3.3928466245008407E-002
  -6.3987330079737920E-002   1.9755860043746520E-002   2.9079820116700461E-002
  -6.2277845318150352E-002   1.8986559132808417E-002   2.8758942340829707E-002
  -6.0568360556562811E-002   1.8240862560355522E-002   2.8563667838088919E-002
  -5.8858875794975271E-002   1.7518770326387659E-002   2.8493996608477609E-002
  -5.7149391033387731E-002   1.6820282430904610E-002   2.8549928651996348E-002
  -3.7875943959599367E-002   1.1306146965082031E-002   4.9782937913593339E-002
  -3.6096179689532104E-002   1.0799781769169986E-002   4.9426422108730939E-002
  -3.4316415419464827E-002   1.0279202819979585E-002   4.9285737004161778E-002
  -3.2536651149397557E-002   9.7444101175111382E-003   4.9360882599885844E-002
  -3.0756886879330272E-002   9.1954036617646895E-003   4.9651858895903123E-002
  -4.2734394105815594E-002   1.2684680831537676E-002   4.4544970875806916E-002
  -4.0739449398732398E-002   1.2131439200207650E-002   4.4200297055892235E-002
  -3.8744504691649251E-002   1.1563944648247032E-002   4.4070153409716137E-002
  -3.6749559984566103E-002   1.0982197175656037E-002   4.4154539937278588E-002
  -3.4754615277482900E-002   1.0386196782434520E-002   4.4453456638579580E-002
  -4.7566118666852383E-002   1.4063214697993320E-002   3.9260146986278568E-002
  -4.5357294049308015E-002   1.3463096631245244E-002   3.8927275983959425E-002
  -4.3148469431763668E-002   1.2848686476514361E-002   3.8807634628824077E-002
  -4.0939644814219259E-002   1.2219984233800824E-002   3.8901222920872558E-002
  -3.8730820196674953E-002   1.1576989903104601E-002   3.9208040860105028E-002
  -5.2371117642709769E-002   1.5441748564448937E-002   3.3928466245008407E-002
  -4.9949713641258886E-002   1.4794754062282874E-002   3.3607358892932412E-002
  -4.7528309639808045E-002   1.4133428304781748E-002   3.3498180661485619E-002
  -4.5106905638357182E-002   1.3457771291945610E-002   3.3600931550667928E-002
  -4.2685501636906313E-002   1.2767783023774446E-002   3.3915611560479425E-002
  -5.7149391033387731E-002   1.6820282430904610E-002   2.8549928651996348E-002
  -5.4516708174585066E-002   1.6126411493320503E-002   2.8240545782811377E-002
  -5.1884025315782401E-002   1.5418170133049122E-002   2.8141791507700797E-002
  -4.9251342456979708E-002   1.4695558350090423E-002   2.8253665826664623E-002
  -4.6618659598177070E-002   1.3958576144444568E-002   2.8576168739702756E-002
  -3.0756886879330272E-002   9.1954036617646895E-003   4.9651858895903123E-002
  -2.9105290975262127E-002   8.6253756939062010E-003   4.9261792747970268E-002
  -2.7453695071194002E-002   8.0275184551020645E-003   4.9055241648113895E-002
  -2.5802099167125874E-002   7.4018319453522906E-003   4.9032205596334047E-002
  -2.4150503263057732E-002   6.7483161646567646E-003   4.9192684592630931E-002
  -3.4754615277482900E-002   1.0386196782434520E-002   4.4453456638579580E-002
  -3.2928710707891419E-002   9.7721196650729369E-003   4.4050842687756331E-002
  -3.1102806138299917E-002   9.1361420200611471E-003   4.3813331019903368E-002
  -2.9276901568708377E-002   8.4782638473994039E-003   4.3740921635020663E-002
  -2.7450996999116933E-002   7.7984851470873640E-003   4.3833614533108189E-002
  -3.8730820196674953E-002   1.1576989903104601E-002   3.9208040860105028E-002
  -3.6749019726666374E-002   1.0918863636239784E-002   3.8798807849687075E-002
  -3.4767219256657773E-002   1.0244765585020348E-002   3.8536264357132997E-002
  -3.2785418786649187E-002   9.5546957494465189E-003   3.8420410382442913E-002
  -3.0803618316640594E-002   8.8486541295181298E-003   3.8451245925616717E-002
  -4.2685501636906313E-002   1.2767783023774446E-002   3.3915611560479425E-002
  -4.0566218031586943E-002   1.2065607607406464E-002   3.3505688233762224E-002
  -3.8446934426267516E-002   1.1353389149979489E-002   3.3224041659802923E-002
  -3.6327650820948090E-002   1.0631127651493578E-002   3.3070671838601094E-002
  -3.4208367215628713E-002   9.8988231119489789E-003   3.3045578770157125E-002
  -4.6618659598177070E-002   1.3958576144444568E-002   2.8576168739702756E-002
  -4.4380305622653132E-002   1.3212351578573256E-002   2.8171483839982137E-002
  -4.2141951647129194E-002   1.2462012714938617E-002   2.7876662927912882E-002
  -3.9903597671605257E-002   1.1707559553540799E-002   2.7691706003495006E-002
  -3.7665243696081346E-002   1.0948992094379606E-002   2.7616613066728468E-002
  -2.4150503263057732E-002   6.7483161646567646E-003   4.9192684592630931E-002
  -2.2372581292610202E-002   6.0899229470681160E-003   4.8826764846709003E-002
  -2.0594659322162645E-002   5.4496041266397510E-003   4.8646587809058839E-002
  -1.8816737351715129E-002   4.8273597033712534E-003   4.8652153479680466E-002
  -1.7038815381267558E-002   4.2231896772625399E-003   4.8843461858573911E-002
  -2.7450996999116933E-002   7.7984851470873640E-003   4.3833614533108189E-002
  -2.5494323450508657E-002   7.1165071660470036E-003   4.3426364257287242E-002
  -2.3537649901900361E-002   6.4520311511997164E-003   4.3190874429516107E-002
  -2.1580976353292050E-002   5.8050571025454120E-003   4.3127145049794591E-002
  -1.9624302804683788E-002   5.1755850200839726E-003   4.3235176118122887E-002
  -3.0803618316640594E-002   8.8486541295181298E-003   3.8451245925616717E-002
  -2.8682175450093651E-002   8.1430913850256692E-003   3.8002092688930011E-002
  -2.6560732583546666E-002   7.4544581757594597E-003   3.7710717640070890E-002
  -2.4439289716999709E-002   6.7827545017194041E-003   3.7577120779039547E-002
  -2.2317846850452752E-002   6.1279803629053498E-003   3.7601302105835704E-002
  -3.4208367215628713E-002   9.8988231119489789E-003   3.3045578770157125E-002
  -3.1936137291365130E-002   9.1696756040045568E-003   3.2553950141637374E-002
  -2.9663907367101547E-002   8.4568852003193695E-003   3.2206117440723533E-002
  -2.7391677442837960E-002   7.7604519008932574E-003   3.2002080667415070E-002
  -2.5119447518574367E-002   7.0803757057266437E-003   3.1941839821712344E-002
  -3.7665243696081346E-002   1.0948992094379606E-002   2.7616613066728468E-002
  -3.5256208974323244E-002   1.0196259822983111E-002   2.7081936615409252E-002
  -3.2847174252565017E-002   9.4593122248791406E-003   2.6677073831473663E-002
  -3.0438139530806867E-002   8.7381493000674923E-003   2.6402024714921396E-002
  -2.8029104809048688E-002   8.0327710485480486E-003   2.6256789265752811E-002
  -1.7038815381267558E-002   4.2231896772625399E-003   4.8843461858573911E-002
  -1.5101767810921096E-002   3.6824462340780406E-003   4.8734542335536979E-002
  -1.3164720240574634E-002   3.2504815595815473E-003   4.8879685209000767E-002
  -1.1227672670228180E-002   2.9272956537732611E-003   4.9278890478965581E-002
  -9.2906250998817108E-003   2.7128885166531891E-003   4.9932158145431393E-002
  -1.9624302804683788E-002   5.1755850200839726E-003   4.3235176118122887E-002
  -1.7471589443759886E-002   4.5888176333462316E-003   4.3068146463780599E-002
  -1.5318876082835955E-002   4.0699576718618291E-003   4.3078385994092416E-002
  -1.3166162721911984E-002   3.6190051356313271E-003   4.3265894709058214E-002
  -1.1013449360988067E-002   3.2359600246540943E-003   4.3630672608678034E-002
  -2.2317846850452752E-002   6.1279803629053498E-003   3.7601302105835704E-002
  -2.0026260910798233E-002   5.4951890326141173E-003   3.7335290976753560E-002
  -1.7734674971143661E-002   4.8894337841418750E-003   3.7169755820478892E-002
  -1.5443089031489094E-002   4.3107146174889456E-003   3.7104696637011138E-002
  -1.3151503091834577E-002   3.7590315326551105E-003   3.7140113426350541E-002
  -2.5119447518574367E-002   7.0803757057266437E-003   3.1941839821712344E-002
  -2.2765782212036137E-002   6.4015604318819336E-003   3.1535975874456175E-002
  -2.0412116905497903E-002   5.7089098964220389E-003   3.1153794688160329E-002
  -1.8058451598959649E-002   5.0024240993466768E-003   3.0795296262824665E-002
  -1.5704786292421384E-002   4.2821030406559601E-003   3.0460480598449455E-002
  -2.8029104809048688E-002   8.0327710485480486E-003   2.6256789265752811E-002
  -2.5690153347473627E-002   7.3079318311500829E-003   2.5670201156888006E-002
  -2.3351201885898537E-002   6.5283860087022583E-003   2.5030502597136572E-002
  -2.1012250424323434E-002   5.6941335812044219E-003   2.4337693586498343E-002
  -1.8673298962748386E-002   4.8051745486570319E-003   2.3591774124973708E-002
  -9.2906250998817108E-003   2.7128885166531891E-003   4.9932158145431393E-002
  -7.8690539869132742E-003   2.8574408213620783E-003   5.0337555763252495E-002
  -6.4474828739448792E-003   3.6111332410404540E-003   5.1070584546355546E-002
  -5.0259117609764634E-003   4.9739657756889821E-003   5.2131244494740547E-002
  -3.6043406480080475E-003   6.9459384253067746E-003   5.3519535608407276E-002
  -1.1013449360988067E-002   3.2359600246540943E-003   4.3630672608678034E-002
  -9.2461087639154615E-003   3.1625346938792820E-003   4.4219215200641537E-002
  -7.4787681668427655E-003   3.6404414982548206E-003   4.5171665595531318E-002
  -5.7114275697701493E-003   4.6696804377812928E-003   4.6488023793347572E-002
  -3.9440869726974637E-003   6.2502515124585045E-003   4.8168289794090602E-002
  -1.3151503091834577E-002   3.7590315326551105E-003   3.7140113426350541E-002
  -1.1002116373013154E-002   3.4676285663966522E-003   3.7853993012637144E-002
  -8.8527296541917287E-003   3.6697497554695202E-003   3.8968057039494880E-002
  -6.7033429353703326E-003   4.3653950998741586E-003   4.0482305506923527E-002
  -4.5539562165488809E-003   5.5545645996100124E-003   4.2396738414923474E-002
  -1.5704786292421384E-002   4.2821030406559601E-003   3.0460480598449455E-002
  -1.3137076814206554E-002   3.7727224389138281E-003   3.1241889199239828E-002
  -1.0569367335991724E-002   3.6990580126842754E-003   3.2459758878246023E-002
  -8.0016578577768362E-003   4.0611097619665248E-003   3.4114089635467679E-002
  -5.4339483795620060E-003   4.8588776867615202E-003   3.6204881470905198E-002
  -1.8673298962748386E-002   4.8051745486570319E-003   2.3591774124973708E-002
  -1.5650990087495542E-002   4.0778163114312260E-003   2.4382903760448937E-002
  -1.2628681212242726E-002   3.7283662698986142E-003   2.5646771111784650E-002
  -9.6063723369898685E-003   3.7568244240592866E-003   2.7383376178980678E-002
  -6.5840634617370664E-003   4.1631907739131391E-003   2.9592718962036746E-002
  -3.6043406480080475E-003   6.9459384253067746E-003   5.3519535608407276E-002
  -4.1562572394517744E-003   9.5398327635065616E-003   5.1850740751325231E-002
  -4.7081738308955151E-003   1.2768430363898409E-002   5.0035862649966845E-002
  -5.2600904223392350E-003   1.6631731226483648E-002   4.8074901304332007E-002
  -5.8120070137829827E-003   2.1129735351261392E-002   4.5967856714420829E-002
  -3.9440869726974637E-003   6.2502515124585045E-003   4.8168289794090602E-002
  -4.5380651957865059E-003   8.6908111526279863E-003   4.7235067759491101E-002
  -5.1320434188755482E-003   1.2300015788631269E-002   4.6363805705877226E-002
  -5.7260216419645071E-003   1.7077865420468685E-002   4.5554503633249255E-002
  -6.3199998650535771E-003   2.3024360048140569E-002   4.4807161541606799E-002
  -4.5539562165488809E-003   5.5545645996100124E-003   4.2396738414923474E-002
  -4.9819528460211190E-003   7.8417895417494110E-003   4.2733030936447675E-002
  -5.4099494754933121E-003   1.1831601213364018E-002   4.3339326664219774E-002
  -5.8379461049655242E-003   1.7523999614454056E-002   4.4215625598239550E-002
  -6.2659427344377988E-003   2.4918984745019301E-002   4.5361927738507113E-002
  -5.4339483795620060E-003   4.8588776867615202E-003   3.6204881470905198E-002
  -5.4879201901555166E-003   6.9927679308711688E-003   3.8344630282194675E-002
  -5.5418920007489708E-003   1.1363186638096934E-002   4.0962425524993865E-002
  -5.5958638113423418E-003   1.7970133808439037E-002   4.4058267199302739E-002
  -5.6498356219358802E-003   2.6813609441898145E-002   4.7632155305121548E-002
  -6.5840634617370664E-003   4.1631907739131391E-003   2.9592718962036746E-002
  -6.0559672281896848E-003   6.1437463199921494E-003   3.4069865796732657E-002
  -5.5278709946423588E-003   1.0894772062829766E-002   3.9233102288200039E-002
  -4.9997747610948662E-003   1.8416268002424498E-002   4.5082428436439309E-002
  -4.4716785275475956E-003   2.8708234138777211E-002   5.1617844241450772E-002
  -7.7673514362334273E-002   1.9803047975137877E-002   2.4483670173341243E-002
  -7.4251968291685178E-002   2.0368230565289525E-002   2.5910115893672259E-002
  -7.0830422221036082E-002   2.0548760106774894E-002   2.7151622791009022E-002
  -6.7408876150386973E-002   2.0344636599593839E-002   2.8208190865351868E-002
  -6.3987330079737920E-002   1.9755860043746520E-002   2.9079820116700461E-002
  -8.2832726480308816E-002   2.3472749872850196E-002   2.0814283392742661E-002
  -7.9432245008352567E-002   2.3016016822100749E-002   2.0912915477677152E-002
  -7.6031763536396374E-002   2.2487135977996481E-002   2.1154357188219952E-002
  -7.2631282064440153E-002   2.1886107340537579E-002   2.1538608524371131E-002
  -6.9230800592483904E-002   2.1212930909724093E-002   2.2065669486130784E-002
  -8.9255226036970794E-002   2.7142451770562626E-002   1.5966728343587339E-002
  -8.5548060715104804E-002   2.5663803078911945E-002   1.5050052048436777E-002
  -8.1840895393238966E-002   2.4425511849218165E-002   1.4603933827497209E-002
  -7.8133730071372975E-002   2.3427578081481489E-002   1.4628373680768365E-002
  -7.4426564749506999E-002   2.2670001775701554E-002   1.5123371608250835E-002
  -9.6941013032320084E-002   3.0812153668274916E-002   9.9410050258749161E-003
  -9.2599415411941943E-002   2.8311589335723100E-002   8.3215256059508726E-003
  -8.8257817791563761E-002   2.6363887720439856E-002   7.5003527088405263E-003
  -8.3916220171185565E-002   2.4969048822425205E-002   7.4774863345435632E-003
  -7.9574622550807411E-002   2.4127072641679126E-002   8.2529264830603841E-003
 -0.10589008746635686        3.4481855565987374E-002   2.7371134396054764E-003
 -0.10058630909886379        3.0959375592534477E-002   7.2733615021991493E-004
  -9.5282530731370940E-002   2.8302263591661492E-002  -1.5638616774954484E-004
  -8.9978752363877923E-002   2.6510519563369153E-002   8.5946485696639097E-005
  -8.4674973996384906E-002   2.5584143507656698E-002   1.4543341105595631E-003
  -6.3987330079737920E-002   1.9755860043746520E-002   2.9079820116700461E-002
  -6.2277845318150352E-002   1.8986559132808417E-002   2.8758942340829707E-002
  -6.0568360556562811E-002   1.8240862560355522E-002   2.8563667838088919E-002
  -5.8858875794975271E-002   1.7518770326387659E-002   2.8493996608477609E-002
  -5.7149391033387731E-002   1.6820282430904610E-002   2.8549928651996348E-002
  -6.9230800592483904E-002   2.1212930909724093E-002   2.2065669486130784E-002
  -6.7397493869214897E-002   2.0497206254883146E-002   2.1796044596427214E-002
  -6.5564187145945849E-002   1.9768532945342213E-002   2.1648460356956722E-002
  -6.3730880422676828E-002   1.9026910981101226E-002   2.1622916767719373E-002
  -6.1897573699407737E-002   1.8272340362160300E-002   2.1719413828715312E-002
  -7.4426564749506999E-002   2.2670001775701554E-002   1.5123371608250835E-002
  -7.2472998687453064E-002   2.2007853376957751E-002   1.4868446611529126E-002
  -7.0519432625399198E-002   2.1296203330328840E-002   1.4731999642144014E-002
  -6.8565866563345249E-002   2.0535051635814899E-002   1.4714030700095481E-002
  -6.6612300501291341E-002   1.9724398293415824E-002   1.4814539785383746E-002
  -7.9574622550807411E-002   2.4127072641679126E-002   8.2529264830603841E-003
  -7.7504359772865114E-002   2.3518500499032445E-002   7.9761483861357473E-003
  -7.5434096994922914E-002   2.2823873715315583E-002   7.8142856936509516E-003
  -7.3363834216980672E-002   2.2043192290528771E-002   7.7673384056062148E-003
  -7.1293571439038417E-002   2.1176456224671486E-002   7.8353065220015498E-003
  -8.4674973996384906E-002   2.5584143507656698E-002   1.4543341105595631E-003
  -8.2491577125450910E-002   2.5029147621106973E-002   1.1191499202466981E-003
  -8.0308180254516970E-002   2.4351544100302075E-002   8.9531851147710284E-004
  -7.8124783383582974E-002   2.3551332945242399E-002   7.8283988425138437E-004
  -7.5941386512649034E-002   2.2628514155927149E-002   7.8171403856885924E-004
  -5.7149391033387731E-002   1.6820282430904610E-002   2.8549928651996348E-002
  -5.4516708174585066E-002   1.6126411493320503E-002   2.8240545782811377E-002
  -5.1884025315782401E-002   1.5418170133049122E-002   2.8141791507700797E-002
  -4.9251342456979708E-002   1.4695558350090423E-002   2.8253665826664623E-002
  -4.6618659598177070E-002   1.3958576144444568E-002   2.8576168739702756E-002
  -6.1897573699407737E-002   1.8272340362160300E-002   2.1719413828715312E-002
  -5.9062006713992601E-002   1.7507466210664596E-002   2.1424727939656357E-002
  -5.6226439728577410E-002   1.6734933648759068E-002   2.1325181709747842E-002
  -5.3390872743162274E-002   1.5954742676444356E-002   2.1420775138989823E-002
  -5.0555305757747068E-002   1.5166893293719730E-002   2.1711508227382381E-002
  -6.6612300501291341E-002   1.9724398293415824E-002   1.4814539785383746E-002
  -6.3589338324187616E-002   1.8888520928008357E-002   1.4541262888728437E-002
  -6.0566376147083906E-002   1.8051697164469187E-002   1.4447636716299804E-002
  -5.7543413969980202E-002   1.7213927002797960E-002   1.4533661268097724E-002
  -5.4520451792876470E-002   1.6375210442994975E-002   1.4799336544122341E-002
  -7.1293571439038417E-002   2.1176456224671486E-002   7.8353065220015498E-003
  -6.8098703005170083E-002   2.0269575645352561E-002   7.5901506300280232E-003
  -6.4903834571301777E-002   1.9368460680178941E-002   7.5091565273568053E-003
  -6.1708966137433499E-002   1.8473111329151783E-002   7.5923242139882925E-003
  -5.8514097703565152E-002   1.7583527592270068E-002   7.8396536899225620E-003
  -7.5941386512649034E-002   2.2628514155927149E-002   7.8171403856885924E-004
  -7.2590100756940057E-002   2.1650630362696377E-002   5.7139116355447994E-004
  -6.9238815001231080E-002   2.0685224195889279E-002   5.0974114291865713E-004
  -6.5887529245522131E-002   1.9732295655505612E-002   5.9676397666152264E-004
  -6.2536243489813126E-002   1.8791844741545605E-002   8.3245966478295852E-004
  -4.6618659598177070E-002   1.3958576144444568E-002   2.8576168739702756E-002
  -4.4380305622653132E-002   1.3212351578573256E-002   2.8171483839982137E-002
  -4.2141951647129194E-002   1.2462012714938617E-002   2.7876662927912882E-002
  -3.9903597671605257E-002   1.1707559553540799E-002   2.7691706003495006E-002
  -3.7665243696081346E-002   1.0948992094379606E-002   2.7616613066728468E-002
  -5.0555305757747068E-002   1.5166893293719730E-002   2.1711508227382381E-002
  -4.8190841372575566E-002   1.4378817363358387E-002   2.1296115382784891E-002
  -4.5826376987404140E-002   1.3597946748133125E-002   2.1023079369831194E-002
  -4.3461912602232602E-002   1.2824281448043883E-002   2.0892400188521287E-002
  -4.1097448217061211E-002   1.2057821463090757E-002   2.0904077838855006E-002
  -5.4520451792876470E-002   1.6375210442994975E-002   1.4799336544122341E-002
  -5.1997384154065129E-002   1.5545283148143574E-002   1.4384555367547444E-002
  -4.9474316515253712E-002   1.4733880781327528E-002   1.4144623866608440E-002
  -4.6951248876442322E-002   1.3941003342547024E-002   1.4079542041305741E-002
  -4.4428181237630961E-002   1.3166650831801852E-002   1.4189309891639051E-002
  -5.8514097703565152E-002   1.7583527592270068E-002   7.8396536899225620E-003
  -5.5799933967121497E-002   1.6711748932928844E-002   7.4368037942697703E-003
  -5.3085770230677926E-002   1.5869814814522206E-002   7.2412964182449625E-003
  -5.0371606494234340E-002   1.5057725237050082E-002   7.2531315618485142E-003
  -4.7657442757790706E-002   1.4275480200512974E-002   7.4723092250806589E-003
  -6.2536243489813126E-002   1.8791844741545605E-002   8.3245966478295852E-004
  -5.9598490811744953E-002   1.7878214717714003E-002   4.5286066295097127E-004
  -5.6660738133676780E-002   1.7005748847716495E-002   3.1309702473955592E-004
  -5.3722985455608580E-002   1.6174447131553485E-002   4.1316875014962146E-004
  -5.0785232777540434E-002   1.5384309569223875E-002   7.5307583917993970E-004
  -3.7665243696081346E-002   1.0948992094379606E-002   2.7616613066728468E-002
  -3.5256208974323244E-002   1.0196259822983111E-002   2.7081936615409252E-002
  -3.2847174252565017E-002   9.4593122248791406E-003   2.6677073831473663E-002
  -3.0438139530806867E-002   8.7381493000674923E-003   2.6402024714921396E-002
  -2.8029104809048688E-002   8.0327710485480486E-003   2.6256789265752811E-002
  -4.1097448217061211E-002   1.2057821463090757E-002   2.0904077838855006E-002
  -3.8571419911996141E-002   1.1295787747577446E-002   2.0466768752387066E-002
  -3.6045391606931043E-002   1.0535401255807458E-002   2.0133633165149545E-002
  -3.3519363301865987E-002   9.7766619877810781E-003   1.9904671077141986E-002
  -3.0993334996800875E-002   9.0195699434981735E-003   1.9779882488364764E-002
  -4.4428181237630961E-002   1.3166650831801852E-002   1.4189309891639051E-002
  -4.1810799517412303E-002   1.2395315672171392E-002   1.3835230720473712E-002
  -3.9193417797193694E-002   1.1611490286735679E-002   1.3559684880385142E-002
  -3.6576036076975085E-002   1.0815174675494501E-002   1.3362672371373389E-002
  -3.3958654356756435E-002   1.0006368838448132E-002   1.3244193193438697E-002
  -4.7657442757790706E-002   1.4275480200512974E-002   7.4723092250806589E-003
  -4.4974347790571759E-002   1.3494843596766087E-002   7.1873225196688595E-003
  -4.2291252823352929E-002   1.2687579317663948E-002   6.9552289771804450E-003
  -3.9608157856134106E-002   1.1853687363208671E-002   6.7760285976156669E-003
  -3.6925062888915158E-002   1.0993167733398396E-002   6.6497213809745617E-003
  -5.0785232777540434E-002   1.5384309569223875E-002   7.5307583917993970E-004
  -4.8062064731474563E-002   1.4594371521359895E-002   5.2304414997267346E-004
  -4.5338896685408803E-002   1.3763668348592439E-002   3.2026545553559549E-004
  -4.2615728639342959E-002   1.2892200050921732E-002   1.4473975586863641E-004
  -3.9892560593277171E-002   1.1979966628348215E-002  -3.5329490278845910E-006
  -2.8029104809048688E-002   8.0327710485480486E-003   2.6256789265752811E-002
  -2.5690153347473627E-002   7.3079318311500829E-003   2.5670201156888006E-002
  -2.3351201885898537E-002   6.5283860087022583E-003   2.5030502597136572E-002
  -2.1012250424323434E-002   5.6941335812044219E-003   2.4337693586498343E-002
  -1.8673298962748386E-002   4.8051745486570319E-003   2.3591774124973708E-002
  -3.0993334996800875E-002   9.0195699434981735E-003   1.9779882488364764E-002
  -2.8689025471763968E-002   8.2638192903035645E-003   1.9183838198336911E-002
  -2.6384715946726880E-002   7.5091041955420157E-003   1.8571620486119628E-002
  -2.4080406421689911E-002   6.7554246592140405E-003   1.7943229351712858E-002
  -2.1776096896652886E-002   6.0027806813190976E-003   1.7298664795116547E-002
  -3.3958654356756435E-002   1.0006368838448132E-002   1.3244193193438697E-002
  -3.1652049739560317E-002   9.2197067494568796E-003   1.2694434885730965E-002
  -2.9345445122364193E-002   8.4898223823821894E-003   1.2165440184530835E-002
  -2.7038840505168072E-002   7.8167157372235410E-003   1.1657209089838298E-002
  -2.4732235887971951E-002   7.2003868139810523E-003   1.1169741601653543E-002
  -3.6925062888915158E-002   1.0993167733398396E-002   6.6497213809745617E-003
  -3.4579226150862792E-002   1.0175594208610667E-002   6.2019912190696830E-003
  -3.2233389412810495E-002   9.4705405692224881E-003   5.8119616923700511E-003
  -2.9887552674758112E-002   8.8780068152328785E-003   5.4796328008745905E-003
  -2.7541715936705829E-002   8.3979929466432846E-003   5.2050045445847098E-003
  -3.9892560593277171E-002   1.1979966628348215E-002  -3.5329490278845910E-006
  -3.7470554705671399E-002   1.1131481667763565E-002  -2.9349280164631120E-004
  -3.5048548818065683E-002   1.0451258756062287E-002  -4.8881499036315668E-004
  -3.2626542930459940E-002   9.9392978932427017E-003  -5.8949951517759530E-004
  -3.0204537042854196E-002   9.5955990793052948E-003  -5.9554637609038341E-004
  -1.8673298962748386E-002   4.8051745486570319E-003   2.3591774124973708E-002
  -1.5650990087495542E-002   4.0778163114312260E-003   2.4382903760448937E-002
  -1.2628681212242726E-002   3.7283662698986142E-003   2.5646771111784650E-002
  -9.6063723369898685E-003   3.7568244240592866E-003   2.7383376178980678E-002
  -6.5840634617370664E-003   4.1631907739131391E-003   2.9592718962036746E-002
  -2.1776096896652886E-002   6.0027806813190976E-003   1.7298664795116547E-002
  -1.8550230378198598E-002   5.3412820219972401E-003   1.8246854937721546E-002
  -1.5324363859744339E-002   4.8610384413883823E-003   1.9129422650869032E-002
  -1.2098497341290051E-002   4.5620499394929057E-003   1.9946367934559145E-002
  -8.8726308228357920E-003   4.4443165163101650E-003   2.0697690788791911E-002
  -2.4732235887971951E-002   7.2003868139810523E-003   1.1169741601653543E-002
  -2.1841171871634008E-002   6.6047477325633652E-003   1.2078339134408117E-002
  -1.8950107855296126E-002   5.9937106128785805E-003   1.2382954092387252E-002
  -1.6059043838958158E-002   5.3672754549267433E-003   1.2083586475591275E-002
  -1.3167979822620191E-002   4.7254422587074685E-003   1.1180236284019957E-002
  -2.7541715936705829E-002   8.3979929466432846E-003   5.2050045445847098E-003
  -2.5523814567801829E-002   7.8682134431292128E-003   5.8773563505082685E-003
  -2.3505913198897978E-002   7.1263827843685082E-003   5.4073654363389380E-003
  -2.1488011829994089E-002   6.1725009703600276E-003   3.7950318020769907E-003
  -1.9470110461090123E-002   5.0065680011045222E-003   1.0403554477219565E-003
  -3.0204537042854196E-002   9.5955990793052948E-003  -5.9554637609038341E-004
  -2.9598158466702107E-002   9.1316791536955044E-003  -3.5609341397740968E-004
  -2.8991779890550018E-002   8.2590549558586024E-003  -1.7973433172751019E-003
  -2.8385401314397957E-002   6.9777264857940474E-003  -4.9192960859833490E-003
  -2.7779022738245840E-002   5.2876937435015758E-003  -9.7219517201027061E-003
  -6.5840634617370664E-003   4.1631907739131391E-003   2.9592718962036746E-002
  -6.0559672281896848E-003   6.1437463199921494E-003   3.4069865796732657E-002
  -5.5278709946423588E-003   1.0894772062829766E-002   3.9233102288200039E-002
  -4.9997747610948662E-003   1.8416268002424498E-002   4.5082428436439309E-002
  -4.4716785275475956E-003   2.8708234138777211E-002   5.1617844241450772E-002
  -8.8726308228357920E-003   4.4443165163101650E-003   2.0697690788791911E-002
  -7.5863791356671206E-003   5.6594553171545603E-003   2.5867601564700027E-002
  -6.3001274484984215E-003   9.3590834873386042E-003   3.1867733591079639E-002
  -5.0138757613298335E-003   1.5543201026862991E-002   3.8698086867929415E-002
  -3.7276240741611621E-003   2.4211807935727858E-002   4.6358661395249801E-002
  -1.3167979822620191E-002   4.7254422587074685E-003   1.1180236284019957E-002
  -1.0979441088131398E-002   5.1751643143162496E-003   1.6756930173723816E-002
  -8.7909023536424935E-003   7.8233949118476503E-003   2.3307976907597408E-002
  -6.6023636191536172E-003   1.2670134051301813E-002   3.0833376485640197E-002
  -4.4138248846647965E-003   1.9715381732678283E-002   3.9333128907853454E-002
  -1.9470110461090123E-002   5.0065680011045222E-003   1.0403554477219565E-003
  -1.6235153085582217E-002   4.6908733114778556E-003   6.7378516238033176E-003
  -1.3000195710074283E-002   6.2877063363570365E-003   1.3553832237753482E-002
  -9.7652383345661828E-003   9.7970670757401377E-003   2.1488297289571752E-002
  -6.5302809590584432E-003   1.5218955529628708E-002   3.0541246779259151E-002
  -2.7779022738245840E-002   5.2876937435015758E-003  -9.7219517201027061E-003
  -2.3353515128019753E-002   4.2065823086396836E-003  -4.1896340850616776E-003
  -1.8928007517793721E-002   4.7520177608653680E-003   2.6052995815480651E-003
  -1.4502499907567690E-002   6.9240001001790868E-003   1.0662849279724461E-002
  -1.0076992297341603E-002   1.0722529326579355E-002   1.9983015009468641E-002
 </DataArray>
 </PointData>
 </Piece>
 </UnstructuredGrid>
 </VTKFile>
