 <VTKFile type="UnstructuredGrid"  version="0.1"   >
 <UnstructuredGrid>
 <Piece  NumberOfPoints="          1600 "  NumberOfCells="         1024 ">
 <Points>
 <DataArray  type="Float64" NumberOfComponents="3"  format="ascii" >
   0.0000000000000000        0.0000000000000000        0.0000000000000000     
   3.1250000000000000E-002   0.0000000000000000        0.0000000000000000     
   6.2500000000000000E-002   0.0000000000000000        0.0000000000000000     
   9.3750000000000000E-002   0.0000000000000000        0.0000000000000000     
  0.12500000000000000        0.0000000000000000        0.0000000000000000     
   0.0000000000000000        3.1250000000000000E-002   0.0000000000000000     
   3.1250000000000000E-002   3.1250000000000000E-002   0.0000000000000000     
   6.2500000000000000E-002   3.1250000000000000E-002   0.0000000000000000     
   9.3750000000000000E-002   3.1250000000000000E-002   0.0000000000000000     
  0.12500000000000000        3.1250000000000000E-002   0.0000000000000000     
   0.0000000000000000        6.2500000000000000E-002   0.0000000000000000     
   3.1250000000000000E-002   6.2500000000000000E-002   0.0000000000000000     
   6.2500000000000000E-002   6.2500000000000000E-002   0.0000000000000000     
   9.3750000000000000E-002   6.2500000000000000E-002   0.0000000000000000     
  0.12500000000000000        6.2500000000000000E-002   0.0000000000000000     
   0.0000000000000000        9.3750000000000000E-002   0.0000000000000000     
   3.1250000000000000E-002   9.3750000000000000E-002   0.0000000000000000     
   6.2500000000000000E-002   9.3750000000000000E-002   0.0000000000000000     
   9.3750000000000000E-002   9.3750000000000000E-002   0.0000000000000000     
  0.12500000000000000        9.3750000000000000E-002   0.0000000000000000     
   0.0000000000000000       0.12500000000000000        0.0000000000000000     
   3.1250000000000000E-002  0.12500000000000000        0.0000000000000000     
   6.2500000000000000E-002  0.12500000000000000        0.0000000000000000     
   9.3750000000000000E-002  0.12500000000000000        0.0000000000000000     
  0.12500000000000000       0.12500000000000000        0.0000000000000000     
  0.12500000000000000        0.0000000000000000        0.0000000000000000     
  0.15625000000000000        0.0000000000000000        0.0000000000000000     
  0.18750000000000000        0.0000000000000000        0.0000000000000000     
  0.21875000000000000        0.0000000000000000        0.0000000000000000     
  0.25000000000000000        0.0000000000000000        0.0000000000000000     
  0.12500000000000000        3.1250000000000000E-002   0.0000000000000000     
  0.15625000000000000        3.1250000000000000E-002   0.0000000000000000     
  0.18750000000000000        3.1250000000000000E-002   0.0000000000000000     
  0.21875000000000000        3.1250000000000000E-002   0.0000000000000000     
  0.25000000000000000        3.1250000000000000E-002   0.0000000000000000     
  0.12500000000000000        6.2500000000000000E-002   0.0000000000000000     
  0.15625000000000000        6.2500000000000000E-002   0.0000000000000000     
  0.18750000000000000        6.2500000000000000E-002   0.0000000000000000     
  0.21875000000000000        6.2500000000000000E-002   0.0000000000000000     
  0.25000000000000000        6.2500000000000000E-002   0.0000000000000000     
  0.12500000000000000        9.3750000000000000E-002   0.0000000000000000     
  0.15625000000000000        9.3750000000000000E-002   0.0000000000000000     
  0.18750000000000000        9.3750000000000000E-002   0.0000000000000000     
  0.21875000000000000        9.3750000000000000E-002   0.0000000000000000     
  0.25000000000000000        9.3750000000000000E-002   0.0000000000000000     
  0.12500000000000000       0.12500000000000000        0.0000000000000000     
  0.15625000000000000       0.12500000000000000        0.0000000000000000     
  0.18750000000000000       0.12500000000000000        0.0000000000000000     
  0.21875000000000000       0.12500000000000000        0.0000000000000000     
  0.25000000000000000       0.12500000000000000        0.0000000000000000     
  0.25000000000000000        0.0000000000000000        0.0000000000000000     
  0.28125000000000000        0.0000000000000000        0.0000000000000000     
  0.31250000000000000        0.0000000000000000        0.0000000000000000     
  0.34375000000000000        0.0000000000000000        0.0000000000000000     
  0.37500000000000000        0.0000000000000000        0.0000000000000000     
  0.25000000000000000        3.1250000000000000E-002   0.0000000000000000     
  0.28125000000000000        3.1250000000000000E-002   0.0000000000000000     
  0.31250000000000000        3.1250000000000000E-002   0.0000000000000000     
  0.34375000000000000        3.1250000000000000E-002   0.0000000000000000     
  0.37500000000000000        3.1250000000000000E-002   0.0000000000000000     
  0.25000000000000000        6.2500000000000000E-002   0.0000000000000000     
  0.28125000000000000        6.2500000000000000E-002   0.0000000000000000     
  0.31250000000000000        6.2500000000000000E-002   0.0000000000000000     
  0.34375000000000000        6.2500000000000000E-002   0.0000000000000000     
  0.37500000000000000        6.2500000000000000E-002   0.0000000000000000     
  0.25000000000000000        9.3750000000000000E-002   0.0000000000000000     
  0.28125000000000000        9.3750000000000000E-002   0.0000000000000000     
  0.31250000000000000        9.3750000000000000E-002   0.0000000000000000     
  0.34375000000000000        9.3750000000000000E-002   0.0000000000000000     
  0.37500000000000000        9.3750000000000000E-002   0.0000000000000000     
  0.25000000000000000       0.12500000000000000        0.0000000000000000     
  0.28125000000000000       0.12500000000000000        0.0000000000000000     
  0.31250000000000000       0.12500000000000000        0.0000000000000000     
  0.34375000000000000       0.12500000000000000        0.0000000000000000     
  0.37500000000000000       0.12500000000000000        0.0000000000000000     
  0.37500000000000000        0.0000000000000000        0.0000000000000000     
  0.40625000000000000        0.0000000000000000        0.0000000000000000     
  0.43750000000000000        0.0000000000000000        0.0000000000000000     
  0.46875000000000000        0.0000000000000000        0.0000000000000000     
  0.50000000000000000        0.0000000000000000        0.0000000000000000     
  0.37500000000000000        3.1250000000000000E-002   0.0000000000000000     
  0.40625000000000000        3.1250000000000000E-002   0.0000000000000000     
  0.43750000000000000        3.1250000000000000E-002   0.0000000000000000     
  0.46875000000000000        3.1250000000000000E-002   0.0000000000000000     
  0.50000000000000000        3.1250000000000000E-002   0.0000000000000000     
  0.37500000000000000        6.2500000000000000E-002   0.0000000000000000     
  0.40625000000000000        6.2500000000000000E-002   0.0000000000000000     
  0.43750000000000000        6.2500000000000000E-002   0.0000000000000000     
  0.46875000000000000        6.2500000000000000E-002   0.0000000000000000     
  0.50000000000000000        6.2500000000000000E-002   0.0000000000000000     
  0.37500000000000000        9.3750000000000000E-002   0.0000000000000000     
  0.40625000000000000        9.3750000000000000E-002   0.0000000000000000     
  0.43750000000000000        9.3750000000000000E-002   0.0000000000000000     
  0.46875000000000000        9.3750000000000000E-002   0.0000000000000000     
  0.50000000000000000        9.3750000000000000E-002   0.0000000000000000     
  0.37500000000000000       0.12500000000000000        0.0000000000000000     
  0.40625000000000000       0.12500000000000000        0.0000000000000000     
  0.43750000000000000       0.12500000000000000        0.0000000000000000     
  0.46875000000000000       0.12500000000000000        0.0000000000000000     
  0.50000000000000000       0.12500000000000000        0.0000000000000000     
  0.50000000000000000        0.0000000000000000        0.0000000000000000     
  0.53125000000000000        0.0000000000000000        0.0000000000000000     
  0.56250000000000000        0.0000000000000000        0.0000000000000000     
  0.59375000000000000        0.0000000000000000        0.0000000000000000     
  0.62500000000000000        0.0000000000000000        0.0000000000000000     
  0.50000000000000000        3.1250000000000000E-002   0.0000000000000000     
  0.53125000000000000        3.1250000000000000E-002   0.0000000000000000     
  0.56250000000000000        3.1250000000000000E-002   0.0000000000000000     
  0.59375000000000000        3.1250000000000000E-002   0.0000000000000000     
  0.62500000000000000        3.1250000000000000E-002   0.0000000000000000     
  0.50000000000000000        6.2500000000000000E-002   0.0000000000000000     
  0.53125000000000000        6.2500000000000000E-002   0.0000000000000000     
  0.56250000000000000        6.2500000000000000E-002   0.0000000000000000     
  0.59375000000000000        6.2500000000000000E-002   0.0000000000000000     
  0.62500000000000000        6.2500000000000000E-002   0.0000000000000000     
  0.50000000000000000        9.3750000000000000E-002   0.0000000000000000     
  0.53125000000000000        9.3750000000000000E-002   0.0000000000000000     
  0.56250000000000000        9.3750000000000000E-002   0.0000000000000000     
  0.59375000000000000        9.3750000000000000E-002   0.0000000000000000     
  0.62500000000000000        9.3750000000000000E-002   0.0000000000000000     
  0.50000000000000000       0.12500000000000000        0.0000000000000000     
  0.53125000000000000       0.12500000000000000        0.0000000000000000     
  0.56250000000000000       0.12500000000000000        0.0000000000000000     
  0.59375000000000000       0.12500000000000000        0.0000000000000000     
  0.62500000000000000       0.12500000000000000        0.0000000000000000     
  0.62500000000000000        0.0000000000000000        0.0000000000000000     
  0.65625000000000000        0.0000000000000000        0.0000000000000000     
  0.68750000000000000        0.0000000000000000        0.0000000000000000     
  0.71875000000000000        0.0000000000000000        0.0000000000000000     
  0.75000000000000000        0.0000000000000000        0.0000000000000000     
  0.62500000000000000        3.1250000000000000E-002   0.0000000000000000     
  0.65625000000000000        3.1250000000000000E-002   0.0000000000000000     
  0.68750000000000000        3.1250000000000000E-002   0.0000000000000000     
  0.71875000000000000        3.1250000000000000E-002   0.0000000000000000     
  0.75000000000000000        3.1250000000000000E-002   0.0000000000000000     
  0.62500000000000000        6.2500000000000000E-002   0.0000000000000000     
  0.65625000000000000        6.2500000000000000E-002   0.0000000000000000     
  0.68750000000000000        6.2500000000000000E-002   0.0000000000000000     
  0.71875000000000000        6.2500000000000000E-002   0.0000000000000000     
  0.75000000000000000        6.2500000000000000E-002   0.0000000000000000     
  0.62500000000000000        9.3750000000000000E-002   0.0000000000000000     
  0.65625000000000000        9.3750000000000000E-002   0.0000000000000000     
  0.68750000000000000        9.3750000000000000E-002   0.0000000000000000     
  0.71875000000000000        9.3750000000000000E-002   0.0000000000000000     
  0.75000000000000000        9.3750000000000000E-002   0.0000000000000000     
  0.62500000000000000       0.12500000000000000        0.0000000000000000     
  0.65625000000000000       0.12500000000000000        0.0000000000000000     
  0.68750000000000000       0.12500000000000000        0.0000000000000000     
  0.71875000000000000       0.12500000000000000        0.0000000000000000     
  0.75000000000000000       0.12500000000000000        0.0000000000000000     
  0.75000000000000000        0.0000000000000000        0.0000000000000000     
  0.78125000000000000        0.0000000000000000        0.0000000000000000     
  0.81250000000000000        0.0000000000000000        0.0000000000000000     
  0.84375000000000000        0.0000000000000000        0.0000000000000000     
  0.87500000000000000        0.0000000000000000        0.0000000000000000     
  0.75000000000000000        3.1250000000000000E-002   0.0000000000000000     
  0.78125000000000000        3.1250000000000000E-002   0.0000000000000000     
  0.81250000000000000        3.1250000000000000E-002   0.0000000000000000     
  0.84375000000000000        3.1250000000000000E-002   0.0000000000000000     
  0.87500000000000000        3.1250000000000000E-002   0.0000000000000000     
  0.75000000000000000        6.2500000000000000E-002   0.0000000000000000     
  0.78125000000000000        6.2500000000000000E-002   0.0000000000000000     
  0.81250000000000000        6.2500000000000000E-002   0.0000000000000000     
  0.84375000000000000        6.2500000000000000E-002   0.0000000000000000     
  0.87500000000000000        6.2500000000000000E-002   0.0000000000000000     
  0.75000000000000000        9.3750000000000000E-002   0.0000000000000000     
  0.78125000000000000        9.3750000000000000E-002   0.0000000000000000     
  0.81250000000000000        9.3750000000000000E-002   0.0000000000000000     
  0.84375000000000000        9.3750000000000000E-002   0.0000000000000000     
  0.87500000000000000        9.3750000000000000E-002   0.0000000000000000     
  0.75000000000000000       0.12500000000000000        0.0000000000000000     
  0.78125000000000000       0.12500000000000000        0.0000000000000000     
  0.81250000000000000       0.12500000000000000        0.0000000000000000     
  0.84375000000000000       0.12500000000000000        0.0000000000000000     
  0.87500000000000000       0.12500000000000000        0.0000000000000000     
  0.87500000000000000        0.0000000000000000        0.0000000000000000     
  0.90625000000000000        0.0000000000000000        0.0000000000000000     
  0.93750000000000000        0.0000000000000000        0.0000000000000000     
  0.96875000000000000        0.0000000000000000        0.0000000000000000     
   1.0000000000000000        0.0000000000000000        0.0000000000000000     
  0.87500000000000000        3.1250000000000000E-002   0.0000000000000000     
  0.90625000000000000        3.1250000000000000E-002   0.0000000000000000     
  0.93750000000000000        3.1250000000000000E-002   0.0000000000000000     
  0.96875000000000000        3.1250000000000000E-002   0.0000000000000000     
   1.0000000000000000        3.1250000000000000E-002   0.0000000000000000     
  0.87500000000000000        6.2500000000000000E-002   0.0000000000000000     
  0.90625000000000000        6.2500000000000000E-002   0.0000000000000000     
  0.93750000000000000        6.2500000000000000E-002   0.0000000000000000     
  0.96875000000000000        6.2500000000000000E-002   0.0000000000000000     
   1.0000000000000000        6.2500000000000000E-002   0.0000000000000000     
  0.87500000000000000        9.3750000000000000E-002   0.0000000000000000     
  0.90625000000000000        9.3750000000000000E-002   0.0000000000000000     
  0.93750000000000000        9.3750000000000000E-002   0.0000000000000000     
  0.96875000000000000        9.3750000000000000E-002   0.0000000000000000     
   1.0000000000000000        9.3750000000000000E-002   0.0000000000000000     
  0.87500000000000000       0.12500000000000000        0.0000000000000000     
  0.90625000000000000       0.12500000000000000        0.0000000000000000     
  0.93750000000000000       0.12500000000000000        0.0000000000000000     
  0.96875000000000000       0.12500000000000000        0.0000000000000000     
   1.0000000000000000       0.12500000000000000        0.0000000000000000     
   0.0000000000000000       0.12500000000000000        0.0000000000000000     
   3.1250000000000000E-002  0.12500000000000000        0.0000000000000000     
   6.2500000000000000E-002  0.12500000000000000        0.0000000000000000     
   9.3750000000000000E-002  0.12500000000000000        0.0000000000000000     
  0.12500000000000000       0.12500000000000000        0.0000000000000000     
   0.0000000000000000       0.15625000000000000        0.0000000000000000     
   3.1250000000000000E-002  0.15625000000000000        0.0000000000000000     
   6.2500000000000000E-002  0.15625000000000000        0.0000000000000000     
   9.3750000000000000E-002  0.15625000000000000        0.0000000000000000     
  0.12500000000000000       0.15625000000000000        0.0000000000000000     
   0.0000000000000000       0.18750000000000000        0.0000000000000000     
   3.1250000000000000E-002  0.18750000000000000        0.0000000000000000     
   6.2500000000000000E-002  0.18750000000000000        0.0000000000000000     
   9.3750000000000000E-002  0.18750000000000000        0.0000000000000000     
  0.12500000000000000       0.18750000000000000        0.0000000000000000     
   0.0000000000000000       0.21875000000000000        0.0000000000000000     
   3.1250000000000000E-002  0.21875000000000000        0.0000000000000000     
   6.2500000000000000E-002  0.21875000000000000        0.0000000000000000     
   9.3750000000000000E-002  0.21875000000000000        0.0000000000000000     
  0.12500000000000000       0.21875000000000000        0.0000000000000000     
   0.0000000000000000       0.25000000000000000        0.0000000000000000     
   3.1250000000000000E-002  0.25000000000000000        0.0000000000000000     
   6.2500000000000000E-002  0.25000000000000000        0.0000000000000000     
   9.3750000000000000E-002  0.25000000000000000        0.0000000000000000     
  0.12500000000000000       0.25000000000000000        0.0000000000000000     
  0.12500000000000000       0.12500000000000000        0.0000000000000000     
  0.15625000000000000       0.12500000000000000        0.0000000000000000     
  0.18750000000000000       0.12500000000000000        0.0000000000000000     
  0.21875000000000000       0.12500000000000000        0.0000000000000000     
  0.25000000000000000       0.12500000000000000        0.0000000000000000     
  0.12500000000000000       0.15625000000000000        0.0000000000000000     
  0.15625000000000000       0.15625000000000000        0.0000000000000000     
  0.18750000000000000       0.15625000000000000        0.0000000000000000     
  0.21875000000000000       0.15625000000000000        0.0000000000000000     
  0.25000000000000000       0.15625000000000000        0.0000000000000000     
  0.12500000000000000       0.18750000000000000        0.0000000000000000     
  0.15625000000000000       0.18750000000000000        0.0000000000000000     
  0.18750000000000000       0.18750000000000000        0.0000000000000000     
  0.21875000000000000       0.18750000000000000        0.0000000000000000     
  0.25000000000000000       0.18750000000000000        0.0000000000000000     
  0.12500000000000000       0.21875000000000000        0.0000000000000000     
  0.15625000000000000       0.21875000000000000        0.0000000000000000     
  0.18750000000000000       0.21875000000000000        0.0000000000000000     
  0.21875000000000000       0.21875000000000000        0.0000000000000000     
  0.25000000000000000       0.21875000000000000        0.0000000000000000     
  0.12500000000000000       0.25000000000000000        0.0000000000000000     
  0.15625000000000000       0.25000000000000000        0.0000000000000000     
  0.18750000000000000       0.25000000000000000        0.0000000000000000     
  0.21875000000000000       0.25000000000000000        0.0000000000000000     
  0.25000000000000000       0.25000000000000000        0.0000000000000000     
  0.25000000000000000       0.12500000000000000        0.0000000000000000     
  0.28125000000000000       0.12500000000000000        0.0000000000000000     
  0.31250000000000000       0.12500000000000000        0.0000000000000000     
  0.34375000000000000       0.12500000000000000        0.0000000000000000     
  0.37500000000000000       0.12500000000000000        0.0000000000000000     
  0.25000000000000000       0.15625000000000000        0.0000000000000000     
  0.28125000000000000       0.15625000000000000        0.0000000000000000     
  0.31250000000000000       0.15625000000000000        0.0000000000000000     
  0.34375000000000000       0.15625000000000000        0.0000000000000000     
  0.37500000000000000       0.15625000000000000        0.0000000000000000     
  0.25000000000000000       0.18750000000000000        0.0000000000000000     
  0.28125000000000000       0.18750000000000000        0.0000000000000000     
  0.31250000000000000       0.18750000000000000        0.0000000000000000     
  0.34375000000000000       0.18750000000000000        0.0000000000000000     
  0.37500000000000000       0.18750000000000000        0.0000000000000000     
  0.25000000000000000       0.21875000000000000        0.0000000000000000     
  0.28125000000000000       0.21875000000000000        0.0000000000000000     
  0.31250000000000000       0.21875000000000000        0.0000000000000000     
  0.34375000000000000       0.21875000000000000        0.0000000000000000     
  0.37500000000000000       0.21875000000000000        0.0000000000000000     
  0.25000000000000000       0.25000000000000000        0.0000000000000000     
  0.28125000000000000       0.25000000000000000        0.0000000000000000     
  0.31250000000000000       0.25000000000000000        0.0000000000000000     
  0.34375000000000000       0.25000000000000000        0.0000000000000000     
  0.37500000000000000       0.25000000000000000        0.0000000000000000     
  0.37500000000000000       0.12500000000000000        0.0000000000000000     
  0.40625000000000000       0.12500000000000000        0.0000000000000000     
  0.43750000000000000       0.12500000000000000        0.0000000000000000     
  0.46875000000000000       0.12500000000000000        0.0000000000000000     
  0.50000000000000000       0.12500000000000000        0.0000000000000000     
  0.37500000000000000       0.15625000000000000        0.0000000000000000     
  0.40625000000000000       0.15625000000000000        0.0000000000000000     
  0.43750000000000000       0.15625000000000000        0.0000000000000000     
  0.46875000000000000       0.15625000000000000        0.0000000000000000     
  0.50000000000000000       0.15625000000000000        0.0000000000000000     
  0.37500000000000000       0.18750000000000000        0.0000000000000000     
  0.40625000000000000       0.18750000000000000        0.0000000000000000     
  0.43750000000000000       0.18750000000000000        0.0000000000000000     
  0.46875000000000000       0.18750000000000000        0.0000000000000000     
  0.50000000000000000       0.18750000000000000        0.0000000000000000     
  0.37500000000000000       0.21875000000000000        0.0000000000000000     
  0.40625000000000000       0.21875000000000000        0.0000000000000000     
  0.43750000000000000       0.21875000000000000        0.0000000000000000     
  0.46875000000000000       0.21875000000000000        0.0000000000000000     
  0.50000000000000000       0.21875000000000000        0.0000000000000000     
  0.37500000000000000       0.25000000000000000        0.0000000000000000     
  0.40625000000000000       0.25000000000000000        0.0000000000000000     
  0.43750000000000000       0.25000000000000000        0.0000000000000000     
  0.46875000000000000       0.25000000000000000        0.0000000000000000     
  0.50000000000000000       0.25000000000000000        0.0000000000000000     
  0.50000000000000000       0.12500000000000000        0.0000000000000000     
  0.53125000000000000       0.12500000000000000        0.0000000000000000     
  0.56250000000000000       0.12500000000000000        0.0000000000000000     
  0.59375000000000000       0.12500000000000000        0.0000000000000000     
  0.62500000000000000       0.12500000000000000        0.0000000000000000     
  0.50000000000000000       0.15625000000000000        0.0000000000000000     
  0.53125000000000000       0.15625000000000000        0.0000000000000000     
  0.56250000000000000       0.15625000000000000        0.0000000000000000     
  0.59375000000000000       0.15625000000000000        0.0000000000000000     
  0.62500000000000000       0.15625000000000000        0.0000000000000000     
  0.50000000000000000       0.18750000000000000        0.0000000000000000     
  0.53125000000000000       0.18750000000000000        0.0000000000000000     
  0.56250000000000000       0.18750000000000000        0.0000000000000000     
  0.59375000000000000       0.18750000000000000        0.0000000000000000     
  0.62500000000000000       0.18750000000000000        0.0000000000000000     
  0.50000000000000000       0.21875000000000000        0.0000000000000000     
  0.53125000000000000       0.21875000000000000        0.0000000000000000     
  0.56250000000000000       0.21875000000000000        0.0000000000000000     
  0.59375000000000000       0.21875000000000000        0.0000000000000000     
  0.62500000000000000       0.21875000000000000        0.0000000000000000     
  0.50000000000000000       0.25000000000000000        0.0000000000000000     
  0.53125000000000000       0.25000000000000000        0.0000000000000000     
  0.56250000000000000       0.25000000000000000        0.0000000000000000     
  0.59375000000000000       0.25000000000000000        0.0000000000000000     
  0.62500000000000000       0.25000000000000000        0.0000000000000000     
  0.62500000000000000       0.12500000000000000        0.0000000000000000     
  0.65625000000000000       0.12500000000000000        0.0000000000000000     
  0.68750000000000000       0.12500000000000000        0.0000000000000000     
  0.71875000000000000       0.12500000000000000        0.0000000000000000     
  0.75000000000000000       0.12500000000000000        0.0000000000000000     
  0.62500000000000000       0.15625000000000000        0.0000000000000000     
  0.65625000000000000       0.15625000000000000        0.0000000000000000     
  0.68750000000000000       0.15625000000000000        0.0000000000000000     
  0.71875000000000000       0.15625000000000000        0.0000000000000000     
  0.75000000000000000       0.15625000000000000        0.0000000000000000     
  0.62500000000000000       0.18750000000000000        0.0000000000000000     
  0.65625000000000000       0.18750000000000000        0.0000000000000000     
  0.68750000000000000       0.18750000000000000        0.0000000000000000     
  0.71875000000000000       0.18750000000000000        0.0000000000000000     
  0.75000000000000000       0.18750000000000000        0.0000000000000000     
  0.62500000000000000       0.21875000000000000        0.0000000000000000     
  0.65625000000000000       0.21875000000000000        0.0000000000000000     
  0.68750000000000000       0.21875000000000000        0.0000000000000000     
  0.71875000000000000       0.21875000000000000        0.0000000000000000     
  0.75000000000000000       0.21875000000000000        0.0000000000000000     
  0.62500000000000000       0.25000000000000000        0.0000000000000000     
  0.65625000000000000       0.25000000000000000        0.0000000000000000     
  0.68750000000000000       0.25000000000000000        0.0000000000000000     
  0.71875000000000000       0.25000000000000000        0.0000000000000000     
  0.75000000000000000       0.25000000000000000        0.0000000000000000     
  0.75000000000000000       0.12500000000000000        0.0000000000000000     
  0.78125000000000000       0.12500000000000000        0.0000000000000000     
  0.81250000000000000       0.12500000000000000        0.0000000000000000     
  0.84375000000000000       0.12500000000000000        0.0000000000000000     
  0.87500000000000000       0.12500000000000000        0.0000000000000000     
  0.75000000000000000       0.15625000000000000        0.0000000000000000     
  0.78125000000000000       0.15625000000000000        0.0000000000000000     
  0.81250000000000000       0.15625000000000000        0.0000000000000000     
  0.84375000000000000       0.15625000000000000        0.0000000000000000     
  0.87500000000000000       0.15625000000000000        0.0000000000000000     
  0.75000000000000000       0.18750000000000000        0.0000000000000000     
  0.78125000000000000       0.18750000000000000        0.0000000000000000     
  0.81250000000000000       0.18750000000000000        0.0000000000000000     
  0.84375000000000000       0.18750000000000000        0.0000000000000000     
  0.87500000000000000       0.18750000000000000        0.0000000000000000     
  0.75000000000000000       0.21875000000000000        0.0000000000000000     
  0.78125000000000000       0.21875000000000000        0.0000000000000000     
  0.81250000000000000       0.21875000000000000        0.0000000000000000     
  0.84375000000000000       0.21875000000000000        0.0000000000000000     
  0.87500000000000000       0.21875000000000000        0.0000000000000000     
  0.75000000000000000       0.25000000000000000        0.0000000000000000     
  0.78125000000000000       0.25000000000000000        0.0000000000000000     
  0.81250000000000000       0.25000000000000000        0.0000000000000000     
  0.84375000000000000       0.25000000000000000        0.0000000000000000     
  0.87500000000000000       0.25000000000000000        0.0000000000000000     
  0.87500000000000000       0.12500000000000000        0.0000000000000000     
  0.90625000000000000       0.12500000000000000        0.0000000000000000     
  0.93750000000000000       0.12500000000000000        0.0000000000000000     
  0.96875000000000000       0.12500000000000000        0.0000000000000000     
   1.0000000000000000       0.12500000000000000        0.0000000000000000     
  0.87500000000000000       0.15625000000000000        0.0000000000000000     
  0.90625000000000000       0.15625000000000000        0.0000000000000000     
  0.93750000000000000       0.15625000000000000        0.0000000000000000     
  0.96875000000000000       0.15625000000000000        0.0000000000000000     
   1.0000000000000000       0.15625000000000000        0.0000000000000000     
  0.87500000000000000       0.18750000000000000        0.0000000000000000     
  0.90625000000000000       0.18750000000000000        0.0000000000000000     
  0.93750000000000000       0.18750000000000000        0.0000000000000000     
  0.96875000000000000       0.18750000000000000        0.0000000000000000     
   1.0000000000000000       0.18750000000000000        0.0000000000000000     
  0.87500000000000000       0.21875000000000000        0.0000000000000000     
  0.90625000000000000       0.21875000000000000        0.0000000000000000     
  0.93750000000000000       0.21875000000000000        0.0000000000000000     
  0.96875000000000000       0.21875000000000000        0.0000000000000000     
   1.0000000000000000       0.21875000000000000        0.0000000000000000     
  0.87500000000000000       0.25000000000000000        0.0000000000000000     
  0.90625000000000000       0.25000000000000000        0.0000000000000000     
  0.93750000000000000       0.25000000000000000        0.0000000000000000     
  0.96875000000000000       0.25000000000000000        0.0000000000000000     
   1.0000000000000000       0.25000000000000000        0.0000000000000000     
   0.0000000000000000       0.25000000000000000        0.0000000000000000     
   3.1250000000000000E-002  0.25000000000000000        0.0000000000000000     
   6.2500000000000000E-002  0.25000000000000000        0.0000000000000000     
   9.3750000000000000E-002  0.25000000000000000        0.0000000000000000     
  0.12500000000000000       0.25000000000000000        0.0000000000000000     
   0.0000000000000000       0.28125000000000000        0.0000000000000000     
   3.1250000000000000E-002  0.28125000000000000        0.0000000000000000     
   6.2500000000000000E-002  0.28125000000000000        0.0000000000000000     
   9.3750000000000000E-002  0.28125000000000000        0.0000000000000000     
  0.12500000000000000       0.28125000000000000        0.0000000000000000     
   0.0000000000000000       0.31250000000000000        0.0000000000000000     
   3.1250000000000000E-002  0.31250000000000000        0.0000000000000000     
   6.2500000000000000E-002  0.31250000000000000        0.0000000000000000     
   9.3750000000000000E-002  0.31250000000000000        0.0000000000000000     
  0.12500000000000000       0.31250000000000000        0.0000000000000000     
   0.0000000000000000       0.34375000000000000        0.0000000000000000     
   3.1250000000000000E-002  0.34375000000000000        0.0000000000000000     
   6.2500000000000000E-002  0.34375000000000000        0.0000000000000000     
   9.3750000000000000E-002  0.34375000000000000        0.0000000000000000     
  0.12500000000000000       0.34375000000000000        0.0000000000000000     
   0.0000000000000000       0.37500000000000000        0.0000000000000000     
   3.1250000000000000E-002  0.37500000000000000        0.0000000000000000     
   6.2500000000000000E-002  0.37500000000000000        0.0000000000000000     
   9.3750000000000000E-002  0.37500000000000000        0.0000000000000000     
  0.12500000000000000       0.37500000000000000        0.0000000000000000     
  0.12500000000000000       0.25000000000000000        0.0000000000000000     
  0.15625000000000000       0.25000000000000000        0.0000000000000000     
  0.18750000000000000       0.25000000000000000        0.0000000000000000     
  0.21875000000000000       0.25000000000000000        0.0000000000000000     
  0.25000000000000000       0.25000000000000000        0.0000000000000000     
  0.12500000000000000       0.28125000000000000        0.0000000000000000     
  0.15625000000000000       0.28125000000000000        0.0000000000000000     
  0.18750000000000000       0.28125000000000000        0.0000000000000000     
  0.21875000000000000       0.28125000000000000        0.0000000000000000     
  0.25000000000000000       0.28125000000000000        0.0000000000000000     
  0.12500000000000000       0.31250000000000000        0.0000000000000000     
  0.15625000000000000       0.31250000000000000        0.0000000000000000     
  0.18750000000000000       0.31250000000000000        0.0000000000000000     
  0.21875000000000000       0.31250000000000000        0.0000000000000000     
  0.25000000000000000       0.31250000000000000        0.0000000000000000     
  0.12500000000000000       0.34375000000000000        0.0000000000000000     
  0.15625000000000000       0.34375000000000000        0.0000000000000000     
  0.18750000000000000       0.34375000000000000        0.0000000000000000     
  0.21875000000000000       0.34375000000000000        0.0000000000000000     
  0.25000000000000000       0.34375000000000000        0.0000000000000000     
  0.12500000000000000       0.37500000000000000        0.0000000000000000     
  0.15625000000000000       0.37500000000000000        0.0000000000000000     
  0.18750000000000000       0.37500000000000000        0.0000000000000000     
  0.21875000000000000       0.37500000000000000        0.0000000000000000     
  0.25000000000000000       0.37500000000000000        0.0000000000000000     
  0.25000000000000000       0.25000000000000000        0.0000000000000000     
  0.28125000000000000       0.25000000000000000        0.0000000000000000     
  0.31250000000000000       0.25000000000000000        0.0000000000000000     
  0.34375000000000000       0.25000000000000000        0.0000000000000000     
  0.37500000000000000       0.25000000000000000        0.0000000000000000     
  0.25000000000000000       0.28125000000000000        0.0000000000000000     
  0.28125000000000000       0.28125000000000000        0.0000000000000000     
  0.31250000000000000       0.28125000000000000        0.0000000000000000     
  0.34375000000000000       0.28125000000000000        0.0000000000000000     
  0.37500000000000000       0.28125000000000000        0.0000000000000000     
  0.25000000000000000       0.31250000000000000        0.0000000000000000     
  0.28125000000000000       0.31250000000000000        0.0000000000000000     
  0.31250000000000000       0.31250000000000000        0.0000000000000000     
  0.34375000000000000       0.31250000000000000        0.0000000000000000     
  0.37500000000000000       0.31250000000000000        0.0000000000000000     
  0.25000000000000000       0.34375000000000000        0.0000000000000000     
  0.28125000000000000       0.34375000000000000        0.0000000000000000     
  0.31250000000000000       0.34375000000000000        0.0000000000000000     
  0.34375000000000000       0.34375000000000000        0.0000000000000000     
  0.37500000000000000       0.34375000000000000        0.0000000000000000     
  0.25000000000000000       0.37500000000000000        0.0000000000000000     
  0.28125000000000000       0.37500000000000000        0.0000000000000000     
  0.31250000000000000       0.37500000000000000        0.0000000000000000     
  0.34375000000000000       0.37500000000000000        0.0000000000000000     
  0.37500000000000000       0.37500000000000000        0.0000000000000000     
  0.37500000000000000       0.25000000000000000        0.0000000000000000     
  0.40625000000000000       0.25000000000000000        0.0000000000000000     
  0.43750000000000000       0.25000000000000000        0.0000000000000000     
  0.46875000000000000       0.25000000000000000        0.0000000000000000     
  0.50000000000000000       0.25000000000000000        0.0000000000000000     
  0.37500000000000000       0.28125000000000000        0.0000000000000000     
  0.40625000000000000       0.28125000000000000        0.0000000000000000     
  0.43750000000000000       0.28125000000000000        0.0000000000000000     
  0.46875000000000000       0.28125000000000000        0.0000000000000000     
  0.50000000000000000       0.28125000000000000        0.0000000000000000     
  0.37500000000000000       0.31250000000000000        0.0000000000000000     
  0.40625000000000000       0.31250000000000000        0.0000000000000000     
  0.43750000000000000       0.31250000000000000        0.0000000000000000     
  0.46875000000000000       0.31250000000000000        0.0000000000000000     
  0.50000000000000000       0.31250000000000000        0.0000000000000000     
  0.37500000000000000       0.34375000000000000        0.0000000000000000     
  0.40625000000000000       0.34375000000000000        0.0000000000000000     
  0.43750000000000000       0.34375000000000000        0.0000000000000000     
  0.46875000000000000       0.34375000000000000        0.0000000000000000     
  0.50000000000000000       0.34375000000000000        0.0000000000000000     
  0.37500000000000000       0.37500000000000000        0.0000000000000000     
  0.40625000000000000       0.37500000000000000        0.0000000000000000     
  0.43750000000000000       0.37500000000000000        0.0000000000000000     
  0.46875000000000000       0.37500000000000000        0.0000000000000000     
  0.50000000000000000       0.37500000000000000        0.0000000000000000     
  0.50000000000000000       0.25000000000000000        0.0000000000000000     
  0.53125000000000000       0.25000000000000000        0.0000000000000000     
  0.56250000000000000       0.25000000000000000        0.0000000000000000     
  0.59375000000000000       0.25000000000000000        0.0000000000000000     
  0.62500000000000000       0.25000000000000000        0.0000000000000000     
  0.50000000000000000       0.28125000000000000        0.0000000000000000     
  0.53125000000000000       0.28125000000000000        0.0000000000000000     
  0.56250000000000000       0.28125000000000000        0.0000000000000000     
  0.59375000000000000       0.28125000000000000        0.0000000000000000     
  0.62500000000000000       0.28125000000000000        0.0000000000000000     
  0.50000000000000000       0.31250000000000000        0.0000000000000000     
  0.53125000000000000       0.31250000000000000        0.0000000000000000     
  0.56250000000000000       0.31250000000000000        0.0000000000000000     
  0.59375000000000000       0.31250000000000000        0.0000000000000000     
  0.62500000000000000       0.31250000000000000        0.0000000000000000     
  0.50000000000000000       0.34375000000000000        0.0000000000000000     
  0.53125000000000000       0.34375000000000000        0.0000000000000000     
  0.56250000000000000       0.34375000000000000        0.0000000000000000     
  0.59375000000000000       0.34375000000000000        0.0000000000000000     
  0.62500000000000000       0.34375000000000000        0.0000000000000000     
  0.50000000000000000       0.37500000000000000        0.0000000000000000     
  0.53125000000000000       0.37500000000000000        0.0000000000000000     
  0.56250000000000000       0.37500000000000000        0.0000000000000000     
  0.59375000000000000       0.37500000000000000        0.0000000000000000     
  0.62500000000000000       0.37500000000000000        0.0000000000000000     
  0.62500000000000000       0.25000000000000000        0.0000000000000000     
  0.65625000000000000       0.25000000000000000        0.0000000000000000     
  0.68750000000000000       0.25000000000000000        0.0000000000000000     
  0.71875000000000000       0.25000000000000000        0.0000000000000000     
  0.75000000000000000       0.25000000000000000        0.0000000000000000     
  0.62500000000000000       0.28125000000000000        0.0000000000000000     
  0.65625000000000000       0.28125000000000000        0.0000000000000000     
  0.68750000000000000       0.28125000000000000        0.0000000000000000     
  0.71875000000000000       0.28125000000000000        0.0000000000000000     
  0.75000000000000000       0.28125000000000000        0.0000000000000000     
  0.62500000000000000       0.31250000000000000        0.0000000000000000     
  0.65625000000000000       0.31250000000000000        0.0000000000000000     
  0.68750000000000000       0.31250000000000000        0.0000000000000000     
  0.71875000000000000       0.31250000000000000        0.0000000000000000     
  0.75000000000000000       0.31250000000000000        0.0000000000000000     
  0.62500000000000000       0.34375000000000000        0.0000000000000000     
  0.65625000000000000       0.34375000000000000        0.0000000000000000     
  0.68750000000000000       0.34375000000000000        0.0000000000000000     
  0.71875000000000000       0.34375000000000000        0.0000000000000000     
  0.75000000000000000       0.34375000000000000        0.0000000000000000     
  0.62500000000000000       0.37500000000000000        0.0000000000000000     
  0.65625000000000000       0.37500000000000000        0.0000000000000000     
  0.68750000000000000       0.37500000000000000        0.0000000000000000     
  0.71875000000000000       0.37500000000000000        0.0000000000000000     
  0.75000000000000000       0.37500000000000000        0.0000000000000000     
  0.75000000000000000       0.25000000000000000        0.0000000000000000     
  0.78125000000000000       0.25000000000000000        0.0000000000000000     
  0.81250000000000000       0.25000000000000000        0.0000000000000000     
  0.84375000000000000       0.25000000000000000        0.0000000000000000     
  0.87500000000000000       0.25000000000000000        0.0000000000000000     
  0.75000000000000000       0.28125000000000000        0.0000000000000000     
  0.78125000000000000       0.28125000000000000        0.0000000000000000     
  0.81250000000000000       0.28125000000000000        0.0000000000000000     
  0.84375000000000000       0.28125000000000000        0.0000000000000000     
  0.87500000000000000       0.28125000000000000        0.0000000000000000     
  0.75000000000000000       0.31250000000000000        0.0000000000000000     
  0.78125000000000000       0.31250000000000000        0.0000000000000000     
  0.81250000000000000       0.31250000000000000        0.0000000000000000     
  0.84375000000000000       0.31250000000000000        0.0000000000000000     
  0.87500000000000000       0.31250000000000000        0.0000000000000000     
  0.75000000000000000       0.34375000000000000        0.0000000000000000     
  0.78125000000000000       0.34375000000000000        0.0000000000000000     
  0.81250000000000000       0.34375000000000000        0.0000000000000000     
  0.84375000000000000       0.34375000000000000        0.0000000000000000     
  0.87500000000000000       0.34375000000000000        0.0000000000000000     
  0.75000000000000000       0.37500000000000000        0.0000000000000000     
  0.78125000000000000       0.37500000000000000        0.0000000000000000     
  0.81250000000000000       0.37500000000000000        0.0000000000000000     
  0.84375000000000000       0.37500000000000000        0.0000000000000000     
  0.87500000000000000       0.37500000000000000        0.0000000000000000     
  0.87500000000000000       0.25000000000000000        0.0000000000000000     
  0.90625000000000000       0.25000000000000000        0.0000000000000000     
  0.93750000000000000       0.25000000000000000        0.0000000000000000     
  0.96875000000000000       0.25000000000000000        0.0000000000000000     
   1.0000000000000000       0.25000000000000000        0.0000000000000000     
  0.87500000000000000       0.28125000000000000        0.0000000000000000     
  0.90625000000000000       0.28125000000000000        0.0000000000000000     
  0.93750000000000000       0.28125000000000000        0.0000000000000000     
  0.96875000000000000       0.28125000000000000        0.0000000000000000     
   1.0000000000000000       0.28125000000000000        0.0000000000000000     
  0.87500000000000000       0.31250000000000000        0.0000000000000000     
  0.90625000000000000       0.31250000000000000        0.0000000000000000     
  0.93750000000000000       0.31250000000000000        0.0000000000000000     
  0.96875000000000000       0.31250000000000000        0.0000000000000000     
   1.0000000000000000       0.31250000000000000        0.0000000000000000     
  0.87500000000000000       0.34375000000000000        0.0000000000000000     
  0.90625000000000000       0.34375000000000000        0.0000000000000000     
  0.93750000000000000       0.34375000000000000        0.0000000000000000     
  0.96875000000000000       0.34375000000000000        0.0000000000000000     
   1.0000000000000000       0.34375000000000000        0.0000000000000000     
  0.87500000000000000       0.37500000000000000        0.0000000000000000     
  0.90625000000000000       0.37500000000000000        0.0000000000000000     
  0.93750000000000000       0.37500000000000000        0.0000000000000000     
  0.96875000000000000       0.37500000000000000        0.0000000000000000     
   1.0000000000000000       0.37500000000000000        0.0000000000000000     
   0.0000000000000000       0.37500000000000000        0.0000000000000000     
   3.1250000000000000E-002  0.37500000000000000        0.0000000000000000     
   6.2500000000000000E-002  0.37500000000000000        0.0000000000000000     
   9.3750000000000000E-002  0.37500000000000000        0.0000000000000000     
  0.12500000000000000       0.37500000000000000        0.0000000000000000     
   0.0000000000000000       0.40625000000000000        0.0000000000000000     
   3.1250000000000000E-002  0.40625000000000000        0.0000000000000000     
   6.2500000000000000E-002  0.40625000000000000        0.0000000000000000     
   9.3750000000000000E-002  0.40625000000000000        0.0000000000000000     
  0.12500000000000000       0.40625000000000000        0.0000000000000000     
   0.0000000000000000       0.43750000000000000        0.0000000000000000     
   3.1250000000000000E-002  0.43750000000000000        0.0000000000000000     
   6.2500000000000000E-002  0.43750000000000000        0.0000000000000000     
   9.3750000000000000E-002  0.43750000000000000        0.0000000000000000     
  0.12500000000000000       0.43750000000000000        0.0000000000000000     
   0.0000000000000000       0.46875000000000000        0.0000000000000000     
   3.1250000000000000E-002  0.46875000000000000        0.0000000000000000     
   6.2500000000000000E-002  0.46875000000000000        0.0000000000000000     
   9.3750000000000000E-002  0.46875000000000000        0.0000000000000000     
  0.12500000000000000       0.46875000000000000        0.0000000000000000     
   0.0000000000000000       0.50000000000000000        0.0000000000000000     
   3.1250000000000000E-002  0.50000000000000000        0.0000000000000000     
   6.2500000000000000E-002  0.50000000000000000        0.0000000000000000     
   9.3750000000000000E-002  0.50000000000000000        0.0000000000000000     
  0.12500000000000000       0.50000000000000000        0.0000000000000000     
  0.12500000000000000       0.37500000000000000        0.0000000000000000     
  0.15625000000000000       0.37500000000000000        0.0000000000000000     
  0.18750000000000000       0.37500000000000000        0.0000000000000000     
  0.21875000000000000       0.37500000000000000        0.0000000000000000     
  0.25000000000000000       0.37500000000000000        0.0000000000000000     
  0.12500000000000000       0.40625000000000000        0.0000000000000000     
  0.15625000000000000       0.40625000000000000        0.0000000000000000     
  0.18750000000000000       0.40625000000000000        0.0000000000000000     
  0.21875000000000000       0.40625000000000000        0.0000000000000000     
  0.25000000000000000       0.40625000000000000        0.0000000000000000     
  0.12500000000000000       0.43750000000000000        0.0000000000000000     
  0.15625000000000000       0.43750000000000000        0.0000000000000000     
  0.18750000000000000       0.43750000000000000        0.0000000000000000     
  0.21875000000000000       0.43750000000000000        0.0000000000000000     
  0.25000000000000000       0.43750000000000000        0.0000000000000000     
  0.12500000000000000       0.46875000000000000        0.0000000000000000     
  0.15625000000000000       0.46875000000000000        0.0000000000000000     
  0.18750000000000000       0.46875000000000000        0.0000000000000000     
  0.21875000000000000       0.46875000000000000        0.0000000000000000     
  0.25000000000000000       0.46875000000000000        0.0000000000000000     
  0.12500000000000000       0.50000000000000000        0.0000000000000000     
  0.15625000000000000       0.50000000000000000        0.0000000000000000     
  0.18750000000000000       0.50000000000000000        0.0000000000000000     
  0.21875000000000000       0.50000000000000000        0.0000000000000000     
  0.25000000000000000       0.50000000000000000        0.0000000000000000     
  0.25000000000000000       0.37500000000000000        0.0000000000000000     
  0.28125000000000000       0.37500000000000000        0.0000000000000000     
  0.31250000000000000       0.37500000000000000        0.0000000000000000     
  0.34375000000000000       0.37500000000000000        0.0000000000000000     
  0.37500000000000000       0.37500000000000000        0.0000000000000000     
  0.25000000000000000       0.40625000000000000        0.0000000000000000     
  0.28125000000000000       0.40625000000000000        0.0000000000000000     
  0.31250000000000000       0.40625000000000000        0.0000000000000000     
  0.34375000000000000       0.40625000000000000        0.0000000000000000     
  0.37500000000000000       0.40625000000000000        0.0000000000000000     
  0.25000000000000000       0.43750000000000000        0.0000000000000000     
  0.28125000000000000       0.43750000000000000        0.0000000000000000     
  0.31250000000000000       0.43750000000000000        0.0000000000000000     
  0.34375000000000000       0.43750000000000000        0.0000000000000000     
  0.37500000000000000       0.43750000000000000        0.0000000000000000     
  0.25000000000000000       0.46875000000000000        0.0000000000000000     
  0.28125000000000000       0.46875000000000000        0.0000000000000000     
  0.31250000000000000       0.46875000000000000        0.0000000000000000     
  0.34375000000000000       0.46875000000000000        0.0000000000000000     
  0.37500000000000000       0.46875000000000000        0.0000000000000000     
  0.25000000000000000       0.50000000000000000        0.0000000000000000     
  0.28125000000000000       0.50000000000000000        0.0000000000000000     
  0.31250000000000000       0.50000000000000000        0.0000000000000000     
  0.34375000000000000       0.50000000000000000        0.0000000000000000     
  0.37500000000000000       0.50000000000000000        0.0000000000000000     
  0.37500000000000000       0.37500000000000000        0.0000000000000000     
  0.40625000000000000       0.37500000000000000        0.0000000000000000     
  0.43750000000000000       0.37500000000000000        0.0000000000000000     
  0.46875000000000000       0.37500000000000000        0.0000000000000000     
  0.50000000000000000       0.37500000000000000        0.0000000000000000     
  0.37500000000000000       0.40625000000000000        0.0000000000000000     
  0.40625000000000000       0.40625000000000000        0.0000000000000000     
  0.43750000000000000       0.40625000000000000        0.0000000000000000     
  0.46875000000000000       0.40625000000000000        0.0000000000000000     
  0.50000000000000000       0.40625000000000000        0.0000000000000000     
  0.37500000000000000       0.43750000000000000        0.0000000000000000     
  0.40625000000000000       0.43750000000000000        0.0000000000000000     
  0.43750000000000000       0.43750000000000000        0.0000000000000000     
  0.46875000000000000       0.43750000000000000        0.0000000000000000     
  0.50000000000000000       0.43750000000000000        0.0000000000000000     
  0.37500000000000000       0.46875000000000000        0.0000000000000000     
  0.40625000000000000       0.46875000000000000        0.0000000000000000     
  0.43750000000000000       0.46875000000000000        0.0000000000000000     
  0.46875000000000000       0.46875000000000000        0.0000000000000000     
  0.50000000000000000       0.46875000000000000        0.0000000000000000     
  0.37500000000000000       0.50000000000000000        0.0000000000000000     
  0.40625000000000000       0.50000000000000000        0.0000000000000000     
  0.43750000000000000       0.50000000000000000        0.0000000000000000     
  0.46875000000000000       0.50000000000000000        0.0000000000000000     
  0.50000000000000000       0.50000000000000000        0.0000000000000000     
  0.50000000000000000       0.37500000000000000        0.0000000000000000     
  0.53125000000000000       0.37500000000000000        0.0000000000000000     
  0.56250000000000000       0.37500000000000000        0.0000000000000000     
  0.59375000000000000       0.37500000000000000        0.0000000000000000     
  0.62500000000000000       0.37500000000000000        0.0000000000000000     
  0.50000000000000000       0.40625000000000000        0.0000000000000000     
  0.53125000000000000       0.40625000000000000        0.0000000000000000     
  0.56250000000000000       0.40625000000000000        0.0000000000000000     
  0.59375000000000000       0.40625000000000000        0.0000000000000000     
  0.62500000000000000       0.40625000000000000        0.0000000000000000     
  0.50000000000000000       0.43750000000000000        0.0000000000000000     
  0.53125000000000000       0.43750000000000000        0.0000000000000000     
  0.56250000000000000       0.43750000000000000        0.0000000000000000     
  0.59375000000000000       0.43750000000000000        0.0000000000000000     
  0.62500000000000000       0.43750000000000000        0.0000000000000000     
  0.50000000000000000       0.46875000000000000        0.0000000000000000     
  0.53125000000000000       0.46875000000000000        0.0000000000000000     
  0.56250000000000000       0.46875000000000000        0.0000000000000000     
  0.59375000000000000       0.46875000000000000        0.0000000000000000     
  0.62500000000000000       0.46875000000000000        0.0000000000000000     
  0.50000000000000000       0.50000000000000000        0.0000000000000000     
  0.53125000000000000       0.50000000000000000        0.0000000000000000     
  0.56250000000000000       0.50000000000000000        0.0000000000000000     
  0.59375000000000000       0.50000000000000000        0.0000000000000000     
  0.62500000000000000       0.50000000000000000        0.0000000000000000     
  0.62500000000000000       0.37500000000000000        0.0000000000000000     
  0.65625000000000000       0.37500000000000000        0.0000000000000000     
  0.68750000000000000       0.37500000000000000        0.0000000000000000     
  0.71875000000000000       0.37500000000000000        0.0000000000000000     
  0.75000000000000000       0.37500000000000000        0.0000000000000000     
  0.62500000000000000       0.40625000000000000        0.0000000000000000     
  0.65625000000000000       0.40625000000000000        0.0000000000000000     
  0.68750000000000000       0.40625000000000000        0.0000000000000000     
  0.71875000000000000       0.40625000000000000        0.0000000000000000     
  0.75000000000000000       0.40625000000000000        0.0000000000000000     
  0.62500000000000000       0.43750000000000000        0.0000000000000000     
  0.65625000000000000       0.43750000000000000        0.0000000000000000     
  0.68750000000000000       0.43750000000000000        0.0000000000000000     
  0.71875000000000000       0.43750000000000000        0.0000000000000000     
  0.75000000000000000       0.43750000000000000        0.0000000000000000     
  0.62500000000000000       0.46875000000000000        0.0000000000000000     
  0.65625000000000000       0.46875000000000000        0.0000000000000000     
  0.68750000000000000       0.46875000000000000        0.0000000000000000     
  0.71875000000000000       0.46875000000000000        0.0000000000000000     
  0.75000000000000000       0.46875000000000000        0.0000000000000000     
  0.62500000000000000       0.50000000000000000        0.0000000000000000     
  0.65625000000000000       0.50000000000000000        0.0000000000000000     
  0.68750000000000000       0.50000000000000000        0.0000000000000000     
  0.71875000000000000       0.50000000000000000        0.0000000000000000     
  0.75000000000000000       0.50000000000000000        0.0000000000000000     
  0.75000000000000000       0.37500000000000000        0.0000000000000000     
  0.78125000000000000       0.37500000000000000        0.0000000000000000     
  0.81250000000000000       0.37500000000000000        0.0000000000000000     
  0.84375000000000000       0.37500000000000000        0.0000000000000000     
  0.87500000000000000       0.37500000000000000        0.0000000000000000     
  0.75000000000000000       0.40625000000000000        0.0000000000000000     
  0.78125000000000000       0.40625000000000000        0.0000000000000000     
  0.81250000000000000       0.40625000000000000        0.0000000000000000     
  0.84375000000000000       0.40625000000000000        0.0000000000000000     
  0.87500000000000000       0.40625000000000000        0.0000000000000000     
  0.75000000000000000       0.43750000000000000        0.0000000000000000     
  0.78125000000000000       0.43750000000000000        0.0000000000000000     
  0.81250000000000000       0.43750000000000000        0.0000000000000000     
  0.84375000000000000       0.43750000000000000        0.0000000000000000     
  0.87500000000000000       0.43750000000000000        0.0000000000000000     
  0.75000000000000000       0.46875000000000000        0.0000000000000000     
  0.78125000000000000       0.46875000000000000        0.0000000000000000     
  0.81250000000000000       0.46875000000000000        0.0000000000000000     
  0.84375000000000000       0.46875000000000000        0.0000000000000000     
  0.87500000000000000       0.46875000000000000        0.0000000000000000     
  0.75000000000000000       0.50000000000000000        0.0000000000000000     
  0.78125000000000000       0.50000000000000000        0.0000000000000000     
  0.81250000000000000       0.50000000000000000        0.0000000000000000     
  0.84375000000000000       0.50000000000000000        0.0000000000000000     
  0.87500000000000000       0.50000000000000000        0.0000000000000000     
  0.87500000000000000       0.37500000000000000        0.0000000000000000     
  0.90625000000000000       0.37500000000000000        0.0000000000000000     
  0.93750000000000000       0.37500000000000000        0.0000000000000000     
  0.96875000000000000       0.37500000000000000        0.0000000000000000     
   1.0000000000000000       0.37500000000000000        0.0000000000000000     
  0.87500000000000000       0.40625000000000000        0.0000000000000000     
  0.90625000000000000       0.40625000000000000        0.0000000000000000     
  0.93750000000000000       0.40625000000000000        0.0000000000000000     
  0.96875000000000000       0.40625000000000000        0.0000000000000000     
   1.0000000000000000       0.40625000000000000        0.0000000000000000     
  0.87500000000000000       0.43750000000000000        0.0000000000000000     
  0.90625000000000000       0.43750000000000000        0.0000000000000000     
  0.93750000000000000       0.43750000000000000        0.0000000000000000     
  0.96875000000000000       0.43750000000000000        0.0000000000000000     
   1.0000000000000000       0.43750000000000000        0.0000000000000000     
  0.87500000000000000       0.46875000000000000        0.0000000000000000     
  0.90625000000000000       0.46875000000000000        0.0000000000000000     
  0.93750000000000000       0.46875000000000000        0.0000000000000000     
  0.96875000000000000       0.46875000000000000        0.0000000000000000     
   1.0000000000000000       0.46875000000000000        0.0000000000000000     
  0.87500000000000000       0.50000000000000000        0.0000000000000000     
  0.90625000000000000       0.50000000000000000        0.0000000000000000     
  0.93750000000000000       0.50000000000000000        0.0000000000000000     
  0.96875000000000000       0.50000000000000000        0.0000000000000000     
   1.0000000000000000       0.50000000000000000        0.0000000000000000     
   0.0000000000000000       0.50000000000000000        0.0000000000000000     
   3.1250000000000000E-002  0.50000000000000000        0.0000000000000000     
   6.2500000000000000E-002  0.50000000000000000        0.0000000000000000     
   9.3750000000000000E-002  0.50000000000000000        0.0000000000000000     
  0.12500000000000000       0.50000000000000000        0.0000000000000000     
   0.0000000000000000       0.53125000000000000        0.0000000000000000     
   3.1250000000000000E-002  0.53125000000000000        0.0000000000000000     
   6.2500000000000000E-002  0.53125000000000000        0.0000000000000000     
   9.3750000000000000E-002  0.53125000000000000        0.0000000000000000     
  0.12500000000000000       0.53125000000000000        0.0000000000000000     
   0.0000000000000000       0.56250000000000000        0.0000000000000000     
   3.1250000000000000E-002  0.56250000000000000        0.0000000000000000     
   6.2500000000000000E-002  0.56250000000000000        0.0000000000000000     
   9.3750000000000000E-002  0.56250000000000000        0.0000000000000000     
  0.12500000000000000       0.56250000000000000        0.0000000000000000     
   0.0000000000000000       0.59375000000000000        0.0000000000000000     
   3.1250000000000000E-002  0.59375000000000000        0.0000000000000000     
   6.2500000000000000E-002  0.59375000000000000        0.0000000000000000     
   9.3750000000000000E-002  0.59375000000000000        0.0000000000000000     
  0.12500000000000000       0.59375000000000000        0.0000000000000000     
   0.0000000000000000       0.62500000000000000        0.0000000000000000     
   3.1250000000000000E-002  0.62500000000000000        0.0000000000000000     
   6.2500000000000000E-002  0.62500000000000000        0.0000000000000000     
   9.3750000000000000E-002  0.62500000000000000        0.0000000000000000     
  0.12500000000000000       0.62500000000000000        0.0000000000000000     
  0.12500000000000000       0.50000000000000000        0.0000000000000000     
  0.15625000000000000       0.50000000000000000        0.0000000000000000     
  0.18750000000000000       0.50000000000000000        0.0000000000000000     
  0.21875000000000000       0.50000000000000000        0.0000000000000000     
  0.25000000000000000       0.50000000000000000        0.0000000000000000     
  0.12500000000000000       0.53125000000000000        0.0000000000000000     
  0.15625000000000000       0.53125000000000000        0.0000000000000000     
  0.18750000000000000       0.53125000000000000        0.0000000000000000     
  0.21875000000000000       0.53125000000000000        0.0000000000000000     
  0.25000000000000000       0.53125000000000000        0.0000000000000000     
  0.12500000000000000       0.56250000000000000        0.0000000000000000     
  0.15625000000000000       0.56250000000000000        0.0000000000000000     
  0.18750000000000000       0.56250000000000000        0.0000000000000000     
  0.21875000000000000       0.56250000000000000        0.0000000000000000     
  0.25000000000000000       0.56250000000000000        0.0000000000000000     
  0.12500000000000000       0.59375000000000000        0.0000000000000000     
  0.15625000000000000       0.59375000000000000        0.0000000000000000     
  0.18750000000000000       0.59375000000000000        0.0000000000000000     
  0.21875000000000000       0.59375000000000000        0.0000000000000000     
  0.25000000000000000       0.59375000000000000        0.0000000000000000     
  0.12500000000000000       0.62500000000000000        0.0000000000000000     
  0.15625000000000000       0.62500000000000000        0.0000000000000000     
  0.18750000000000000       0.62500000000000000        0.0000000000000000     
  0.21875000000000000       0.62500000000000000        0.0000000000000000     
  0.25000000000000000       0.62500000000000000        0.0000000000000000     
  0.25000000000000000       0.50000000000000000        0.0000000000000000     
  0.28125000000000000       0.50000000000000000        0.0000000000000000     
  0.31250000000000000       0.50000000000000000        0.0000000000000000     
  0.34375000000000000       0.50000000000000000        0.0000000000000000     
  0.37500000000000000       0.50000000000000000        0.0000000000000000     
  0.25000000000000000       0.53125000000000000        0.0000000000000000     
  0.28125000000000000       0.53125000000000000        0.0000000000000000     
  0.31250000000000000       0.53125000000000000        0.0000000000000000     
  0.34375000000000000       0.53125000000000000        0.0000000000000000     
  0.37500000000000000       0.53125000000000000        0.0000000000000000     
  0.25000000000000000       0.56250000000000000        0.0000000000000000     
  0.28125000000000000       0.56250000000000000        0.0000000000000000     
  0.31250000000000000       0.56250000000000000        0.0000000000000000     
  0.34375000000000000       0.56250000000000000        0.0000000000000000     
  0.37500000000000000       0.56250000000000000        0.0000000000000000     
  0.25000000000000000       0.59375000000000000        0.0000000000000000     
  0.28125000000000000       0.59375000000000000        0.0000000000000000     
  0.31250000000000000       0.59375000000000000        0.0000000000000000     
  0.34375000000000000       0.59375000000000000        0.0000000000000000     
  0.37500000000000000       0.59375000000000000        0.0000000000000000     
  0.25000000000000000       0.62500000000000000        0.0000000000000000     
  0.28125000000000000       0.62500000000000000        0.0000000000000000     
  0.31250000000000000       0.62500000000000000        0.0000000000000000     
  0.34375000000000000       0.62500000000000000        0.0000000000000000     
  0.37500000000000000       0.62500000000000000        0.0000000000000000     
  0.37500000000000000       0.50000000000000000        0.0000000000000000     
  0.40625000000000000       0.50000000000000000        0.0000000000000000     
  0.43750000000000000       0.50000000000000000        0.0000000000000000     
  0.46875000000000000       0.50000000000000000        0.0000000000000000     
  0.50000000000000000       0.50000000000000000        0.0000000000000000     
  0.37500000000000000       0.53125000000000000        0.0000000000000000     
  0.40625000000000000       0.53125000000000000        0.0000000000000000     
  0.43750000000000000       0.53125000000000000        0.0000000000000000     
  0.46875000000000000       0.53125000000000000        0.0000000000000000     
  0.50000000000000000       0.53125000000000000        0.0000000000000000     
  0.37500000000000000       0.56250000000000000        0.0000000000000000     
  0.40625000000000000       0.56250000000000000        0.0000000000000000     
  0.43750000000000000       0.56250000000000000        0.0000000000000000     
  0.46875000000000000       0.56250000000000000        0.0000000000000000     
  0.50000000000000000       0.56250000000000000        0.0000000000000000     
  0.37500000000000000       0.59375000000000000        0.0000000000000000     
  0.40625000000000000       0.59375000000000000        0.0000000000000000     
  0.43750000000000000       0.59375000000000000        0.0000000000000000     
  0.46875000000000000       0.59375000000000000        0.0000000000000000     
  0.50000000000000000       0.59375000000000000        0.0000000000000000     
  0.37500000000000000       0.62500000000000000        0.0000000000000000     
  0.40625000000000000       0.62500000000000000        0.0000000000000000     
  0.43750000000000000       0.62500000000000000        0.0000000000000000     
  0.46875000000000000       0.62500000000000000        0.0000000000000000     
  0.50000000000000000       0.62500000000000000        0.0000000000000000     
  0.50000000000000000       0.50000000000000000        0.0000000000000000     
  0.53125000000000000       0.50000000000000000        0.0000000000000000     
  0.56250000000000000       0.50000000000000000        0.0000000000000000     
  0.59375000000000000       0.50000000000000000        0.0000000000000000     
  0.62500000000000000       0.50000000000000000        0.0000000000000000     
  0.50000000000000000       0.53125000000000000        0.0000000000000000     
  0.53125000000000000       0.53125000000000000        0.0000000000000000     
  0.56250000000000000       0.53125000000000000        0.0000000000000000     
  0.59375000000000000       0.53125000000000000        0.0000000000000000     
  0.62500000000000000       0.53125000000000000        0.0000000000000000     
  0.50000000000000000       0.56250000000000000        0.0000000000000000     
  0.53125000000000000       0.56250000000000000        0.0000000000000000     
  0.56250000000000000       0.56250000000000000        0.0000000000000000     
  0.59375000000000000       0.56250000000000000        0.0000000000000000     
  0.62500000000000000       0.56250000000000000        0.0000000000000000     
  0.50000000000000000       0.59375000000000000        0.0000000000000000     
  0.53125000000000000       0.59375000000000000        0.0000000000000000     
  0.56250000000000000       0.59375000000000000        0.0000000000000000     
  0.59375000000000000       0.59375000000000000        0.0000000000000000     
  0.62500000000000000       0.59375000000000000        0.0000000000000000     
  0.50000000000000000       0.62500000000000000        0.0000000000000000     
  0.53125000000000000       0.62500000000000000        0.0000000000000000     
  0.56250000000000000       0.62500000000000000        0.0000000000000000     
  0.59375000000000000       0.62500000000000000        0.0000000000000000     
  0.62500000000000000       0.62500000000000000        0.0000000000000000     
  0.62500000000000000       0.50000000000000000        0.0000000000000000     
  0.65625000000000000       0.50000000000000000        0.0000000000000000     
  0.68750000000000000       0.50000000000000000        0.0000000000000000     
  0.71875000000000000       0.50000000000000000        0.0000000000000000     
  0.75000000000000000       0.50000000000000000        0.0000000000000000     
  0.62500000000000000       0.53125000000000000        0.0000000000000000     
  0.65625000000000000       0.53125000000000000        0.0000000000000000     
  0.68750000000000000       0.53125000000000000        0.0000000000000000     
  0.71875000000000000       0.53125000000000000        0.0000000000000000     
  0.75000000000000000       0.53125000000000000        0.0000000000000000     
  0.62500000000000000       0.56250000000000000        0.0000000000000000     
  0.65625000000000000       0.56250000000000000        0.0000000000000000     
  0.68750000000000000       0.56250000000000000        0.0000000000000000     
  0.71875000000000000       0.56250000000000000        0.0000000000000000     
  0.75000000000000000       0.56250000000000000        0.0000000000000000     
  0.62500000000000000       0.59375000000000000        0.0000000000000000     
  0.65625000000000000       0.59375000000000000        0.0000000000000000     
  0.68750000000000000       0.59375000000000000        0.0000000000000000     
  0.71875000000000000       0.59375000000000000        0.0000000000000000     
  0.75000000000000000       0.59375000000000000        0.0000000000000000     
  0.62500000000000000       0.62500000000000000        0.0000000000000000     
  0.65625000000000000       0.62500000000000000        0.0000000000000000     
  0.68750000000000000       0.62500000000000000        0.0000000000000000     
  0.71875000000000000       0.62500000000000000        0.0000000000000000     
  0.75000000000000000       0.62500000000000000        0.0000000000000000     
  0.75000000000000000       0.50000000000000000        0.0000000000000000     
  0.78125000000000000       0.50000000000000000        0.0000000000000000     
  0.81250000000000000       0.50000000000000000        0.0000000000000000     
  0.84375000000000000       0.50000000000000000        0.0000000000000000     
  0.87500000000000000       0.50000000000000000        0.0000000000000000     
  0.75000000000000000       0.53125000000000000        0.0000000000000000     
  0.78125000000000000       0.53125000000000000        0.0000000000000000     
  0.81250000000000000       0.53125000000000000        0.0000000000000000     
  0.84375000000000000       0.53125000000000000        0.0000000000000000     
  0.87500000000000000       0.53125000000000000        0.0000000000000000     
  0.75000000000000000       0.56250000000000000        0.0000000000000000     
  0.78125000000000000       0.56250000000000000        0.0000000000000000     
  0.81250000000000000       0.56250000000000000        0.0000000000000000     
  0.84375000000000000       0.56250000000000000        0.0000000000000000     
  0.87500000000000000       0.56250000000000000        0.0000000000000000     
  0.75000000000000000       0.59375000000000000        0.0000000000000000     
  0.78125000000000000       0.59375000000000000        0.0000000000000000     
  0.81250000000000000       0.59375000000000000        0.0000000000000000     
  0.84375000000000000       0.59375000000000000        0.0000000000000000     
  0.87500000000000000       0.59375000000000000        0.0000000000000000     
  0.75000000000000000       0.62500000000000000        0.0000000000000000     
  0.78125000000000000       0.62500000000000000        0.0000000000000000     
  0.81250000000000000       0.62500000000000000        0.0000000000000000     
  0.84375000000000000       0.62500000000000000        0.0000000000000000     
  0.87500000000000000       0.62500000000000000        0.0000000000000000     
  0.87500000000000000       0.50000000000000000        0.0000000000000000     
  0.90625000000000000       0.50000000000000000        0.0000000000000000     
  0.93750000000000000       0.50000000000000000        0.0000000000000000     
  0.96875000000000000       0.50000000000000000        0.0000000000000000     
   1.0000000000000000       0.50000000000000000        0.0000000000000000     
  0.87500000000000000       0.53125000000000000        0.0000000000000000     
  0.90625000000000000       0.53125000000000000        0.0000000000000000     
  0.93750000000000000       0.53125000000000000        0.0000000000000000     
  0.96875000000000000       0.53125000000000000        0.0000000000000000     
   1.0000000000000000       0.53125000000000000        0.0000000000000000     
  0.87500000000000000       0.56250000000000000        0.0000000000000000     
  0.90625000000000000       0.56250000000000000        0.0000000000000000     
  0.93750000000000000       0.56250000000000000        0.0000000000000000     
  0.96875000000000000       0.56250000000000000        0.0000000000000000     
   1.0000000000000000       0.56250000000000000        0.0000000000000000     
  0.87500000000000000       0.59375000000000000        0.0000000000000000     
  0.90625000000000000       0.59375000000000000        0.0000000000000000     
  0.93750000000000000       0.59375000000000000        0.0000000000000000     
  0.96875000000000000       0.59375000000000000        0.0000000000000000     
   1.0000000000000000       0.59375000000000000        0.0000000000000000     
  0.87500000000000000       0.62500000000000000        0.0000000000000000     
  0.90625000000000000       0.62500000000000000        0.0000000000000000     
  0.93750000000000000       0.62500000000000000        0.0000000000000000     
  0.96875000000000000       0.62500000000000000        0.0000000000000000     
   1.0000000000000000       0.62500000000000000        0.0000000000000000     
   0.0000000000000000       0.62500000000000000        0.0000000000000000     
   3.1250000000000000E-002  0.62500000000000000        0.0000000000000000     
   6.2500000000000000E-002  0.62500000000000000        0.0000000000000000     
   9.3750000000000000E-002  0.62500000000000000        0.0000000000000000     
  0.12500000000000000       0.62500000000000000        0.0000000000000000     
   0.0000000000000000       0.65625000000000000        0.0000000000000000     
   3.1250000000000000E-002  0.65625000000000000        0.0000000000000000     
   6.2500000000000000E-002  0.65625000000000000        0.0000000000000000     
   9.3750000000000000E-002  0.65625000000000000        0.0000000000000000     
  0.12500000000000000       0.65625000000000000        0.0000000000000000     
   0.0000000000000000       0.68750000000000000        0.0000000000000000     
   3.1250000000000000E-002  0.68750000000000000        0.0000000000000000     
   6.2500000000000000E-002  0.68750000000000000        0.0000000000000000     
   9.3750000000000000E-002  0.68750000000000000        0.0000000000000000     
  0.12500000000000000       0.68750000000000000        0.0000000000000000     
   0.0000000000000000       0.71875000000000000        0.0000000000000000     
   3.1250000000000000E-002  0.71875000000000000        0.0000000000000000     
   6.2500000000000000E-002  0.71875000000000000        0.0000000000000000     
   9.3750000000000000E-002  0.71875000000000000        0.0000000000000000     
  0.12500000000000000       0.71875000000000000        0.0000000000000000     
   0.0000000000000000       0.75000000000000000        0.0000000000000000     
   3.1250000000000000E-002  0.75000000000000000        0.0000000000000000     
   6.2500000000000000E-002  0.75000000000000000        0.0000000000000000     
   9.3750000000000000E-002  0.75000000000000000        0.0000000000000000     
  0.12500000000000000       0.75000000000000000        0.0000000000000000     
  0.12500000000000000       0.62500000000000000        0.0000000000000000     
  0.15625000000000000       0.62500000000000000        0.0000000000000000     
  0.18750000000000000       0.62500000000000000        0.0000000000000000     
  0.21875000000000000       0.62500000000000000        0.0000000000000000     
  0.25000000000000000       0.62500000000000000        0.0000000000000000     
  0.12500000000000000       0.65625000000000000        0.0000000000000000     
  0.15625000000000000       0.65625000000000000        0.0000000000000000     
  0.18750000000000000       0.65625000000000000        0.0000000000000000     
  0.21875000000000000       0.65625000000000000        0.0000000000000000     
  0.25000000000000000       0.65625000000000000        0.0000000000000000     
  0.12500000000000000       0.68750000000000000        0.0000000000000000     
  0.15625000000000000       0.68750000000000000        0.0000000000000000     
  0.18750000000000000       0.68750000000000000        0.0000000000000000     
  0.21875000000000000       0.68750000000000000        0.0000000000000000     
  0.25000000000000000       0.68750000000000000        0.0000000000000000     
  0.12500000000000000       0.71875000000000000        0.0000000000000000     
  0.15625000000000000       0.71875000000000000        0.0000000000000000     
  0.18750000000000000       0.71875000000000000        0.0000000000000000     
  0.21875000000000000       0.71875000000000000        0.0000000000000000     
  0.25000000000000000       0.71875000000000000        0.0000000000000000     
  0.12500000000000000       0.75000000000000000        0.0000000000000000     
  0.15625000000000000       0.75000000000000000        0.0000000000000000     
  0.18750000000000000       0.75000000000000000        0.0000000000000000     
  0.21875000000000000       0.75000000000000000        0.0000000000000000     
  0.25000000000000000       0.75000000000000000        0.0000000000000000     
  0.25000000000000000       0.62500000000000000        0.0000000000000000     
  0.28125000000000000       0.62500000000000000        0.0000000000000000     
  0.31250000000000000       0.62500000000000000        0.0000000000000000     
  0.34375000000000000       0.62500000000000000        0.0000000000000000     
  0.37500000000000000       0.62500000000000000        0.0000000000000000     
  0.25000000000000000       0.65625000000000000        0.0000000000000000     
  0.28125000000000000       0.65625000000000000        0.0000000000000000     
  0.31250000000000000       0.65625000000000000        0.0000000000000000     
  0.34375000000000000       0.65625000000000000        0.0000000000000000     
  0.37500000000000000       0.65625000000000000        0.0000000000000000     
  0.25000000000000000       0.68750000000000000        0.0000000000000000     
  0.28125000000000000       0.68750000000000000        0.0000000000000000     
  0.31250000000000000       0.68750000000000000        0.0000000000000000     
  0.34375000000000000       0.68750000000000000        0.0000000000000000     
  0.37500000000000000       0.68750000000000000        0.0000000000000000     
  0.25000000000000000       0.71875000000000000        0.0000000000000000     
  0.28125000000000000       0.71875000000000000        0.0000000000000000     
  0.31250000000000000       0.71875000000000000        0.0000000000000000     
  0.34375000000000000       0.71875000000000000        0.0000000000000000     
  0.37500000000000000       0.71875000000000000        0.0000000000000000     
  0.25000000000000000       0.75000000000000000        0.0000000000000000     
  0.28125000000000000       0.75000000000000000        0.0000000000000000     
  0.31250000000000000       0.75000000000000000        0.0000000000000000     
  0.34375000000000000       0.75000000000000000        0.0000000000000000     
  0.37500000000000000       0.75000000000000000        0.0000000000000000     
  0.37500000000000000       0.62500000000000000        0.0000000000000000     
  0.40625000000000000       0.62500000000000000        0.0000000000000000     
  0.43750000000000000       0.62500000000000000        0.0000000000000000     
  0.46875000000000000       0.62500000000000000        0.0000000000000000     
  0.50000000000000000       0.62500000000000000        0.0000000000000000     
  0.37500000000000000       0.65625000000000000        0.0000000000000000     
  0.40625000000000000       0.65625000000000000        0.0000000000000000     
  0.43750000000000000       0.65625000000000000        0.0000000000000000     
  0.46875000000000000       0.65625000000000000        0.0000000000000000     
  0.50000000000000000       0.65625000000000000        0.0000000000000000     
  0.37500000000000000       0.68750000000000000        0.0000000000000000     
  0.40625000000000000       0.68750000000000000        0.0000000000000000     
  0.43750000000000000       0.68750000000000000        0.0000000000000000     
  0.46875000000000000       0.68750000000000000        0.0000000000000000     
  0.50000000000000000       0.68750000000000000        0.0000000000000000     
  0.37500000000000000       0.71875000000000000        0.0000000000000000     
  0.40625000000000000       0.71875000000000000        0.0000000000000000     
  0.43750000000000000       0.71875000000000000        0.0000000000000000     
  0.46875000000000000       0.71875000000000000        0.0000000000000000     
  0.50000000000000000       0.71875000000000000        0.0000000000000000     
  0.37500000000000000       0.75000000000000000        0.0000000000000000     
  0.40625000000000000       0.75000000000000000        0.0000000000000000     
  0.43750000000000000       0.75000000000000000        0.0000000000000000     
  0.46875000000000000       0.75000000000000000        0.0000000000000000     
  0.50000000000000000       0.75000000000000000        0.0000000000000000     
  0.50000000000000000       0.62500000000000000        0.0000000000000000     
  0.53125000000000000       0.62500000000000000        0.0000000000000000     
  0.56250000000000000       0.62500000000000000        0.0000000000000000     
  0.59375000000000000       0.62500000000000000        0.0000000000000000     
  0.62500000000000000       0.62500000000000000        0.0000000000000000     
  0.50000000000000000       0.65625000000000000        0.0000000000000000     
  0.53125000000000000       0.65625000000000000        0.0000000000000000     
  0.56250000000000000       0.65625000000000000        0.0000000000000000     
  0.59375000000000000       0.65625000000000000        0.0000000000000000     
  0.62500000000000000       0.65625000000000000        0.0000000000000000     
  0.50000000000000000       0.68750000000000000        0.0000000000000000     
  0.53125000000000000       0.68750000000000000        0.0000000000000000     
  0.56250000000000000       0.68750000000000000        0.0000000000000000     
  0.59375000000000000       0.68750000000000000        0.0000000000000000     
  0.62500000000000000       0.68750000000000000        0.0000000000000000     
  0.50000000000000000       0.71875000000000000        0.0000000000000000     
  0.53125000000000000       0.71875000000000000        0.0000000000000000     
  0.56250000000000000       0.71875000000000000        0.0000000000000000     
  0.59375000000000000       0.71875000000000000        0.0000000000000000     
  0.62500000000000000       0.71875000000000000        0.0000000000000000     
  0.50000000000000000       0.75000000000000000        0.0000000000000000     
  0.53125000000000000       0.75000000000000000        0.0000000000000000     
  0.56250000000000000       0.75000000000000000        0.0000000000000000     
  0.59375000000000000       0.75000000000000000        0.0000000000000000     
  0.62500000000000000       0.75000000000000000        0.0000000000000000     
  0.62500000000000000       0.62500000000000000        0.0000000000000000     
  0.65625000000000000       0.62500000000000000        0.0000000000000000     
  0.68750000000000000       0.62500000000000000        0.0000000000000000     
  0.71875000000000000       0.62500000000000000        0.0000000000000000     
  0.75000000000000000       0.62500000000000000        0.0000000000000000     
  0.62500000000000000       0.65625000000000000        0.0000000000000000     
  0.65625000000000000       0.65625000000000000        0.0000000000000000     
  0.68750000000000000       0.65625000000000000        0.0000000000000000     
  0.71875000000000000       0.65625000000000000        0.0000000000000000     
  0.75000000000000000       0.65625000000000000        0.0000000000000000     
  0.62500000000000000       0.68750000000000000        0.0000000000000000     
  0.65625000000000000       0.68750000000000000        0.0000000000000000     
  0.68750000000000000       0.68750000000000000        0.0000000000000000     
  0.71875000000000000       0.68750000000000000        0.0000000000000000     
  0.75000000000000000       0.68750000000000000        0.0000000000000000     
  0.62500000000000000       0.71875000000000000        0.0000000000000000     
  0.65625000000000000       0.71875000000000000        0.0000000000000000     
  0.68750000000000000       0.71875000000000000        0.0000000000000000     
  0.71875000000000000       0.71875000000000000        0.0000000000000000     
  0.75000000000000000       0.71875000000000000        0.0000000000000000     
  0.62500000000000000       0.75000000000000000        0.0000000000000000     
  0.65625000000000000       0.75000000000000000        0.0000000000000000     
  0.68750000000000000       0.75000000000000000        0.0000000000000000     
  0.71875000000000000       0.75000000000000000        0.0000000000000000     
  0.75000000000000000       0.75000000000000000        0.0000000000000000     
  0.75000000000000000       0.62500000000000000        0.0000000000000000     
  0.78125000000000000       0.62500000000000000        0.0000000000000000     
  0.81250000000000000       0.62500000000000000        0.0000000000000000     
  0.84375000000000000       0.62500000000000000        0.0000000000000000     
  0.87500000000000000       0.62500000000000000        0.0000000000000000     
  0.75000000000000000       0.65625000000000000        0.0000000000000000     
  0.78125000000000000       0.65625000000000000        0.0000000000000000     
  0.81250000000000000       0.65625000000000000        0.0000000000000000     
  0.84375000000000000       0.65625000000000000        0.0000000000000000     
  0.87500000000000000       0.65625000000000000        0.0000000000000000     
  0.75000000000000000       0.68750000000000000        0.0000000000000000     
  0.78125000000000000       0.68750000000000000        0.0000000000000000     
  0.81250000000000000       0.68750000000000000        0.0000000000000000     
  0.84375000000000000       0.68750000000000000        0.0000000000000000     
  0.87500000000000000       0.68750000000000000        0.0000000000000000     
  0.75000000000000000       0.71875000000000000        0.0000000000000000     
  0.78125000000000000       0.71875000000000000        0.0000000000000000     
  0.81250000000000000       0.71875000000000000        0.0000000000000000     
  0.84375000000000000       0.71875000000000000        0.0000000000000000     
  0.87500000000000000       0.71875000000000000        0.0000000000000000     
  0.75000000000000000       0.75000000000000000        0.0000000000000000     
  0.78125000000000000       0.75000000000000000        0.0000000000000000     
  0.81250000000000000       0.75000000000000000        0.0000000000000000     
  0.84375000000000000       0.75000000000000000        0.0000000000000000     
  0.87500000000000000       0.75000000000000000        0.0000000000000000     
  0.87500000000000000       0.62500000000000000        0.0000000000000000     
  0.90625000000000000       0.62500000000000000        0.0000000000000000     
  0.93750000000000000       0.62500000000000000        0.0000000000000000     
  0.96875000000000000       0.62500000000000000        0.0000000000000000     
   1.0000000000000000       0.62500000000000000        0.0000000000000000     
  0.87500000000000000       0.65625000000000000        0.0000000000000000     
  0.90625000000000000       0.65625000000000000        0.0000000000000000     
  0.93750000000000000       0.65625000000000000        0.0000000000000000     
  0.96875000000000000       0.65625000000000000        0.0000000000000000     
   1.0000000000000000       0.65625000000000000        0.0000000000000000     
  0.87500000000000000       0.68750000000000000        0.0000000000000000     
  0.90625000000000000       0.68750000000000000        0.0000000000000000     
  0.93750000000000000       0.68750000000000000        0.0000000000000000     
  0.96875000000000000       0.68750000000000000        0.0000000000000000     
   1.0000000000000000       0.68750000000000000        0.0000000000000000     
  0.87500000000000000       0.71875000000000000        0.0000000000000000     
  0.90625000000000000       0.71875000000000000        0.0000000000000000     
  0.93750000000000000       0.71875000000000000        0.0000000000000000     
  0.96875000000000000       0.71875000000000000        0.0000000000000000     
   1.0000000000000000       0.71875000000000000        0.0000000000000000     
  0.87500000000000000       0.75000000000000000        0.0000000000000000     
  0.90625000000000000       0.75000000000000000        0.0000000000000000     
  0.93750000000000000       0.75000000000000000        0.0000000000000000     
  0.96875000000000000       0.75000000000000000        0.0000000000000000     
   1.0000000000000000       0.75000000000000000        0.0000000000000000     
   0.0000000000000000       0.75000000000000000        0.0000000000000000     
   3.1250000000000000E-002  0.75000000000000000        0.0000000000000000     
   6.2500000000000000E-002  0.75000000000000000        0.0000000000000000     
   9.3750000000000000E-002  0.75000000000000000        0.0000000000000000     
  0.12500000000000000       0.75000000000000000        0.0000000000000000     
   0.0000000000000000       0.78125000000000000        0.0000000000000000     
   3.1250000000000000E-002  0.78125000000000000        0.0000000000000000     
   6.2500000000000000E-002  0.78125000000000000        0.0000000000000000     
   9.3750000000000000E-002  0.78125000000000000        0.0000000000000000     
  0.12500000000000000       0.78125000000000000        0.0000000000000000     
   0.0000000000000000       0.81250000000000000        0.0000000000000000     
   3.1250000000000000E-002  0.81250000000000000        0.0000000000000000     
   6.2500000000000000E-002  0.81250000000000000        0.0000000000000000     
   9.3750000000000000E-002  0.81250000000000000        0.0000000000000000     
  0.12500000000000000       0.81250000000000000        0.0000000000000000     
   0.0000000000000000       0.84375000000000000        0.0000000000000000     
   3.1250000000000000E-002  0.84375000000000000        0.0000000000000000     
   6.2500000000000000E-002  0.84375000000000000        0.0000000000000000     
   9.3750000000000000E-002  0.84375000000000000        0.0000000000000000     
  0.12500000000000000       0.84375000000000000        0.0000000000000000     
   0.0000000000000000       0.87500000000000000        0.0000000000000000     
   3.1250000000000000E-002  0.87500000000000000        0.0000000000000000     
   6.2500000000000000E-002  0.87500000000000000        0.0000000000000000     
   9.3750000000000000E-002  0.87500000000000000        0.0000000000000000     
  0.12500000000000000       0.87500000000000000        0.0000000000000000     
  0.12500000000000000       0.75000000000000000        0.0000000000000000     
  0.15625000000000000       0.75000000000000000        0.0000000000000000     
  0.18750000000000000       0.75000000000000000        0.0000000000000000     
  0.21875000000000000       0.75000000000000000        0.0000000000000000     
  0.25000000000000000       0.75000000000000000        0.0000000000000000     
  0.12500000000000000       0.78125000000000000        0.0000000000000000     
  0.15625000000000000       0.78125000000000000        0.0000000000000000     
  0.18750000000000000       0.78125000000000000        0.0000000000000000     
  0.21875000000000000       0.78125000000000000        0.0000000000000000     
  0.25000000000000000       0.78125000000000000        0.0000000000000000     
  0.12500000000000000       0.81250000000000000        0.0000000000000000     
  0.15625000000000000       0.81250000000000000        0.0000000000000000     
  0.18750000000000000       0.81250000000000000        0.0000000000000000     
  0.21875000000000000       0.81250000000000000        0.0000000000000000     
  0.25000000000000000       0.81250000000000000        0.0000000000000000     
  0.12500000000000000       0.84375000000000000        0.0000000000000000     
  0.15625000000000000       0.84375000000000000        0.0000000000000000     
  0.18750000000000000       0.84375000000000000        0.0000000000000000     
  0.21875000000000000       0.84375000000000000        0.0000000000000000     
  0.25000000000000000       0.84375000000000000        0.0000000000000000     
  0.12500000000000000       0.87500000000000000        0.0000000000000000     
  0.15625000000000000       0.87500000000000000        0.0000000000000000     
  0.18750000000000000       0.87500000000000000        0.0000000000000000     
  0.21875000000000000       0.87500000000000000        0.0000000000000000     
  0.25000000000000000       0.87500000000000000        0.0000000000000000     
  0.25000000000000000       0.75000000000000000        0.0000000000000000     
  0.28125000000000000       0.75000000000000000        0.0000000000000000     
  0.31250000000000000       0.75000000000000000        0.0000000000000000     
  0.34375000000000000       0.75000000000000000        0.0000000000000000     
  0.37500000000000000       0.75000000000000000        0.0000000000000000     
  0.25000000000000000       0.78125000000000000        0.0000000000000000     
  0.28125000000000000       0.78125000000000000        0.0000000000000000     
  0.31250000000000000       0.78125000000000000        0.0000000000000000     
  0.34375000000000000       0.78125000000000000        0.0000000000000000     
  0.37500000000000000       0.78125000000000000        0.0000000000000000     
  0.25000000000000000       0.81250000000000000        0.0000000000000000     
  0.28125000000000000       0.81250000000000000        0.0000000000000000     
  0.31250000000000000       0.81250000000000000        0.0000000000000000     
  0.34375000000000000       0.81250000000000000        0.0000000000000000     
  0.37500000000000000       0.81250000000000000        0.0000000000000000     
  0.25000000000000000       0.84375000000000000        0.0000000000000000     
  0.28125000000000000       0.84375000000000000        0.0000000000000000     
  0.31250000000000000       0.84375000000000000        0.0000000000000000     
  0.34375000000000000       0.84375000000000000        0.0000000000000000     
  0.37500000000000000       0.84375000000000000        0.0000000000000000     
  0.25000000000000000       0.87500000000000000        0.0000000000000000     
  0.28125000000000000       0.87500000000000000        0.0000000000000000     
  0.31250000000000000       0.87500000000000000        0.0000000000000000     
  0.34375000000000000       0.87500000000000000        0.0000000000000000     
  0.37500000000000000       0.87500000000000000        0.0000000000000000     
  0.37500000000000000       0.75000000000000000        0.0000000000000000     
  0.40625000000000000       0.75000000000000000        0.0000000000000000     
  0.43750000000000000       0.75000000000000000        0.0000000000000000     
  0.46875000000000000       0.75000000000000000        0.0000000000000000     
  0.50000000000000000       0.75000000000000000        0.0000000000000000     
  0.37500000000000000       0.78125000000000000        0.0000000000000000     
  0.40625000000000000       0.78125000000000000        0.0000000000000000     
  0.43750000000000000       0.78125000000000000        0.0000000000000000     
  0.46875000000000000       0.78125000000000000        0.0000000000000000     
  0.50000000000000000       0.78125000000000000        0.0000000000000000     
  0.37500000000000000       0.81250000000000000        0.0000000000000000     
  0.40625000000000000       0.81250000000000000        0.0000000000000000     
  0.43750000000000000       0.81250000000000000        0.0000000000000000     
  0.46875000000000000       0.81250000000000000        0.0000000000000000     
  0.50000000000000000       0.81250000000000000        0.0000000000000000     
  0.37500000000000000       0.84375000000000000        0.0000000000000000     
  0.40625000000000000       0.84375000000000000        0.0000000000000000     
  0.43750000000000000       0.84375000000000000        0.0000000000000000     
  0.46875000000000000       0.84375000000000000        0.0000000000000000     
  0.50000000000000000       0.84375000000000000        0.0000000000000000     
  0.37500000000000000       0.87500000000000000        0.0000000000000000     
  0.40625000000000000       0.87500000000000000        0.0000000000000000     
  0.43750000000000000       0.87500000000000000        0.0000000000000000     
  0.46875000000000000       0.87500000000000000        0.0000000000000000     
  0.50000000000000000       0.87500000000000000        0.0000000000000000     
  0.50000000000000000       0.75000000000000000        0.0000000000000000     
  0.53125000000000000       0.75000000000000000        0.0000000000000000     
  0.56250000000000000       0.75000000000000000        0.0000000000000000     
  0.59375000000000000       0.75000000000000000        0.0000000000000000     
  0.62500000000000000       0.75000000000000000        0.0000000000000000     
  0.50000000000000000       0.78125000000000000        0.0000000000000000     
  0.53125000000000000       0.78125000000000000        0.0000000000000000     
  0.56250000000000000       0.78125000000000000        0.0000000000000000     
  0.59375000000000000       0.78125000000000000        0.0000000000000000     
  0.62500000000000000       0.78125000000000000        0.0000000000000000     
  0.50000000000000000       0.81250000000000000        0.0000000000000000     
  0.53125000000000000       0.81250000000000000        0.0000000000000000     
  0.56250000000000000       0.81250000000000000        0.0000000000000000     
  0.59375000000000000       0.81250000000000000        0.0000000000000000     
  0.62500000000000000       0.81250000000000000        0.0000000000000000     
  0.50000000000000000       0.84375000000000000        0.0000000000000000     
  0.53125000000000000       0.84375000000000000        0.0000000000000000     
  0.56250000000000000       0.84375000000000000        0.0000000000000000     
  0.59375000000000000       0.84375000000000000        0.0000000000000000     
  0.62500000000000000       0.84375000000000000        0.0000000000000000     
  0.50000000000000000       0.87500000000000000        0.0000000000000000     
  0.53125000000000000       0.87500000000000000        0.0000000000000000     
  0.56250000000000000       0.87500000000000000        0.0000000000000000     
  0.59375000000000000       0.87500000000000000        0.0000000000000000     
  0.62500000000000000       0.87500000000000000        0.0000000000000000     
  0.62500000000000000       0.75000000000000000        0.0000000000000000     
  0.65625000000000000       0.75000000000000000        0.0000000000000000     
  0.68750000000000000       0.75000000000000000        0.0000000000000000     
  0.71875000000000000       0.75000000000000000        0.0000000000000000     
  0.75000000000000000       0.75000000000000000        0.0000000000000000     
  0.62500000000000000       0.78125000000000000        0.0000000000000000     
  0.65625000000000000       0.78125000000000000        0.0000000000000000     
  0.68750000000000000       0.78125000000000000        0.0000000000000000     
  0.71875000000000000       0.78125000000000000        0.0000000000000000     
  0.75000000000000000       0.78125000000000000        0.0000000000000000     
  0.62500000000000000       0.81250000000000000        0.0000000000000000     
  0.65625000000000000       0.81250000000000000        0.0000000000000000     
  0.68750000000000000       0.81250000000000000        0.0000000000000000     
  0.71875000000000000       0.81250000000000000        0.0000000000000000     
  0.75000000000000000       0.81250000000000000        0.0000000000000000     
  0.62500000000000000       0.84375000000000000        0.0000000000000000     
  0.65625000000000000       0.84375000000000000        0.0000000000000000     
  0.68750000000000000       0.84375000000000000        0.0000000000000000     
  0.71875000000000000       0.84375000000000000        0.0000000000000000     
  0.75000000000000000       0.84375000000000000        0.0000000000000000     
  0.62500000000000000       0.87500000000000000        0.0000000000000000     
  0.65625000000000000       0.87500000000000000        0.0000000000000000     
  0.68750000000000000       0.87500000000000000        0.0000000000000000     
  0.71875000000000000       0.87500000000000000        0.0000000000000000     
  0.75000000000000000       0.87500000000000000        0.0000000000000000     
  0.75000000000000000       0.75000000000000000        0.0000000000000000     
  0.78125000000000000       0.75000000000000000        0.0000000000000000     
  0.81250000000000000       0.75000000000000000        0.0000000000000000     
  0.84375000000000000       0.75000000000000000        0.0000000000000000     
  0.87500000000000000       0.75000000000000000        0.0000000000000000     
  0.75000000000000000       0.78125000000000000        0.0000000000000000     
  0.78125000000000000       0.78125000000000000        0.0000000000000000     
  0.81250000000000000       0.78125000000000000        0.0000000000000000     
  0.84375000000000000       0.78125000000000000        0.0000000000000000     
  0.87500000000000000       0.78125000000000000        0.0000000000000000     
  0.75000000000000000       0.81250000000000000        0.0000000000000000     
  0.78125000000000000       0.81250000000000000        0.0000000000000000     
  0.81250000000000000       0.81250000000000000        0.0000000000000000     
  0.84375000000000000       0.81250000000000000        0.0000000000000000     
  0.87500000000000000       0.81250000000000000        0.0000000000000000     
  0.75000000000000000       0.84375000000000000        0.0000000000000000     
  0.78125000000000000       0.84375000000000000        0.0000000000000000     
  0.81250000000000000       0.84375000000000000        0.0000000000000000     
  0.84375000000000000       0.84375000000000000        0.0000000000000000     
  0.87500000000000000       0.84375000000000000        0.0000000000000000     
  0.75000000000000000       0.87500000000000000        0.0000000000000000     
  0.78125000000000000       0.87500000000000000        0.0000000000000000     
  0.81250000000000000       0.87500000000000000        0.0000000000000000     
  0.84375000000000000       0.87500000000000000        0.0000000000000000     
  0.87500000000000000       0.87500000000000000        0.0000000000000000     
  0.87500000000000000       0.75000000000000000        0.0000000000000000     
  0.90625000000000000       0.75000000000000000        0.0000000000000000     
  0.93750000000000000       0.75000000000000000        0.0000000000000000     
  0.96875000000000000       0.75000000000000000        0.0000000000000000     
   1.0000000000000000       0.75000000000000000        0.0000000000000000     
  0.87500000000000000       0.78125000000000000        0.0000000000000000     
  0.90625000000000000       0.78125000000000000        0.0000000000000000     
  0.93750000000000000       0.78125000000000000        0.0000000000000000     
  0.96875000000000000       0.78125000000000000        0.0000000000000000     
   1.0000000000000000       0.78125000000000000        0.0000000000000000     
  0.87500000000000000       0.81250000000000000        0.0000000000000000     
  0.90625000000000000       0.81250000000000000        0.0000000000000000     
  0.93750000000000000       0.81250000000000000        0.0000000000000000     
  0.96875000000000000       0.81250000000000000        0.0000000000000000     
   1.0000000000000000       0.81250000000000000        0.0000000000000000     
  0.87500000000000000       0.84375000000000000        0.0000000000000000     
  0.90625000000000000       0.84375000000000000        0.0000000000000000     
  0.93750000000000000       0.84375000000000000        0.0000000000000000     
  0.96875000000000000       0.84375000000000000        0.0000000000000000     
   1.0000000000000000       0.84375000000000000        0.0000000000000000     
  0.87500000000000000       0.87500000000000000        0.0000000000000000     
  0.90625000000000000       0.87500000000000000        0.0000000000000000     
  0.93750000000000000       0.87500000000000000        0.0000000000000000     
  0.96875000000000000       0.87500000000000000        0.0000000000000000     
   1.0000000000000000       0.87500000000000000        0.0000000000000000     
   0.0000000000000000       0.87500000000000000        0.0000000000000000     
   3.1250000000000000E-002  0.87500000000000000        0.0000000000000000     
   6.2500000000000000E-002  0.87500000000000000        0.0000000000000000     
   9.3750000000000000E-002  0.87500000000000000        0.0000000000000000     
  0.12500000000000000       0.87500000000000000        0.0000000000000000     
   0.0000000000000000       0.90625000000000000        0.0000000000000000     
   3.1250000000000000E-002  0.90625000000000000        0.0000000000000000     
   6.2500000000000000E-002  0.90625000000000000        0.0000000000000000     
   9.3750000000000000E-002  0.90625000000000000        0.0000000000000000     
  0.12500000000000000       0.90625000000000000        0.0000000000000000     
   0.0000000000000000       0.93750000000000000        0.0000000000000000     
   3.1250000000000000E-002  0.93750000000000000        0.0000000000000000     
   6.2500000000000000E-002  0.93750000000000000        0.0000000000000000     
   9.3750000000000000E-002  0.93750000000000000        0.0000000000000000     
  0.12500000000000000       0.93750000000000000        0.0000000000000000     
   0.0000000000000000       0.96875000000000000        0.0000000000000000     
   3.1250000000000000E-002  0.96875000000000000        0.0000000000000000     
   6.2500000000000000E-002  0.96875000000000000        0.0000000000000000     
   9.3750000000000000E-002  0.96875000000000000        0.0000000000000000     
  0.12500000000000000       0.96875000000000000        0.0000000000000000     
   0.0000000000000000        1.0000000000000000        0.0000000000000000     
   3.1250000000000000E-002   1.0000000000000000        0.0000000000000000     
   6.2500000000000000E-002   1.0000000000000000        0.0000000000000000     
   9.3750000000000000E-002   1.0000000000000000        0.0000000000000000     
  0.12500000000000000        1.0000000000000000        0.0000000000000000     
  0.12500000000000000       0.87500000000000000        0.0000000000000000     
  0.15625000000000000       0.87500000000000000        0.0000000000000000     
  0.18750000000000000       0.87500000000000000        0.0000000000000000     
  0.21875000000000000       0.87500000000000000        0.0000000000000000     
  0.25000000000000000       0.87500000000000000        0.0000000000000000     
  0.12500000000000000       0.90625000000000000        0.0000000000000000     
  0.15625000000000000       0.90625000000000000        0.0000000000000000     
  0.18750000000000000       0.90625000000000000        0.0000000000000000     
  0.21875000000000000       0.90625000000000000        0.0000000000000000     
  0.25000000000000000       0.90625000000000000        0.0000000000000000     
  0.12500000000000000       0.93750000000000000        0.0000000000000000     
  0.15625000000000000       0.93750000000000000        0.0000000000000000     
  0.18750000000000000       0.93750000000000000        0.0000000000000000     
  0.21875000000000000       0.93750000000000000        0.0000000000000000     
  0.25000000000000000       0.93750000000000000        0.0000000000000000     
  0.12500000000000000       0.96875000000000000        0.0000000000000000     
  0.15625000000000000       0.96875000000000000        0.0000000000000000     
  0.18750000000000000       0.96875000000000000        0.0000000000000000     
  0.21875000000000000       0.96875000000000000        0.0000000000000000     
  0.25000000000000000       0.96875000000000000        0.0000000000000000     
  0.12500000000000000        1.0000000000000000        0.0000000000000000     
  0.15625000000000000        1.0000000000000000        0.0000000000000000     
  0.18750000000000000        1.0000000000000000        0.0000000000000000     
  0.21875000000000000        1.0000000000000000        0.0000000000000000     
  0.25000000000000000        1.0000000000000000        0.0000000000000000     
  0.25000000000000000       0.87500000000000000        0.0000000000000000     
  0.28125000000000000       0.87500000000000000        0.0000000000000000     
  0.31250000000000000       0.87500000000000000        0.0000000000000000     
  0.34375000000000000       0.87500000000000000        0.0000000000000000     
  0.37500000000000000       0.87500000000000000        0.0000000000000000     
  0.25000000000000000       0.90625000000000000        0.0000000000000000     
  0.28125000000000000       0.90625000000000000        0.0000000000000000     
  0.31250000000000000       0.90625000000000000        0.0000000000000000     
  0.34375000000000000       0.90625000000000000        0.0000000000000000     
  0.37500000000000000       0.90625000000000000        0.0000000000000000     
  0.25000000000000000       0.93750000000000000        0.0000000000000000     
  0.28125000000000000       0.93750000000000000        0.0000000000000000     
  0.31250000000000000       0.93750000000000000        0.0000000000000000     
  0.34375000000000000       0.93750000000000000        0.0000000000000000     
  0.37500000000000000       0.93750000000000000        0.0000000000000000     
  0.25000000000000000       0.96875000000000000        0.0000000000000000     
  0.28125000000000000       0.96875000000000000        0.0000000000000000     
  0.31250000000000000       0.96875000000000000        0.0000000000000000     
  0.34375000000000000       0.96875000000000000        0.0000000000000000     
  0.37500000000000000       0.96875000000000000        0.0000000000000000     
  0.25000000000000000        1.0000000000000000        0.0000000000000000     
  0.28125000000000000        1.0000000000000000        0.0000000000000000     
  0.31250000000000000        1.0000000000000000        0.0000000000000000     
  0.34375000000000000        1.0000000000000000        0.0000000000000000     
  0.37500000000000000        1.0000000000000000        0.0000000000000000     
  0.37500000000000000       0.87500000000000000        0.0000000000000000     
  0.40625000000000000       0.87500000000000000        0.0000000000000000     
  0.43750000000000000       0.87500000000000000        0.0000000000000000     
  0.46875000000000000       0.87500000000000000        0.0000000000000000     
  0.50000000000000000       0.87500000000000000        0.0000000000000000     
  0.37500000000000000       0.90625000000000000        0.0000000000000000     
  0.40625000000000000       0.90625000000000000        0.0000000000000000     
  0.43750000000000000       0.90625000000000000        0.0000000000000000     
  0.46875000000000000       0.90625000000000000        0.0000000000000000     
  0.50000000000000000       0.90625000000000000        0.0000000000000000     
  0.37500000000000000       0.93750000000000000        0.0000000000000000     
  0.40625000000000000       0.93750000000000000        0.0000000000000000     
  0.43750000000000000       0.93750000000000000        0.0000000000000000     
  0.46875000000000000       0.93750000000000000        0.0000000000000000     
  0.50000000000000000       0.93750000000000000        0.0000000000000000     
  0.37500000000000000       0.96875000000000000        0.0000000000000000     
  0.40625000000000000       0.96875000000000000        0.0000000000000000     
  0.43750000000000000       0.96875000000000000        0.0000000000000000     
  0.46875000000000000       0.96875000000000000        0.0000000000000000     
  0.50000000000000000       0.96875000000000000        0.0000000000000000     
  0.37500000000000000        1.0000000000000000        0.0000000000000000     
  0.40625000000000000        1.0000000000000000        0.0000000000000000     
  0.43750000000000000        1.0000000000000000        0.0000000000000000     
  0.46875000000000000        1.0000000000000000        0.0000000000000000     
  0.50000000000000000        1.0000000000000000        0.0000000000000000     
  0.50000000000000000       0.87500000000000000        0.0000000000000000     
  0.53125000000000000       0.87500000000000000        0.0000000000000000     
  0.56250000000000000       0.87500000000000000        0.0000000000000000     
  0.59375000000000000       0.87500000000000000        0.0000000000000000     
  0.62500000000000000       0.87500000000000000        0.0000000000000000     
  0.50000000000000000       0.90625000000000000        0.0000000000000000     
  0.53125000000000000       0.90625000000000000        0.0000000000000000     
  0.56250000000000000       0.90625000000000000        0.0000000000000000     
  0.59375000000000000       0.90625000000000000        0.0000000000000000     
  0.62500000000000000       0.90625000000000000        0.0000000000000000     
  0.50000000000000000       0.93750000000000000        0.0000000000000000     
  0.53125000000000000       0.93750000000000000        0.0000000000000000     
  0.56250000000000000       0.93750000000000000        0.0000000000000000     
  0.59375000000000000       0.93750000000000000        0.0000000000000000     
  0.62500000000000000       0.93750000000000000        0.0000000000000000     
  0.50000000000000000       0.96875000000000000        0.0000000000000000     
  0.53125000000000000       0.96875000000000000        0.0000000000000000     
  0.56250000000000000       0.96875000000000000        0.0000000000000000     
  0.59375000000000000       0.96875000000000000        0.0000000000000000     
  0.62500000000000000       0.96875000000000000        0.0000000000000000     
  0.50000000000000000        1.0000000000000000        0.0000000000000000     
  0.53125000000000000        1.0000000000000000        0.0000000000000000     
  0.56250000000000000        1.0000000000000000        0.0000000000000000     
  0.59375000000000000        1.0000000000000000        0.0000000000000000     
  0.62500000000000000        1.0000000000000000        0.0000000000000000     
  0.62500000000000000       0.87500000000000000        0.0000000000000000     
  0.65625000000000000       0.87500000000000000        0.0000000000000000     
  0.68750000000000000       0.87500000000000000        0.0000000000000000     
  0.71875000000000000       0.87500000000000000        0.0000000000000000     
  0.75000000000000000       0.87500000000000000        0.0000000000000000     
  0.62500000000000000       0.90625000000000000        0.0000000000000000     
  0.65625000000000000       0.90625000000000000        0.0000000000000000     
  0.68750000000000000       0.90625000000000000        0.0000000000000000     
  0.71875000000000000       0.90625000000000000        0.0000000000000000     
  0.75000000000000000       0.90625000000000000        0.0000000000000000     
  0.62500000000000000       0.93750000000000000        0.0000000000000000     
  0.65625000000000000       0.93750000000000000        0.0000000000000000     
  0.68750000000000000       0.93750000000000000        0.0000000000000000     
  0.71875000000000000       0.93750000000000000        0.0000000000000000     
  0.75000000000000000       0.93750000000000000        0.0000000000000000     
  0.62500000000000000       0.96875000000000000        0.0000000000000000     
  0.65625000000000000       0.96875000000000000        0.0000000000000000     
  0.68750000000000000       0.96875000000000000        0.0000000000000000     
  0.71875000000000000       0.96875000000000000        0.0000000000000000     
  0.75000000000000000       0.96875000000000000        0.0000000000000000     
  0.62500000000000000        1.0000000000000000        0.0000000000000000     
  0.65625000000000000        1.0000000000000000        0.0000000000000000     
  0.68750000000000000        1.0000000000000000        0.0000000000000000     
  0.71875000000000000        1.0000000000000000        0.0000000000000000     
  0.75000000000000000        1.0000000000000000        0.0000000000000000     
  0.75000000000000000       0.87500000000000000        0.0000000000000000     
  0.78125000000000000       0.87500000000000000        0.0000000000000000     
  0.81250000000000000       0.87500000000000000        0.0000000000000000     
  0.84375000000000000       0.87500000000000000        0.0000000000000000     
  0.87500000000000000       0.87500000000000000        0.0000000000000000     
  0.75000000000000000       0.90625000000000000        0.0000000000000000     
  0.78125000000000000       0.90625000000000000        0.0000000000000000     
  0.81250000000000000       0.90625000000000000        0.0000000000000000     
  0.84375000000000000       0.90625000000000000        0.0000000000000000     
  0.87500000000000000       0.90625000000000000        0.0000000000000000     
  0.75000000000000000       0.93750000000000000        0.0000000000000000     
  0.78125000000000000       0.93750000000000000        0.0000000000000000     
  0.81250000000000000       0.93750000000000000        0.0000000000000000     
  0.84375000000000000       0.93750000000000000        0.0000000000000000     
  0.87500000000000000       0.93750000000000000        0.0000000000000000     
  0.75000000000000000       0.96875000000000000        0.0000000000000000     
  0.78125000000000000       0.96875000000000000        0.0000000000000000     
  0.81250000000000000       0.96875000000000000        0.0000000000000000     
  0.84375000000000000       0.96875000000000000        0.0000000000000000     
  0.87500000000000000       0.96875000000000000        0.0000000000000000     
  0.75000000000000000        1.0000000000000000        0.0000000000000000     
  0.78125000000000000        1.0000000000000000        0.0000000000000000     
  0.81250000000000000        1.0000000000000000        0.0000000000000000     
  0.84375000000000000        1.0000000000000000        0.0000000000000000     
  0.87500000000000000        1.0000000000000000        0.0000000000000000     
  0.87500000000000000       0.87500000000000000        0.0000000000000000     
  0.90625000000000000       0.87500000000000000        0.0000000000000000     
  0.93750000000000000       0.87500000000000000        0.0000000000000000     
  0.96875000000000000       0.87500000000000000        0.0000000000000000     
   1.0000000000000000       0.87500000000000000        0.0000000000000000     
  0.87500000000000000       0.90625000000000000        0.0000000000000000     
  0.90625000000000000       0.90625000000000000        0.0000000000000000     
  0.93750000000000000       0.90625000000000000        0.0000000000000000     
  0.96875000000000000       0.90625000000000000        0.0000000000000000     
   1.0000000000000000       0.90625000000000000        0.0000000000000000     
  0.87500000000000000       0.93750000000000000        0.0000000000000000     
  0.90625000000000000       0.93750000000000000        0.0000000000000000     
  0.93750000000000000       0.93750000000000000        0.0000000000000000     
  0.96875000000000000       0.93750000000000000        0.0000000000000000     
   1.0000000000000000       0.93750000000000000        0.0000000000000000     
  0.87500000000000000       0.96875000000000000        0.0000000000000000     
  0.90625000000000000       0.96875000000000000        0.0000000000000000     
  0.93750000000000000       0.96875000000000000        0.0000000000000000     
  0.96875000000000000       0.96875000000000000        0.0000000000000000     
   1.0000000000000000       0.96875000000000000        0.0000000000000000     
  0.87500000000000000        1.0000000000000000        0.0000000000000000     
  0.90625000000000000        1.0000000000000000        0.0000000000000000     
  0.93750000000000000        1.0000000000000000        0.0000000000000000     
  0.96875000000000000        1.0000000000000000        0.0000000000000000     
   1.0000000000000000        1.0000000000000000        0.0000000000000000     
 </DataArray>
 </Points>
 <Cells>
 <DataArray  type="Int32"  Name="connectivity"  format="ascii">
           0           1           6           5
           1           2           7           6
           2           3           8           7
           3           4           9           8
           5           6          11          10
           6           7          12          11
           7           8          13          12
           8           9          14          13
          10          11          16          15
          11          12          17          16
          12          13          18          17
          13          14          19          18
          15          16          21          20
          16          17          22          21
          17          18          23          22
          18          19          24          23
          25          26          31          30
          26          27          32          31
          27          28          33          32
          28          29          34          33
          30          31          36          35
          31          32          37          36
          32          33          38          37
          33          34          39          38
          35          36          41          40
          36          37          42          41
          37          38          43          42
          38          39          44          43
          40          41          46          45
          41          42          47          46
          42          43          48          47
          43          44          49          48
          50          51          56          55
          51          52          57          56
          52          53          58          57
          53          54          59          58
          55          56          61          60
          56          57          62          61
          57          58          63          62
          58          59          64          63
          60          61          66          65
          61          62          67          66
          62          63          68          67
          63          64          69          68
          65          66          71          70
          66          67          72          71
          67          68          73          72
          68          69          74          73
          75          76          81          80
          76          77          82          81
          77          78          83          82
          78          79          84          83
          80          81          86          85
          81          82          87          86
          82          83          88          87
          83          84          89          88
          85          86          91          90
          86          87          92          91
          87          88          93          92
          88          89          94          93
          90          91          96          95
          91          92          97          96
          92          93          98          97
          93          94          99          98
         100         101         106         105
         101         102         107         106
         102         103         108         107
         103         104         109         108
         105         106         111         110
         106         107         112         111
         107         108         113         112
         108         109         114         113
         110         111         116         115
         111         112         117         116
         112         113         118         117
         113         114         119         118
         115         116         121         120
         116         117         122         121
         117         118         123         122
         118         119         124         123
         125         126         131         130
         126         127         132         131
         127         128         133         132
         128         129         134         133
         130         131         136         135
         131         132         137         136
         132         133         138         137
         133         134         139         138
         135         136         141         140
         136         137         142         141
         137         138         143         142
         138         139         144         143
         140         141         146         145
         141         142         147         146
         142         143         148         147
         143         144         149         148
         150         151         156         155
         151         152         157         156
         152         153         158         157
         153         154         159         158
         155         156         161         160
         156         157         162         161
         157         158         163         162
         158         159         164         163
         160         161         166         165
         161         162         167         166
         162         163         168         167
         163         164         169         168
         165         166         171         170
         166         167         172         171
         167         168         173         172
         168         169         174         173
         175         176         181         180
         176         177         182         181
         177         178         183         182
         178         179         184         183
         180         181         186         185
         181         182         187         186
         182         183         188         187
         183         184         189         188
         185         186         191         190
         186         187         192         191
         187         188         193         192
         188         189         194         193
         190         191         196         195
         191         192         197         196
         192         193         198         197
         193         194         199         198
         200         201         206         205
         201         202         207         206
         202         203         208         207
         203         204         209         208
         205         206         211         210
         206         207         212         211
         207         208         213         212
         208         209         214         213
         210         211         216         215
         211         212         217         216
         212         213         218         217
         213         214         219         218
         215         216         221         220
         216         217         222         221
         217         218         223         222
         218         219         224         223
         225         226         231         230
         226         227         232         231
         227         228         233         232
         228         229         234         233
         230         231         236         235
         231         232         237         236
         232         233         238         237
         233         234         239         238
         235         236         241         240
         236         237         242         241
         237         238         243         242
         238         239         244         243
         240         241         246         245
         241         242         247         246
         242         243         248         247
         243         244         249         248
         250         251         256         255
         251         252         257         256
         252         253         258         257
         253         254         259         258
         255         256         261         260
         256         257         262         261
         257         258         263         262
         258         259         264         263
         260         261         266         265
         261         262         267         266
         262         263         268         267
         263         264         269         268
         265         266         271         270
         266         267         272         271
         267         268         273         272
         268         269         274         273
         275         276         281         280
         276         277         282         281
         277         278         283         282
         278         279         284         283
         280         281         286         285
         281         282         287         286
         282         283         288         287
         283         284         289         288
         285         286         291         290
         286         287         292         291
         287         288         293         292
         288         289         294         293
         290         291         296         295
         291         292         297         296
         292         293         298         297
         293         294         299         298
         300         301         306         305
         301         302         307         306
         302         303         308         307
         303         304         309         308
         305         306         311         310
         306         307         312         311
         307         308         313         312
         308         309         314         313
         310         311         316         315
         311         312         317         316
         312         313         318         317
         313         314         319         318
         315         316         321         320
         316         317         322         321
         317         318         323         322
         318         319         324         323
         325         326         331         330
         326         327         332         331
         327         328         333         332
         328         329         334         333
         330         331         336         335
         331         332         337         336
         332         333         338         337
         333         334         339         338
         335         336         341         340
         336         337         342         341
         337         338         343         342
         338         339         344         343
         340         341         346         345
         341         342         347         346
         342         343         348         347
         343         344         349         348
         350         351         356         355
         351         352         357         356
         352         353         358         357
         353         354         359         358
         355         356         361         360
         356         357         362         361
         357         358         363         362
         358         359         364         363
         360         361         366         365
         361         362         367         366
         362         363         368         367
         363         364         369         368
         365         366         371         370
         366         367         372         371
         367         368         373         372
         368         369         374         373
         375         376         381         380
         376         377         382         381
         377         378         383         382
         378         379         384         383
         380         381         386         385
         381         382         387         386
         382         383         388         387
         383         384         389         388
         385         386         391         390
         386         387         392         391
         387         388         393         392
         388         389         394         393
         390         391         396         395
         391         392         397         396
         392         393         398         397
         393         394         399         398
         400         401         406         405
         401         402         407         406
         402         403         408         407
         403         404         409         408
         405         406         411         410
         406         407         412         411
         407         408         413         412
         408         409         414         413
         410         411         416         415
         411         412         417         416
         412         413         418         417
         413         414         419         418
         415         416         421         420
         416         417         422         421
         417         418         423         422
         418         419         424         423
         425         426         431         430
         426         427         432         431
         427         428         433         432
         428         429         434         433
         430         431         436         435
         431         432         437         436
         432         433         438         437
         433         434         439         438
         435         436         441         440
         436         437         442         441
         437         438         443         442
         438         439         444         443
         440         441         446         445
         441         442         447         446
         442         443         448         447
         443         444         449         448
         450         451         456         455
         451         452         457         456
         452         453         458         457
         453         454         459         458
         455         456         461         460
         456         457         462         461
         457         458         463         462
         458         459         464         463
         460         461         466         465
         461         462         467         466
         462         463         468         467
         463         464         469         468
         465         466         471         470
         466         467         472         471
         467         468         473         472
         468         469         474         473
         475         476         481         480
         476         477         482         481
         477         478         483         482
         478         479         484         483
         480         481         486         485
         481         482         487         486
         482         483         488         487
         483         484         489         488
         485         486         491         490
         486         487         492         491
         487         488         493         492
         488         489         494         493
         490         491         496         495
         491         492         497         496
         492         493         498         497
         493         494         499         498
         500         501         506         505
         501         502         507         506
         502         503         508         507
         503         504         509         508
         505         506         511         510
         506         507         512         511
         507         508         513         512
         508         509         514         513
         510         511         516         515
         511         512         517         516
         512         513         518         517
         513         514         519         518
         515         516         521         520
         516         517         522         521
         517         518         523         522
         518         519         524         523
         525         526         531         530
         526         527         532         531
         527         528         533         532
         528         529         534         533
         530         531         536         535
         531         532         537         536
         532         533         538         537
         533         534         539         538
         535         536         541         540
         536         537         542         541
         537         538         543         542
         538         539         544         543
         540         541         546         545
         541         542         547         546
         542         543         548         547
         543         544         549         548
         550         551         556         555
         551         552         557         556
         552         553         558         557
         553         554         559         558
         555         556         561         560
         556         557         562         561
         557         558         563         562
         558         559         564         563
         560         561         566         565
         561         562         567         566
         562         563         568         567
         563         564         569         568
         565         566         571         570
         566         567         572         571
         567         568         573         572
         568         569         574         573
         575         576         581         580
         576         577         582         581
         577         578         583         582
         578         579         584         583
         580         581         586         585
         581         582         587         586
         582         583         588         587
         583         584         589         588
         585         586         591         590
         586         587         592         591
         587         588         593         592
         588         589         594         593
         590         591         596         595
         591         592         597         596
         592         593         598         597
         593         594         599         598
         600         601         606         605
         601         602         607         606
         602         603         608         607
         603         604         609         608
         605         606         611         610
         606         607         612         611
         607         608         613         612
         608         609         614         613
         610         611         616         615
         611         612         617         616
         612         613         618         617
         613         614         619         618
         615         616         621         620
         616         617         622         621
         617         618         623         622
         618         619         624         623
         625         626         631         630
         626         627         632         631
         627         628         633         632
         628         629         634         633
         630         631         636         635
         631         632         637         636
         632         633         638         637
         633         634         639         638
         635         636         641         640
         636         637         642         641
         637         638         643         642
         638         639         644         643
         640         641         646         645
         641         642         647         646
         642         643         648         647
         643         644         649         648
         650         651         656         655
         651         652         657         656
         652         653         658         657
         653         654         659         658
         655         656         661         660
         656         657         662         661
         657         658         663         662
         658         659         664         663
         660         661         666         665
         661         662         667         666
         662         663         668         667
         663         664         669         668
         665         666         671         670
         666         667         672         671
         667         668         673         672
         668         669         674         673
         675         676         681         680
         676         677         682         681
         677         678         683         682
         678         679         684         683
         680         681         686         685
         681         682         687         686
         682         683         688         687
         683         684         689         688
         685         686         691         690
         686         687         692         691
         687         688         693         692
         688         689         694         693
         690         691         696         695
         691         692         697         696
         692         693         698         697
         693         694         699         698
         700         701         706         705
         701         702         707         706
         702         703         708         707
         703         704         709         708
         705         706         711         710
         706         707         712         711
         707         708         713         712
         708         709         714         713
         710         711         716         715
         711         712         717         716
         712         713         718         717
         713         714         719         718
         715         716         721         720
         716         717         722         721
         717         718         723         722
         718         719         724         723
         725         726         731         730
         726         727         732         731
         727         728         733         732
         728         729         734         733
         730         731         736         735
         731         732         737         736
         732         733         738         737
         733         734         739         738
         735         736         741         740
         736         737         742         741
         737         738         743         742
         738         739         744         743
         740         741         746         745
         741         742         747         746
         742         743         748         747
         743         744         749         748
         750         751         756         755
         751         752         757         756
         752         753         758         757
         753         754         759         758
         755         756         761         760
         756         757         762         761
         757         758         763         762
         758         759         764         763
         760         761         766         765
         761         762         767         766
         762         763         768         767
         763         764         769         768
         765         766         771         770
         766         767         772         771
         767         768         773         772
         768         769         774         773
         775         776         781         780
         776         777         782         781
         777         778         783         782
         778         779         784         783
         780         781         786         785
         781         782         787         786
         782         783         788         787
         783         784         789         788
         785         786         791         790
         786         787         792         791
         787         788         793         792
         788         789         794         793
         790         791         796         795
         791         792         797         796
         792         793         798         797
         793         794         799         798
         800         801         806         805
         801         802         807         806
         802         803         808         807
         803         804         809         808
         805         806         811         810
         806         807         812         811
         807         808         813         812
         808         809         814         813
         810         811         816         815
         811         812         817         816
         812         813         818         817
         813         814         819         818
         815         816         821         820
         816         817         822         821
         817         818         823         822
         818         819         824         823
         825         826         831         830
         826         827         832         831
         827         828         833         832
         828         829         834         833
         830         831         836         835
         831         832         837         836
         832         833         838         837
         833         834         839         838
         835         836         841         840
         836         837         842         841
         837         838         843         842
         838         839         844         843
         840         841         846         845
         841         842         847         846
         842         843         848         847
         843         844         849         848
         850         851         856         855
         851         852         857         856
         852         853         858         857
         853         854         859         858
         855         856         861         860
         856         857         862         861
         857         858         863         862
         858         859         864         863
         860         861         866         865
         861         862         867         866
         862         863         868         867
         863         864         869         868
         865         866         871         870
         866         867         872         871
         867         868         873         872
         868         869         874         873
         875         876         881         880
         876         877         882         881
         877         878         883         882
         878         879         884         883
         880         881         886         885
         881         882         887         886
         882         883         888         887
         883         884         889         888
         885         886         891         890
         886         887         892         891
         887         888         893         892
         888         889         894         893
         890         891         896         895
         891         892         897         896
         892         893         898         897
         893         894         899         898
         900         901         906         905
         901         902         907         906
         902         903         908         907
         903         904         909         908
         905         906         911         910
         906         907         912         911
         907         908         913         912
         908         909         914         913
         910         911         916         915
         911         912         917         916
         912         913         918         917
         913         914         919         918
         915         916         921         920
         916         917         922         921
         917         918         923         922
         918         919         924         923
         925         926         931         930
         926         927         932         931
         927         928         933         932
         928         929         934         933
         930         931         936         935
         931         932         937         936
         932         933         938         937
         933         934         939         938
         935         936         941         940
         936         937         942         941
         937         938         943         942
         938         939         944         943
         940         941         946         945
         941         942         947         946
         942         943         948         947
         943         944         949         948
         950         951         956         955
         951         952         957         956
         952         953         958         957
         953         954         959         958
         955         956         961         960
         956         957         962         961
         957         958         963         962
         958         959         964         963
         960         961         966         965
         961         962         967         966
         962         963         968         967
         963         964         969         968
         965         966         971         970
         966         967         972         971
         967         968         973         972
         968         969         974         973
         975         976         981         980
         976         977         982         981
         977         978         983         982
         978         979         984         983
         980         981         986         985
         981         982         987         986
         982         983         988         987
         983         984         989         988
         985         986         991         990
         986         987         992         991
         987         988         993         992
         988         989         994         993
         990         991         996         995
         991         992         997         996
         992         993         998         997
         993         994         999         998
        1000        1001        1006        1005
        1001        1002        1007        1006
        1002        1003        1008        1007
        1003        1004        1009        1008
        1005        1006        1011        1010
        1006        1007        1012        1011
        1007        1008        1013        1012
        1008        1009        1014        1013
        1010        1011        1016        1015
        1011        1012        1017        1016
        1012        1013        1018        1017
        1013        1014        1019        1018
        1015        1016        1021        1020
        1016        1017        1022        1021
        1017        1018        1023        1022
        1018        1019        1024        1023
        1025        1026        1031        1030
        1026        1027        1032        1031
        1027        1028        1033        1032
        1028        1029        1034        1033
        1030        1031        1036        1035
        1031        1032        1037        1036
        1032        1033        1038        1037
        1033        1034        1039        1038
        1035        1036        1041        1040
        1036        1037        1042        1041
        1037        1038        1043        1042
        1038        1039        1044        1043
        1040        1041        1046        1045
        1041        1042        1047        1046
        1042        1043        1048        1047
        1043        1044        1049        1048
        1050        1051        1056        1055
        1051        1052        1057        1056
        1052        1053        1058        1057
        1053        1054        1059        1058
        1055        1056        1061        1060
        1056        1057        1062        1061
        1057        1058        1063        1062
        1058        1059        1064        1063
        1060        1061        1066        1065
        1061        1062        1067        1066
        1062        1063        1068        1067
        1063        1064        1069        1068
        1065        1066        1071        1070
        1066        1067        1072        1071
        1067        1068        1073        1072
        1068        1069        1074        1073
        1075        1076        1081        1080
        1076        1077        1082        1081
        1077        1078        1083        1082
        1078        1079        1084        1083
        1080        1081        1086        1085
        1081        1082        1087        1086
        1082        1083        1088        1087
        1083        1084        1089        1088
        1085        1086        1091        1090
        1086        1087        1092        1091
        1087        1088        1093        1092
        1088        1089        1094        1093
        1090        1091        1096        1095
        1091        1092        1097        1096
        1092        1093        1098        1097
        1093        1094        1099        1098
        1100        1101        1106        1105
        1101        1102        1107        1106
        1102        1103        1108        1107
        1103        1104        1109        1108
        1105        1106        1111        1110
        1106        1107        1112        1111
        1107        1108        1113        1112
        1108        1109        1114        1113
        1110        1111        1116        1115
        1111        1112        1117        1116
        1112        1113        1118        1117
        1113        1114        1119        1118
        1115        1116        1121        1120
        1116        1117        1122        1121
        1117        1118        1123        1122
        1118        1119        1124        1123
        1125        1126        1131        1130
        1126        1127        1132        1131
        1127        1128        1133        1132
        1128        1129        1134        1133
        1130        1131        1136        1135
        1131        1132        1137        1136
        1132        1133        1138        1137
        1133        1134        1139        1138
        1135        1136        1141        1140
        1136        1137        1142        1141
        1137        1138        1143        1142
        1138        1139        1144        1143
        1140        1141        1146        1145
        1141        1142        1147        1146
        1142        1143        1148        1147
        1143        1144        1149        1148
        1150        1151        1156        1155
        1151        1152        1157        1156
        1152        1153        1158        1157
        1153        1154        1159        1158
        1155        1156        1161        1160
        1156        1157        1162        1161
        1157        1158        1163        1162
        1158        1159        1164        1163
        1160        1161        1166        1165
        1161        1162        1167        1166
        1162        1163        1168        1167
        1163        1164        1169        1168
        1165        1166        1171        1170
        1166        1167        1172        1171
        1167        1168        1173        1172
        1168        1169        1174        1173
        1175        1176        1181        1180
        1176        1177        1182        1181
        1177        1178        1183        1182
        1178        1179        1184        1183
        1180        1181        1186        1185
        1181        1182        1187        1186
        1182        1183        1188        1187
        1183        1184        1189        1188
        1185        1186        1191        1190
        1186        1187        1192        1191
        1187        1188        1193        1192
        1188        1189        1194        1193
        1190        1191        1196        1195
        1191        1192        1197        1196
        1192        1193        1198        1197
        1193        1194        1199        1198
        1200        1201        1206        1205
        1201        1202        1207        1206
        1202        1203        1208        1207
        1203        1204        1209        1208
        1205        1206        1211        1210
        1206        1207        1212        1211
        1207        1208        1213        1212
        1208        1209        1214        1213
        1210        1211        1216        1215
        1211        1212        1217        1216
        1212        1213        1218        1217
        1213        1214        1219        1218
        1215        1216        1221        1220
        1216        1217        1222        1221
        1217        1218        1223        1222
        1218        1219        1224        1223
        1225        1226        1231        1230
        1226        1227        1232        1231
        1227        1228        1233        1232
        1228        1229        1234        1233
        1230        1231        1236        1235
        1231        1232        1237        1236
        1232        1233        1238        1237
        1233        1234        1239        1238
        1235        1236        1241        1240
        1236        1237        1242        1241
        1237        1238        1243        1242
        1238        1239        1244        1243
        1240        1241        1246        1245
        1241        1242        1247        1246
        1242        1243        1248        1247
        1243        1244        1249        1248
        1250        1251        1256        1255
        1251        1252        1257        1256
        1252        1253        1258        1257
        1253        1254        1259        1258
        1255        1256        1261        1260
        1256        1257        1262        1261
        1257        1258        1263        1262
        1258        1259        1264        1263
        1260        1261        1266        1265
        1261        1262        1267        1266
        1262        1263        1268        1267
        1263        1264        1269        1268
        1265        1266        1271        1270
        1266        1267        1272        1271
        1267        1268        1273        1272
        1268        1269        1274        1273
        1275        1276        1281        1280
        1276        1277        1282        1281
        1277        1278        1283        1282
        1278        1279        1284        1283
        1280        1281        1286        1285
        1281        1282        1287        1286
        1282        1283        1288        1287
        1283        1284        1289        1288
        1285        1286        1291        1290
        1286        1287        1292        1291
        1287        1288        1293        1292
        1288        1289        1294        1293
        1290        1291        1296        1295
        1291        1292        1297        1296
        1292        1293        1298        1297
        1293        1294        1299        1298
        1300        1301        1306        1305
        1301        1302        1307        1306
        1302        1303        1308        1307
        1303        1304        1309        1308
        1305        1306        1311        1310
        1306        1307        1312        1311
        1307        1308        1313        1312
        1308        1309        1314        1313
        1310        1311        1316        1315
        1311        1312        1317        1316
        1312        1313        1318        1317
        1313        1314        1319        1318
        1315        1316        1321        1320
        1316        1317        1322        1321
        1317        1318        1323        1322
        1318        1319        1324        1323
        1325        1326        1331        1330
        1326        1327        1332        1331
        1327        1328        1333        1332
        1328        1329        1334        1333
        1330        1331        1336        1335
        1331        1332        1337        1336
        1332        1333        1338        1337
        1333        1334        1339        1338
        1335        1336        1341        1340
        1336        1337        1342        1341
        1337        1338        1343        1342
        1338        1339        1344        1343
        1340        1341        1346        1345
        1341        1342        1347        1346
        1342        1343        1348        1347
        1343        1344        1349        1348
        1350        1351        1356        1355
        1351        1352        1357        1356
        1352        1353        1358        1357
        1353        1354        1359        1358
        1355        1356        1361        1360
        1356        1357        1362        1361
        1357        1358        1363        1362
        1358        1359        1364        1363
        1360        1361        1366        1365
        1361        1362        1367        1366
        1362        1363        1368        1367
        1363        1364        1369        1368
        1365        1366        1371        1370
        1366        1367        1372        1371
        1367        1368        1373        1372
        1368        1369        1374        1373
        1375        1376        1381        1380
        1376        1377        1382        1381
        1377        1378        1383        1382
        1378        1379        1384        1383
        1380        1381        1386        1385
        1381        1382        1387        1386
        1382        1383        1388        1387
        1383        1384        1389        1388
        1385        1386        1391        1390
        1386        1387        1392        1391
        1387        1388        1393        1392
        1388        1389        1394        1393
        1390        1391        1396        1395
        1391        1392        1397        1396
        1392        1393        1398        1397
        1393        1394        1399        1398
        1400        1401        1406        1405
        1401        1402        1407        1406
        1402        1403        1408        1407
        1403        1404        1409        1408
        1405        1406        1411        1410
        1406        1407        1412        1411
        1407        1408        1413        1412
        1408        1409        1414        1413
        1410        1411        1416        1415
        1411        1412        1417        1416
        1412        1413        1418        1417
        1413        1414        1419        1418
        1415        1416        1421        1420
        1416        1417        1422        1421
        1417        1418        1423        1422
        1418        1419        1424        1423
        1425        1426        1431        1430
        1426        1427        1432        1431
        1427        1428        1433        1432
        1428        1429        1434        1433
        1430        1431        1436        1435
        1431        1432        1437        1436
        1432        1433        1438        1437
        1433        1434        1439        1438
        1435        1436        1441        1440
        1436        1437        1442        1441
        1437        1438        1443        1442
        1438        1439        1444        1443
        1440        1441        1446        1445
        1441        1442        1447        1446
        1442        1443        1448        1447
        1443        1444        1449        1448
        1450        1451        1456        1455
        1451        1452        1457        1456
        1452        1453        1458        1457
        1453        1454        1459        1458
        1455        1456        1461        1460
        1456        1457        1462        1461
        1457        1458        1463        1462
        1458        1459        1464        1463
        1460        1461        1466        1465
        1461        1462        1467        1466
        1462        1463        1468        1467
        1463        1464        1469        1468
        1465        1466        1471        1470
        1466        1467        1472        1471
        1467        1468        1473        1472
        1468        1469        1474        1473
        1475        1476        1481        1480
        1476        1477        1482        1481
        1477        1478        1483        1482
        1478        1479        1484        1483
        1480        1481        1486        1485
        1481        1482        1487        1486
        1482        1483        1488        1487
        1483        1484        1489        1488
        1485        1486        1491        1490
        1486        1487        1492        1491
        1487        1488        1493        1492
        1488        1489        1494        1493
        1490        1491        1496        1495
        1491        1492        1497        1496
        1492        1493        1498        1497
        1493        1494        1499        1498
        1500        1501        1506        1505
        1501        1502        1507        1506
        1502        1503        1508        1507
        1503        1504        1509        1508
        1505        1506        1511        1510
        1506        1507        1512        1511
        1507        1508        1513        1512
        1508        1509        1514        1513
        1510        1511        1516        1515
        1511        1512        1517        1516
        1512        1513        1518        1517
        1513        1514        1519        1518
        1515        1516        1521        1520
        1516        1517        1522        1521
        1517        1518        1523        1522
        1518        1519        1524        1523
        1525        1526        1531        1530
        1526        1527        1532        1531
        1527        1528        1533        1532
        1528        1529        1534        1533
        1530        1531        1536        1535
        1531        1532        1537        1536
        1532        1533        1538        1537
        1533        1534        1539        1538
        1535        1536        1541        1540
        1536        1537        1542        1541
        1537        1538        1543        1542
        1538        1539        1544        1543
        1540        1541        1546        1545
        1541        1542        1547        1546
        1542        1543        1548        1547
        1543        1544        1549        1548
        1550        1551        1556        1555
        1551        1552        1557        1556
        1552        1553        1558        1557
        1553        1554        1559        1558
        1555        1556        1561        1560
        1556        1557        1562        1561
        1557        1558        1563        1562
        1558        1559        1564        1563
        1560        1561        1566        1565
        1561        1562        1567        1566
        1562        1563        1568        1567
        1563        1564        1569        1568
        1565        1566        1571        1570
        1566        1567        1572        1571
        1567        1568        1573        1572
        1568        1569        1574        1573
        1575        1576        1581        1580
        1576        1577        1582        1581
        1577        1578        1583        1582
        1578        1579        1584        1583
        1580        1581        1586        1585
        1581        1582        1587        1586
        1582        1583        1588        1587
        1583        1584        1589        1588
        1585        1586        1591        1590
        1586        1587        1592        1591
        1587        1588        1593        1592
        1588        1589        1594        1593
        1590        1591        1596        1595
        1591        1592        1597        1596
        1592        1593        1598        1597
        1593        1594        1599        1598
 </DataArray>
 <DataArray  type="Int32"  Name="offsets"  format="ascii"> 
           4
           8
          12
          16
          20
          24
          28
          32
          36
          40
          44
          48
          52
          56
          60
          64
          68
          72
          76
          80
          84
          88
          92
          96
         100
         104
         108
         112
         116
         120
         124
         128
         132
         136
         140
         144
         148
         152
         156
         160
         164
         168
         172
         176
         180
         184
         188
         192
         196
         200
         204
         208
         212
         216
         220
         224
         228
         232
         236
         240
         244
         248
         252
         256
         260
         264
         268
         272
         276
         280
         284
         288
         292
         296
         300
         304
         308
         312
         316
         320
         324
         328
         332
         336
         340
         344
         348
         352
         356
         360
         364
         368
         372
         376
         380
         384
         388
         392
         396
         400
         404
         408
         412
         416
         420
         424
         428
         432
         436
         440
         444
         448
         452
         456
         460
         464
         468
         472
         476
         480
         484
         488
         492
         496
         500
         504
         508
         512
         516
         520
         524
         528
         532
         536
         540
         544
         548
         552
         556
         560
         564
         568
         572
         576
         580
         584
         588
         592
         596
         600
         604
         608
         612
         616
         620
         624
         628
         632
         636
         640
         644
         648
         652
         656
         660
         664
         668
         672
         676
         680
         684
         688
         692
         696
         700
         704
         708
         712
         716
         720
         724
         728
         732
         736
         740
         744
         748
         752
         756
         760
         764
         768
         772
         776
         780
         784
         788
         792
         796
         800
         804
         808
         812
         816
         820
         824
         828
         832
         836
         840
         844
         848
         852
         856
         860
         864
         868
         872
         876
         880
         884
         888
         892
         896
         900
         904
         908
         912
         916
         920
         924
         928
         932
         936
         940
         944
         948
         952
         956
         960
         964
         968
         972
         976
         980
         984
         988
         992
         996
        1000
        1004
        1008
        1012
        1016
        1020
        1024
        1028
        1032
        1036
        1040
        1044
        1048
        1052
        1056
        1060
        1064
        1068
        1072
        1076
        1080
        1084
        1088
        1092
        1096
        1100
        1104
        1108
        1112
        1116
        1120
        1124
        1128
        1132
        1136
        1140
        1144
        1148
        1152
        1156
        1160
        1164
        1168
        1172
        1176
        1180
        1184
        1188
        1192
        1196
        1200
        1204
        1208
        1212
        1216
        1220
        1224
        1228
        1232
        1236
        1240
        1244
        1248
        1252
        1256
        1260
        1264
        1268
        1272
        1276
        1280
        1284
        1288
        1292
        1296
        1300
        1304
        1308
        1312
        1316
        1320
        1324
        1328
        1332
        1336
        1340
        1344
        1348
        1352
        1356
        1360
        1364
        1368
        1372
        1376
        1380
        1384
        1388
        1392
        1396
        1400
        1404
        1408
        1412
        1416
        1420
        1424
        1428
        1432
        1436
        1440
        1444
        1448
        1452
        1456
        1460
        1464
        1468
        1472
        1476
        1480
        1484
        1488
        1492
        1496
        1500
        1504
        1508
        1512
        1516
        1520
        1524
        1528
        1532
        1536
        1540
        1544
        1548
        1552
        1556
        1560
        1564
        1568
        1572
        1576
        1580
        1584
        1588
        1592
        1596
        1600
        1604
        1608
        1612
        1616
        1620
        1624
        1628
        1632
        1636
        1640
        1644
        1648
        1652
        1656
        1660
        1664
        1668
        1672
        1676
        1680
        1684
        1688
        1692
        1696
        1700
        1704
        1708
        1712
        1716
        1720
        1724
        1728
        1732
        1736
        1740
        1744
        1748
        1752
        1756
        1760
        1764
        1768
        1772
        1776
        1780
        1784
        1788
        1792
        1796
        1800
        1804
        1808
        1812
        1816
        1820
        1824
        1828
        1832
        1836
        1840
        1844
        1848
        1852
        1856
        1860
        1864
        1868
        1872
        1876
        1880
        1884
        1888
        1892
        1896
        1900
        1904
        1908
        1912
        1916
        1920
        1924
        1928
        1932
        1936
        1940
        1944
        1948
        1952
        1956
        1960
        1964
        1968
        1972
        1976
        1980
        1984
        1988
        1992
        1996
        2000
        2004
        2008
        2012
        2016
        2020
        2024
        2028
        2032
        2036
        2040
        2044
        2048
        2052
        2056
        2060
        2064
        2068
        2072
        2076
        2080
        2084
        2088
        2092
        2096
        2100
        2104
        2108
        2112
        2116
        2120
        2124
        2128
        2132
        2136
        2140
        2144
        2148
        2152
        2156
        2160
        2164
        2168
        2172
        2176
        2180
        2184
        2188
        2192
        2196
        2200
        2204
        2208
        2212
        2216
        2220
        2224
        2228
        2232
        2236
        2240
        2244
        2248
        2252
        2256
        2260
        2264
        2268
        2272
        2276
        2280
        2284
        2288
        2292
        2296
        2300
        2304
        2308
        2312
        2316
        2320
        2324
        2328
        2332
        2336
        2340
        2344
        2348
        2352
        2356
        2360
        2364
        2368
        2372
        2376
        2380
        2384
        2388
        2392
        2396
        2400
        2404
        2408
        2412
        2416
        2420
        2424
        2428
        2432
        2436
        2440
        2444
        2448
        2452
        2456
        2460
        2464
        2468
        2472
        2476
        2480
        2484
        2488
        2492
        2496
        2500
        2504
        2508
        2512
        2516
        2520
        2524
        2528
        2532
        2536
        2540
        2544
        2548
        2552
        2556
        2560
        2564
        2568
        2572
        2576
        2580
        2584
        2588
        2592
        2596
        2600
        2604
        2608
        2612
        2616
        2620
        2624
        2628
        2632
        2636
        2640
        2644
        2648
        2652
        2656
        2660
        2664
        2668
        2672
        2676
        2680
        2684
        2688
        2692
        2696
        2700
        2704
        2708
        2712
        2716
        2720
        2724
        2728
        2732
        2736
        2740
        2744
        2748
        2752
        2756
        2760
        2764
        2768
        2772
        2776
        2780
        2784
        2788
        2792
        2796
        2800
        2804
        2808
        2812
        2816
        2820
        2824
        2828
        2832
        2836
        2840
        2844
        2848
        2852
        2856
        2860
        2864
        2868
        2872
        2876
        2880
        2884
        2888
        2892
        2896
        2900
        2904
        2908
        2912
        2916
        2920
        2924
        2928
        2932
        2936
        2940
        2944
        2948
        2952
        2956
        2960
        2964
        2968
        2972
        2976
        2980
        2984
        2988
        2992
        2996
        3000
        3004
        3008
        3012
        3016
        3020
        3024
        3028
        3032
        3036
        3040
        3044
        3048
        3052
        3056
        3060
        3064
        3068
        3072
        3076
        3080
        3084
        3088
        3092
        3096
        3100
        3104
        3108
        3112
        3116
        3120
        3124
        3128
        3132
        3136
        3140
        3144
        3148
        3152
        3156
        3160
        3164
        3168
        3172
        3176
        3180
        3184
        3188
        3192
        3196
        3200
        3204
        3208
        3212
        3216
        3220
        3224
        3228
        3232
        3236
        3240
        3244
        3248
        3252
        3256
        3260
        3264
        3268
        3272
        3276
        3280
        3284
        3288
        3292
        3296
        3300
        3304
        3308
        3312
        3316
        3320
        3324
        3328
        3332
        3336
        3340
        3344
        3348
        3352
        3356
        3360
        3364
        3368
        3372
        3376
        3380
        3384
        3388
        3392
        3396
        3400
        3404
        3408
        3412
        3416
        3420
        3424
        3428
        3432
        3436
        3440
        3444
        3448
        3452
        3456
        3460
        3464
        3468
        3472
        3476
        3480
        3484
        3488
        3492
        3496
        3500
        3504
        3508
        3512
        3516
        3520
        3524
        3528
        3532
        3536
        3540
        3544
        3548
        3552
        3556
        3560
        3564
        3568
        3572
        3576
        3580
        3584
        3588
        3592
        3596
        3600
        3604
        3608
        3612
        3616
        3620
        3624
        3628
        3632
        3636
        3640
        3644
        3648
        3652
        3656
        3660
        3664
        3668
        3672
        3676
        3680
        3684
        3688
        3692
        3696
        3700
        3704
        3708
        3712
        3716
        3720
        3724
        3728
        3732
        3736
        3740
        3744
        3748
        3752
        3756
        3760
        3764
        3768
        3772
        3776
        3780
        3784
        3788
        3792
        3796
        3800
        3804
        3808
        3812
        3816
        3820
        3824
        3828
        3832
        3836
        3840
        3844
        3848
        3852
        3856
        3860
        3864
        3868
        3872
        3876
        3880
        3884
        3888
        3892
        3896
        3900
        3904
        3908
        3912
        3916
        3920
        3924
        3928
        3932
        3936
        3940
        3944
        3948
        3952
        3956
        3960
        3964
        3968
        3972
        3976
        3980
        3984
        3988
        3992
        3996
        4000
        4004
        4008
        4012
        4016
        4020
        4024
        4028
        4032
        4036
        4040
        4044
        4048
        4052
        4056
        4060
        4064
        4068
        4072
        4076
        4080
        4084
        4088
        4092
        4096
 </DataArray>
 <DataArray  type="UInt8"  Name="types"  format="ascii">
 9
 9
 9
 9
 9
 9
 9
 9
 9
 9
 9
 9
 9
 9
 9
 9
 9
 9
 9
 9
 9
 9
 9
 9
 9
 9
 9
 9
 9
 9
 9
 9
 9
 9
 9
 9
 9
 9
 9
 9
 9
 9
 9
 9
 9
 9
 9
 9
 9
 9
 9
 9
 9
 9
 9
 9
 9
 9
 9
 9
 9
 9
 9
 9
 9
 9
 9
 9
 9
 9
 9
 9
 9
 9
 9
 9
 9
 9
 9
 9
 9
 9
 9
 9
 9
 9
 9
 9
 9
 9
 9
 9
 9
 9
 9
 9
 9
 9
 9
 9
 9
 9
 9
 9
 9
 9
 9
 9
 9
 9
 9
 9
 9
 9
 9
 9
 9
 9
 9
 9
 9
 9
 9
 9
 9
 9
 9
 9
 9
 9
 9
 9
 9
 9
 9
 9
 9
 9
 9
 9
 9
 9
 9
 9
 9
 9
 9
 9
 9
 9
 9
 9
 9
 9
 9
 9
 9
 9
 9
 9
 9
 9
 9
 9
 9
 9
 9
 9
 9
 9
 9
 9
 9
 9
 9
 9
 9
 9
 9
 9
 9
 9
 9
 9
 9
 9
 9
 9
 9
 9
 9
 9
 9
 9
 9
 9
 9
 9
 9
 9
 9
 9
 9
 9
 9
 9
 9
 9
 9
 9
 9
 9
 9
 9
 9
 9
 9
 9
 9
 9
 9
 9
 9
 9
 9
 9
 9
 9
 9
 9
 9
 9
 9
 9
 9
 9
 9
 9
 9
 9
 9
 9
 9
 9
 9
 9
 9
 9
 9
 9
 9
 9
 9
 9
 9
 9
 9
 9
 9
 9
 9
 9
 9
 9
 9
 9
 9
 9
 9
 9
 9
 9
 9
 9
 9
 9
 9
 9
 9
 9
 9
 9
 9
 9
 9
 9
 9
 9
 9
 9
 9
 9
 9
 9
 9
 9
 9
 9
 9
 9
 9
 9
 9
 9
 9
 9
 9
 9
 9
 9
 9
 9
 9
 9
 9
 9
 9
 9
 9
 9
 9
 9
 9
 9
 9
 9
 9
 9
 9
 9
 9
 9
 9
 9
 9
 9
 9
 9
 9
 9
 9
 9
 9
 9
 9
 9
 9
 9
 9
 9
 9
 9
 9
 9
 9
 9
 9
 9
 9
 9
 9
 9
 9
 9
 9
 9
 9
 9
 9
 9
 9
 9
 9
 9
 9
 9
 9
 9
 9
 9
 9
 9
 9
 9
 9
 9
 9
 9
 9
 9
 9
 9
 9
 9
 9
 9
 9
 9
 9
 9
 9
 9
 9
 9
 9
 9
 9
 9
 9
 9
 9
 9
 9
 9
 9
 9
 9
 9
 9
 9
 9
 9
 9
 9
 9
 9
 9
 9
 9
 9
 9
 9
 9
 9
 9
 9
 9
 9
 9
 9
 9
 9
 9
 9
 9
 9
 9
 9
 9
 9
 9
 9
 9
 9
 9
 9
 9
 9
 9
 9
 9
 9
 9
 9
 9
 9
 9
 9
 9
 9
 9
 9
 9
 9
 9
 9
 9
 9
 9
 9
 9
 9
 9
 9
 9
 9
 9
 9
 9
 9
 9
 9
 9
 9
 9
 9
 9
 9
 9
 9
 9
 9
 9
 9
 9
 9
 9
 9
 9
 9
 9
 9
 9
 9
 9
 9
 9
 9
 9
 9
 9
 9
 9
 9
 9
 9
 9
 9
 9
 9
 9
 9
 9
 9
 9
 9
 9
 9
 9
 9
 9
 9
 9
 9
 9
 9
 9
 9
 9
 9
 9
 9
 9
 9
 9
 9
 9
 9
 9
 9
 9
 9
 9
 9
 9
 9
 9
 9
 9
 9
 9
 9
 9
 9
 9
 9
 9
 9
 9
 9
 9
 9
 9
 9
 9
 9
 9
 9
 9
 9
 9
 9
 9
 9
 9
 9
 9
 9
 9
 9
 9
 9
 9
 9
 9
 9
 9
 9
 9
 9
 9
 9
 9
 9
 9
 9
 9
 9
 9
 9
 9
 9
 9
 9
 9
 9
 9
 9
 9
 9
 9
 9
 9
 9
 9
 9
 9
 9
 9
 9
 9
 9
 9
 9
 9
 9
 9
 9
 9
 9
 9
 9
 9
 9
 9
 9
 9
 9
 9
 9
 9
 9
 9
 9
 9
 9
 9
 9
 9
 9
 9
 9
 9
 9
 9
 9
 9
 9
 9
 9
 9
 9
 9
 9
 9
 9
 9
 9
 9
 9
 9
 9
 9
 9
 9
 9
 9
 9
 9
 9
 9
 9
 9
 9
 9
 9
 9
 9
 9
 9
 9
 9
 9
 9
 9
 9
 9
 9
 9
 9
 9
 9
 9
 9
 9
 9
 9
 9
 9
 9
 9
 9
 9
 9
 9
 9
 9
 9
 9
 9
 9
 9
 9
 9
 9
 9
 9
 9
 9
 9
 9
 9
 9
 9
 9
 9
 9
 9
 9
 9
 9
 9
 9
 9
 9
 9
 9
 9
 9
 9
 9
 9
 9
 9
 9
 9
 9
 9
 9
 9
 9
 9
 9
 9
 9
 9
 9
 9
 9
 9
 9
 9
 9
 9
 9
 9
 9
 9
 9
 9
 9
 9
 9
 9
 9
 9
 9
 9
 9
 9
 9
 9
 9
 9
 9
 9
 9
 9
 9
 9
 9
 9
 9
 9
 9
 9
 9
 9
 9
 9
 9
 9
 9
 9
 9
 9
 9
 9
 9
 9
 9
 9
 9
 9
 9
 9
 9
 9
 9
 9
 9
 9
 9
 9
 9
 9
 9
 9
 9
 9
 9
 9
 9
 9
 9
 9
 9
 9
 9
 9
 9
 9
 9
 9
 9
 9
 9
 9
 9
 9
 9
 9
 9
 9
 9
 9
 9
 9
 9
 9
 9
 9
 9
 9
 9
 9
 9
 9
 9
 9
 9
 9
 9
 9
 9
 9
 9
 9
 9
 9
 9
 9
 9
 9
 9
 9
 9
 9
 9
 9
 9
 9
 9
 9
 9
 9
 9
 9
 9
 9
 9
 9
 9
 9
 9
 9
 9
 9
 9
 9
 9
 9
 9
 9
 9
 9
 9
 9
 9
 9
 9
 9
 9
 9
 9
 9
 9
 9
 9
 9
 9
 9
 9
 9
 9
 9
 9
 9
 9
 9
 9
 9
 9
 9
 9
 9
 9
 9
 9
 9
 9
 9
 9
 9
 9
 9
 9
 9
 9
 9
 9
 9
 9
 9
 9
 9
 9
 9
 9
 9
 9
 9
 9
 9
 9
 9
 9
 9
 9
 9
 9
 9
 9
 9
 9
 9
 9
 9
 9
 9
 9
 9
 9
 9
 </DataArray>
 </Cells> 
 <PointData>
 <DataArray  type="Float64" Name="disp" NumberOfComponents="3" format="ascii">
   0.0000000000000000        0.0000000000000000        0.0000000000000000     
   6.0965473061683189E-003   3.7942332396537449E-003   0.0000000000000000     
   1.1664696952137718E-002   7.3325182727122951E-003   0.0000000000000000     
   1.6704448937908203E-002   1.0614855099175653E-002   0.0000000000000000     
   2.1215803263479771E-002   1.3641243719043817E-002   0.0000000000000000     
   0.0000000000000000        0.0000000000000000        0.0000000000000000     
   4.8895804975646728E-003   3.0268500905019490E-003   0.0000000000000000     
   9.5689688583553006E-003   6.0707888398421912E-003   0.0000000000000000     
   1.4038165082371882E-002   9.1318162480207247E-003   0.0000000000000000     
   1.8297169169614418E-002   1.2209932315037553E-002   0.0000000000000000     
   0.0000000000000000        0.0000000000000000        0.0000000000000000     
   3.9508627980085632E-003   2.4305342758743033E-003   0.0000000000000000     
   7.9044581695326965E-003   5.0742776187018895E-003   0.0000000000000000     
   1.1860786114572404E-002   7.9312300284827570E-003   0.0000000000000000     
   1.5819846633127681E-002   1.1001391505216909E-002   0.0000000000000000     
   0.0000000000000000        0.0000000000000000        0.0000000000000000     
   3.2803942074999893E-003   2.0052857957708072E-003   0.0000000000000000     
   6.6711648856699135E-003   4.3429846092913910E-003   0.0000000000000000     
   1.0172312034509771E-002   7.0130964405617502E-003   0.0000000000000000     
   1.3783835654019562E-002   1.0015621289581885E-002   0.0000000000000000     
   0.0000000000000000        0.0000000000000000        0.0000000000000000     
   2.8781747260389528E-003   1.7511046501914611E-003   0.0000000000000000     
   5.8690890067669465E-003   3.8769098116106949E-003   0.0000000000000000     
   8.9727428421839828E-003   6.3774154842577025E-003   0.0000000000000000     
   1.2189136232290060E-002   9.2526216681324824E-003   0.0000000000000000     
   2.1215803263479771E-002   1.3641243719043817E-002   0.0000000000000000     
   2.5412163473419867E-002   1.6640797098982772E-002   0.0000000000000000     
   2.9506933112295932E-002   1.9842628205658498E-002   0.0000000000000000     
   3.3500112180107983E-002   2.3246737039070996E-002   0.0000000000000000     
   3.7391700676855995E-002   2.6853123599220270E-002   0.0000000000000000     
   1.8297169169614418E-002   1.2209932315037553E-002   0.0000000000000000     
   2.2384244648110441E-002   1.5372305434761513E-002   0.0000000000000000     
   2.6337655045887479E-002   1.8686104001061441E-002   0.0000000000000000     
   3.0157400362945539E-002   2.2151328013937346E-002   0.0000000000000000     
   3.3843480599284617E-002   2.5767977473389218E-002   0.0000000000000000     
   1.5819846633127681E-002   1.1001391505216909E-002   0.0000000000000000     
   1.9709658316934293E-002   1.4242768814342390E-002   0.0000000000000000     
   2.3458239757728004E-002   1.7613368721297241E-002   0.0000000000000000     
   2.7065590955508808E-002   2.1113191226081459E-002   0.0000000000000000     
   3.0531711910276715E-002   2.4742236328695058E-002   0.0000000000000000     
   1.3783835654019562E-002   1.0015621289581885E-002   0.0000000000000000     
   1.7388404479891425E-002   1.3252187237725397E-002   0.0000000000000000     
   2.0868687247817496E-002   1.6624422366365878E-002   0.0000000000000000     
   2.4224683957797779E-002   2.0132326675503340E-002   0.0000000000000000     
   2.7456394609832270E-002   2.3775900165137774E-002   0.0000000000000000     
   1.2189136232290060E-002   9.2526216681324824E-003   0.0000000000000000     
   1.5420483136981838E-002   1.2400560704910539E-002   0.0000000000000000     
   1.8568997516155969E-002   1.5719264936267373E-002   0.0000000000000000     
   2.1634679369812455E-002   1.9208734362202981E-002   0.0000000000000000     
   2.4617528697951301E-002   2.2868968982717369E-002   0.0000000000000000     
   3.7391700676855995E-002   2.6853123599220270E-002   0.0000000000000000     
   4.1181880280418415E-002   3.0659492425050061E-002   0.0000000000000000     
   4.4870832668673678E-002   3.4663548055504118E-002   0.0000000000000000     
   4.8458557841621779E-002   3.8865290490582446E-002   0.0000000000000000     
   5.1945055799262715E-002   4.3264719730285034E-002   0.0000000000000000     
   3.3843480599284617E-002   2.5767977473389218E-002   0.0000000000000000     
   3.7415629772584863E-002   2.9567182372133835E-002   0.0000000000000000     
   4.0893581900526395E-002   3.3580072702887966E-002   0.0000000000000000     
   4.4277336983109226E-002   3.7806648465651599E-002   0.0000000000000000     
   4.7566895020333358E-002   4.2246909660424735E-002   0.0000000000000000     
   3.0531711910276715E-002   2.4742236328695058E-002   0.0000000000000000     
   3.3883403451397717E-002   2.8546871525692782E-002   0.0000000000000000     
   3.7147466408237829E-002   3.2573464313629404E-002   0.0000000000000000     
   4.0323900780797041E-002   3.6822014692504908E-002   0.0000000000000000     
   4.3412706569075352E-002   4.1292522662319316E-002   0.0000000000000000     
   2.7456394609832270E-002   2.3775900165137774E-002   0.0000000000000000     
   3.0585201316856995E-002   2.7598559885726900E-002   0.0000000000000000     
   3.3632486191807975E-002   3.1643722887728438E-002   0.0000000000000000     
   3.6598249234685201E-002   3.5911389171142394E-002   0.0000000000000000     
   3.9482490445488690E-002   4.0401558735968769E-002   0.0000000000000000     
   2.4617528697951301E-002   2.2868968982717369E-002   0.0000000000000000     
   2.7521023368962692E-002   2.6722247452236187E-002   0.0000000000000000     
   3.0348641251236833E-002   3.0790848425185084E-002   0.0000000000000000     
   3.3100382344773721E-002   3.5074771901564050E-002   0.0000000000000000     
   3.5776246649573365E-002   3.9574017881373103E-002   0.0000000000000000     
   5.1945055799262715E-002   4.3264719730285034E-002   0.0000000000000000     
   5.5321336718691369E-002   4.7855074786543897E-002   0.0000000000000000     
   5.8578410777002612E-002   5.2629594671291031E-002   0.0000000000000000     
   6.1716277974196466E-002   5.7588279384526458E-002   0.0000000000000000     
   6.4734938310272910E-002   6.2731128926250157E-002   0.0000000000000000     
   4.7566895020333358E-002   4.2246909660424735E-002   0.0000000000000000     
   5.0760004332907845E-002   4.6882018955348964E-002   0.0000000000000000     
   5.3854413241541728E-002   5.1693139018565849E-002   0.0000000000000000     
   5.6850121746235015E-002   5.6680269850075377E-002   0.0000000000000000     
   5.9747129846987698E-002   6.1843411449877574E-002   0.0000000000000000     
   4.3412706569075352E-002   4.1292522662319316E-002   0.0000000000000000     
   4.6416785342990791E-002   4.5960272198295467E-002   0.0000000000000000     
   4.9339038672461366E-002   5.0800547275656194E-002   0.0000000000000000     
   5.2179466557487057E-002   5.5813347894401524E-002   0.0000000000000000     
   5.4938068998067899E-002   6.0998674054531438E-002   0.0000000000000000     
   3.9482490445488690E-002   4.0401558735968769E-002   0.0000000000000000     
   4.2291679748940200E-002   4.5089834515383384E-002   0.0000000000000000     
   4.5032287069761506E-002   4.9951819442562093E-002   0.0000000000000000     
   4.7704312407952615E-002   5.4987513517504867E-002   0.0000000000000000     
   5.0307755763513526E-002   6.0196916740211749E-002   0.0000000000000000     
   3.5776246649573365E-002   3.9574017881373103E-002   0.0000000000000000     
   3.8384687550756073E-002   4.4270705906612758E-002   0.0000000000000000     
   4.0934158433442176E-002   4.9146955519283539E-002   0.0000000000000000     
   4.3424659297631681E-002   5.4202766719385467E-002   0.0000000000000000     
   4.5856190143324579E-002   5.9438139506918508E-002   0.0000000000000000     
   6.4734938310272910E-002   6.2731128926250157E-002   0.0000000000000000     
   6.7666216551870773E-002   6.8063299052596782E-002   0.0000000000000000     
   7.0541937465628840E-002   7.3589945519701036E-002   0.0000000000000000     
   7.3362101051547127E-002   7.9311068327562892E-002   0.0000000000000000     
   7.6126707309625605E-002   8.5226667476182350E-002   0.0000000000000000     
   5.9747129846987698E-002   6.1843411449877574E-002   0.0000000000000000     
   6.2560462304047798E-002   6.7194009538695906E-002   0.0000000000000000     
   6.5305143877663355E-002   7.2743509837253903E-002   0.0000000000000000     
   6.7981174567834327E-002   7.8491912345551515E-002   0.0000000000000000     
   7.0588554374560755E-002   8.4439217063588784E-002   0.0000000000000000     
   5.4938068998067899E-002   6.0998674054531438E-002   0.0000000000000000     
   5.7617553653317423E-002   6.6371328324621517E-002   0.0000000000000000     
   6.0220628182349190E-002   7.1946113273247361E-002   0.0000000000000000     
   6.2747292585163164E-002   7.7723028900408941E-002   0.0000000000000000     
   6.5197546861759381E-002   8.3702075206106286E-002   0.0000000000000000     
   5.0307755763513526E-002   6.0196916740211749E-002   0.0000000000000000     
   5.2837490599679633E-002   6.5595255410373629E-002   0.0000000000000000     
   5.5288390379686317E-002   7.1197755827681425E-002   0.0000000000000000     
   5.7660455103533605E-002   7.7004417992135185E-002   0.0000000000000000     
   5.9953684771221483E-002   8.3015241903734840E-002   0.0000000000000000     
   4.5856190143324579E-002   5.9438139506918508E-002   0.0000000000000000     
   4.8220273143134429E-002   6.4865790795952213E-002   0.0000000000000000     
   5.0508430469674785E-002   7.0498437500556108E-002   0.0000000000000000     
   5.2720662122945655E-002   7.6336079620730191E-002   0.0000000000000000     
   5.4856968102947039E-002   8.2378717156474462E-002   0.0000000000000000     
   7.6126707309625605E-002   8.5226667476182350E-002   0.0000000000000000     
   7.8801505433235705E-002   9.1333743720671157E-002   0.0000000000000000     
   8.1352244615748859E-002   9.7629297816141075E-002   0.0000000000000000     
   8.3778924857164996E-002  0.10411332976259211        0.0000000000000000     
   8.6081546157484187E-002  0.11078583956002426        0.0000000000000000     
   7.0588554374560755E-002   8.4439217063588784E-002   0.0000000000000000     
   7.3105087580740261E-002   9.0580722477323253E-002   0.0000000000000000     
   7.5508578469270463E-002   9.6911727072712450E-002   0.0000000000000000     
   7.7799027040151361E-002  0.10343223084975642        0.0000000000000000     
   7.9976433293382984E-002  0.11014223380845509        0.0000000000000000     
   6.5197546861759381E-002   8.3702075206106286E-002   0.0000000000000000     
   6.7558259780156518E-002   8.9876309337134641E-002   0.0000000000000000     
   6.9816300108373253E-002   9.6238788440289241E-002   0.0000000000000000     
   7.1971667846409598E-002  0.10278951251557009        0.0000000000000000     
   7.4024362994265555E-002  0.10952848156297720        0.0000000000000000     
   5.9953684771221483E-002   8.3015241903734840E-002   0.0000000000000000     
   6.2161022031484506E-002   8.9220504300105322E-002   0.0000000000000000     
   6.4275409533057257E-002   9.5610481918871421E-002   0.0000000000000000     
   6.6296847275939721E-002  0.10218517476003319        0.0000000000000000     
   6.8225335260131914E-002  0.10894458282359061        0.0000000000000000     
   5.4856968102947039E-002   8.2378717156474462E-002   0.0000000000000000     
   5.6913374334724202E-002   8.8613307366235294E-002   0.0000000000000000     
   5.8885906743322433E-002   9.5026807508459044E-002   0.0000000000000000     
   6.0774565328741703E-002  0.10161921758314571        0.0000000000000000     
   6.2579350090982033E-002  0.10839053759029529        0.0000000000000000     
   8.6081546157484187E-002  0.11078583956002426        0.0000000000000000     
   8.8217771332688211E-002  0.11760027945703744        0.0000000000000000     
   9.0145263198758860E-002  0.12451010170223151        0.0000000000000000     
   9.1864021755696162E-002  0.13151530629560654        0.0000000000000000     
   9.3374047003500105E-002  0.13861589323716247        0.0000000000000000     
   7.9976433293382984E-002  0.11014223380845509        0.0000000000000000     
   8.2025446560579751E-002  0.11699899557789467        0.0000000000000000     
   8.3930716173356096E-002  0.12395977578716133        0.0000000000000000     
   8.5692242131712018E-002  0.13102457443625501        0.0000000000000000     
   8.7310024435647532E-002  0.13819339152517573        0.0000000000000000     
   7.4024362994265555E-002  0.10952848156297720        0.0000000000000000     
   7.5977127204853473E-002  0.11641763595992949        0.0000000000000000     
   7.7832702131085674E-002  0.12341891608384579        0.0000000000000000     
   7.9591087772962213E-002  0.13053232193472611        0.0000000000000000     
   8.1252284130483049E-002  0.13775785351257050        0.0000000000000000     
   6.8225335260131914E-002  0.10894458282359061        0.0000000000000000     
   7.0072813265509376E-002  0.11585620060314181        0.0000000000000000     
   7.1851221071947621E-002  0.12288752259228490        0.0000000000000000     
   7.3560558679446761E-002  0.13003854879101989        0.0000000000000000     
   7.5200826088006670E-002  0.13730927919934671        0.0000000000000000     
   6.2579350090982033E-002  0.10839053759029529        0.0000000000000000     
   6.4312504742547461E-002  0.11531468950753164        0.0000000000000000     
   6.5986272995941980E-002  0.12236559531247865        0.0000000000000000     
   6.7600654851165606E-002  0.12954325500513625        0.0000000000000000     
   6.9155650308218339E-002  0.13684766858550451        0.0000000000000000     
   9.3374047003500105E-002  0.13861589323716247        0.0000000000000000     
   9.4579703676681823E-002  0.14559794554250735        0.0000000000000000     
   9.5385356509752453E-002  0.15224754622724926        0.0000000000000000     
   9.5791005502711996E-002  0.15856469529138811        0.0000000000000000     
   9.5796650655560450E-002  0.16454939273492400        0.0000000000000000     
   8.7310024435647532E-002  0.13819339152517573        0.0000000000000000     
   8.8693044993198231E-002  0.14529323054659515        0.0000000000000000     
   8.9750285712399666E-002  0.15215109499318485        0.0000000000000000     
   9.0481746593251880E-002  0.15876698486494489        0.0000000000000000     
   9.0887427635754858E-002  0.16514090016187521        0.0000000000000000     
   8.1252284130483049E-002  0.13775785351257050        0.0000000000000000     
   8.2729500680408019E-002  0.14495572285844943        0.0000000000000000     
   8.3935946899496947E-002  0.15198614201343350        0.0000000000000000     
   8.4871622787749804E-002  0.15884911097752272        0.0000000000000000     
   8.5536528345166646E-002  0.16554462975071704        0.0000000000000000     
   7.5200826088006670E-002  0.13730927919934671        0.0000000000000000     
   7.6689070738311216E-002  0.14458542247807032        0.0000000000000000     
   7.7942340071044253E-002  0.15175268728799526        0.0000000000000000     
   7.8960634086205767E-002  0.15881107362912170        0.0000000000000000     
   7.9743952783795771E-002  0.16576058150144954        0.0000000000000000     
   6.9155650308218339E-002  0.13684766858550451        0.0000000000000000     
   7.0571755166907821E-002  0.14418232940545767        0.0000000000000000     
   7.1769465227041612E-002  0.15145073081687010        0.0000000000000000     
   7.2748780488619769E-002  0.15865287281974177        0.0000000000000000     
   7.3509700951642262E-002  0.16578875541407267        0.0000000000000000     
   0.0000000000000000        0.0000000000000000        0.0000000000000000     
   2.8781747260389528E-003   1.7511046501914611E-003   0.0000000000000000     
   5.8690890067669465E-003   3.8769098116106949E-003   0.0000000000000000     
   8.9727428421839828E-003   6.3774154842577025E-003   0.0000000000000000     
   1.2189136232290060E-002   9.2526216681324824E-003   0.0000000000000000     
   0.0000000000000000        0.0000000000000000        0.0000000000000000     
   2.6097865398601906E-003   1.5951345080478174E-003   0.0000000000000000     
   5.2891760456529411E-003   3.5684598401004753E-003   0.0000000000000000     
   8.0381685173782497E-003   5.9199759961579739E-003   0.0000000000000000     
   1.0856763955036118E-002   8.6496829762203152E-003   0.0000000000000000     
   0.0000000000000000        0.0000000000000000        0.0000000000000000     
   2.3408118351984438E-003   1.4645190382514279E-003   0.0000000000000000     
   4.7223715151570381E-003   3.3100413092014033E-003   0.0000000000000000     
   7.1446790398757825E-003   5.5365668128499260E-003   0.0000000000000000     
   9.6077344093546783E-003   8.1440955491969957E-003   0.0000000000000000     
   0.0000000000000000        0.0000000000000000        0.0000000000000000     
   2.0712506120537113E-003   1.3592582408022927E-003   0.0000000000000000     
   4.1686754152792382E-003   3.1016542189134782E-003   0.0000000000000000     
   6.2922744096765805E-003   5.2271879343335570E-003   0.0000000000000000     
   8.4420475952457410E-003   7.7358593870625282E-003   0.0000000000000000     
   0.0000000000000000        0.0000000000000000        0.0000000000000000     
   1.8011028704259930E-003   1.2793521157004122E-003   0.0000000000000000     
   3.6280877460195412E-003   2.9432985692367016E-003   0.0000000000000000     
   5.4809546267806444E-003   4.9918393606088671E-003   0.0000000000000000     
   7.3597035127093043E-003   7.4249744898169101E-003   0.0000000000000000     
   1.2189136232290060E-002   9.2526216681324824E-003   0.0000000000000000     
   1.5420483136981838E-002   1.2400560704910539E-002   0.0000000000000000     
   1.8568997516155969E-002   1.5719264936267373E-002   0.0000000000000000     
   2.1634679369812455E-002   1.9208734362202981E-002   0.0000000000000000     
   2.4617528697951301E-002   2.2868968982717369E-002   0.0000000000000000     
   1.0856763955036118E-002   8.6496829762203152E-003   0.0000000000000000     
   1.3691845641766062E-002   1.1675840417705129E-002   0.0000000000000000     
   1.6490296860707597E-002   1.4916707958030056E-002   0.0000000000000000     
   1.9252117611860731E-002   1.8372285597195091E-002   0.0000000000000000     
   2.1977307895225458E-002   2.2042573335200238E-002   0.0000000000000000     
   9.6077344093546783E-003   8.1440955491969957E-003   0.0000000000000000     
   1.2088443347804638E-002   1.1065977577916490E-002   0.0000000000000000     
   1.4563711579436582E-002   1.4235562958682280E-002   0.0000000000000000     
   1.7033539104250508E-002   1.7652851691494366E-002   0.0000000000000000     
   1.9497925922246417E-002   2.1317843776352752E-002   0.0000000000000000     
   8.4420475952457410E-003   7.7358593870625282E-003   0.0000000000000000     
   1.0610276255097570E-002   1.0570972185544614E-002   0.0000000000000000     
   1.2789241672342917E-002   1.3675829938224046E-002   0.0000000000000000     
   1.4978943846981788E-002   1.7050432645100814E-002   0.0000000000000000     
   1.7179382779014176E-002   2.0694780306174918E-002   0.0000000000000000     
   7.3597035127093043E-003   7.4249744898169101E-003   0.0000000000000000     
   9.2573443636448476E-003   1.0190824240589511E-002   0.0000000000000000     
   1.1166887139426601E-002   1.3237508896655347E-002   0.0000000000000000     
   1.3088331840054566E-002   1.6565028458014421E-002   0.0000000000000000     
   1.5021678465528742E-002   2.0173382924666732E-002   0.0000000000000000     
   2.4617528697951301E-002   2.2868968982717369E-002   0.0000000000000000     
   2.7521023368962692E-002   2.6722247452236187E-002   0.0000000000000000     
   3.0348641251236833E-002   3.0790848425185084E-002   0.0000000000000000     
   3.3100382344773721E-002   3.5074771901564050E-002   0.0000000000000000     
   3.5776246649573365E-002   3.9574017881373103E-002   0.0000000000000000     
   2.1977307895225458E-002   2.2042573335200238E-002   0.0000000000000000     
   2.4649486790502051E-002   2.5923827700812748E-002   0.0000000000000000     
   2.7252273377390786E-002   3.0012305222799886E-002   0.0000000000000000     
   2.9785667655891669E-002   3.4308005901161648E-002   0.0000000000000000     
   3.2249669626004694E-002   3.8810929735898024E-002   0.0000000000000000     
   1.9497925922246417E-002   2.1317843776352752E-002   0.0000000000000000     
   2.1929208764262319E-002   2.5209194107048687E-002   0.0000000000000000     
   2.4299724361136213E-002   2.9305557577373412E-002   0.0000000000000000     
   2.6609472712868110E-002   3.3606934187326930E-002   0.0000000000000000     
   2.8858453819458008E-002   3.8113323936909242E-002   0.0000000000000000     
   1.7179382779014176E-002   2.0694780306174918E-002   0.0000000000000000     
   1.9360189290243489E-002   2.4578346670943989E-002   0.0000000000000000     
   2.1490994202473111E-002   2.8670605488905657E-002   0.0000000000000000     
   2.3571797515703045E-002   3.2971556760059924E-002   0.0000000000000000     
   2.5602599229933295E-002   3.7481200484406778E-002   0.0000000000000000     
   1.5021678465528742E-002   2.0173382924666732E-002   0.0000000000000000     
   1.6942428368445568E-002   2.4031285392498668E-002   0.0000000000000000     
   1.8826082901401475E-002   2.8107448957396631E-002   0.0000000000000000     
   2.0672642064396476E-002   3.2401873619360602E-002   0.0000000000000000     
   2.2482105857430563E-002   3.6914559378390603E-002   0.0000000000000000     
   3.5776246649573365E-002   3.9574017881373103E-002   0.0000000000000000     
   3.8384687550756073E-002   4.4270705906612758E-002   0.0000000000000000     
   4.0934158433442176E-002   4.9146955519283539E-002   0.0000000000000000     
   4.3424659297631681E-002   5.4202766719385467E-002   0.0000000000000000     
   4.5856190143324579E-002   5.9438139506918508E-002   0.0000000000000000     
   3.2249669626004694E-002   3.8810929735898024E-002   0.0000000000000000     
   3.4653064936727540E-002   4.3511021852534741E-002   0.0000000000000000     
   3.7004639237057879E-002   4.8398227376597533E-002   0.0000000000000000     
   3.9304392526995705E-002   5.3472546308086386E-002   0.0000000000000000     
   4.1552324806541016E-002   5.8733978647001306E-002   0.0000000000000000     
   2.8858453819458008E-002   3.8113323936909242E-002   0.0000000000000000     
   3.1054068095143730E-002   4.2818917833700565E-002   0.0000000000000000     
   3.3203715954163104E-002   4.7717906885281089E-002   0.0000000000000000     
   3.5307397396516137E-002   5.2810291091650821E-002   0.0000000000000000     
   3.7365112422202820E-002   5.8096070452809748E-002   0.0000000000000000     
   2.5602599229933295E-002   3.7481200484406778E-002   0.0000000000000000     
   2.7587697026004641E-002   4.2194393850110201E-002   0.0000000000000000     
   2.9531388584757876E-002   4.7105994045334179E-002   0.0000000000000000     
   3.1433673906192984E-002   5.2216001070078732E-002   0.0000000000000000     
   3.3294552990309978E-002   5.7524414924343827E-002   0.0000000000000000     
   2.2482105857430563E-002   3.6914559378390603E-002   0.0000000000000000     
   2.4253951729310282E-002   4.1637449901763664E-002   0.0000000000000000     
   2.5987657128842174E-002   4.6562488856756845E-002   0.0000000000000000     
   2.7683222056026250E-002   5.1689676243370140E-002   0.0000000000000000     
   2.9340646510862500E-002   5.7019012061603550E-002   0.0000000000000000     
   4.5856190143324579E-002   5.9438139506918508E-002   0.0000000000000000     
   4.8220273143134429E-002   6.4865790795952213E-002   0.0000000000000000     
   5.0508430469674785E-002   7.0498437500556108E-002   0.0000000000000000     
   5.2720662122945655E-002   7.6336079620730191E-002   0.0000000000000000     
   5.4856968102947039E-002   8.2378717156474462E-002   0.0000000000000000     
   4.1552324806541016E-002   5.8733978647001306E-002   0.0000000000000000     
   4.3739246004704253E-002   6.4191509619287782E-002   0.0000000000000000     
   4.5855966050495835E-002   6.9854124450891342E-002   0.0000000000000000     
   4.7902484943915767E-002   7.5721823141811945E-002   0.0000000000000000     
   4.9878802684964044E-002   8.1794605692049632E-002   0.0000000000000000     
   3.7365112422202820E-002   5.8096070452809748E-002   0.0000000000000000     
   3.9367753905411557E-002   6.3580987018310844E-002   0.0000000000000000     
   4.1306214720330733E-002   6.9270782837707073E-002   0.0000000000000000     
   4.3180494866960378E-002   7.5165457910998379E-002   0.0000000000000000     
   4.4990594345300464E-002   8.1265012238184858E-002   0.0000000000000000     
   3.3294552990309978E-002   5.7524414924343827E-002   0.0000000000000000     
   3.5105796845256332E-002   6.3034222993021374E-002   0.0000000000000000     
   3.6859176479179495E-002   6.8748412661003261E-002   0.0000000000000000     
   3.8554691892079475E-002   7.4666983928289521E-002   0.0000000000000000     
   4.0192343083956285E-002   8.0789936794880099E-002   0.0000000000000000     
   2.9340646510862500E-002   5.7019012061603550E-002   0.0000000000000000     
   3.0953374824238569E-002   6.2551217543419399E-002   0.0000000000000000     
   3.2514851327042099E-002   6.8287013920779988E-002   0.0000000000000000     
   3.4025076019273078E-002   7.4226401193685315E-002   0.0000000000000000     
   3.5484048900931521E-002   8.0369379362135396E-002   0.0000000000000000     
   5.4856968102947039E-002   8.2378717156474462E-002   0.0000000000000000     
   5.6913374334724202E-002   8.8613307366235294E-002   0.0000000000000000     
   5.8885906743322433E-002   9.5026807508459044E-002   0.0000000000000000     
   6.0774565328741703E-002  0.10161921758314571        0.0000000000000000     
   6.2579350090982033E-002  0.10839053759029529        0.0000000000000000     
   4.9878802684964044E-002   8.1794605692049632E-002   0.0000000000000000     
   5.1782272426298848E-002   8.8056189395201545E-002   0.0000000000000000     
   5.3610247320578355E-002   9.4490291544864796E-002   0.0000000000000000     
   5.5362727367802567E-002  0.10109691214103943        0.0000000000000000     
   5.7039712567971482E-002  0.10787605118372540        0.0000000000000000     
   4.4990594345300464E-002   8.1265012238184858E-002   0.0000000000000000     
   4.6734672042631653E-002   8.7550621246680990E-002   0.0000000000000000     
   4.8410886846234596E-002   9.4003460363901448E-002   0.0000000000000000     
   5.0019238756109308E-002  0.10062352958984612        0.0000000000000000     
   5.1559727772255780E-002  0.10741082892451512        0.0000000000000000     
   4.0192343083956285E-002   8.0789936794880099E-002   0.0000000000000000     
   4.1770573183722612E-002   8.7096602920673699E-002   0.0000000000000000     
   4.3287825320291164E-002   9.3566313965568929E-002   0.0000000000000000     
   4.4744099493661926E-002  0.10019906992956586        0.0000000000000000     
   4.6139395703834921E-002  0.10699487081266440        0.0000000000000000     
   3.5484048900931521E-002   8.0369379362135396E-002   0.0000000000000000     
   3.6889975849571738E-002   8.6694134417179589E-002   0.0000000000000000     
   3.8241062742748043E-002   9.3178852349867336E-002   0.0000000000000000     
   3.9537309580460436E-002   9.9823533160198555E-002   0.0000000000000000     
   4.0778716362708918E-002  0.10662817684817327        0.0000000000000000     
   6.2579350090982033E-002  0.10839053759029529        0.0000000000000000     
   6.4312504742547461E-002  0.11531468950753164        0.0000000000000000     
   6.5986272995941980E-002  0.12236559531247865        0.0000000000000000     
   6.7600654851165606E-002  0.12954325500513625        0.0000000000000000     
   6.9155650308218339E-002  0.13684766858550451        0.0000000000000000     
   5.7039712567971482E-002  0.10787605118372540        0.0000000000000000     
   5.8649784630428310E-002  0.11480775647177588        0.0000000000000000     
   6.0201525264516269E-002  0.12187207580404397        0.0000000000000000     
   6.1694934470235344E-002  0.12906900918052966        0.0000000000000000     
   6.3130012247585549E-002  0.13639855660123290        0.0000000000000000     
   5.1559727772255780E-002  0.10741082892451512        0.0000000000000000     
   5.3038235923612530E-002  0.11435005529455131        0.0000000000000000     
   5.4460645239118109E-002  0.12142590562659773        0.0000000000000000     
   5.5826955718772484E-002  0.12863837992065433        0.0000000000000000     
   5.7137167362575708E-002  0.13598747817672110        0.0000000000000000     
   4.6139395703834921E-002  0.10699487081266440        0.0000000000000000     
   4.7477858622100105E-002  0.11394158597585800        0.0000000000000000     
   4.8763632919747495E-002  0.12102708478014000        0.0000000000000000     
   4.9996718596777047E-002  0.12825136722551034        0.0000000000000000     
   5.1177115653188797E-002  0.13561443331196915        0.0000000000000000     
   4.0778716362708918E-002  0.10662817684817327        0.0000000000000000     
   4.1968652725891058E-002  0.11358234851569587        0.0000000000000000     
   4.3110488306404425E-002  0.12067561326467069        0.0000000000000000     
   4.4204223104249013E-002  0.12790797109509772        0.0000000000000000     
   4.5249857119424829E-002  0.13527942200697696        0.0000000000000000     
   6.9155650308218339E-002  0.13684766858550451        0.0000000000000000     
   7.0571755166907821E-002  0.14418232940545767        0.0000000000000000     
   7.1769465227041612E-002  0.15145073081687010        0.0000000000000000     
   7.2748780488619769E-002  0.15865287281974177        0.0000000000000000     
   7.3509700951642262E-002  0.16578875541407267        0.0000000000000000     
   6.3130012247585549E-002  0.13639855660123290        0.0000000000000000     
   6.4431570553106832E-002  0.14377482061259783        0.0000000000000000     
   6.5524421343339107E-002  0.15111190376106842        0.0000000000000000     
   6.6408564618282387E-002  0.15840980604664465        0.0000000000000000     
   6.7084000377936673E-002  0.16566852746932659        0.0000000000000000     
   5.7137167362575708E-002  0.13598747817672110        0.0000000000000000     
   5.8322533483817281E-002  0.14339127307147692        0.0000000000000000     
   5.9314307395786775E-002  0.15076783728160059        0.0000000000000000     
   6.0112489098484198E-002  0.15811717080709209        0.0000000000000000     
   6.0717078591909543E-002  0.16543927364795141        0.0000000000000000     
   5.1177115653188797E-002  0.13561443331196915        0.0000000000000000     
   5.2244643959039182E-002  0.14303168678209502        0.0000000000000000     
   5.3139123384384659E-002  0.15041853137846659        0.0000000000000000     
   5.3860553929225223E-002  0.15777496710108405        0.0000000000000000     
   5.4408935593560873E-002  0.16510099394994721        0.0000000000000000     
   4.5249857119424829E-002  0.13527942200697696        0.0000000000000000     
   4.6197901978772521E-002  0.14269606174445204        0.0000000000000000     
   4.6998869309132718E-002  0.15006398605166654        0.0000000000000000     
   4.7652759110505441E-002  0.15738319492862049        0.0000000000000000     
   4.8159571382890683E-002  0.16465368837531386        0.0000000000000000     
   0.0000000000000000        0.0000000000000000        0.0000000000000000     
   1.8011028704259930E-003   1.2793521157004122E-003   0.0000000000000000     
   3.6280877460195412E-003   2.9432985692367016E-003   0.0000000000000000     
   5.4809546267806444E-003   4.9918393606088671E-003   0.0000000000000000     
   7.3597035127093043E-003   7.4249744898169101E-003   0.0000000000000000     
   0.0000000000000000        0.0000000000000000        0.0000000000000000     
   1.5385242860776571E-003   1.2180017262609518E-003   0.0000000000000000     
   3.1077005137647683E-003   2.8210063151730309E-003   0.0000000000000000     
   4.7075286830613339E-003   4.8090137667362370E-003   0.0000000000000000     
   6.3380087939673537E-003   7.1820240809505704E-003   0.0000000000000000     
   0.0000000000000000        0.0000000000000000        0.0000000000000000     
   1.2916705347710714E-003   1.1684081357990776E-003   0.0000000000000000     
   2.6146057249017396E-003   2.7208094117244261E-003   0.0000000000000000     
   3.9688055703920051E-003   4.6572038277760451E-003   0.0000000000000000     
   5.3542700712418678E-003   6.9775913839539338E-003   0.0000000000000000     
   0.0000000000000000        0.0000000000000000        0.0000000000000000     
   1.0605416165062355E-003   1.1305713443147895E-003   0.0000000000000000     
   2.1488033794304553E-003   2.6427078588908870E-003   0.0000000000000000     
   3.2647852887726595E-003   4.5364095437282932E-003   0.0000000000000000     
   4.4084873445328484E-003   6.8116763988270062E-003   0.0000000000000000     
   0.0000000000000000        0.0000000000000000        0.0000000000000000     
   8.4513753128314967E-004   1.1044913518080872E-003   0.0000000000000000     
   1.7102934773509152E-003   2.5867016566724129E-003   0.0000000000000000     
   2.5954678382032964E-003   4.4466309145929778E-003   0.0000000000000000     
   3.5006606138402938E-003   6.6842791255697816E-003   0.0000000000000000     
   7.3597035127093043E-003   7.4249744898169101E-003   0.0000000000000000     
   9.2573443636448476E-003   1.0190824240589511E-002   0.0000000000000000     
   1.1166887139426601E-002   1.3237508896655347E-002   0.0000000000000000     
   1.3088331840054566E-002   1.6565028458014421E-002   0.0000000000000000     
   1.5021678465528742E-002   2.0173382924666732E-002   0.0000000000000000     
   6.3380087939673537E-003   7.1820240809505704E-003   0.0000000000000000     
   7.9871529927238935E-003   9.8907472762269338E-003   0.0000000000000000     
   9.6429734255720229E-003   1.2885893370976223E-002   0.0000000000000000     
   1.1305470092511739E-002   1.6167462365198445E-002   0.0000000000000000     
   1.2974642993543044E-002   1.9735454258893597E-002   0.0000000000000000     
   5.3542700712418678E-003   6.9775913839539338E-003   0.0000000000000000     
   6.7572074616121238E-003   9.6359548256326390E-003   0.0000000000000000     
   8.1638259756635669E-003   1.2586276898186706E-002   0.0000000000000000     
   9.5741256133962012E-003   1.5828557601616128E-002   0.0000000000000000     
   1.0988106374810026E-002   1.9362796935920912E-002   0.0000000000000000     
   4.4084873445328484E-003   6.8116763988270062E-003   0.0000000000000000     
   5.5675077703095360E-003   9.4264468888066374E-003   0.0000000000000000     
   6.7294447897012378E-003   1.2338659478286790E-002   0.0000000000000000     
   7.8942984027079530E-003   1.5548314167267475E-002   0.0000000000000000     
   9.0620686093296852E-003   1.9055410955748680E-002   0.0000000000000000     
   3.5006606138402938E-003   6.6842791255697816E-003   0.0000000000000000     
   4.4180539188161307E-003   9.2622234657489203E-003   0.0000000000000000     
   5.3398298676850314E-003   1.2143041111276485E-002   0.0000000000000000     
   6.2659884604469949E-003   1.5326732062152479E-002   0.0000000000000000     
   7.1965296971020212E-003   1.8813296318376901E-002   0.0000000000000000     
   1.5021678465528742E-002   2.0173382924666732E-002   0.0000000000000000     
   1.6942428368445568E-002   2.4031285392498668E-002   0.0000000000000000     
   1.8826082901401475E-002   2.8107448957396631E-002   0.0000000000000000     
   2.0672642064396476E-002   3.2401873619360602E-002   0.0000000000000000     
   2.2482105857430563E-002   3.6914559378390603E-002   0.0000000000000000     
   1.2974642993543044E-002   1.9735454258893597E-002   0.0000000000000000     
   1.4634763635627778E-002   2.3561398443729408E-002   0.0000000000000000     
   1.6270103525727785E-002   2.7616824311373613E-002   0.0000000000000000     
   1.7880662663843059E-002   3.1901731861826196E-002   0.0000000000000000     
   1.9466441049973606E-002   3.6416121095087184E-002   0.0000000000000000     
   1.0988106374810026E-002   1.9362796935920912E-002   0.0000000000000000     
   1.2396032728549351E-002   2.3162073996652887E-002   0.0000000000000000     
   1.3788169143258495E-002   2.7199467879363889E-002   0.0000000000000000     
   1.5164515618937453E-002   3.1474978584053903E-002   0.0000000000000000     
   1.6525072155586226E-002   3.5988606110722944E-002   0.0000000000000000     
   9.0620686093296852E-003   1.9055410955748680E-002   0.0000000000000000     
   1.0226235647210284E-002   2.2833312051269108E-002   0.0000000000000000     
   1.1380279753993609E-002   2.6855379661367456E-002   0.0000000000000000     
   1.2524200929679655E-002   3.1121613786043723E-002   0.0000000000000000     
   1.3657999174268428E-002   3.5632014425297898E-002   0.0000000000000000     
   7.1965296971020212E-003   1.8813296318376901E-002   0.0000000000000000     
   8.1253723916105761E-003   2.2575112607578076E-002   0.0000000000000000     
   9.0464353579331244E-003   2.6584559657384328E-002   0.0000000000000000     
   9.9597185960696669E-003   3.0841637467795648E-002   0.0000000000000000     
   1.0865222106020202E-002   3.5346346038812045E-002   0.0000000000000000     
   2.2482105857430563E-002   3.6914559378390603E-002   0.0000000000000000     
   2.4253951729310282E-002   4.1637449901763664E-002   0.0000000000000000     
   2.5987657128842174E-002   4.6562488856756845E-002   0.0000000000000000     
   2.7683222056026250E-002   5.1689676243370140E-002   0.0000000000000000     
   2.9340646510862500E-002   5.7019012061603550E-002   0.0000000000000000     
   1.9466441049973606E-002   3.6416121095087184E-002   0.0000000000000000     
   2.1022311213812768E-002   4.1148135695605804E-002   0.0000000000000000     
   2.2543145685053889E-002   4.6085919347831315E-002   0.0000000000000000     
   2.4028944463696970E-002   5.1229472051763709E-002   0.0000000000000000     
   2.5479707549742010E-002   5.6578793807403022E-002   0.0000000000000000     
   1.6525072155586226E-002   3.5988606110722944E-002   0.0000000000000000     
   1.7862254488264236E-002   4.0726500938581441E-002   0.0000000000000000     
   1.9168478352030883E-002   4.5674813546839839E-002   0.0000000000000000     
   2.0443743746886185E-002   5.0833543935498125E-002   0.0000000000000000     
   2.1688050672830132E-002   5.6202692104556307E-002   0.0000000000000000     
   1.3657999174268428E-002   3.5632014425297898E-002   0.0000000000000000     
   1.4773781552664679E-002   4.0372545630690600E-002   0.0000000000000000     
   1.5863655129773172E-002   4.5329171453782423E-002   0.0000000000000000     
   1.6927619905593900E-002   5.0501891894573367E-002   0.0000000000000000     
   1.7965675880126868E-002   5.5890706953063439E-002   0.0000000000000000     
   1.0865222106020202E-002   3.5346346038812045E-002   0.0000000000000000     
   1.1756892407014101E-002   4.0086269771933261E-002   0.0000000000000000     
   1.2628676018280736E-002   4.5048993068659074E-002   0.0000000000000000     
   1.3480572939820110E-002   5.0234515928989455E-002   0.0000000000000000     
   1.4312583171632216E-002   5.5642838352924405E-002   0.0000000000000000     
   2.9340646510862500E-002   5.7019012061603550E-002   0.0000000000000000     
   3.0953374824238569E-002   6.2551217543419399E-002   0.0000000000000000     
   3.2514851327042099E-002   6.8287013920779988E-002   0.0000000000000000     
   3.4025076019273078E-002   7.4226401193685315E-002   0.0000000000000000     
   3.5484048900931521E-002   8.0369379362135396E-002   0.0000000000000000     
   2.5479707549742010E-002   5.6578793807403022E-002   0.0000000000000000     
   2.6890622086926743E-002   6.2132168434552104E-002   0.0000000000000000     
   2.8256875218988887E-002   6.7887879753013886E-002   0.0000000000000000     
   2.9578466945928458E-002   7.3845927762788366E-002   0.0000000000000000     
   3.0855397267745454E-002   8.0006312463875531E-002   0.0000000000000000     
   2.1688050672830132E-002   5.6202692104556307E-002   0.0000000000000000     
   2.2897672877889283E-002   6.1777273431466724E-002   0.0000000000000000     
   2.4068884110090210E-002   6.7552303293681698E-002   0.0000000000000000     
   2.5201684369432906E-002   7.3527781691201222E-002   0.0000000000000000     
   2.6296073655917372E-002   7.9703708624025330E-002   0.0000000000000000     
   1.7965675880126868E-002   5.5890706953063439E-002   0.0000000000000000     
   1.8974527197126206E-002   6.1486532534163252E-002   0.0000000000000000     
   1.9950878000346055E-002   6.7280284542783397E-002   0.0000000000000000     
   2.0894728289786415E-002   7.3271962978923910E-002   0.0000000000000000     
   2.1806078065447279E-002   7.9461567842584777E-002   0.0000000000000000     
   1.4312583171632216E-002   5.5642838352924405E-002   0.0000000000000000     
   1.5121185044637506E-002   6.1259945742641694E-002   0.0000000000000000     
   1.5902856889756432E-002   6.7071823500319011E-002   0.0000000000000000     
   1.6657598706988984E-002   7.3078471625956404E-002   0.0000000000000000     
   1.7385410496335175E-002   7.9279890119553859E-002   0.0000000000000000     
   3.5484048900931521E-002   8.0369379362135396E-002   0.0000000000000000     
   3.6889975849571738E-002   8.6694134417179589E-002   0.0000000000000000     
   3.8241062742748043E-002   9.3178852349867336E-002   0.0000000000000000     
   3.9537309580460436E-002   9.9823533160198555E-002   0.0000000000000000     
   4.0778716362708918E-002  0.10662817684817327        0.0000000000000000     
   3.0855397267745454E-002   8.0006312463875531E-002   0.0000000000000000     
   3.2085567794536730E-002   8.6346624160082541E-002   0.0000000000000000     
   3.3266880136399161E-002   9.2844453155216514E-002   0.0000000000000000     
   3.4399334293332723E-002   9.9499799449277435E-002   0.0000000000000000     
   3.5482930265337449E-002  0.10631266304226533        0.0000000000000000     
   2.6296073655917372E-002   7.9703708624025330E-002   0.0000000000000000     
   2.7350036772975320E-002   8.6057480573266287E-002   0.0000000000000000     
   2.8361558524038433E-002   9.2566494020036430E-002   0.0000000000000000     
   2.9330638909106733E-002   9.9230748964335716E-002   0.0000000000000000     
   3.0257277928180212E-002  0.10605024540616416        0.0000000000000000     
   2.1806078065447279E-002   7.9461567842584777E-002   0.0000000000000000     
   2.2683382784887487E-002   8.5826703656730854E-002   0.0000000000000000     
   2.3525097905665881E-002   9.2344974944327043E-002   0.0000000000000000     
   2.4331223427782451E-002   9.9016381705373344E-002   0.0000000000000000     
   2.5101759351237207E-002  0.10584092393986973        0.0000000000000000     
   1.7385410496335175E-002   7.9279890119553859E-002   0.0000000000000000     
   1.8085605830273258E-002   8.5654293410476215E-002   0.0000000000000000     
   1.8757498281281489E-002   9.2179895928088396E-002   0.0000000000000000     
   1.9401087849359882E-002   9.8856697672390317E-002   0.0000000000000000     
   2.0016374534508424E-002  0.10568469864338206        0.0000000000000000     
   4.0778716362708918E-002  0.10662817684817327        0.0000000000000000     
   4.1968652725891058E-002  0.11358234851569587        0.0000000000000000     
   4.3110488306404425E-002  0.12067561326467069        0.0000000000000000     
   4.4204223104249013E-002  0.12790797109509772        0.0000000000000000     
   4.5249857119424829E-002  0.13527942200697696        0.0000000000000000     
   3.5482930265337449E-002  0.10631266304226533        0.0000000000000000     
   3.6520721336272294E-002  0.11327331924555292        0.0000000000000000     
   3.7515760789996237E-002  0.12037204337051292        0.0000000000000000     
   3.8468048626509266E-002  0.12760883541714529        0.0000000000000000     
   3.9377584845811393E-002  0.13498369538545013        0.0000000000000000     
   3.0257277928180212E-002  0.10605024540616416        0.0000000000000000     
   3.1144167554530755E-002  0.11301547449691705        0.0000000000000000     
   3.1993999761430254E-002  0.12011692738798968        0.0000000000000000     
   3.2806774548878689E-002  0.12735460407938207        0.0000000000000000     
   3.3582491916876074E-002  0.13472850457109414        0.0000000000000000     
   2.5101759351237207E-002  0.10584092393986973        0.0000000000000000     
   2.5838991380666441E-002  0.11280881426978828        0.0000000000000000     
   2.6545205220706466E-002  0.11991026531710100        0.0000000000000000     
   2.7220400871357277E-002  0.12714527708180792        0.0000000000000000     
   2.7864578332618871E-002  0.13451384956390902        0.0000000000000000     
   2.0016374534508424E-002  0.10568469864338206        0.0000000000000000     
   2.0605192814679346E-002  0.11265333856416659        0.0000000000000000     
   2.1169377167824886E-002  0.11975205715784686        0.0000000000000000     
   2.1708927593945028E-002  0.12698085442442292        0.0000000000000000     
   2.2223844093039784E-002  0.13433973036389474        0.0000000000000000     
   4.5249857119424829E-002  0.13527942200697696        0.0000000000000000     
   4.6197901978772521E-002  0.14269606174445204        0.0000000000000000     
   4.6998869309132718E-002  0.15006398605166654        0.0000000000000000     
   4.7652759110505441E-002  0.15738319492862049        0.0000000000000000     
   4.8159571382890683E-002  0.16465368837531386        0.0000000000000000     
   3.9377584845811393E-002  0.13498369538545013        0.0000000000000000     
   4.0205617526574283E-002  0.14239109421559845        0.0000000000000000     
   4.0913394747469599E-002  0.14972550284776140        0.0000000000000000     
   4.1500916508497340E-002  0.15698692128193897        0.0000000000000000     
   4.1968182809657507E-002  0.16417534951813115        0.0000000000000000     
   3.3582491916876074E-002  0.13472850457109414        0.0000000000000000     
   3.4291100586001461E-002  0.14212348045258466        0.0000000000000000     
   3.4902549276833901E-002  0.14942438331331226        0.0000000000000000     
   3.5416837989373381E-002  0.15663121315327694        0.0000000000000000     
   3.5833966723619909E-002  0.16374396997247875        0.0000000000000000     
   2.7864578332618871E-002  0.13451384956390902        0.0000000000000000     
   2.8454351157054053E-002  0.14189322045541064        0.0000000000000000     
   2.8966332897225618E-002  0.14916062744831909        0.0000000000000000     
   2.9400523553133558E-002  0.15631607054263447        0.0000000000000000     
   2.9756923124777884E-002  0.16335954973835665        0.0000000000000000     
   2.2223844093039784E-002  0.13433973036389474        0.0000000000000000     
   2.2695369239732061E-002  0.14170031422407639        0.0000000000000000     
   2.3104745608644763E-002  0.14893423525278196        0.0000000000000000     
   2.3451973199777883E-002  0.15604149345001142        0.0000000000000000     
   2.3737052013131435E-002  0.16302208881576483        0.0000000000000000     
   0.0000000000000000        0.0000000000000000        0.0000000000000000     
   8.4513753128314967E-004   1.1044913518080872E-003   0.0000000000000000     
   1.7102934773509152E-003   2.5867016566724129E-003   0.0000000000000000     
   2.5954678382032964E-003   4.4466309145929778E-003   0.0000000000000000     
   3.5006606138402938E-003   6.6842791255697816E-003   0.0000000000000000     
   0.0000000000000000        0.0000000000000000        0.0000000000000000     
   6.3666018405144557E-004   1.0868149579173569E-003   0.0000000000000000     
   1.2847523747290474E-003   2.5473629456252353E-003   0.0000000000000000     
   1.9442765720328059E-003   4.3816439631236357E-003   0.0000000000000000     
   2.6152327759627206E-003   6.5896580104125571E-003   0.0000000000000000     
   0.0000000000000000        0.0000000000000000        0.0000000000000000     
   4.2631147976075474E-004   1.0741889622809849E-003   0.0000000000000000     
   8.5785642763078034E-004   2.5192638663055853E-003   0.0000000000000000     
   1.2946348436100768E-003   4.3352247120738005E-003   0.0000000000000000     
   1.7366467276986441E-003   6.5220714995856306E-003   0.0000000000000000     
   0.0000000000000000        0.0000000000000000        0.0000000000000000     
   2.1409141841107756E-004   1.0666133648989710E-003   0.0000000000000000     
   4.2960563605611398E-004   2.5024044187134612E-003   0.0000000000000000     
   6.4654265293510936E-004   4.3073731614434712E-003   0.0000000000000000     
   8.6490246904806370E-004   6.4815195930889996E-003   0.0000000000000000     
   0.0000000000000000        0.0000000000000000        0.0000000000000000     
   2.4137592966044785E-015   1.0640881657713152E-003   0.0000000000000000     
   5.0483163656356300E-015   2.4967846028488643E-003   0.0000000000000000     
   7.9034001565503331E-015   4.2980893112326470E-003   0.0000000000000000     
   1.0979471455271894E-014   6.4680022909226640E-003   0.0000000000000000     
   3.5006606138402938E-003   6.6842791255697816E-003   0.0000000000000000     
   4.4180539188161307E-003   9.2622234657489203E-003   0.0000000000000000     
   5.3398298676850314E-003   1.2143041111276485E-002   0.0000000000000000     
   6.2659884604469949E-003   1.5326732062152479E-002   0.0000000000000000     
   7.1965296971020212E-003   1.8813296318376901E-002   0.0000000000000000     
   2.6152327759627206E-003   6.5896580104125571E-003   0.0000000000000000     
   3.2949273501994007E-003   9.1383399453468916E-003   0.0000000000000000     
   3.9806666584234545E-003   1.1994624625781526E-002   0.0000000000000000     
   4.6724507006348816E-003   1.5158512051716465E-002   0.0000000000000000     
   5.3702794768336840E-003   1.8630002223151705E-002   0.0000000000000000     
   1.7366467276986441E-003   6.5220714995856306E-003   0.0000000000000000     
   2.1842095075268386E-003   9.0498517164879586E-003   0.0000000000000000     
   2.6376406107250163E-003   1.1888612850427667E-002   0.0000000000000000     
   3.0969400372931779E-003   1.5038354901404758E-002   0.0000000000000000     
   3.5621077872313219E-003   1.8499077869419234E-002   0.0000000000000000     
   8.6490246904806370E-004   6.4815195930889996E-003   0.0000000000000000     
   1.0859003907984434E-003   8.9967587791721180E-003   0.0000000000000000     
   1.3107517245897155E-003   1.1825005785214908E-002   0.0000000000000000     
   1.5394564704218790E-003   1.4966260611217357E-002   0.0000000000000000     
   1.7720146282949353E-003   1.8420523257179470E-002   0.0000000000000000     
   1.0979471455271894E-014   6.4680022909226640E-003   0.0000000000000000     
   1.4215814940141125E-014   8.9790611333993749E-003   0.0000000000000000     
   1.7551681408180947E-014   1.1803803430143242E-002   0.0000000000000000     
   2.0987597713884552E-014   1.4942229181154263E-002   0.0000000000000000     
   2.4522918418146133E-014   1.8394338386432434E-002   0.0000000000000000     
   7.1965296971020212E-003   1.8813296318376901E-002   0.0000000000000000     
   8.1253723916105761E-003   2.2575112607578076E-002   0.0000000000000000     
   9.0464353579331244E-003   2.6584559657384328E-002   0.0000000000000000     
   9.9597185960696669E-003   3.0841637467795648E-002   0.0000000000000000     
   1.0865222106020202E-002   3.5346346038812045E-002   0.0000000000000000     
   5.3702794768336840E-003   1.8630002223151705E-002   0.0000000000000000     
   6.0677393600891503E-003   2.2380059188838963E-002   0.0000000000000000     
   6.7584167234705679E-003   2.6379646997529930E-002   0.0000000000000000     
   7.4423115669779386E-003   3.0628765649224624E-002   0.0000000000000000     
   8.1194238906112624E-003   3.5127415143923035E-002   0.0000000000000000     
   3.5621077872313219E-003   1.8499077869419234E-002   0.0000000000000000     
   4.0276329509849251E-003   2.2240735318310934E-002   0.0000000000000000     
   4.4880046189994579E-003   2.6233280811919717E-002   0.0000000000000000     
   4.9432227912749212E-003   3.0476714350245588E-002   0.0000000000000000     
   5.3932874678113184E-003   3.4971035933288534E-002   0.0000000000000000     
   1.7720146282949353E-003   1.8420523257179470E-002   0.0000000000000000     
   2.0050531642979009E-003   2.2157140995994008E-002   0.0000000000000000     
   2.2351990445197956E-003   2.6145461100553685E-002   0.0000000000000000     
   2.4624522689606172E-003   3.0385483570858532E-002   0.0000000000000000     
   2.6868128376203657E-003   3.4877208406908534E-002   0.0000000000000000     
   2.4522918418146133E-014   1.8394338386432434E-002   0.0000000000000000     
   2.8079643644984831E-014   2.2129276221888160E-002   0.0000000000000000     
   3.1579665098202536E-014   2.6116187863431842E-002   0.0000000000000000     
   3.5022684622201816E-014   3.0355073311063463E-002   0.0000000000000000     
   3.8408512481602486E-014   3.4845932564783036E-002   0.0000000000000000     
   1.0865222106020202E-002   3.5346346038812045E-002   0.0000000000000000     
   1.1756892407014101E-002   4.0086269771933261E-002   0.0000000000000000     
   1.2628676018280736E-002   4.5048993068659074E-002   0.0000000000000000     
   1.3480572939820110E-002   5.0234515928989455E-002   0.0000000000000000     
   1.4312583171632216E-002   5.5642838352924405E-002   0.0000000000000000     
   8.1194238906112624E-003   3.5127415143923035E-002   0.0000000000000000     
   8.7862636935712481E-003   3.9865388154516859E-002   0.0000000000000000     
   9.4393409750586042E-003   4.4832477353897796E-002   0.0000000000000000     
   1.0078655735073334E-002   5.0028682742065830E-002   0.0000000000000000     
   1.0704207973615432E-002   5.5454004319020971E-002   0.0000000000000000     
   5.3932874678113184E-003   3.4971035933288534E-002   0.0000000000000000     
   5.8365720545948668E-003   3.9707615570648794E-002   0.0000000000000000     
   6.2714499576117912E-003   4.4677823271926612E-002   0.0000000000000000     
   6.6979211768620926E-003   4.9881659037121981E-002   0.0000000000000000     
   7.1159857123457709E-003   5.5319122866234895E-002   0.0000000000000000     
   2.6868128376203657E-003   3.4877208406908534E-002   0.0000000000000000     
   2.9078174900849544E-003   3.9612952020329072E-002   0.0000000000000000     
   3.1250029659402943E-003   4.4585030822745515E-002   0.0000000000000000     
   3.3383692651863853E-003   4.9793444814157893E-002   0.0000000000000000     
   3.5479163878232279E-003   5.5238193994566177E-002   0.0000000000000000     
   3.8408512481602486E-014   3.4845932564783036E-002   0.0000000000000000     
   4.1513884344035468E-014   3.9581397503557679E-002   0.0000000000000000     
   4.4115319036697187E-014   4.4554100006354527E-002   0.0000000000000000     
   4.6212816559587644E-014   4.9764040073173567E-002   0.0000000000000000     
   4.7806810593575833E-014   5.5211217704014819E-002   0.0000000000000000     
   1.4312583171632216E-002   5.5642838352924405E-002   0.0000000000000000     
   1.5121185044637506E-002   6.1259945742641694E-002   0.0000000000000000     
   1.5902856889756432E-002   6.7071823500319011E-002   0.0000000000000000     
   1.6657598706988984E-002   7.3078471625956404E-002   0.0000000000000000     
   1.7385410496335175E-002   7.9279890119553859E-002   0.0000000000000000     
   1.0704207973615432E-002   5.5454004319020971E-002   0.0000000000000000     
   1.1312280688087074E-002   6.1089749721341055E-002   0.0000000000000000     
   1.1899156875890431E-002   6.6917226585603923E-002   0.0000000000000000     
   1.2464836537025500E-002   7.2936434911809581E-002   0.0000000000000000     
   1.3009319671492284E-002   7.9147374699957987E-002   0.0000000000000000     
   7.1159857123457709E-003   5.5319122866234895E-002   0.0000000000000000     
   7.5224483951387977E-003   6.0968181134700393E-002   0.0000000000000000     
   7.9141140563171522E-003   6.6806800217953516E-002   0.0000000000000000     
   8.2909826958808309E-003   7.2834980115994249E-002   0.0000000000000000     
   8.6530543138298374E-003   7.9052720828822587E-002   0.0000000000000000     
   3.5479163878232279E-003   5.5238193994566177E-002   0.0000000000000000     
   3.7516881657926790E-003   6.0895239982719694E-002   0.0000000000000000     
   3.9477284310365972E-003   6.6740544397367790E-002   0.0000000000000000     
   4.1360371835549815E-003   7.2774107238510424E-002   0.0000000000000000     
   4.3166144233478324E-003   7.8995928506147631E-002   0.0000000000000000     
   4.7806810593575833E-014   5.5211217704014819E-002   0.0000000000000000     
   4.8717106737594662E-014   6.0870926265398966E-002   0.0000000000000000     
   4.8765028473618521E-014   6.6718459123846732E-002   0.0000000000000000     
   4.7949545809583549E-014   7.2753816279358119E-002   0.0000000000000000     
   4.6271146636467364E-014   7.8976997731933132E-002   0.0000000000000000     
   1.7385410496335175E-002   7.9279890119553859E-002   0.0000000000000000     
   1.8085605830273258E-002   8.5654293410476215E-002   0.0000000000000000     
   1.8757498281281489E-002   9.2179895928088396E-002   0.0000000000000000     
   1.9401087849359882E-002   9.8856697672390317E-002   0.0000000000000000     
   2.0016374534508424E-002  0.10568469864338206        0.0000000000000000     
   1.3009319671492284E-002   7.9147374699957987E-002   0.0000000000000000     
   1.3532751637475823E-002   8.5528969863253562E-002   0.0000000000000000     
   1.4035277793161161E-002   9.2060144314900616E-002   0.0000000000000000     
   1.4516898138548293E-002   9.8740898054899121E-002   0.0000000000000000     
   1.4977612673637224E-002  0.10557123108324912        0.0000000000000000     
   8.6530543138298374E-003   7.9052720828822587E-002   0.0000000000000000     
   9.0008659348384083E-003   8.5439453043813979E-002   0.0000000000000000     
   9.3349545835807856E-003   9.1974607448343806E-002   0.0000000000000000     
   9.6553202600569675E-003   9.8658184042412070E-002   0.0000000000000000     
   9.9619629642669592E-003  0.10549018282601877        0.0000000000000000     
   4.3166144233478324E-003   7.8995928506147631E-002   0.0000000000000000     
   4.4899487223610075E-003   8.5385742952157465E-002   0.0000000000000000     
   4.6565286525403664E-003   9.1923285328417995E-002   0.0000000000000000     
   4.8163542138859074E-003   9.8608555634929179E-002   0.0000000000000000     
   4.9694254063976321E-003  0.10544155387169105        0.0000000000000000     
   4.6271146636467364E-014   7.8976997731933132E-002   0.0000000000000000     
   4.3624392292995751E-014   8.5367839588284047E-002   0.0000000000000000     
   3.9903302016808251E-014   9.1906177955123139E-002   0.0000000000000000     
   3.5108499224154044E-014   9.8592012832450435E-002   0.0000000000000000     
   2.9240065230196066E-014  0.10542534422026595        0.0000000000000000     
   2.0016374534508424E-002  0.10568469864338206        0.0000000000000000     
   2.0605192814679346E-002  0.11265333856416659        0.0000000000000000     
   2.1169377167824886E-002  0.11975205715784686        0.0000000000000000     
   2.1708927593945028E-002  0.12698085442442292        0.0000000000000000     
   2.2223844093039784E-002  0.13433973036389474        0.0000000000000000     
   1.4977612673637224E-002  0.10557123108324912        0.0000000000000000     
   1.5418785942226907E-002  0.11253969054991061        0.0000000000000000     
   1.5841782488116300E-002  0.11963482360484368        0.0000000000000000     
   1.6246602311305407E-002  0.12685663024804827        0.0000000000000000     
   1.6633245411794229E-002  0.13420511047952444        0.0000000000000000     
   9.9619629642669592E-003  0.10549018282601877        0.0000000000000000     
   1.0255784848966543E-002  0.11245851339687898        0.0000000000000000     
   1.0537688066911514E-002  0.11955108535270782        0.0000000000000000     
   1.0807672618101867E-002  0.12676789869350522        0.0000000000000000     
   1.1065738502537606E-002  0.13410895341927123        0.0000000000000000     
   4.9694254063976321E-003  0.10544155387169105        0.0000000000000000     
   5.1161895348982613E-003  0.11240980710507172        0.0000000000000000     
   5.2570939042105190E-003  0.11950084240143927        0.0000000000000000     
   5.3921385143344078E-003  0.12671465976079374        0.0000000000000000     
   5.5213233652699235E-003  0.13405125918313515        0.0000000000000000     
   2.9240065230196066E-014  0.10542534422026595        0.0000000000000000     
   2.2057442677914096E-014  0.11239357167448875        0.0000000000000000     
   1.3320833151808653E-014  0.11948409475103808        0.0000000000000000     
   3.0277158818287075E-015  0.12669691344991385        0.0000000000000000     
  -8.8189004709970931E-015  0.13403202777111611        0.0000000000000000     
   2.2223844093039784E-002  0.13433973036389474        0.0000000000000000     
   2.2695369239732061E-002  0.14170031422407639        0.0000000000000000     
   2.3104745608644763E-002  0.14893423525278196        0.0000000000000000     
   2.3451973199777883E-002  0.15604149345001142        0.0000000000000000     
   2.3737052013131435E-002  0.16302208881576483        0.0000000000000000     
   1.6633245411794229E-002  0.13420511047952444        0.0000000000000000     
   1.6986835041115454E-002  0.14154786354421922        0.0000000000000000     
   1.7292494450801787E-002  0.14875248868707977        0.0000000000000000     
   1.7550223640853221E-002  0.15581898590810600        0.0000000000000000     
   1.7760022611269768E-002  0.16274735520729802        0.0000000000000000     
   1.1065738502537606E-002  0.13410895341927123        0.0000000000000000     
   1.1301428768284208E-002  0.14143897020147644        0.0000000000000000     
   1.1504286463407155E-002  0.14862266971159149        0.0000000000000000     
   1.1674311587906447E-002  0.15566005194961632        0.0000000000000000     
   1.1811504141782083E-002  0.16255111691555096        0.0000000000000000     
   5.5213233652699235E-003  0.13405125918313515        0.0000000000000000     
   5.6391504212383262E-003  0.14137363419584803        0.0000000000000000     
   5.7401216464608691E-003  0.14854477832631707        0.0000000000000000     
   5.8242370409375558E-003  0.15556469157454231        0.0000000000000000     
   5.8914966046683826E-003  0.16243337394052362        0.0000000000000000     
  -8.8189004709970931E-015  0.13403202777111611        0.0000000000000000     
  -2.2194052151647270E-014  0.14135185552733398        0.0000000000000000     
  -3.7072124883796853E-014  0.14851881453125657        0.0000000000000000     
  -5.3450245531688756E-014  0.15553290478288395        0.0000000000000000     
  -7.1333564055642285E-014  0.16239412628221600        0.0000000000000000     
   0.0000000000000000        0.0000000000000000        0.0000000000000000     
   2.4137592966044785E-015   1.0640881657713152E-003   0.0000000000000000     
   5.0483163656356300E-015   2.4967846028488643E-003   0.0000000000000000     
   7.9034001565503331E-015   4.2980893112326470E-003   0.0000000000000000     
   1.0979471455271894E-014   6.4680022909226640E-003   0.0000000000000000     
   0.0000000000000000        0.0000000000000000        0.0000000000000000     
  -2.1409141840632545E-004   1.0666133648980483E-003   0.0000000000000000     
  -4.2960563604617179E-004   2.5024044187118449E-003   0.0000000000000000     
  -6.4654265291953902E-004   4.3073731614413895E-003   0.0000000000000000     
  -8.6490246902642671E-004   6.4815195930866838E-003   0.0000000000000000     
   0.0000000000000000        0.0000000000000000        0.0000000000000000     
  -4.2631147975622896E-004   1.0741889622792006E-003   0.0000000000000000     
  -8.5785642762130105E-004   2.5192638663024537E-003   0.0000000000000000     
  -1.2946348435952156E-003   4.3352247120697594E-003   0.0000000000000000     
  -1.7366467276779738E-003   6.5220714995811169E-003   0.0000000000000000     
   0.0000000000000000        0.0000000000000000        0.0000000000000000     
  -6.3666018404729687E-004   1.0868149579147722E-003   0.0000000000000000     
  -1.2847523747203395E-003   2.5473629456206903E-003   0.0000000000000000     
  -1.9442765720191276E-003   4.3816439631177541E-003   0.0000000000000000     
  -2.6152327759436612E-003   6.5896580104059651E-003   0.0000000000000000     
   0.0000000000000000        0.0000000000000000        0.0000000000000000     
  -8.4513753127952898E-004   1.1044913518047635E-003   0.0000000000000000     
  -1.7102934773432870E-003   2.5867016566665560E-003   0.0000000000000000     
  -2.5954678381912739E-003   4.4466309145853771E-003   0.0000000000000000     
  -3.5006606138234895E-003   6.6842791255612276E-003   0.0000000000000000     
   1.0979471455271894E-014   6.4680022909226640E-003   0.0000000000000000     
   1.4215814940141125E-014   8.9790611333993749E-003   0.0000000000000000     
   1.7551681408180947E-014   1.1803803430143242E-002   0.0000000000000000     
   2.0987597713884552E-014   1.4942229181154263E-002   0.0000000000000000     
   2.4522918418146133E-014   1.8394338386432434E-002   0.0000000000000000     
  -8.6490246902642671E-004   6.4815195930866838E-003   0.0000000000000000     
  -1.0859003907704213E-003   8.9967587791697761E-003   0.0000000000000000     
  -1.3107517245551090E-003   1.1825005785212719E-002   0.0000000000000000     
  -1.5394564703804887E-003   1.4966260611215509E-002   0.0000000000000000     
  -1.7720146282465626E-003   1.8420523257178145E-002   0.0000000000000000     
  -1.7366467276779738E-003   6.5220714995811169E-003   0.0000000000000000     
  -2.1842095075000454E-003   9.0498517164833772E-003   0.0000000000000000     
  -2.6376406106919013E-003   1.1888612850423386E-002   0.0000000000000000     
  -3.0969400372535425E-003   1.5038354901401140E-002   0.0000000000000000     
  -3.5621077871849679E-003   1.8499077869416642E-002   0.0000000000000000     
  -2.6152327759436612E-003   6.5896580104059651E-003   0.0000000000000000     
  -3.2949273501746558E-003   9.1383399453401747E-003   0.0000000000000000     
  -3.9806666583928263E-003   1.1994624625775238E-002   0.0000000000000000     
  -4.6724507005981731E-003   1.5158512051711148E-002   0.0000000000000000     
  -5.3702794767906950E-003   1.8630002223147913E-002   0.0000000000000000     
  -3.5006606138234895E-003   6.6842791255612276E-003   0.0000000000000000     
  -4.4180539187942524E-003   9.2622234657401721E-003   0.0000000000000000     
  -5.3398298676578830E-003   1.2143041111268278E-002   0.0000000000000000     
  -6.2659884604143803E-003   1.5326732062145541E-002   0.0000000000000000     
  -7.1965296970637428E-003   1.8813296318371968E-002   0.0000000000000000     
   2.4522918418146133E-014   1.8394338386432434E-002   0.0000000000000000     
   2.8079643644984831E-014   2.2129276221888160E-002   0.0000000000000000     
   3.1579665098202536E-014   2.6116187863431842E-002   0.0000000000000000     
   3.5022684622201816E-014   3.0355073311063463E-002   0.0000000000000000     
   3.8408512481602486E-014   3.4845932564783036E-002   0.0000000000000000     
  -1.7720146282465626E-003   1.8420523257178145E-002   0.0000000000000000     
  -2.0050531642425012E-003   2.2157140995993436E-002   0.0000000000000000     
  -2.2351990444574796E-003   2.6145461100554174E-002   0.0000000000000000     
  -2.4624522688914980E-003   3.0385483570860364E-002   0.0000000000000000     
  -2.6868128375445548E-003   3.4877208406912004E-002   0.0000000000000000     
  -3.5621077871849679E-003   1.8499077869416642E-002   0.0000000000000000     
  -4.0276329509318035E-003   2.2240735318309845E-002   0.0000000000000000     
  -4.4880046189396741E-003   2.6233280811920709E-002   0.0000000000000000     
  -4.9432227912085810E-003   3.0476714350249220E-002   0.0000000000000000     
  -5.3932874677385207E-003   3.4971035933295397E-002   0.0000000000000000     
  -5.3702794767906950E-003   1.8630002223147913E-002   0.0000000000000000     
  -6.0677393600398269E-003   2.2380059188837391E-002   0.0000000000000000     
  -6.7584167234150047E-003   2.6379646997531436E-002   0.0000000000000000     
  -7.4423115669162258E-003   3.0628765649230043E-002   0.0000000000000000     
  -8.1194238905434955E-003   3.5127415143933215E-002   0.0000000000000000     
  -7.1965296970637428E-003   1.8813296318371968E-002   0.0000000000000000     
  -8.1253723915665731E-003   2.2575112607576067E-002   0.0000000000000000     
  -9.0464353578834696E-003   2.6584559657386344E-002   0.0000000000000000     
  -9.9597185960144351E-003   3.0841637467802815E-002   0.0000000000000000     
  -1.0865222105959469E-002   3.5346346038825471E-002   0.0000000000000000     
   3.8408512481602486E-014   3.4845932564783036E-002   0.0000000000000000     
   4.1513884344035468E-014   3.9581397503557679E-002   0.0000000000000000     
   4.4115319036697187E-014   4.4554100006354527E-002   0.0000000000000000     
   4.6212816559587644E-014   4.9764040073173567E-002   0.0000000000000000     
   4.7806810593575833E-014   5.5211217704014819E-002   0.0000000000000000     
  -2.6868128375445548E-003   3.4877208406912004E-002   0.0000000000000000     
  -2.9078174900030065E-003   3.9612952020334560E-002   0.0000000000000000     
  -3.1250029658532099E-003   4.4585030822753523E-002   0.0000000000000000     
  -3.3383692650951610E-003   4.9793444814168898E-002   0.0000000000000000     
  -3.5479163877288637E-003   5.5238193994580659E-002   0.0000000000000000     
  -5.3932874677385207E-003   3.4971035933295397E-002   0.0000000000000000     
  -5.8365720545161554E-003   3.9707615570659660E-002   0.0000000000000000     
  -6.2714499575281385E-003   4.4677823271942439E-002   0.0000000000000000     
  -6.6979211767744726E-003   4.9881659037143748E-002   0.0000000000000000     
  -7.1159857122551550E-003   5.5319122866263566E-002   0.0000000000000000     
  -8.1194238905434955E-003   3.5127415143933215E-002   0.0000000000000000     
  -8.7862636934979352E-003   3.9865388154532964E-002   0.0000000000000000     
  -9.4393409749806770E-003   4.4832477353921256E-002   0.0000000000000000     
  -1.0078655734991719E-002   5.0028682742098124E-002   0.0000000000000000     
  -1.0704207973531065E-002   5.5454004319063534E-002   0.0000000000000000     
  -1.0865222105959469E-002   3.5346346038825471E-002   0.0000000000000000     
  -1.1756892406948341E-002   4.0086269771954473E-002   0.0000000000000000     
  -1.2628676018210817E-002   4.5048993068689994E-002   0.0000000000000000     
  -1.3480572939746902E-002   5.0234515929032018E-002   0.0000000000000000     
  -1.4312583171556594E-002   5.5642838352980568E-002   0.0000000000000000     
   4.7806810593575833E-014   5.5211217704014819E-002   0.0000000000000000     
   4.8717106737594662E-014   6.0870926265398966E-002   0.0000000000000000     
   4.8765028473618521E-014   6.6718459123846732E-002   0.0000000000000000     
   4.7949545809583549E-014   7.2753816279358119E-002   0.0000000000000000     
   4.6271146636467364E-014   7.8976997731933132E-002   0.0000000000000000     
  -3.5479163877288637E-003   5.5238193994580659E-002   0.0000000000000000     
  -3.7516881656965329E-003   6.0895239982738020E-002   0.0000000000000000     
  -3.9477284309403886E-003   6.6740544397390161E-002   0.0000000000000000     
  -4.1360371834604261E-003   7.2774107238537070E-002   0.0000000000000000     
  -4.3166144232566483E-003   7.8995928506178786E-002   0.0000000000000000     
  -7.1159857122551550E-003   5.5319122866263566E-002   0.0000000000000000     
  -7.5224483950465208E-003   6.0968181134736676E-002   0.0000000000000000     
  -7.9141140562249048E-003   6.6806800217997842E-002   0.0000000000000000     
  -8.2909826957903079E-003   7.2834980116047068E-002   0.0000000000000000     
  -8.6530543137427300E-003   7.9052720828884315E-002   0.0000000000000000     
  -1.0704207973531065E-002   5.5454004319063534E-002   0.0000000000000000     
  -1.1312280688001244E-002   6.1089749721394949E-002   0.0000000000000000     
  -1.1899156875804787E-002   6.6917226585669787E-002   0.0000000000000000     
  -1.2464836536941699E-002   7.2936434911888059E-002   0.0000000000000000     
  -1.3009319671411971E-002   7.9147374700049747E-002   0.0000000000000000     
  -1.4312583171556594E-002   5.5642838352980568E-002   0.0000000000000000     
  -1.5121185044560703E-002   6.1259945742712818E-002   0.0000000000000000     
  -1.5902856889680034E-002   6.7071823500405997E-002   0.0000000000000000     
  -1.6657598706914592E-002   7.3078471626060071E-002   0.0000000000000000     
  -1.7385410496264374E-002   7.9279890119675067E-002   0.0000000000000000     
   4.6271146636467364E-014   7.8976997731933132E-002   0.0000000000000000     
   4.3624392292995751E-014   8.5367839588284047E-002   0.0000000000000000     
   3.9903302016808251E-014   9.1906177955123139E-002   0.0000000000000000     
   3.5108499224154044E-014   9.8592012832450435E-002   0.0000000000000000     
   2.9240065230196066E-014  0.10542534422026595        0.0000000000000000     
  -4.3166144232566483E-003   7.8995928506178786E-002   0.0000000000000000     
  -4.4899487222751205E-003   8.5385742952193380E-002   0.0000000000000000     
  -4.6565286524619075E-003   9.1923285328458934E-002   0.0000000000000000     
  -4.8163542138170120E-003   9.8608555634975503E-002   0.0000000000000000     
  -4.9694254063404313E-003  0.10544155387174302        0.0000000000000000     
  -8.6530543137427300E-003   7.9052720828884315E-002   0.0000000000000000     
  -9.0008659347566057E-003   8.5439453043885144E-002   0.0000000000000000     
  -9.3349545835063746E-003   9.1974607448425005E-002   0.0000000000000000     
  -9.6553202599920420E-003   9.8658184042503913E-002   0.0000000000000000     
  -9.9619629642135957E-003  0.10549018282612185        0.0000000000000000     
  -1.3009319671411971E-002   7.9147374700049747E-002   0.0000000000000000     
  -1.3532751637400831E-002   8.5528969863359353E-002   0.0000000000000000     
  -1.4035277793093501E-002   9.2060144315021353E-002   0.0000000000000000     
  -1.4516898138489977E-002   9.8740898055035733E-002   0.0000000000000000     
  -1.4977612673590256E-002  0.10557123108340247        0.0000000000000000     
  -1.7385410496264374E-002   7.9279890119675067E-002   0.0000000000000000     
  -1.8085605830207799E-002   8.5654293410616006E-002   0.0000000000000000     
  -1.8757498281223282E-002   9.2179895928247935E-002   0.0000000000000000     
  -1.9401087849310820E-002   9.8856697672570881E-002   0.0000000000000000     
  -2.0016374534470416E-002  0.10568469864358482        0.0000000000000000     
   2.9240065230196066E-014  0.10542534422026595        0.0000000000000000     
   2.2057442677914096E-014  0.11239357167448875        0.0000000000000000     
   1.3320833151808653E-014  0.11948409475103808        0.0000000000000000     
   3.0277158818287075E-015  0.12669691344991385        0.0000000000000000     
  -8.8189004709970931E-015  0.13403202777111611        0.0000000000000000     
  -4.9694254063404313E-003  0.10544155387174302        0.0000000000000000     
  -5.1161895348553702E-003  0.11240980710512970        0.0000000000000000     
  -5.2570939041850367E-003  0.11950084240150372        0.0000000000000000     
  -5.3921385143294275E-003  0.12671465976086502        0.0000000000000000     
  -5.5213233652885475E-003  0.13405125918321367        0.0000000000000000     
  -9.9619629642135957E-003  0.10549018282612185        0.0000000000000000     
  -1.0255784848927323E-002  0.11245851339699406        0.0000000000000000     
  -1.0537688066889496E-002  0.11955108535283571        0.0000000000000000     
  -1.0807672618100115E-002  0.12676789869364680        0.0000000000000000     
  -1.1065738502559184E-002  0.13410895341942730        0.0000000000000000     
  -1.4977612673590256E-002  0.10557123108340247        0.0000000000000000     
  -1.5418785942193799E-002  0.11253969055008183        0.0000000000000000     
  -1.5841782488100059E-002  0.11963482360503404        0.0000000000000000     
  -1.6246602311309030E-002  0.12685663024825911        0.0000000000000000     
  -1.6633245411820732E-002  0.13420511047975703        0.0000000000000000     
  -2.0016374534470416E-002  0.10568469864358482        0.0000000000000000     
  -2.0605192814654800E-002  0.11265333856439304        0.0000000000000000     
  -2.1169377167816729E-002  0.11975205715809878        0.0000000000000000     
  -2.1708927593956189E-002  0.12698085442470206        0.0000000000000000     
  -2.2223844093073188E-002  0.13433973036420283        0.0000000000000000     
  -8.8189004709970931E-015  0.13403202777111611        0.0000000000000000     
  -2.2194052151647270E-014  0.14135185552733398        0.0000000000000000     
  -3.7072124883796853E-014  0.14851881453125657        0.0000000000000000     
  -5.3450245531688756E-014  0.15553290478288395        0.0000000000000000     
  -7.1333564055642285E-014  0.16239412628221600        0.0000000000000000     
  -5.5213233652885475E-003  0.13405125918321367        0.0000000000000000     
  -5.6391504212836042E-003  0.14137363419593379        0.0000000000000000     
  -5.7401216465358101E-003  0.14854477832640953        0.0000000000000000     
  -5.8242370410451676E-003  0.15556469157464087        0.0000000000000000     
  -5.8914966048116760E-003  0.16243337394062779        0.0000000000000000     
  -1.1065738502559184E-002  0.13410895341942730        0.0000000000000000     
  -1.1301428768332159E-002  0.14143897020164697        0.0000000000000000     
  -1.1504286463484493E-002  0.14862266971177540        0.0000000000000000     
  -1.1674311588016193E-002  0.15566005194981261        0.0000000000000000     
  -1.1811504141927253E-002  0.16255111691575863        0.0000000000000000     
  -1.6633245411820732E-002  0.13420511047975703        0.0000000000000000     
  -1.6986835041167856E-002  0.14154786354447349        0.0000000000000000     
  -1.7292494450883118E-002  0.14875248868735427        0.0000000000000000     
  -1.7550223640966523E-002  0.15581898590839927        0.0000000000000000     
  -1.7760022611418069E-002  0.16274735520760855        0.0000000000000000     
  -2.2223844093073188E-002  0.13433973036420283        0.0000000000000000     
  -2.2695369239790698E-002  0.14170031422441340        0.0000000000000000     
  -2.3104745608731686E-002  0.14893423525314606        0.0000000000000000     
  -2.3451973199896156E-002  0.15604149345040075        0.0000000000000000     
  -2.3737052013284115E-002  0.16302208881617747        0.0000000000000000     
   0.0000000000000000        0.0000000000000000        0.0000000000000000     
  -8.4513753127952898E-004   1.1044913518047635E-003   0.0000000000000000     
  -1.7102934773432870E-003   2.5867016566665560E-003   0.0000000000000000     
  -2.5954678381912739E-003   4.4466309145853771E-003   0.0000000000000000     
  -3.5006606138234895E-003   6.6842791255612276E-003   0.0000000000000000     
   0.0000000000000000        0.0000000000000000        0.0000000000000000     
  -1.0605416165032642E-003   1.1305713443108120E-003   0.0000000000000000     
  -2.1488033794241621E-003   2.6427078588838657E-003   0.0000000000000000     
  -3.2647852887626935E-003   4.5364095437191625E-003   0.0000000000000000     
  -4.4084873445188587E-003   6.8116763988166993E-003   0.0000000000000000     
   0.0000000000000000        0.0000000000000000        0.0000000000000000     
  -1.2916705347688414E-003   1.1684081357945556E-003   0.0000000000000000     
  -2.6146057248969835E-003   2.7208094117164364E-003   0.0000000000000000     
  -3.9688055703844269E-003   4.6572038277656429E-003   0.0000000000000000     
  -5.3542700712311698E-003   6.9775913839421741E-003   0.0000000000000000     
   0.0000000000000000        0.0000000000000000        0.0000000000000000     
  -1.5385242860762607E-003   1.2180017262559944E-003   0.0000000000000000     
  -3.1077005137617520E-003   2.8210063151642684E-003   0.0000000000000000     
  -4.7075286830564724E-003   4.8090137667248217E-003   0.0000000000000000     
  -6.3380087939604226E-003   7.1820240809376545E-003   0.0000000000000000     
   0.0000000000000000        0.0000000000000000        0.0000000000000000     
  -1.8011028704255218E-003   1.2793521156951283E-003   0.0000000000000000     
  -3.6280877460184648E-003   2.9432985692273610E-003   0.0000000000000000     
  -5.4809546267788290E-003   4.9918393605966980E-003   0.0000000000000000     
  -7.3597035127066163E-003   7.4249744898031390E-003   0.0000000000000000     
  -3.5006606138234895E-003   6.6842791255612276E-003   0.0000000000000000     
  -4.4180539187942524E-003   9.2622234657401721E-003   0.0000000000000000     
  -5.3398298676578830E-003   1.2143041111268278E-002   0.0000000000000000     
  -6.2659884604143803E-003   1.5326732062145541E-002   0.0000000000000000     
  -7.1965296970637428E-003   1.8813296318371968E-002   0.0000000000000000     
  -4.4084873445188587E-003   6.8116763988166993E-003   0.0000000000000000     
  -5.5675077702912520E-003   9.4264468887960712E-003   0.0000000000000000     
  -6.7294447896784643E-003   1.2338659478276868E-002   0.0000000000000000     
  -7.8942984026804993E-003   1.5548314167259093E-002   0.0000000000000000     
  -9.0620686092973551E-003   1.9055410955742747E-002   0.0000000000000000     
  -5.3542700712311698E-003   6.9775913839421741E-003   0.0000000000000000     
  -6.7572074615980665E-003   9.6359548256205723E-003   0.0000000000000000     
  -8.1638259756459663E-003   1.2586276898175375E-002   0.0000000000000000     
  -9.5741256133748710E-003   1.5828557601606581E-002   0.0000000000000000     
  -1.0988106374784781E-002   1.9362796935914195E-002   0.0000000000000000     
  -6.3380087939604226E-003   7.1820240809376545E-003   0.0000000000000000     
  -7.9871529927146943E-003   9.8907472762136753E-003   0.0000000000000000     
  -9.6429734255603847E-003   1.2885893370963793E-002   0.0000000000000000     
  -1.1305470092497490E-002   1.6167462365188005E-002   0.0000000000000000     
  -1.2974642993526015E-002   1.9735454258886311E-002   0.0000000000000000     
  -7.3597035127066163E-003   7.4249744898031390E-003   0.0000000000000000     
  -9.2573443636411405E-003   1.0190824240575382E-002   0.0000000000000000     
  -1.1166887139421723E-002   1.3237508896642122E-002   0.0000000000000000     
  -1.3088331840048362E-002   1.6565028458003363E-002   0.0000000000000000     
  -1.5021678465521059E-002   2.0173382924659099E-002   0.0000000000000000     
  -7.1965296970637428E-003   1.8813296318371968E-002   0.0000000000000000     
  -8.1253723915665731E-003   2.2575112607576067E-002   0.0000000000000000     
  -9.0464353578834696E-003   2.6584559657386344E-002   0.0000000000000000     
  -9.9597185960144351E-003   3.0841637467802815E-002   0.0000000000000000     
  -1.0865222105959469E-002   3.5346346038825471E-002   0.0000000000000000     
  -9.0620686092973551E-003   1.9055410955742747E-002   0.0000000000000000     
  -1.0226235647173012E-002   2.2833312051266753E-002   0.0000000000000000     
  -1.1380279753951445E-002   2.6855379661370041E-002   0.0000000000000000     
  -1.2524200929632660E-002   3.1121613786052604E-002   0.0000000000000000     
  -1.3657999174216650E-002   3.5632014425314461E-002   0.0000000000000000     
  -1.0988106374784781E-002   1.9362796935914195E-002   0.0000000000000000     
  -1.2396032728520117E-002   2.3162073996650330E-002   0.0000000000000000     
  -1.3788169143225306E-002   2.7199467879367091E-002   0.0000000000000000     
  -1.5164515618900344E-002   3.1474978584064478E-002   0.0000000000000000     
  -1.6525072155545238E-002   3.5988606110742505E-002   0.0000000000000000     
  -1.2974642993526015E-002   1.9735454258886311E-002   0.0000000000000000     
  -1.4634763635607890E-002   2.3561398443726782E-002   0.0000000000000000     
  -1.6270103525705050E-002   2.7616824311377484E-002   0.0000000000000000     
  -1.7880662663817493E-002   3.1901731861838423E-002   0.0000000000000000     
  -1.9466441049945226E-002   3.6416121095109583E-002   0.0000000000000000     
  -1.5021678465521059E-002   2.0173382924659099E-002   0.0000000000000000     
  -1.6942428368436329E-002   2.4031285392496129E-002   0.0000000000000000     
  -1.8826082901390675E-002   2.8107448957401242E-002   0.0000000000000000     
  -2.0672642064384111E-002   3.2401873619374438E-002   0.0000000000000000     
  -2.2482105857416623E-002   3.6914559378415729E-002   0.0000000000000000     
  -1.0865222105959469E-002   3.5346346038825471E-002   0.0000000000000000     
  -1.1756892406948341E-002   4.0086269771954473E-002   0.0000000000000000     
  -1.2628676018210817E-002   4.5048993068689994E-002   0.0000000000000000     
  -1.3480572939746902E-002   5.0234515929032018E-002   0.0000000000000000     
  -1.4312583171556594E-002   5.5642838352980568E-002   0.0000000000000000     
  -1.3657999174216650E-002   3.5632014425314461E-002   0.0000000000000000     
  -1.4773781552608551E-002   4.0372545630716711E-002   0.0000000000000000     
  -1.5863655129713491E-002   4.5329171453820503E-002   0.0000000000000000     
  -1.6927619905531471E-002   5.0501891894625832E-002   0.0000000000000000     
  -1.7965675880062485E-002   5.5890706953132682E-002   0.0000000000000000     
  -1.6525072155545238E-002   3.5988606110742505E-002   0.0000000000000000     
  -1.7862254488219740E-002   4.0726500938612208E-002   0.0000000000000000     
  -1.9168478351983615E-002   4.5674813546884685E-002   0.0000000000000000     
  -2.0443743746836864E-002   5.0833543935559916E-002   0.0000000000000000     
  -2.1688050672779482E-002   5.6202692104637915E-002   0.0000000000000000     
  -1.9466441049945226E-002   3.6416121095109583E-002   0.0000000000000000     
  -2.1022311213781911E-002   4.1148135695640964E-002   0.0000000000000000     
  -2.2543145685021193E-002   4.6085919347882538E-002   0.0000000000000000     
  -2.4028944463663080E-002   5.1229472051834299E-002   0.0000000000000000     
  -2.5479707549707579E-002   5.6578793807496253E-002   0.0000000000000000     
  -2.2482105857416623E-002   3.6914559378415729E-002   0.0000000000000000     
  -2.4253951729295051E-002   4.1637449901802966E-002   0.0000000000000000     
  -2.5987657128826221E-002   4.6562488856814056E-002   0.0000000000000000     
  -2.7683222056010131E-002   5.1689676243448966E-002   0.0000000000000000     
  -2.9340646510846780E-002   5.7019012061707716E-002   0.0000000000000000     
  -1.4312583171556594E-002   5.5642838352980568E-002   0.0000000000000000     
  -1.5121185044560703E-002   6.1259945742712818E-002   0.0000000000000000     
  -1.5902856889680034E-002   6.7071823500405997E-002   0.0000000000000000     
  -1.6657598706914592E-002   7.3078471626060071E-002   0.0000000000000000     
  -1.7385410496264374E-002   7.9279890119675067E-002   0.0000000000000000     
  -1.7965675880062485E-002   5.5890706953132682E-002   0.0000000000000000     
  -1.8974527197061036E-002   6.1486532534251001E-002   0.0000000000000000     
  -1.9950878000281613E-002   6.7280284542890714E-002   0.0000000000000000     
  -2.0894728289724218E-002   7.3271962979051836E-002   0.0000000000000000     
  -2.1806078065388847E-002   7.9461567842734351E-002   0.0000000000000000     
  -2.1688050672779482E-002   5.6202692104637915E-002   0.0000000000000000     
  -2.2897672877838390E-002   6.1777273431570176E-002   0.0000000000000000     
  -2.4068884110040493E-002   6.7552303293808236E-002   0.0000000000000000     
  -2.5201684369385795E-002   7.3527781691352101E-002   0.0000000000000000     
  -2.6296073655874299E-002   7.9703708624201772E-002   0.0000000000000000     
  -2.5479707549707579E-002   5.6578793807496253E-002   0.0000000000000000     
  -2.6890622086892753E-002   6.2132168434670350E-002   0.0000000000000000     
  -2.8256875218956673E-002   6.7887879753158575E-002   0.0000000000000000     
  -2.9578466945899329E-002   7.3845927762960881E-002   0.0000000000000000     
  -3.0855397267720738E-002   8.0006312464077300E-002   0.0000000000000000     
  -2.9340646510846780E-002   5.7019012061707716E-002   0.0000000000000000     
  -3.0953374824224132E-002   6.2551217543551543E-002   0.0000000000000000     
  -3.2514851327030150E-002   6.8287013920941678E-002   0.0000000000000000     
  -3.4025076019264820E-002   7.4226401193878161E-002   0.0000000000000000     
  -3.5484048900928149E-002   8.0369379362360951E-002   0.0000000000000000     
  -1.7385410496264374E-002   7.9279890119675067E-002   0.0000000000000000     
  -1.8085605830207799E-002   8.5654293410616006E-002   0.0000000000000000     
  -1.8757498281223282E-002   9.2179895928247935E-002   0.0000000000000000     
  -1.9401087849310820E-002   9.8856697672570881E-002   0.0000000000000000     
  -2.0016374534470416E-002  0.10568469864358482        0.0000000000000000     
  -2.1806078065388847E-002   7.9461567842734351E-002   0.0000000000000000     
  -2.2683382784834470E-002   8.5826703656903369E-002   0.0000000000000000     
  -2.3525097905620046E-002   9.2344974944524039E-002   0.0000000000000000     
  -2.4331223427745571E-002   9.9016381705596318E-002   0.0000000000000000     
  -2.5101759351211048E-002  0.10584092394012021        0.0000000000000000     
  -2.6296073655874299E-002   7.9703708624201772E-002   0.0000000000000000     
  -2.7350036772937809E-002   8.6057480573469819E-002   0.0000000000000000     
  -2.8361558524008120E-002   9.2566494020268869E-002   0.0000000000000000     
  -2.9330638909085230E-002   9.9230748964598881E-002   0.0000000000000000     
  -3.0257277928169145E-002  0.10605024540645988        0.0000000000000000     
  -3.0855397267720738E-002   8.0006312464077300E-002   0.0000000000000000     
  -3.2085567794517815E-002   8.6346624160315313E-002   0.0000000000000000     
  -3.3266880136387504E-002   9.2844453155482398E-002   0.0000000000000000     
  -3.4399334293329802E-002   9.9499799449578569E-002   0.0000000000000000     
  -3.5482930265344707E-002  0.10631266304260382        0.0000000000000000     
  -3.5484048900928149E-002   8.0369379362360951E-002   0.0000000000000000     
  -3.6889975849574493E-002   8.6694134417439839E-002   0.0000000000000000     
  -3.8241062742758201E-002   9.3178852350164681E-002   0.0000000000000000     
  -3.9537309580479282E-002   9.9823533160535410E-002   0.0000000000000000     
  -4.0778716362737728E-002  0.10662817684855205        0.0000000000000000     
  -2.0016374534470416E-002  0.10568469864358482        0.0000000000000000     
  -2.0605192814654800E-002  0.11265333856439304        0.0000000000000000     
  -2.1169377167816729E-002  0.11975205715809878        0.0000000000000000     
  -2.1708927593956189E-002  0.12698085442470206        0.0000000000000000     
  -2.2223844093073188E-002  0.13433973036420283        0.0000000000000000     
  -2.5101759351211048E-002  0.10584092394012021        0.0000000000000000     
  -2.5838991380653296E-002  0.11280881427006814        0.0000000000000000     
  -2.6545205220709141E-002  0.11991026531741250        0.0000000000000000     
  -2.7220400871378583E-002  0.12714527708215331        0.0000000000000000     
  -2.7864578332661618E-002  0.13451384956429058        0.0000000000000000     
  -3.0257277928169145E-002  0.10605024540645988        0.0000000000000000     
  -3.1144167554532254E-002  0.11301547449724762        0.0000000000000000     
  -3.1993999761446949E-002  0.12011692738835793        0.0000000000000000     
  -3.2806774548913224E-002  0.12735460407979080        0.0000000000000000     
  -3.3582491916931086E-002  0.13472850457154620        0.0000000000000000     
  -3.5482930265344707E-002  0.10631266304260382        0.0000000000000000     
  -3.6520721336291674E-002  0.11327331924593154        0.0000000000000000     
  -3.7515760790030134E-002  0.12037204337093506        0.0000000000000000     
  -3.8468048626560114E-002  0.12760883541761442        0.0000000000000000     
  -3.9377584845881594E-002  0.13498369538596963        0.0000000000000000     
  -4.0778716362737728E-002  0.10662817684855205        0.0000000000000000     
  -4.1968652725931553E-002  0.11358234851611980        0.0000000000000000     
  -4.3110488306458715E-002  0.12067561326514387        0.0000000000000000     
  -4.4204223104319249E-002  0.12790797109562424        0.0000000000000000     
  -4.5249857119513140E-002  0.13527942200756093        0.0000000000000000     
  -2.2223844093073188E-002  0.13433973036420283        0.0000000000000000     
  -2.2695369239790698E-002  0.14170031422441340        0.0000000000000000     
  -2.3104745608731686E-002  0.14893423525314606        0.0000000000000000     
  -2.3451973199896156E-002  0.15604149345040075        0.0000000000000000     
  -2.3737052013284115E-002  0.16302208881617747        0.0000000000000000     
  -2.7864578332661618E-002  0.13451384956429058        0.0000000000000000     
  -2.8454351157121176E-002  0.14189322045582836        0.0000000000000000     
  -2.8966332897320188E-002  0.14916062744877084        0.0000000000000000     
  -2.9400523553258659E-002  0.15631607054311797        0.0000000000000000     
  -2.9756923124936576E-002  0.16335954973886979        0.0000000000000000     
  -3.3582491916931086E-002  0.13472850457154620        0.0000000000000000     
  -3.4291100586079801E-002  0.14212348045308013        0.0000000000000000     
  -3.4902549276938623E-002  0.14942438331384869        0.0000000000000000     
  -3.5416837989507573E-002  0.15663121315385187        0.0000000000000000     
  -3.5833966723786637E-002  0.16374396997308971        0.0000000000000000     
  -3.9377584845881594E-002  0.13498369538596963        0.0000000000000000     
  -4.0205617526666571E-002  0.14239109421616866        0.0000000000000000     
  -4.0913394747586998E-002  0.14972550284837960        0.0000000000000000     
  -4.1500916508642918E-002  0.15698692128260247        0.0000000000000000     
  -4.1968182809834290E-002  0.16417534951883722        0.0000000000000000     
  -4.5249857119513140E-002  0.13527942200756093        0.0000000000000000     
  -4.6197901978881462E-002  0.14269606174509400        0.0000000000000000     
  -4.6998869309265300E-002  0.15006398605236360        0.0000000000000000     
  -4.7652759110664668E-002  0.15738319492936972        0.0000000000000000     
  -4.8159571383079552E-002  0.16465368837611236        0.0000000000000000     
   0.0000000000000000        0.0000000000000000        0.0000000000000000     
  -1.8011028704255218E-003   1.2793521156951283E-003   0.0000000000000000     
  -3.6280877460184648E-003   2.9432985692273610E-003   0.0000000000000000     
  -5.4809546267788290E-003   4.9918393605966980E-003   0.0000000000000000     
  -7.3597035127066163E-003   7.4249744898031390E-003   0.0000000000000000     
   0.0000000000000000        0.0000000000000000        0.0000000000000000     
  -2.0712506120542339E-003   1.3592582407968414E-003   0.0000000000000000     
  -4.1686754152802461E-003   3.1016542189038388E-003   0.0000000000000000     
  -6.2922744096780359E-003   5.2271879343209924E-003   0.0000000000000000     
  -8.4420475952476058E-003   7.7358593870483017E-003   0.0000000000000000     
   0.0000000000000000        0.0000000000000000        0.0000000000000000     
  -2.3408118352000041E-003   1.4645190382460173E-003   0.0000000000000000     
  -4.7223715151602126E-003   3.3100413091918250E-003   0.0000000000000000     
  -7.1446790398806284E-003   5.5365668128374247E-003   0.0000000000000000     
  -9.6077344093612443E-003   8.1440955491828126E-003   0.0000000000000000     
   0.0000000000000000        0.0000000000000000        0.0000000000000000     
  -2.6097865398628343E-003   1.5951345080426563E-003   0.0000000000000000     
  -5.2891760456583699E-003   3.5684598400913215E-003   0.0000000000000000     
  -8.0381685173866024E-003   5.9199759961459947E-003   0.0000000000000000     
  -1.0856763955047534E-002   8.6496829762066768E-003   0.0000000000000000     
   0.0000000000000000        0.0000000000000000        0.0000000000000000     
  -2.8781747260427240E-003   1.7511046501867582E-003   0.0000000000000000     
  -5.8690890067747119E-003   3.8769098116023257E-003   0.0000000000000000     
  -8.9727428421959646E-003   6.3774154842467026E-003   0.0000000000000000     
  -1.2189136232306479E-002   9.2526216681198901E-003   0.0000000000000000     
  -7.3597035127066163E-003   7.4249744898031390E-003   0.0000000000000000     
  -9.2573443636411405E-003   1.0190824240575382E-002   0.0000000000000000     
  -1.1166887139421723E-002   1.3237508896642122E-002   0.0000000000000000     
  -1.3088331840048362E-002   1.6565028458003363E-002   0.0000000000000000     
  -1.5021678465521059E-002   2.0173382924659099E-002   0.0000000000000000     
  -8.4420475952476058E-003   7.7358593870483017E-003   0.0000000000000000     
  -1.0610276255099766E-002   1.0570972185530025E-002   0.0000000000000000     
  -1.2789241672345327E-002   1.3675829938210426E-002   0.0000000000000000     
  -1.4978943846984292E-002   1.7050432645089503E-002   0.0000000000000000     
  -1.7179382779016660E-002   2.0694780306167258E-002   0.0000000000000000     
  -9.6077344093612443E-003   8.1440955491828126E-003   0.0000000000000000     
  -1.2088443347812929E-002   1.1065977577901944E-002   0.0000000000000000     
  -1.4563711579446543E-002   1.4235562958668768E-002   0.0000000000000000     
  -1.7033539104262085E-002   1.7652851691483284E-002   0.0000000000000000     
  -1.9497925922259560E-002   2.1317843776345494E-002   0.0000000000000000     
  -1.0856763955047534E-002   8.6496829762066768E-003   0.0000000000000000     
  -1.3691845641780638E-002   1.1675840417691135E-002   0.0000000000000000     
  -1.6490296860725374E-002   1.4916707958017143E-002   0.0000000000000000     
  -1.9252117611881746E-002   1.8372285597184700E-002   0.0000000000000000     
  -2.1977307895249758E-002   2.2042573335193803E-002   0.0000000000000000     
  -1.2189136232306479E-002   9.2526216681198901E-003   0.0000000000000000     
  -1.5420483137002889E-002   1.2400560704897604E-002   0.0000000000000000     
  -1.8568997516181820E-002   1.5719264936255556E-002   0.0000000000000000     
  -2.1634679369843274E-002   1.9208734362193756E-002   0.0000000000000000     
  -2.4617528697987251E-002   2.2868968982712193E-002   0.0000000000000000     
  -1.5021678465521059E-002   2.0173382924659099E-002   0.0000000000000000     
  -1.6942428368436329E-002   2.4031285392496129E-002   0.0000000000000000     
  -1.8826082901390675E-002   2.8107448957401242E-002   0.0000000000000000     
  -2.0672642064384111E-002   3.2401873619374438E-002   0.0000000000000000     
  -2.2482105857416623E-002   3.6914559378415729E-002   0.0000000000000000     
  -1.7179382779016660E-002   2.0694780306167258E-002   0.0000000000000000     
  -1.9360189290245883E-002   2.4578346670941786E-002   0.0000000000000000     
  -2.1490994202475404E-002   2.8670605488911167E-002   0.0000000000000000     
  -2.3571797515705227E-002   3.2971556760075411E-002   0.0000000000000000     
  -2.5602599229935359E-002   3.7481200484434520E-002   0.0000000000000000     
  -1.9497925922259560E-002   2.1317843776345494E-002   0.0000000000000000     
  -2.1929208764277001E-002   2.5209194107047167E-002   0.0000000000000000     
  -2.4299724361152450E-002   2.9305557577380074E-002   0.0000000000000000     
  -2.6609472712885912E-002   3.3606934187344215E-002   0.0000000000000000     
  -2.8858453819477384E-002   3.8113323936939593E-002   0.0000000000000000     
  -2.1977307895249758E-002   2.2042573335193803E-002   0.0000000000000000     
  -2.4649486790529678E-002   2.5923827700812283E-002   0.0000000000000000     
  -2.7252273377421810E-002   3.0012305222807966E-002   0.0000000000000000     
  -2.9785667655926142E-002   3.4308005901180841E-002   0.0000000000000000     
  -3.2249669626042678E-002   3.8810929735930921E-002   0.0000000000000000     
  -2.4617528697987251E-002   2.2868968982712193E-002   0.0000000000000000     
  -2.7521023369003930E-002   2.6722247452237138E-002   0.0000000000000000     
  -3.0348641251283490E-002   3.0790848425194840E-002   0.0000000000000000     
  -3.3100382344825929E-002   3.5074771901585304E-002   0.0000000000000000     
  -3.5776246649631263E-002   3.9574017881408519E-002   0.0000000000000000     
  -2.2482105857416623E-002   3.6914559378415729E-002   0.0000000000000000     
  -2.4253951729295051E-002   4.1637449901802966E-002   0.0000000000000000     
  -2.5987657128826221E-002   4.6562488856814056E-002   0.0000000000000000     
  -2.7683222056010131E-002   5.1689676243448966E-002   0.0000000000000000     
  -2.9340646510846780E-002   5.7019012061707716E-002   0.0000000000000000     
  -2.5602599229935359E-002   3.7481200484434520E-002   0.0000000000000000     
  -2.7587697026006823E-002   4.2194393850153403E-002   0.0000000000000000     
  -2.9531388584760645E-002   4.7105994045396948E-002   0.0000000000000000     
  -3.1433673906196821E-002   5.2216001070165177E-002   0.0000000000000000     
  -3.3294552990315363E-002   5.7524414924458069E-002   0.0000000000000000     
  -2.8858453819477384E-002   3.8113323936939593E-002   0.0000000000000000     
  -3.1054068095164880E-002   4.2818917833747423E-002   0.0000000000000000     
  -3.3203715954186405E-002   4.7717906885348951E-002   0.0000000000000000     
  -3.5307397396541977E-002   5.2810291091744170E-002   0.0000000000000000     
  -3.7365112422231589E-002   5.8096070452933080E-002   0.0000000000000000     
  -3.2249669626042678E-002   3.8810929735930921E-002   0.0000000000000000     
  -3.4653064936769201E-002   4.3511021852585048E-002   0.0000000000000000     
  -3.7004639237103516E-002   4.8398227376670058E-002   0.0000000000000000     
  -3.9304392527045588E-002   5.3472546308185966E-002   0.0000000000000000     
  -4.1552324806595452E-002   5.8733978647132756E-002   0.0000000000000000     
  -3.5776246649631263E-002   3.9574017881408519E-002   0.0000000000000000     
  -3.8384687550819821E-002   4.4270705906666256E-002   0.0000000000000000     
  -4.0934158433511954E-002   4.9146955519360269E-002   0.0000000000000000     
  -4.3424659297707675E-002   5.4202766719490550E-002   0.0000000000000000     
  -4.5856190143406972E-002   5.9438139507057099E-002   0.0000000000000000     
  -2.9340646510846780E-002   5.7019012061707716E-002   0.0000000000000000     
  -3.0953374824224132E-002   6.2551217543551543E-002   0.0000000000000000     
  -3.2514851327030150E-002   6.8287013920941678E-002   0.0000000000000000     
  -3.4025076019264820E-002   7.4226401193878161E-002   0.0000000000000000     
  -3.5484048900928149E-002   8.0369379362360951E-002   0.0000000000000000     
  -3.3294552990315363E-002   5.7524414924458069E-002   0.0000000000000000     
  -3.5105796845264020E-002   6.3034222993166328E-002   0.0000000000000000     
  -3.6859176479190590E-002   6.8748412661180647E-002   0.0000000000000000     
  -3.8554691892095053E-002   7.4666983928501032E-002   0.0000000000000000     
  -4.0192343083977414E-002   8.0789936795127498E-002   0.0000000000000000     
  -3.7365112422231589E-002   5.8096070452933080E-002   0.0000000000000000     
  -3.9367753905443920E-002   6.3580987018467303E-002   0.0000000000000000     
  -4.1306214720367676E-002   6.9270782837898476E-002   0.0000000000000000     
  -4.3180494867002837E-002   7.5165457911226627E-002   0.0000000000000000     
  -4.4990594345349431E-002   8.1265012238451700E-002   0.0000000000000000     
  -4.1552324806595452E-002   5.8733978647132756E-002   0.0000000000000000     
  -4.3739246004763803E-002   6.4191509619454482E-002   0.0000000000000000     
  -4.5855966050561386E-002   6.9854124451095206E-002   0.0000000000000000     
  -4.7902484943988181E-002   7.5721823142054889E-002   0.0000000000000000     
  -4.9878802685044195E-002   8.1794605692333572E-002   0.0000000000000000     
  -4.5856190143406972E-002   5.9438139507057099E-002   0.0000000000000000     
  -4.8220273143223705E-002   6.4865790796127865E-002   0.0000000000000000     
  -5.0508430469771742E-002   7.0498437500770797E-002   0.0000000000000000     
  -5.2720662123051071E-002   7.6336079620985875E-002   0.0000000000000000     
  -5.4856968103061704E-002   8.2378717156773126E-002   0.0000000000000000     
  -3.5484048900928149E-002   8.0369379362360951E-002   0.0000000000000000     
  -3.6889975849574493E-002   8.6694134417439839E-002   0.0000000000000000     
  -3.8241062742758201E-002   9.3178852350164681E-002   0.0000000000000000     
  -3.9537309580479282E-002   9.9823533160535410E-002   0.0000000000000000     
  -4.0778716362737728E-002  0.10662817684855205        0.0000000000000000     
  -4.0192343083977414E-002   8.0789936795127498E-002   0.0000000000000000     
  -4.1770573183750381E-002   8.7096602920959137E-002   0.0000000000000000     
  -4.3287825320326656E-002   9.3566313965895098E-002   0.0000000000000000     
  -4.4744099493706245E-002  0.10019906992993541        0.0000000000000000     
  -4.6139395703889148E-002  0.10699487081308005        0.0000000000000000     
  -4.4990594345349431E-002   8.1265012238451700E-002   0.0000000000000000     
  -4.6734672042688066E-002   8.7550621246988827E-002   0.0000000000000000     
  -4.8410886846299343E-002   9.4003460364253139E-002   0.0000000000000000     
  -5.0019238756183276E-002  0.10062352959024461        0.0000000000000000     
  -5.1559727772339844E-002  0.10741082892496326        0.0000000000000000     
  -4.9878802685044195E-002   8.1794605692333572E-002   0.0000000000000000     
  -5.1782272426387520E-002   8.8056189395528978E-002   0.0000000000000000     
  -5.3610247320676235E-002   9.4490291545238789E-002   0.0000000000000000     
  -5.5362727367910335E-002  0.10109691214146306        0.0000000000000000     
  -5.7039712568089852E-002  0.10787605118420174        0.0000000000000000     
  -5.4856968103061704E-002   8.2378717156773126E-002   0.0000000000000000     
  -5.6913374334848763E-002   8.8613307366579519E-002   0.0000000000000000     
  -5.8885906743457339E-002   9.5026807508852035E-002   0.0000000000000000     
  -6.0774565328887482E-002  0.10161921758359069        0.0000000000000000     
  -6.2579350091139171E-002  0.10839053759079546        0.0000000000000000     
  -4.0778716362737728E-002  0.10662817684855205        0.0000000000000000     
  -4.1968652725931553E-002  0.11358234851611980        0.0000000000000000     
  -4.3110488306458715E-002  0.12067561326514387        0.0000000000000000     
  -4.4204223104319249E-002  0.12790797109562424        0.0000000000000000     
  -4.5249857119513140E-002  0.13527942200756093        0.0000000000000000     
  -4.6139395703889148E-002  0.10699487081308005        0.0000000000000000     
  -4.7477858622165685E-002  0.11394158597632342        0.0000000000000000     
  -4.8763632919826223E-002  0.12102708478065999        0.0000000000000000     
  -4.9996718596870736E-002  0.12825136722608976        0.0000000000000000     
  -5.1177115653299243E-002  0.13561443331261272        0.0000000000000000     
  -5.1559727772339844E-002  0.10741082892496326        0.0000000000000000     
  -5.3038235923707877E-002  0.11435005529505333        0.0000000000000000     
  -5.4460645239226155E-002  0.12142590562715913        0.0000000000000000     
  -5.5826955718894677E-002  0.12863837992128055        0.0000000000000000     
  -5.7137167362713438E-002  0.13598747817741771        0.0000000000000000     
  -5.7039712568089852E-002  0.10787605118420174        0.0000000000000000     
  -5.8649784630558123E-002  0.11480775647230956        0.0000000000000000     
  -6.0201525264658537E-002  0.12187207580464117        0.0000000000000000     
  -6.1694934470391073E-002  0.12906900918119663        0.0000000000000000     
  -6.3130012247755760E-002  0.13639855660197589        0.0000000000000000     
  -6.2579350091139171E-002  0.10839053759079546        0.0000000000000000     
  -6.4312504742716436E-002  0.11531468950809207        0.0000000000000000     
  -6.5986272996123349E-002  0.12236559531310623        0.0000000000000000     
  -6.7600654851359923E-002  0.12954325500583797        0.0000000000000000     
  -6.9155650308426145E-002  0.13684766858628722        0.0000000000000000     
  -4.5249857119513140E-002  0.13527942200756093        0.0000000000000000     
  -4.6197901978881462E-002  0.14269606174509400        0.0000000000000000     
  -4.6998869309265300E-002  0.15006398605236360        0.0000000000000000     
  -4.7652759110664668E-002  0.15738319492936972        0.0000000000000000     
  -4.8159571383079552E-002  0.16465368837611236        0.0000000000000000     
  -5.1177115653299243E-002  0.13561443331261272        0.0000000000000000     
  -5.2244643959168731E-002  0.14303168678280373        0.0000000000000000     
  -5.3139123384536163E-002  0.15041853137923769        0.0000000000000000     
  -5.3860553929401575E-002  0.15777496710191455        0.0000000000000000     
  -5.4408935593764945E-002  0.16510099395083438        0.0000000000000000     
  -5.7137167362713438E-002  0.13598747817741771        0.0000000000000000     
  -5.8322533483972580E-002  0.14339127307224550        0.0000000000000000     
  -5.9314307395962225E-002  0.15076783728243889        0.0000000000000000     
  -6.0112489098682359E-002  0.15811717080799786        0.0000000000000000     
  -6.0717078592132989E-002  0.16543927364892255        0.0000000000000000     
  -6.3130012247755760E-002  0.13639855660197589        0.0000000000000000     
  -6.4431570553293058E-002  0.14377482061341931        0.0000000000000000     
  -6.5524421343543471E-002  0.15111190376196726        0.0000000000000000     
  -6.6408564618507027E-002  0.15840980604761978        0.0000000000000000     
  -6.7084000378183725E-002  0.16566852747037683        0.0000000000000000     
  -6.9155650308426145E-002  0.13684766858628722        0.0000000000000000     
  -7.0571755167130115E-002  0.14418232940632514        0.0000000000000000     
  -7.1769465227279922E-002  0.15145073081782279        0.0000000000000000     
  -7.2748780488875606E-002  0.15865287282078019        0.0000000000000000     
  -7.3509700951917112E-002  0.16578875541519730        0.0000000000000000     
   0.0000000000000000        0.0000000000000000        0.0000000000000000     
  -2.8781747260427240E-003   1.7511046501867582E-003   0.0000000000000000     
  -5.8690890067747119E-003   3.8769098116023257E-003   0.0000000000000000     
  -8.9727428421959646E-003   6.3774154842467026E-003   0.0000000000000000     
  -1.2189136232306479E-002   9.2526216681198901E-003   0.0000000000000000     
   0.0000000000000000        0.0000000000000000        0.0000000000000000     
  -3.2803942075047155E-003   2.0052857957667657E-003   0.0000000000000000     
  -6.6711648856797061E-003   4.3429846092841572E-003   0.0000000000000000     
  -1.0172312034524972E-002   7.0130964405521754E-003   0.0000000000000000     
  -1.3783835654040517E-002   1.0015621289570819E-002   0.0000000000000000     
   0.0000000000000000        0.0000000000000000        0.0000000000000000     
  -3.9508627980138523E-003   2.4305342758711218E-003   0.0000000000000000     
  -7.9044581695438178E-003   5.0742776186961337E-003   0.0000000000000000     
  -1.1860786114589898E-002   7.9312300284750357E-003   0.0000000000000000     
  -1.5819846633152088E-002   1.1001391505207830E-002   0.0000000000000000     
   0.0000000000000000        0.0000000000000000        0.0000000000000000     
  -4.8895804975701354E-003   3.0268500904998266E-003   0.0000000000000000     
  -9.5689688583670447E-003   6.0707888398382559E-003   0.0000000000000000     
  -1.4038165082390735E-002   9.1318162480152863E-003   0.0000000000000000     
  -1.8297169169641202E-002   1.2209932315030919E-002   0.0000000000000000     
   0.0000000000000000        0.0000000000000000        0.0000000000000000     
  -6.0965473061735630E-003   3.7942332396528802E-003   0.0000000000000000     
  -1.1664696952149393E-002   7.3325182727105214E-003   0.0000000000000000     
  -1.6704448937927486E-002   1.0614855099172925E-002   0.0000000000000000     
  -2.1215803263507846E-002   1.3641243719040089E-002   0.0000000000000000     
  -1.2189136232306479E-002   9.2526216681198901E-003   0.0000000000000000     
  -1.5420483137002889E-002   1.2400560704897604E-002   0.0000000000000000     
  -1.8568997516181820E-002   1.5719264936255556E-002   0.0000000000000000     
  -2.1634679369843274E-002   1.9208734362193756E-002   0.0000000000000000     
  -2.4617528697987251E-002   2.2868968982712193E-002   0.0000000000000000     
  -1.3783835654040517E-002   1.0015621289570819E-002   0.0000000000000000     
  -1.7388404479918462E-002   1.3252187237714007E-002   0.0000000000000000     
  -2.0868687247850938E-002   1.6624422366355664E-002   0.0000000000000000     
  -2.4224683957837952E-002   2.0132326675495787E-002   0.0000000000000000     
  -2.7456394609879496E-002   2.3775900165134378E-002   0.0000000000000000     
  -1.5819846633152088E-002   1.1001391505207830E-002   0.0000000000000000     
  -1.9709658316966139E-002   1.4242768814333021E-002   0.0000000000000000     
  -2.3458239757767802E-002   1.7613368721289123E-002   0.0000000000000000     
  -2.7065590955557068E-002   2.1113191226076144E-002   0.0000000000000000     
  -3.0531711910333940E-002   2.4742236328694076E-002   0.0000000000000000     
  -1.8297169169641202E-002   1.2209932315030919E-002   0.0000000000000000     
  -2.2384244648145927E-002   1.5372305434754641E-002   0.0000000000000000     
  -2.6337655045932402E-002   1.8686104001055942E-002   0.0000000000000000     
  -3.0157400363000623E-002   2.2151328013934820E-002   0.0000000000000000     
  -3.3843480599350585E-002   2.5767977473391282E-002   0.0000000000000000     
  -2.1215803263507846E-002   1.3641243719040089E-002   0.0000000000000000     
  -2.5412163473457820E-002   1.6640797098978869E-002   0.0000000000000000     
  -2.9506933112344737E-002   1.9842628205656111E-002   0.0000000000000000     
  -3.3500112180168622E-002   2.3246737039071822E-002   0.0000000000000000     
  -3.7391700676929443E-002   2.6853123599225998E-002   0.0000000000000000     
  -2.4617528697987251E-002   2.2868968982712193E-002   0.0000000000000000     
  -2.7521023369003930E-002   2.6722247452237138E-002   0.0000000000000000     
  -3.0348641251283490E-002   3.0790848425194840E-002   0.0000000000000000     
  -3.3100382344825929E-002   3.5074771901585304E-002   0.0000000000000000     
  -3.5776246649631263E-002   3.9574017881408519E-002   0.0000000000000000     
  -2.7456394609879496E-002   2.3775900165134378E-002   0.0000000000000000     
  -3.0585201316911569E-002   2.7598559885729786E-002   0.0000000000000000     
  -3.3632486191870190E-002   3.1643722887740360E-002   0.0000000000000000     
  -3.6598249234755340E-002   3.5911389171166111E-002   0.0000000000000000     
  -3.9482490445567016E-002   4.0401558736007023E-002   0.0000000000000000     
  -3.0531711910333940E-002   2.4742236328694076E-002   0.0000000000000000     
  -3.3883403451464449E-002   2.8546871525698299E-002   0.0000000000000000     
  -3.7147466408314601E-002   3.2573464313644204E-002   0.0000000000000000     
  -4.0323900780884381E-002   3.6822014692531796E-002   0.0000000000000000     
  -4.3412706569173842E-002   4.1292522662361074E-002   0.0000000000000000     
  -3.3843480599350585E-002   2.5767977473391282E-002   0.0000000000000000     
  -3.7415629772662544E-002   2.9567182372142675E-002   0.0000000000000000     
  -4.0893581900616725E-002   3.3580072702906368E-002   0.0000000000000000     
  -4.4277336983213123E-002   3.7806648465682366E-002   0.0000000000000000     
  -4.7566895020451742E-002   4.2246909660470656E-002   0.0000000000000000     
  -3.7391700676929443E-002   2.6853123599225998E-002   0.0000000000000000     
  -4.1181880280505873E-002   3.0659492425062919E-002   0.0000000000000000     
  -4.4870832668776568E-002   3.4663548055526856E-002   0.0000000000000000     
  -4.8458557841741509E-002   3.8865290490617807E-002   0.0000000000000000     
  -5.1945055799400716E-002   4.3264719730335778E-002   0.0000000000000000     
  -3.5776246649631263E-002   3.9574017881408519E-002   0.0000000000000000     
  -3.8384687550819821E-002   4.4270705906666256E-002   0.0000000000000000     
  -4.0934158433511954E-002   4.9146955519360269E-002   0.0000000000000000     
  -4.3424659297707675E-002   5.4202766719490550E-002   0.0000000000000000     
  -4.5856190143406972E-002   5.9438139507057099E-002   0.0000000000000000     
  -3.9482490445567016E-002   4.0401558736007023E-002   0.0000000000000000     
  -4.2291679749026902E-002   4.5089834515440255E-002   0.0000000000000000     
  -4.5032287069856687E-002   4.9951819442642938E-002   0.0000000000000000     
  -4.7704312408056344E-002   5.4987513517615091E-002   0.0000000000000000     
  -5.0307755763625908E-002   6.0196916740356710E-002   0.0000000000000000     
  -4.3412706569173842E-002   4.1292522662361074E-002   0.0000000000000000     
  -4.6416785343100689E-002   4.5960272198356224E-002   0.0000000000000000     
  -4.9339038672582658E-002   5.0800547275741466E-002   0.0000000000000000     
  -5.2179466557619777E-002   5.5813347894516786E-002   0.0000000000000000     
  -5.4938068998212033E-002   6.0998674054682213E-002   0.0000000000000000     
  -4.7566895020451742E-002   4.2246909660470656E-002   0.0000000000000000     
  -5.0760004333041134E-002   4.6882018955414155E-002   0.0000000000000000     
  -5.3854413241689873E-002   5.1693139018655812E-002   0.0000000000000000     
  -5.6850121746397954E-002   5.6680269850195635E-002   0.0000000000000000     
  -5.9747129847165355E-002   6.1843411450033581E-002   0.0000000000000000     
  -5.1945055799400716E-002   4.3264719730335778E-002   0.0000000000000000     
  -5.5321336718848292E-002   4.7855074786614084E-002   0.0000000000000000     
  -5.8578410777178333E-002   5.2629594671386025E-002   0.0000000000000000     
  -6.1716277974390867E-002   5.7588279384651601E-002   0.0000000000000000     
  -6.4734938310485879E-002   6.2731128926410834E-002   0.0000000000000000     
  -4.5856190143406972E-002   5.9438139507057099E-002   0.0000000000000000     
  -4.8220273143223705E-002   6.4865790796127865E-002   0.0000000000000000     
  -5.0508430469771742E-002   7.0498437500770797E-002   0.0000000000000000     
  -5.2720662123051071E-002   7.6336079620985875E-002   0.0000000000000000     
  -5.4856968103061704E-002   8.2378717156773126E-002   0.0000000000000000     
  -5.0307755763625908E-002   6.0196916740356710E-002   0.0000000000000000     
  -5.2837490599801022E-002   6.5595255410557038E-002   0.0000000000000000     
  -5.5288390379817406E-002   7.1197755827905315E-002   0.0000000000000000     
  -5.7660455103675026E-002   7.7004417992401583E-002   0.0000000000000000     
  -5.9953684771373902E-002   8.3015241904045772E-002   0.0000000000000000     
  -5.4938068998212033E-002   6.0998674054682213E-002   0.0000000000000000     
  -5.7617553653473187E-002   6.6371328324811601E-002   0.0000000000000000     
  -6.0220628182517034E-002   7.1946113273478843E-002   0.0000000000000000     
  -6.2747292585343548E-002   7.7723028900683930E-002   0.0000000000000000     
  -6.5197546861952740E-002   8.3702075206426890E-002   0.0000000000000000     
  -5.9747129847165355E-002   6.1843411450033581E-002   0.0000000000000000     
  -6.2560462304240214E-002   6.7194009538891528E-002   0.0000000000000000     
  -6.5305143877870633E-002   7.2743509837491324E-002   0.0000000000000000     
  -6.7981174568056649E-002   7.8491912345832998E-002   0.0000000000000000     
  -7.0588554374798232E-002   8.4439217063916494E-002   0.0000000000000000     
  -6.4734938310485879E-002   6.2731128926410834E-002   0.0000000000000000     
  -6.7666216552102088E-002   6.8063299052796858E-002   0.0000000000000000     
  -7.0541937465878238E-002   7.3589945519942829E-002   0.0000000000000000     
  -7.3362101051814330E-002   7.9311068327848733E-002   0.0000000000000000     
  -7.6126707309910349E-002   8.5226667476514584E-002   0.0000000000000000     
  -5.4856968103061704E-002   8.2378717156773126E-002   0.0000000000000000     
  -5.6913374334848763E-002   8.8613307366579519E-002   0.0000000000000000     
  -5.8885906743457339E-002   9.5026807508852035E-002   0.0000000000000000     
  -6.0774565328887482E-002  0.10161921758359069        0.0000000000000000     
  -6.2579350091139171E-002  0.10839053759079546        0.0000000000000000     
  -5.9953684771373902E-002   8.3015241904045772E-002   0.0000000000000000     
  -6.2161022031648465E-002   8.9220504300463424E-002   0.0000000000000000     
  -6.4275409533233130E-002   9.5610481919280024E-002   0.0000000000000000     
  -6.6296847276127932E-002  0.10218517476049560        0.0000000000000000     
  -6.8225335260332864E-002  0.10894458282411013        0.0000000000000000     
  -6.5197546861952740E-002   8.3702075206426890E-002   0.0000000000000000     
  -6.7558259780363339E-002   8.9876309337503568E-002   0.0000000000000000     
  -6.9816300108594104E-002   9.6238788440709905E-002   0.0000000000000000     
  -7.1971667846644993E-002  0.10278951251604587        0.0000000000000000     
  -7.4024362994516049E-002  0.10952848156351147        0.0000000000000000     
  -7.0588554374798232E-002   8.4439217063916494E-002   0.0000000000000000     
  -7.3105087580993405E-002   9.0580722477700007E-002   0.0000000000000000     
  -7.5508578469540191E-002   9.6911727073141649E-002   0.0000000000000000     
  -7.7799027040438645E-002  0.10343223085024149        0.0000000000000000     
  -7.9976433293688698E-002  0.11014223380899948        0.0000000000000000     
  -7.6126707309910349E-002   8.5226667476514584E-002   0.0000000000000000     
  -7.8801505433538629E-002   9.1333743721052685E-002   0.0000000000000000     
  -8.1352244616071462E-002   9.7629297816575325E-002   0.0000000000000000     
  -8.3778924857508874E-002  0.10411332976308246        0.0000000000000000     
  -8.6081546157850852E-002  0.11078583956057415        0.0000000000000000     
  -6.2579350091139171E-002  0.10839053759079546        0.0000000000000000     
  -6.4312504742716436E-002  0.11531468950809207        0.0000000000000000     
  -6.5986272996123349E-002  0.12236559531310623        0.0000000000000000     
  -6.7600654851359923E-002  0.12954325500583797        0.0000000000000000     
  -6.9155650308426145E-002  0.13684766858628722        0.0000000000000000     
  -6.8225335260332864E-002  0.10894458282411013        0.0000000000000000     
  -7.0072813265723288E-002  0.11585620060372384        0.0000000000000000     
  -7.1851221072174634E-002  0.12288752259293693        0.0000000000000000     
  -7.3560558679686944E-002  0.13003854879174948        0.0000000000000000     
  -7.5200826088260134E-002  0.13730927920016137        0.0000000000000000     
  -7.4024362994516049E-002  0.10952848156351147        0.0000000000000000     
  -7.5977127205119177E-002  0.11641763596052782        0.0000000000000000     
  -7.7832702131366435E-002  0.12341891608451597        0.0000000000000000     
  -7.9591087773257768E-002  0.13053232193547598        0.0000000000000000     
  -8.1252284130793190E-002  0.13775785351340786        0.0000000000000000     
  -7.9976433293688698E-002  0.11014223380899948        0.0000000000000000     
  -8.2025446560904158E-002  0.11699899557850398        0.0000000000000000     
  -8.3930716173698725E-002  0.12395977578784334        0.0000000000000000     
  -8.5692242132072452E-002  0.13102457443701762        0.0000000000000000     
  -8.7310024436025313E-002  0.13819339152602672        0.0000000000000000     
  -8.6081546157850852E-002  0.11078583956057415        0.0000000000000000     
  -8.8217771333078135E-002  0.11760027945765236        0.0000000000000000     
  -9.0145263199171516E-002  0.12451010170291904        0.0000000000000000     
  -9.1864021756130981E-002  0.13151530629637426        0.0000000000000000     
  -9.3374047003956517E-002  0.13861589323801793        0.0000000000000000     
  -6.9155650308426145E-002  0.13684766858628722        0.0000000000000000     
  -7.0571755167130115E-002  0.14418232940632514        0.0000000000000000     
  -7.1769465227279922E-002  0.15145073081782279        0.0000000000000000     
  -7.2748780488875606E-002  0.15865287282078019        0.0000000000000000     
  -7.3509700951917112E-002  0.16578875541519730        0.0000000000000000     
  -7.5200826088260134E-002  0.13730927920016137        0.0000000000000000     
  -7.6689070738578266E-002  0.14458542247897466        0.0000000000000000     
  -7.7942340071325431E-002  0.15175268728899136        0.0000000000000000     
  -7.8960634086501599E-002  0.15881107363021144        0.0000000000000000     
  -7.9743952784106759E-002  0.16576058150263495        0.0000000000000000     
  -8.1252284130793190E-002  0.13775785351340786        0.0000000000000000     
  -8.2729500680732079E-002  0.14495572285937949        0.0000000000000000     
  -8.3935946899833899E-002  0.15198614201445887        0.0000000000000000     
  -8.4871622788098580E-002  0.15884911097864596        0.0000000000000000     
  -8.5536528345526233E-002  0.16554462975194079        0.0000000000000000     
  -8.7310024436025313E-002  0.13819339152602672        0.0000000000000000     
  -8.8693044993591513E-002  0.14529323054753965        0.0000000000000000     
  -8.9750285712805258E-002  0.15215109499422530        0.0000000000000000     
  -9.0481746593666618E-002  0.15876698486608373        0.0000000000000000     
  -9.0887427636175508E-002  0.16514090016311483        0.0000000000000000     
  -9.3374047003956517E-002  0.13861589323801793        0.0000000000000000     
  -9.4579703677156582E-002  0.14559794554345512        0.0000000000000000     
  -9.5385356510239605E-002  0.15224754622829068        0.0000000000000000     
  -9.5791005503205615E-002  0.15856469529252468        0.0000000000000000     
  -9.5796650656054610E-002  0.16454939273615712        0.0000000000000000     
 </DataArray>
 <DataArray  type="Float64" Name="stress" NumberOfComponents="3" format="ascii">
   13420475364.433111        4026142609.3299336        2896399268.6409907     
   11765746140.437164        1892123554.6165175        1717046970.9996803     
   10308183041.932886        415324918.20865393        811550129.35283101     
   9047786068.9202690       -404253299.89366102        179908743.70044234     
   7984555221.3993187       -566611099.69042540       -177877185.95748511     
   10538218688.601379        3161465606.5804138        2228902715.8765311     
   9663148134.5633068        1589793435.1407285        1449269291.6981299     
   8936558124.2416744        513056409.42251253        865745492.27584803     
   8358448657.6364822       -68745470.574234486        478331317.60968548     
   7928819734.7477331       -155612204.84951115        287026767.69964075     
   8333003628.1335058        2499901088.4400520        1716132732.8475041     
   8015460797.6580439        1423936516.3555171        1279418336.7275836     
   7797712929.1237984        680621817.40837121        961067734.12544084     
   7679760022.5307665        269956991.59861374        761080925.04107440     
   7661602077.8789568        191942038.92624664        679457909.47448564     
   6804830183.0294971        2041449054.9088492        1358089319.5539095     
   6822684129.7213831        1394552798.2608864        1207494106.0880415     
   6891647456.5792589        918021142.16623163        1097516854.9016094     
   7011720163.6031284        611854086.62488556        1028157565.9946114     
   7182902250.7929916        476051631.63684773        999416239.36705017     
   5953698353.2893496        1786109505.9868050        1154772475.9957476     
   6084818130.7533188        1501642280.8568349        1233496599.7795043     
   6218361706.6080570        1225254383.6960926        1275092854.6043544     
   6354329080.8535633        956945814.50457811        1279561240.4702976     
   6492720253.4898376        696716573.28229165        1246901757.3773334     
   7984555221.3993187       -566611099.69042540       -177877185.95748511     
   7899796047.9747887       -198962022.96242666       -76720858.389211088     
   7773781984.8580503        31170754.791541100       -8299927.7455940433     
   7606513032.0490990        123787233.57147074        27385605.973366212     
   7397989189.5479393        78887413.377365589        30335742.767669518     
   7928819734.7477331       -155612204.84951115        287026767.69964075     
   7723334390.3799038        14893163.859207153        285661487.82953441     
   7494728301.9183025        108329385.58868504        269660021.39368695     
   7243001469.3629322        124696460.33892679        239022368.39210284     
   6968153892.7137909        63994388.109933376        193748528.82477808     
   7661602077.8789568        191942038.92624664        679457909.47448564     
   7387102592.1647358        180817308.49475002        596727525.36417782     
   7107616507.9551802        153070583.07881498        517460165.04704911     
   6823143825.2502937        108701862.67844081        441655828.52309889     
   6533684544.0500803        47711147.293632507        369314515.79232383     
   7182902250.7929916        476051631.63684773        999416239.36705017     
   6891100653.3292809        298810410.94420767        856477254.21472156     
   6612446602.9686794        165394347.26193190        735100503.21448827     
   6346940099.7111893        75803440.590018749        635285986.36635160     
   6094581143.5568056        30037690.928466082        557033703.67030883     
   6492720253.4898376        696716573.28229165        1246901757.3773334     
   6235328573.8735476        368872471.20758367        1064910674.3811640     
   6009218586.9588051        145300678.13803530        922581035.89600992     
   5814390292.7456112        26001194.073652029        819912841.92186546     
   5650843691.2339668        10974019.014427423        756906092.45873451     
   7397989189.5479393        78887413.377365589        30335742.767669518     
   7175890494.7256956       -13587391.397613049        16208955.312118975     
   6966363703.5179424       -64155850.790937901        7444155.0938247889     
   6769408815.9246836       -72817964.802623749        4041342.1127883992     
   6585025831.9459162       -39573733.432677269        6000516.3690138096     
   6968153892.7137909        63994388.109933376        193748528.82477808     
   6768859813.3815451        2541880.6314759254        189643717.09958306     
   6577247037.8499746       -33306280.844738007        190559938.36870596     
   6393315566.1190748       -43550096.318711758        196497192.63213784     
   6217065398.1888542       -28189565.790431738        207455479.88988444     
   6533684544.0500803        47711147.293632507        369314515.79232383     
   6356220925.2279911        16988690.617737055        369525980.01469916     
   6181548010.3927536       -4431419.4353113174        374417522.98844677     
   6009665799.5443707       -16549182.865518093        383989144.71355945     
   5840574292.6828461       -19364599.672873497        398240845.19003946     
   6094581143.5568056        30037690.928466082        557033703.67030883     
   5937973830.2650251        29753038.561178446        555855744.05746770     
   5779266621.1462803        22468733.437340260        559016908.95304871     
   5618459516.2005720        8184775.5569508076        566517198.35705042     
   5455552515.4278946       -13098835.079996109        578356612.26947713     
   5650843691.2339668        10974019.014427423        756906092.45873451     
   5514118528.4926548        40834924.461797714        748633009.22788405     
   5370402870.1105556        47394177.773214340        744358096.26251030     
   5219696716.0876722        30651778.948682308        744081353.56261349     
   5062000066.4240026       -9392272.0118012428        747802781.12819624     
   6585025831.9459162       -39573733.432677269        6000516.3690138096     
   6365674292.8673544       -7821619.2098443508        8897270.2421540990     
   6139683893.7234173        1800961.4617280960        28278114.712712362     
   5907054634.5141001       -10705991.417966604        64143049.780685075     
   5667786515.2394018       -45342477.848922491        116492075.44608408     
   6217065398.1888542       -28189565.790431738        207455479.88988444     
   6033312469.1697598       -9016743.9675664902        200004178.13188764     
   5845875897.6387329       -2122730.5178270340        206355245.60682893     
   5654755683.5957699       -7507525.4412014484        226508682.31469917     
   5459951827.0408726       -25171128.737702131        260464488.25551420     
   5840574292.6828461       -19364599.672873497        398240845.19003946     
   5684757912.6818466       -15069688.562393427        383889241.61325508     
   5528213107.7223558       -13202860.646890640        380658285.90492451     
   5370939877.8043718       -13764115.926363707        388547978.06505358     
   5212938222.9278936       -16753454.400820017        407558318.09363043     
   5455552515.4278946       -13098835.079996109        578356612.26947713     
   5320010623.4036140       -25980452.994313717        560552460.68625391     
   5186695523.9742842       -31439428.925462008        551187235.60700691     
   5055607217.1399012       -29475762.873450756        550260937.03172982     
   4926745702.9004736       -20089454.838268518        557773564.96043038     
   5062000066.4240026       -9392272.0118012428        747802781.12819624     
   4939070601.3350649       -41749037.263329506        729993835.35088670     
   4821323146.3945217       -56832435.353538036        717942094.71306872     
   4708757701.6023645       -54642466.282457590        711647559.21474230     
   4601374266.9586077       -35179130.050055981        711110228.85590780     
   5667786515.2394018       -45342477.848922491        116492075.44608408     
   5561082679.9832430       -45455030.528141737        178878461.80148235     
   5457559231.3064175       -34966294.609576464        229626168.51093969     
   5357216169.2089424       -13876270.093181610        268735195.57445031     
   5260053493.6907930        17815043.020974636        296205542.99201101     
   5459951827.0408726       -25171128.737702131        260464488.25551420     
   5327918571.1997242       -25916327.496341467        314376180.48848802     
   5198307787.0949564       -18586620.467042446        360588377.93573326     
   5071119474.7265730       -3182007.6498010159        399101080.59726894     
   4946353634.0945616        20297510.955353498        429914288.47308689     
   5212938222.9278936       -16753454.400820017        407558318.09363043     
   5066830360.3881359       -14754855.072955370        452111082.22070581     
   4922387054.7418022       -7207732.7670240402        492903536.42230183     
   4779608305.9888887        5887912.5169715881        529935680.69841015     
   4638494114.1293936        24532080.779035568        563207515.04903436     
   4926745702.9004736       -20089454.838268518        557773564.96043038     
   4777818047.5484896       -11970613.257986784        592083166.99816215     
   4629797034.2469616       -829631.50950789452        626571643.97064137     
   4482682662.9958935        13333490.407164812        661238995.87787259     
   4336474933.7952871        30518752.492044210        696085222.71985209     
   4601374266.9586077       -35179130.050055981        711110228.85590780     
   4460881632.6807680       -17563602.051447153        734292434.82084310     
   4320537725.6104307        547683.30549478531        761592700.58076298     
   4180342545.7475920        19154726.020765066        793011026.13565910     
   4040296093.0922527        38257526.094371319        828547411.48553753     
   5260053493.6907930        17815043.020974636        296205542.99201101     
   5020633454.9450922        13725470.222604990        317613999.89763552     
   4782580055.8106241        14191362.795014858        347396663.40295035     
   4545893296.2873898        19212720.738196850        385553533.50794828     
   4310573176.3753958        28789544.052193642        432084610.21262753     
   4946353634.0945616        20297510.955353498        429914288.47308689     
   4729101130.1788931        19593330.858599424        453882223.77026802     
   4511774923.9443254        18643476.365523815        485746657.86741024     
   4294375015.3908615        17447947.476119995        525507590.76452291     
   4076901404.5184922        16006744.190379858        573165022.46160507     
   4638494114.1293936        24532080.779035568        563207515.04903436     
   4442044265.6159992        26803829.555585861        588054529.81927228     
   4244080372.8535719        24028764.168696404        620320335.58975339     
   4044602435.8421144        16206884.618358135        660004932.36049533     
   3843610454.5816183        3338190.9045817852        707108320.13148379     
   4336474933.7952871        30518752.492044210        696085222.71985209     
   4159462861.2564101        35356966.313563585        720130918.04465175     
   3979496402.5383658        30347226.204530001        751117696.56998622     
   3796575557.6411524        15489532.164941311        789045558.29586220     
   3610700326.5647779       -9216115.8052065372        833914503.22226775     
   4040296093.0922527        38257526.094371319        828547411.48553753     
   3881356917.1001310        45252741.132535934        850111388.44641387     
   3718023012.9987097        37598862.473037481        878138740.80810642     
   3550294380.7879839        15295890.115853310        912629468.57062531     
   3378171020.4679561       -21656175.938995838        953583571.73395908     
   4310573176.3753958        28789544.052193642        432084610.21262753     
   3900099624.1959834       -3562451.4256742001        441454959.36300284     
   3495259791.2328300       -17135382.849357605        505624543.24844009     
   3096053677.4859304       -11929250.218865275        624593361.86892331     
   2702481282.9552870        12055946.465836883        798361415.22445953     
   4076901404.5184922        16006744.190379858        573165022.46160507     
   3797263997.3704333        3841441.9875087738        582239206.47562659     
   3522925593.6174707        9339484.4349591732        632498876.56140089     
   3253886193.2595892        32500871.532685399        723944032.71893752     
   2990145796.2968121        73325603.280747890        856574674.94821751     
   3843610454.5816183        3338190.9045817852        707108320.13148379     
   3655912767.7126222       -309345.44899463654        715495837.21779978     
   3473179368.4175653        12590743.443898201        751455091.71256697     
   3295410256.6964316        42038457.583197594        814986083.61579061     
   3122605432.5492339        88033796.968951583        906088812.92747486     
   3610700326.5647779       -9216115.8052065372        833914503.22226775     
   3476045935.2225642       -16014813.735148191        841224851.58951616     
   3346021115.6331253       -7381605.8225133419        862493188.70191908     
   3220625867.7964487        16683507.932665586        897719514.55947757     
   3099860191.7125421        56180527.530409217        946903829.16219652     
   3378171020.4679561       -21656175.938995838        953583571.73395908     
   3257663499.9002457       -43274962.870989561        959426249.59078562     
   3141450835.2641387       -50577563.364298344        965613167.52946484     
   3029533026.5596361       -43563977.418932796        972144325.55000448     
   2921910073.7867441       -22234205.034858108        979019723.65240192     
   2702481282.9552870        12055946.465836883        798361415.22445953     
   1939324817.2747753        28225637.575070024        714543231.66505551     
   1238486093.3249559        252121134.45328957        692631201.12929475     
   599965111.10581839        683742437.10040927        732625323.61716783     
   23761870.617351413        1323089545.5164979        834525599.12868309     
   2990145796.2968121        73325603.280747890        856574674.94821751     
   2371088673.2674398        94792825.284626126        778154020.33303452     
   1804251782.9369042        290327489.61795825        747450353.75786304     
   1289635125.3052049        659929596.28074598        764463675.22271538     
   827238700.37235403        1203599145.2730279        829193984.72756767     
   3122605432.5492339        88033796.968951583        906088812.92747486     
   2607107180.7892056        102636408.45290267        821285260.05268776     
   2133731652.6961799        257648098.82686442        770009530.23428893     
   1702478848.2701507        553068868.09079361        752261623.47227871     
   1313348767.5111048        988898716.24469566        768041539.76665413     
   3099860191.7125421        56180527.530409217        946903829.16219652     
   2647380339.8400784        51756387.079929471        843936950.82399070     
   2226925702.6027575        154082962.07994819        760308730.55855453     
   1838496280.0005922        363160252.53045511        696019168.36586237     
   1482092072.0335681        678988258.43147063        651068264.24594796     
   2921910073.7867441       -22234205.034858108        979019723.65240192     
   2491908150.4200482       -57847238.834314466        846109092.64696145     
   2083833932.6566472       -20367920.622781038        718347954.73065639     
   1697687420.4965591        90203749.599797547        595736309.90347970     
   1333468613.9397678        273867771.83336645        478274158.16544217     
   5953698353.2893496        1786109505.9868050        1154772475.9957476     
   6084818130.7533188        1501642280.8568349        1233496599.7795043     
   6218361706.6080570        1225254383.6960926        1275092854.6043544     
   6354329080.8535633        956945814.50457811        1279561240.4702976     
   6492720253.4898376        696716573.28229165        1246901757.3773334     
   5432935504.6552849        1629880651.3965855        1038305794.0027544     
   5489090491.8550482        1371604960.0940824        1119174258.1882956     
   5547240186.5092974        1119978293.6398683        1173461167.9385533     
   5607384588.6180334        875000652.03394413        1201166523.2535284     
   5669523698.1812572        636672035.27630997        1202290324.1332204     
   4895869002.8695250        1468760700.8608575        940812865.40466750     
   4907191527.0154352        1245716241.5489268        1023325063.8996640     
   4920079667.6795502        1027890503.9643477        1089802022.4830012     
   4934533424.8618689        815283488.10711980        1140243741.1546795     
   4950552798.5623960        607895193.97724390        1174650219.9146996     
   4342498847.9320688        1302749654.3796206        862293690.20148635     
   4339121236.2344790        1123976125.2213688        945949016.91361022     
   4336880150.1188145        948991014.66953087        1024115418.2376987     
   4335775589.5850735        777794322.72410583        1096792894.1737521     
   4335807554.6332569        610386049.38509429        1163981444.7217708     
   3772825039.8429155        1131847511.9528747        802748268.39321136     
   3784879619.5121822        1006384611.1114082        887046117.23013413     
   3797641633.8270912        883279825.75541711        976401355.20264518     
   3811111082.7876430        762533155.88490152        1070813982.3107460     
   3825287966.3938375        644144601.49986064        1170283998.5544350     
   6492720253.4898376        696716573.28229165        1246901757.3773334     
   6235328573.8735476        368872471.20758367        1064910674.3811640     
   6009218586.9588051        145300678.13803530        922581035.89600992     
   5814390292.7456112        26001194.073652029        819912841.92186546     
   5650843691.2339668        10974019.014427423        756906092.45873451     
   5669523698.1812572        636672035.27630997        1202290324.1332204     
   5520694119.6377325        375008433.97703218        1083686840.3566313     
   5396214199.7212915        194510361.43469834        993658797.33067369     
   5296083938.4319344        95177817.649310112        932206195.05534875     
   5220303335.7696581        77010802.620861530        899329033.53065538     
   4950552798.5623960        607895193.97724390        1174650219.9146996     
   4878611024.6334076        402909804.51592898        1111346962.2708139     
   4824086875.2570362        255983163.56333876        1065533141.6171799     
   4786980350.4332829        167115271.11947536        1037208757.9537950     
   4767291450.1621466        136306127.18433595        1026373811.2806612     
   4335807554.6332569        610386049.38509429        1163981444.7217708     
   4309079288.8605700        452576582.82427120        1147891040.1237130     
   4292836613.5660377        329719084.52395594        1138204068.7555244     
   4287079528.7496552        241813554.48414779        1134920530.6172054     
   4291808034.4114265        188859992.70484734        1138040425.7087560     
   3825287966.3938375        644144601.49986064        1170283998.5544350     
   3812098912.3192225        524008768.90206039        1193319073.9153285     
   3802463414.6482949        415718124.31654906        1211671578.7457099     
   3796381473.3810530        319272667.74332845        1225341513.0455797     
   3793853088.5174999        234672399.18239605        1234328876.8149362     
   5650843691.2339668        10974019.014427423        756906092.45873451     
   5514118528.4926548        40834924.461797714        748633009.22788405     
   5370402870.1105556        47394177.773214340        744358096.26251030     
   5219696716.0876722        30651778.948682308        744081353.56261349     
   5062000066.4240026       -9392272.0118012428        747802781.12819624     
   5220303335.7696581        77010802.620861530        899329033.53065538     
   5085942307.1040850        73251480.751220226        878000227.53203917     
   4948318534.7299709        58616346.519786358        862250329.93782234     
   4807432018.6473198        33105399.926558256        852079340.74801111     
   4663282758.8561296       -3281359.0284621716        847487259.96259403     
   4767291450.1621466        136306127.18433595        1026373811.2806612     
   4639810950.2549467        100281496.40247560        996338326.43523455     
   4512795458.5714569        65806893.032978535        973462488.13313401     
   4386244975.1116753        32882317.075847626        957746296.37435496     
   4260159499.8756051        1507768.5310819149        949189751.15890193     
   4291808034.4114265        188859992.70484734        1138040425.7087560     
   4175724457.9452438        121924971.41555953        1103647305.9374740     
   4063833641.6350141        68965817.312794447        1077994570.8484409     
   3956135585.4807434        29982530.396550655        1061082220.4416554     
   3852630289.4824290        4975110.6668303013        1052910254.7171165     
   3793853088.5174999        234672399.18239605        1234328876.8149362     
   3693682830.1749697        138181905.79047346        1199927166.0387547     
   3601433083.9206424        68093119.359228849        1175846578.0837462     
   3517103849.7545209        24406039.888666391        1162087112.9499078     
   3440695127.6766024        7120667.3787834644        1158648770.6372397     
   5062000066.4240026       -9392272.0118012428        747802781.12819624     
   4939070601.3350649       -41749037.263329506        729993835.35088670     
   4821323146.3945217       -56832435.353538036        717942094.71306872     
   4708757701.6023645       -54642466.282457590        711647559.21474230     
   4601374266.9586077       -35179130.050055981        711110228.85590780     
   4663282758.8561296       -3281359.0284621716        847487259.96259403     
   4556764683.0904827       -26687145.068560123        833235022.18603110     
   4454624703.3678322       -35499277.632007837        823784114.31602657     
   4356862819.6881771       -29717756.718806267        819134536.35257530     
   4263479032.0515137       -9342582.3289542198        819286288.29568517     
   4260159499.8756051        1507768.5310819149        949189751.15890193     
   4167321741.3391490       -13766359.925818920        937556321.59345603     
   4078058164.7402940       -17126548.590723515        929768346.70163000     
   3992368770.0790315       -8572797.4636433125        925825826.48342693     
   3910253557.3553691        11894893.455433369        925728760.93884528     
   3852630289.4824290        4975110.6668303013        1052910254.7171165     
   3770741776.0810642       -2986681.8351020813        1042957733.5731565     
   3691623530.5118976       -1714248.2296996117        1035894791.8698823     
   3615275552.7749314        8792411.4830315113        1031721429.6072950     
   3541697842.8701663        28533297.303100824        1030437646.7853924     
   3440695127.6766024        7120667.3787834644        1158648770.6372397     
   3367024787.3162251        5651889.2035899162        1149439258.1251345     
   3295320800.6826525        10737623.451071501        1142163449.8207819     
   3225583167.7758784        22377870.121222854        1136821345.7241771     
   3157811888.5959110        40572629.214056373        1133412945.8353252     
   4601374266.9586077       -35179130.050055981        711110228.85590780     
   4460881632.6807680       -17563602.051447153        734292434.82084310     
   4320537725.6104307        547683.30549478531        761592700.58076298     
   4180342545.7475920        19154726.020765066        793011026.13565910     
   4040296093.0922527        38257526.094371319        828547411.48553753     
   4263479032.0515137       -9342582.3289542198        819286288.29568517     
   4133485831.0284772        6634122.7728297710        837277501.35402572     
   4003455866.7500291        22488283.689917088        859605331.63573658     
   3873389139.2161765        38219900.422325850        886269779.14080632     
   3743285648.4269185        53828972.970045567        917270843.86923623     
   3910253557.3553691        11894893.455433369        925728760.93884528     
   3791384239.3825040        26420110.598996878        938312575.55054355     
   3672292667.6913228        40204482.014853001        955451564.81398511     
   3552978842.2818346        53248007.703009844        977145728.72916937     
   3433442763.1540341        65550687.663456678        1003395067.2961020     
   3541697842.8701663        28533297.303100824        1030437646.7853924     
   3434576857.7428493        41794361.427060604        1037397657.4103839     
   3327048128.4343171        53696278.280302882        1049131400.1155049     
   3219111654.9445658        64239047.862811685        1065638874.9007516     
   3110767437.2735991        73422670.174604893        1086920081.7661202     
   3157811888.5959110        40572629.214056373        1133412945.8353252     
   3063063686.1095190        52756875.257024646        1134532746.9335594     
   2967722248.9790034        62963672.486249804        1140644837.5403023     
   2871787577.2043676        71193020.901739597        1151749217.6555500     
   2775259670.7856088        77444920.503479838        1167845887.2793088     
   4040296093.0922527        38257526.094371319        828547411.48553753     
   3881356917.1001310        45252741.132535934        850111388.44641387     
   3718023012.9987097        37598862.473037481        878138740.80810642     
   3550294380.7879839        15295890.115853310        912629468.57062531     
   3378171020.4679561       -21656175.938995838        953583571.73395908     
   3743285648.4269185        53828972.970045567        917270843.86923623     
   3600146426.1078057        59865253.060221195        929347776.26680577     
   3453310732.0999804        53579960.854700327        947336436.46155751     
   3302778566.4034328        34973096.353444099        971236824.45349443     
   3148549929.0181742        4044659.5564725399        1001048940.2426100     
   3433442763.1540341        65550687.663456678        1003395067.2961020     
   3304527358.4975319        70155192.002528310        1006799587.6210520     
   3172613738.5729070        64765645.447853804        1015564188.1395458     
   3037701903.3801508        49382047.999409318        1029688868.8515860     
   2899791852.9192719        24004399.657214880        1049173629.7571714     
   3110767437.2735991        73422670.174604893        1086920081.7661202     
   2994499714.2693157        76122557.959449649        1082466822.5091398     
   2875932032.4174981        71155916.252504587        1082821995.8420618     
   2755064391.7181392        58522745.053765655        1087985601.7648947     
   2631896792.1712408        38223044.363218546        1097957640.2776330     
   2775259670.7856088        77444920.503479838        1167845887.2793088     
   2670063493.4231534        77767350.930988669        1156349480.9310730     
   2563265613.6337500        72750773.268665314        1149109859.5691135     
   2454866031.4173903        62395187.516485929        1146127023.1934183     
   2344864746.7740779        46700593.674472451        1147400971.8039930     
   3378171020.4679561       -21656175.938995838        953583571.73395908     
   3257663499.9002457       -43274962.870989561        959426249.59078562     
   3141450835.2641387       -50577563.364298344        965613167.52946484     
   3029533026.5596361       -43563977.418932796        972144325.55000448     
   2921910073.7867441       -22234205.034858108        979019723.65240192     
   3148549929.0181742        4044659.5564725399        1001048940.2426100     
   3030247841.0380874       -16974492.149694204        1004955988.2031822     
   2915069468.8802772       -27581257.781594515        1010076905.3279580     
   2803014812.5447407       -27775637.339243293        1016411691.6169287     
   2694083872.0314960       -17557630.822601557        1023960347.0700998     
   2899791852.9192719        24004399.657214880        1049173629.7571714     
   2786179852.0477839        4330279.5331596136        1049778717.6939385     
   2674520426.8892498       -8835254.8810467720        1052467303.8772535     
   2564813577.4436731       -15492203.585402131        1057239388.3071115     
   2457059303.7110476       -15640566.579908609        1064094970.9835118     
   2631896792.1712408        38223044.363218546        1097957640.2776330     
   2525459532.9293404        20639352.177575350        1093894438.0630505     
   2419803709.2910671        5660445.3373575211        1092784363.1773622     
   2314929321.2564273       -6713676.1574143171        1094627415.6205645     
   2210836368.8254118       -16483012.306773424        1099423595.3926470     
   2344864746.7740779        46700593.674472451        1147400971.8039930     
   2248086883.6827497        31952725.783537030        1137303149.3105166     
   2150919316.0857220        15905842.873611569        1131028083.2282805     
   2053362043.9829988       -1440055.0552952290        1128575773.5572724     
   1955415067.3745809       -20084968.003190160        1129946220.2975020     
   2921910073.7867441       -22234205.034858108        979019723.65240192     
   2491908150.4200482       -57847238.834314466        846109092.64696145     
   2083833932.6566472       -20367920.622781038        718347954.73065639     
   1697687420.4965591        90203749.599797547        595736309.90347970     
   1333468613.9397678        273867771.83336645        478274158.16544217     
   2694083872.0314960       -17557630.822601557        1023960347.0700998     
   2275613744.7658753       -76729957.191768527        909830945.25968349     
   1869495565.2867188       -94729124.272716999        804859422.56935346     
   1475729333.5940232       -71555132.065481365        709045778.99911475     
   1094315049.6877744       -7207980.5700662136        622390014.54897571     
   2457059303.7110476       -15640566.579908609        1064094970.9835118     
   2061573504.0635405       -94936426.063650966        957575080.91513276     
   1668863894.3856392       -164978318.98201501        864221455.99779749     
   1278930474.6773491       -225766245.33500695        784034096.23150826     
   891773244.93868029       -277300205.12262243        717013001.61627555     
   2210836368.8254118       -16483012.306773424        1099423595.3926470     
   1849787428.3130255       -112466645.44998431        989341499.61331952     
   1481938919.9534039       -231115504.75064784        896434055.01599193     
   1107290843.7465508       -372429590.20876384        820701261.60066581     
   725843199.69246149       -536408901.82431597        762143119.36734474     
   1955415067.3745809       -20084968.003190160        1129946220.2975020     
   1640255517.5143399       -129320615.35078549        1005130201.3542284     
   1308720641.9900157       -293140681.57864171        901497219.62391841     
   960810440.80161428       -511545166.68675590        819047275.10657668     
   596524913.94913411       -784534070.67514884        757780367.80218720     
   3772825039.8429155        1131847511.9528747        802748268.39321136     
   3784879619.5121822        1006384611.1114082        887046117.23013413     
   3797641633.8270912        883279825.75541711        976401355.20264518     
   3811111082.7876430        762533155.88490152        1070813982.3107460     
   3825287966.3938375        644144601.49986064        1170283998.5544350     
   3213781060.7956328        964134318.23868978        757292525.49074841     
   3243341348.3544979        866496183.80106819        853504238.59130192     
   3272711366.7481260        768223818.81265330        951703391.76276302     
   3301891115.9765153        669317223.27344537        1051889985.0051323     
   3330880596.0396667        569776397.18344331        1154064018.3184083     
   2692300392.9837847        807690117.89513540        721042387.00500357     
   2730595105.3903022        735245364.94877470        828120643.25649405     
   2767801844.8207026        659174035.41535223        934116390.51421082     
   2803920611.2749829        579476129.29486787        1039029628.7781543     
   2838951404.7531452        496151646.58732182        1142860358.0483243     
   2208383036.4073706        662514910.92221117        693997852.93597686     
   2246640890.6195955        612632154.55452776        810895331.22571027     
   2282913068.0448213        556130475.56351388        923640351.45698905     
   2317199568.6830478        493009873.94916952        1032232913.6298131     
   2349500392.5342755        423270349.71149552        1136673017.7441828     
   1762028991.0663915        528608697.31991738        676158923.28366852     
   1791478704.0423768        498656552.61832720        801828302.49895072     
   1818045036.4204824        459093139.25713807        920275274.59109712     
   1841727988.2007084        409918457.23635012        1031499839.5601078     
   1862527559.3830547        351132506.55596292        1135501997.4059830     
   3825287966.3938375        644144601.49986064        1170283998.5544350     
   3812098912.3192225        524008768.90206039        1193319073.9153285     
   3802463414.6482949        415718124.31654906        1211671578.7457099     
   3796381473.3810530        319272667.74332845        1225341513.0455797     
   3793853088.5174999        234672399.18239605        1234328876.8149362     
   3330880596.0396667        569776397.18344331        1154064018.3184083     
   3310949071.2449493        460610083.01489031        1182916574.0281584     
   3294538022.2388601        363178688.14176285        1208733757.0000546     
   3281647449.0213990        277482212.56405997        1231515567.2340963     
   3272277351.5925655        203520656.28178370        1251262004.7302835     
   2838951404.7531452        496151646.58732182        1142860358.0483243     
   2816983688.6459198        399366734.67029220        1177491800.0560284     
   2798503367.7122631        314206473.33182466        1210735067.1185369     
   2783510441.9521761        240670862.57192051        1242590159.2358482     
   2772004911.3656564        178759902.39057851        1273057076.4079633     
   2349500392.5342755        423270349.71149552        1136673017.7441828     
   2330202764.5221343        340278723.86826718        1177044751.9989393     
   2314359451.0685029        268801479.88673908        1217675509.1011567     
   2301970452.1733818        208838617.76690972        1258565289.0508361     
   2293035767.8367701        160390137.50878084        1299714091.8479769     
   1862527559.3830547        351132506.55596292        1135501997.4059830     
   1850606298.8735921        283346050.60881609        1181575429.8568895     
   1842106272.3075809        226963707.80650538        1229555082.9479151     
   1837027479.6850193        181985478.14902854        1279440956.6790600     
   1835369921.0059094        148411361.63638961        1331233051.0503237     
   3793853088.5174999        234672399.18239605        1234328876.8149362     
   3693682830.1749697        138181905.79047346        1199927166.0387547     
   3601433083.9206424        68093119.359228849        1175846578.0837462     
   3517103849.7545209        24406039.888666391        1162087112.9499078     
   3440695127.6766024        7120667.3787834644        1158648770.6372397     
   3272277351.5925655        203520656.28178370        1251262004.7302835     
   3201438713.0700703        125988673.90906990        1231375167.7232485     
   3136884084.1903729        69403390.345676064        1219354951.3675594     
   3078613464.9534702        33764805.591604590        1215201355.6632164     
   3026626855.3593655        19072919.646854520        1218914380.6102204     
   2772004911.3656564        178759902.39057851        1273057076.4079633     
   2723485029.3208399        118082572.03436673        1265775860.3170986     
   2679612654.4734130        72896932.336118937        1263906762.7077558     
   2640387786.8233733        43202983.295831561        1267449783.5799341     
   2605810426.3707237        29000724.913508892        1276404922.9336336     
   2293035767.8367701        160390137.50878084        1299714091.8479769     
   2259821778.9272752        114463600.16636395        1303129243.8203077     
   2229618794.7697611        78573745.330550313        1309502012.1043346     
   2202426815.3642302        52720573.001346350        1318832396.7000582     
   2178245840.7106771        36904083.178739667        1331120397.6074774     
   1835369921.0059094        148411361.63638961        1331233051.0503237     
   1810448961.8893774        115131758.30506015        1343435318.2328746     
   1786902505.0794201        86433829.328978837        1356140699.5572965     
   1764730550.5760355        62317574.708138287        1369349195.0235882     
   1743933098.3792257        42782994.442549586        1383060804.6317527     
   3440695127.6766024        7120667.3787834644        1158648770.6372397     
   3367024787.3162251        5651889.2035899162        1149439258.1251345     
   3295320800.6826525        10737623.451071501        1142163449.8207819     
   3225583167.7758784        22377870.121222854        1136821345.7241771     
   3157811888.5959110        40572629.214056373        1133412945.8353252     
   3026626855.3593655        19072919.646854520        1218914380.6102204     
   2957454009.0995502        12725198.074928284        1210375758.1654472     
   2890898275.4205880        15101185.105845213        1204488952.3741403     
   2826959654.3224792        26200880.739608884        1201253963.2362962     
   2765638145.8052220        46024284.976211786        1200670790.7519197     
   2605810426.3707237        29000724.913508892        1276404922.9336336     
   2543186824.0563684        18389584.898321033        1269296409.2192500     
   2483831093.1769161        18671349.666143417        1265557824.6040475     
   2427743233.7323685        29846019.216978908        1265189169.0880253     
   2374923245.7227249        51913593.550828099        1268190442.6711814     
   2178245840.7106771        36904083.178739667        1331120397.6074774     
   2124223232.1866820        22645049.673759222        1326201211.2865441     
   2074119253.9516370        21448117.131951094        1325370066.5105057     
   2027933906.0055513        33313285.553339124        1328626963.2793643     
   1985667188.3484170        58240554.937898040        1335971901.5931144     
   1743933098.3792257        42782994.442549586        1383060804.6317527     
   1700563233.4904876        25491592.401245415        1381090164.3673286     
   1661762757.7447536        23431487.503288150        1383925678.0935144     
   1627531671.1420252        36602679.748682618        1391567345.8103096     
   1597869973.6823018        65005169.137430489        1404015167.5177124     
   3157811888.5959110        40572629.214056373        1133412945.8353252     
   3063063686.1095190        52756875.257024646        1134532746.9335594     
   2967722248.9790034        62963672.486249804        1140644837.5403023     
   2871787577.2043676        71193020.901739597        1151749217.6555500     
   2775259670.7856088        77444920.503479838        1167845887.2793088     
   2765638145.8052220        46024284.976211786        1200670790.7519197     
   2684818745.3127871        62459276.119272351        1201249476.6504331     
   2603004839.6014776        75579249.866082907        1206569394.9357696     
   2520196428.6713009        85384206.216665626        1216630545.6079309     
   2436393512.5222483        91874145.171002507        1231432928.6669118     
   2374923245.7227249        51913593.550828099        1268190442.6711814     
   2307315341.1622920        72384137.975389361        1267759864.3660996     
   2238311660.8082380        88202096.421207309        1271819461.3261571     
   2167912204.6605639        99367468.888294101        1280369233.5513556     
   2096116972.7192698        105880255.37664306        1293409181.0416944     
   1985667188.3484170        58240554.937898040        1335971901.5931144     
   1930553473.6580346        82531460.825371861        1334063910.0805619     
   1873642712.5992835        100832212.15161622        1336395036.7114639     
   1814934905.1721590        113142808.91661710        1342965281.4858248     
   1754430051.3766656        119463251.12038922        1353774644.4036403     
   1597869973.6823018        65005169.137430489        1404015167.5177124     
   1554533142.8000178        92901244.669239044        1400161613.7938159     
   1508997994.9746130        113469597.05730814        1400296121.0916927     
   1461264530.2060869        126710226.30164695        1404418689.4113424     
   1411332748.4944444        132623132.40225691        1412529318.7527621     
   2775259670.7856088        77444920.503479838        1167845887.2793088     
   2670063493.4231534        77767350.930988669        1156349480.9310730     
   2563265613.6337500        72750773.268665314        1149109859.5691135     
   2454866031.4173903        62395187.516485929        1146127023.1934183     
   2344864746.7740779        46700593.674472451        1147400971.8039930     
   2436393512.5222483        91874145.171002507        1231432928.6669118     
   2342491480.0664997        91559753.863153934        1217797519.2902944     
   2247095208.6295128        86264565.951180220        1208740087.5638003     
   2150204698.2112770        75988581.435042024        1204260633.4874351     
   2051819948.8118033        60731800.314778686        1204359157.0611906     
   2096116972.7192698        105880255.37664306        1293409181.0416944     
   2014426778.4955335        105204350.33103824        1277760142.6566823     
   1931349808.7362609        99905860.166991115        1267010274.5856504     
   1846886063.4414563        89984784.884492338        1261159576.8286004     
   1761035542.6111195        75441124.483558714        1260208049.3855319     
   1754430051.3766656        119463251.12038922        1353774644.4036403     
   1685869388.7102444        118701140.33462590        1336237351.0302298     
   1616029413.9539919        113674655.91609663        1323920420.6346583     
   1544910127.1079214        104383797.86483508        1316823853.2169225     
   1472511528.1720223        90828566.180814743        1314947648.7770238     
   1411332748.4944444        132623132.40225691        1412529318.7527621     
   1356819310.7106340        132050123.87390053        1393229144.4109509     
   1301134024.2827091        127570953.19849890        1379470525.7108269     
   1244276889.2106688        119185620.37604433        1371253462.6523974     
   1186247905.4945171        106894125.40655178        1368577955.2356622     
   2344864746.7740779        46700593.674472451        1147400971.8039930     
   2248086883.6827497        31952725.783537030        1137303149.3105166     
   2150919316.0857220        15905842.873611569        1131028083.2282805     
   2053362043.9829988       -1440055.0552952290        1128575773.5572724     
   1955415067.3745809       -20084968.003190160        1129946220.2975020     
   2051819948.8118033        60731800.314778686        1204359157.0611906     
   1965118226.6638789        45336409.971494198        1194422827.1583755     
   1877508424.3333669        26914085.686243296        1188564046.7513421     
   1788990541.8202660        5464827.4590362310        1186782815.8400812     
   1699564579.1245759       -19011364.710135221        1189079134.4245946     
   1761035542.6111195        75441124.483558714        1260208049.3855319     
   1685137941.6481502        59616605.760390460        1249828440.4503403     
   1607813884.8256955        39037234.172274411        1243781174.0954661     
   1529063372.1437638        13703009.719227016        1242066250.3209107     
   1448886403.6023462       -16386067.598761201        1244683669.1266677     
   1472511528.1720223        90828566.180814743        1314947648.7770238     
   1408146028.6355569        74793313.150229037        1303519989.1864059     
   1341835697.5627177        52275288.331719816        1296679465.2606566     
   1273580534.9535000        23274491.725290954        1294426076.9997602     
   1203380540.8079109       -12209076.669048786        1296759824.4037225     
   1186247905.4945171        106894125.40655178        1368577955.2356622     
   1134142487.6261058        90866532.141010284        1355497473.3665848     
   1079573862.5444226        66628248.164561749        1347258920.2469063     
   1022542030.2494736        34179273.477229118        1343862295.8766301     
   963046990.74125814       -6480391.9209949374        1345307600.2557542     
   1955415067.3745809       -20084968.003190160        1129946220.2975020     
   1640255517.5143399       -129320615.35078549        1005130201.3542284     
   1308720641.9900157       -293140681.57864171        901497219.62391841     
   960810440.80161428       -511545166.68675590        819047275.10657668     
   596524913.94913411       -784534070.67514884        757780367.80218720     
   1699564579.1245759       -19011364.710135221        1189079134.4245946     
   1438982520.3671043       -117983284.08256519        1046771471.8302376     
   1164045531.8682370       -264804969.25965601        922894904.87692893     
   874753613.62797463       -459476420.24140298        817449433.56468761     
   571106765.64630353       -701997637.02782059        730435057.89349961     
   1448886403.6023462       -16386067.598761201        1244683669.1266677     
   1235019145.7422121       -107453066.05764365        1087241491.4576802     
   1008817354.0633599       -239635177.24559563        945478467.85784590     
   770281028.56579018       -412932401.16260320        819394598.32715619     
   519410169.24949503       -627344737.80869234        708989882.86562979     
   1203380540.8079109       -12209076.669048786        1296759824.4037225     
   1028365393.6396687       -97729961.276019812        1126540260.2365603     
   843036108.57538462       -217631305.53646690        969247908.56664884     
   647392685.61506796       -371913109.45036668        824882769.39399004     
   441435124.75869608       -560575373.01775455        693444842.71856654     
   963046990.74125814       -6480391.9209949374        1345307600.2557542     
   819021264.05946636       -88813969.737693787        1164667778.1668856     
   666701795.40431261       -198793354.13226378        994203227.00335324     
   506088584.77579999       -336418545.10469639        833913946.76516926     
   337181632.17392021       -501689542.65501654        683799937.45232034     
   1762028991.0663915        528608697.31991738        676158923.28366852     
   1791478704.0423768        498656552.61832720        801828302.49895072     
   1818045036.4204824        459093139.25713807        920275274.59109712     
   1841727988.2007084        409918457.23635012        1031499839.5601078     
   1862527559.3830547        351132506.55596292        1135501997.4059830     
   1331222886.8325992        399366866.04977977        664577311.77016318     
   1345752957.7539341        374635593.38016212        785921314.74566424     
   1358120493.2268784        342695869.21590853        901806260.48719168     
   1368325493.2514322        303547693.55701923        1012232148.9947455     
   1376367957.8275948        257191066.40349388        1117198980.2683256     
   893949353.57774651        268184806.07332394        656304732.11754632     
   898597924.98489439        250185848.19781780        774164344.86100316     
   901804806.09314084        227381255.99263892        888328250.25964868     
   903569996.90248501        199771029.45778680        998796448.31348264     
   903893497.41292775        167355168.59326208        1105568939.0225053     
   450208391.30183339        135062517.39055002        651341184.32581758     
   450013605.73525774        125307317.07129437        766557392.84496725     
   449097975.01926923        113149299.58732885        879841243.90846801     
   447461499.15386772        98588464.938653648        991192737.51631916     
   445104178.13905311        81624813.125268072        1100611873.6685214     
   4.8598945380827164E-003   1.4579683614248150E-003   649686668.39497721     
   5.0239460028031688E-003   5.9187430597654818E-004   763100458.69755685     
   5.2638725567022669E-003  -2.0912472760807382E-005   876345241.43364966     
   5.5796270191140421E-003  -3.8113471284695203E-004   989421016.60325515     
   5.9715453735688694E-003  -4.8765078513718797E-004   1102327784.2063739     
   1862527559.3830547        351132506.55596292        1135501997.4059830     
   1850606298.8735921        283346050.60881609        1181575429.8568895     
   1842106272.3075809        226963707.80650538        1229555082.9479151     
   1837027479.6850193        181985478.14902854        1279440956.6790600     
   1835369921.0059094        148411361.63638961        1331233051.0503237     
   1376367957.8275948        257191066.40349388        1117198980.2683256     
   1373245564.1485147        208096789.95403323        1170875890.7371120     
   1372689095.9270370        167555598.36324859        1225101359.7819917     
   1374698553.1631622        135567491.63113827        1279875387.4029646     
   1379273935.8568890        112132469.75770235        1335197973.6000316     
   903893497.41292775        167355168.59326208        1105568939.0225053     
   905690936.09558570        135789361.30089459        1165851467.6090143     
   909198991.74999857        109925610.58104303        1225324892.7075920     
   914417664.37616551        89763916.433705091        1283989214.3182373     
   921346953.97408712        75304278.858882546        1341844432.4409509     
   445104178.13905311        81624813.125268072        1100611873.6685214     
   447942414.71480590        66423764.649401098        1166502160.4725969     
   451635959.77646512        54073744.459888995        1230225681.7247159     
   456184813.32403028        44574752.556730047        1291782437.4248781     
   461588975.35750204        37926788.939926848        1351172427.5730824     
   5.9715453735688694E-003  -4.8765078513718797E-004   1102327784.2063739     
   6.1749026221917013E-003  -4.4808479271341147E-004   1172827969.3278606     
   6.4369240249350958E-003  -2.1327519649606136E-004   1239803726.8333650     
   6.7569168838396178E-003   2.1492437522919842E-004   1303255056.7228868     
   7.1349290944298120E-003   8.3652178590669715E-004   1363181958.9964261     
   1835369921.0059094        148411361.63638961        1331233051.0503237     
   1810448961.8893774        115131758.30506015        1343435318.2328746     
   1786902505.0794201        86433829.328978837        1356140699.5572965     
   1764730550.5760355        62317574.708138287        1369349195.0235882     
   1743933098.3792257        42782994.442549586        1383060804.6317527     
   1379273935.8568890        112132469.75770235        1335197973.6000316     
   1358583623.5851328        86572889.379084170        1348395815.5394113     
   1338924188.0433309        64449564.766977608        1362563343.3053527     
   1320295629.2314827        45762495.921386480        1377700556.8978565     
   1302697947.1495881        30511682.842304885        1393807456.3169212     
   921346953.97408712        75304278.858882546        1341844432.4409509     
   906220350.50336552        57864640.019851625        1355636952.6311042     
   891780998.18597758        42715838.358599514        1370865730.3325088     
   878028897.02192390        29857873.875128627        1387530765.5451658     
   864964047.01120365        19290746.569435686        1405632058.2690761     
   461588975.35750204        37926788.939926848        1351172427.5730824     
   453359142.64407372        29007010.227360845        1365158729.5079520     
   445472935.50735962        21232650.103842899        1381047860.6387634     
   437930353.94735777        14603708.569366515        1398839820.9655185     
   430731397.96407187        9120185.6239416897        1418534610.4882154     
   7.1349290944298120E-003   8.3652178590669715E-004   1363181958.9964261     
   7.2591200449934785E-003   1.6154774404644407E-003   1376961146.1699543     
   7.4758308518022652E-003   2.7030060881868458E-003   1393109734.2241166     
   7.7883041133535724E-003   4.1093959736891285E-003   1411627723.1589117     
   8.1932171669895706E-003   5.8244389165165019E-003   1432515112.9743400     
   1743933098.3792257        42782994.442549586        1383060804.6317527     
   1700563233.4904876        25491592.401245415        1381090164.3673286     
   1661762757.7447536        23431487.503288150        1383925678.0935144     
   1627531671.1420252        36602679.748682618        1391567345.8103096     
   1597869973.6823018        65005169.137430489        1404015167.5177124     
   1302697947.1495881        30511682.842304885        1393807456.3169212     
   1272602188.0214517        18272623.173343122        1397443147.4051158     
   1245933470.7506077        17457036.362021446        1405317609.9249322     
   1222691795.3370564        28064922.408341885        1417430843.8763673     
   1202877161.7807992        50096281.312309802        1433782849.2594242     
   864964047.01120365        19290746.569435686        1405632058.2690761     
   846521300.61798930        11617701.365114301        1413541342.2098892     
   830363248.79635453        11560304.732724279        1425122015.0233357     
   816489891.54629993        19118556.672268212        1440374076.7094157     
   804901228.86782432        34292457.183743358        1459297527.2681270     
   430731397.96407187        9120185.6239416897        1418534610.4882154     
   422320571.28009915        5526826.9765588343        1429384748.7816508     
   415052091.88199246        5741292.6153952628        1443338893.3887315     
   408925959.76975262        9763582.5404556245        1460397044.3094542     
   403942174.94337833        17593696.751734227        1480559201.5438235     
   8.1932171669895706E-003   5.8244389165165019E-003   1432515112.9743400     
   7.7800632236979163E-003   7.6714161579948146E-003   1444973367.1203983     
   7.5207239703289170E-003   1.0031455977243841E-002   1459968245.0211124     
   7.4154796314440784E-003   1.2904798566744872E-002   1477499746.6764829     
   7.4640842956935072E-003   1.6291318111388658E-002   1497567872.0865104     
   1597869973.6823018        65005169.137430489        1404015167.5177124     
   1554533142.8000178        92901244.669239044        1400161613.7938159     
   1508997994.9746130        113469597.05730814        1400296121.0916927     
   1461264530.2060869        126710226.30164695        1404418689.4113424     
   1411332748.4944444        132623132.40225691        1412529318.7527621     
   1202877161.7807992        50096281.312309802        1433782849.2594242     
   1168266746.2603374        70386000.254465997        1426886997.0772603     
   1132007593.0325515        85179926.838877618        1424471024.1338706     
   1094099702.0974455        94478061.065554112        1426534930.4292641     
   1054543073.4550169        98280402.934487581        1433078715.9634326     
   804901228.86782432        34292457.183743358        1459297527.2681270     
   780422423.61491704        47397378.007968158        1450000552.4027894     
   754844459.89048767        56838437.260453075        1445675274.9932373     
   728167337.69453108        62615634.941179425        1446321695.0394700     
   700391057.02705157        64728971.050165236        1451939812.5414877     
   403942174.94337833        17593696.751734227        1480559201.5438235     
   391000174.86376083        23935377.929755166        1469502279.7704093     
   377508595.54841757        28445128.322025001        1463908873.6697867     
   363467436.99734300        31122947.928524286        1463778983.2419581     
   348876699.21054447        31968836.749274492        1469112608.4869194     
   7.4640842956935072E-003   1.6291318111388658E-002   1497567872.0865104     
   6.8638775981636688E-003   1.9813294777742289E-002   1485392179.1801190     
   6.3399834832605362E-003   2.3589646719518281E-002   1479171820.1635268     
   5.8805067042916994E-003   2.7581417003798979E-002   1478906795.0367312     
   5.4980745231306416E-003   3.1828614835324821E-002   1484597103.7997367     
   1411332748.4944444        132623132.40225691        1412529318.7527621     
   1356819310.7106340        132050123.87390053        1393229144.4109509     
   1301134024.2827091        127570953.19849890        1379470525.7108269     
   1244276889.2106688        119185620.37604433        1371253462.6523974     
   1186247905.4945171        106894125.40655178        1368577955.2356622     
   1054543073.4550169        98280402.934487581        1433078715.9634326     
   1014336012.3114154        98054051.697648823        1413426357.9720907     
   973250064.68475413        94898078.850609779        1399157351.6104069     
   931285230.57502663        88812484.393353552        1390271696.8783772     
   888441509.98224068        79797268.325899631        1386769393.7760055     
   700391057.02705157        64728971.050165236        1451939812.5414877     
   674038361.06069911        64713673.665960997        1432277060.0885115     
   647099740.77233303        62745295.208380461        1417839455.2531538     
   619575196.16195822        58823835.677438080        1408626998.0354164     
   591464727.22957408        52949295.073127061        1404639688.4352984     
   348876699.21054447        31968836.749274492        1469112608.4869194     
   335926356.95847684        32028989.778814778        1449781250.7602069     
   322683052.54544687        31112602.271811798        1435516836.6390731     
   309146785.97146302        29219674.228296265        1426319366.1235230     
   295317557.23651671        26350205.648238987        1422188839.2135577     
   5.4980745231306416E-003   3.1828614835324821E-002   1484597103.7997367     
   4.7525628121581022E-003   3.6217937989350586E-002   1465938929.9871764     
   4.0940694058354422E-003   4.0897322158875940E-002   1452189495.7681615     
   3.5383326305556996E-003   4.5917493708401716E-002   1443348801.1426935     
   3.0705291789021750E-003   5.1234245783633496E-002   1439416846.1107700     
   1186247905.4945171        106894125.40655178        1368577955.2356622     
   1134142487.6261058        90866532.141010284        1355497473.3665848     
   1079573862.5444226        66628248.164561749        1347258920.2469063     
   1022542030.2494736        34179273.477229118        1343862295.8766301     
   963046990.74125814       -6480391.9209949374        1345307600.2557542     
   888441509.98224068        79797268.325899631        1386769393.7760055     
   849992718.37482071        67965654.916347265        1371391220.6332703     
   809696521.35748899        49976023.473756671        1360707912.8212783     
   767552918.93022919        25828373.998076797        1354719470.3400385     
   723561911.09306169       -4477293.5106376410        1353425893.1895423     
   591464727.22957408        52949295.073127061        1404639688.4352984     
   566252380.68699646        45187607.160745800        1387682259.4561474     
   539808430.53784943        33320573.893130690        1375272632.3890901     
   512132876.78213328        17348195.270285904        1367410807.2341235     
   483225719.41984767       -2729528.7077889144        1364096783.9912515     
   295317557.23651671        26350205.648238987        1422188839.2135577     
   282921474.56262177        22532388.874164164        1404370589.8352304     
   269909590.08550847        16661899.422693893        1390953078.9503453     
   256281903.80517507        8738737.2938245833        1381936306.5588958     
   242038415.72162411       -1237097.5124380589        1377320272.6608858     
   3.0705291789021750E-003   5.1234245783633496E-002   1439416846.1107700     
   1.7044058472274262E-003   5.6628099645359080E-002   1421456211.7705135     
   4.6871847062986485E-004   6.2457433913398988E-002   1407749252.5050383     
  -6.3838586431759839E-004   6.8715031375577371E-002   1398295968.3143487     
  -1.6148254894437983E-003   7.5408177870493309E-002   1393096359.1984432     
   963046990.74125814       -6480391.9209949374        1345307600.2557542     
   819021264.05946636       -88813969.737693787        1164667778.1668856     
   666701795.40431261       -198793354.13226378        994203227.00335324     
   506088584.77579999       -336418545.10469639        833913946.76516926     
   337181632.17392021       -501689542.65501654        683799937.45232034     
   723561911.09306169       -4477293.5106376410        1353425893.1895423     
   612760438.39392602       -67062130.177769035        1164346241.0242968     
   495738659.21472555       -150381321.77844834        986091034.57816410     
   372496573.55545866       -254434868.31268117        818660273.85113573     
   243034181.41612265       -379222769.78048438        662053958.84321594     
   483225719.41984767       -2729528.7077889144        1364096783.9912515     
   407503285.82841736       -45009188.687834799        1168996309.8251498     
   327633981.25021482       -101111751.95711668        985369456.17192030     
   243617805.68524235       -171037218.51563013        813216223.03156745     
   155454759.13349926       -254785588.36338669        652536610.40408766     
   242038415.72162411       -1237097.5124380589        1377320272.6608858     
   203249806.36294335       -22655145.267883450        1178617984.5694351     
   162387761.51077950       -50984644.668269046        992038491.78461874     
   119452281.16514954       -86225595.713544562        817581794.30644739     
   74443365.326041326       -128377998.40374926        655247892.13492131     
  -1.6148254894437983E-003   7.5408177870493309E-002   1393096359.1984432     
  -2.5003808547450872E-003   8.2073633603637772E-002   1193211265.2571537     
  -3.5691687700583376E-003   8.8126232501904517E-002   1006098141.4162716     
  -4.8133658231358581E-003   9.3592052606119192E-002   831756987.67579961     
  -6.2422594565874900E-003   9.8447074668152904E-002   670187804.03573096     
   4.8598945380827164E-003   1.4579683614248150E-003   649686668.39497721     
   5.0239460028031688E-003   5.9187430597654818E-004   763100458.69755685     
   5.2638725567022669E-003  -2.0912472760807382E-005   876345241.43364966     
   5.5796270191140421E-003  -3.8113471284695203E-004   989421016.60325515     
   5.9715453735688694E-003  -4.8765078513718797E-004   1102327784.2063739     
  -450208391.29226917       -135062517.38768077        651341184.32505143     
  -450013605.72533405       -125307317.07003029        766557392.84425938     
  -449097975.00884736       -113149299.58720843        879841243.90781271     
  -447461499.14280933       -98588464.939214945        991192737.51571178     
  -445104178.12721997       -81624813.126050323        1100611873.6679568     
  -893949353.56864882       -268184806.07059464        656304732.11606717     
  -898597924.97542024       -250185848.19657090        774164344.85962415     
  -901804806.08316457       -227381255.99245739        888328250.25835967     
  -903569996.89188218       -199771029.45825425        998796448.31227386     
  -903893497.40157306       -167355168.59396142        1105568939.0213666     
  -1331222886.8242791       -399366866.04728377        664577311.76802409     
  -1345752957.7452350       -374635593.37903011        785921314.74365187     
  -1358120493.2176881       -342695869.21576846        901806260.48529112     
  -1368325493.2416391       -303547693.55749851        1012232148.9929415     
  -1376367957.8170869       -257191066.40422106        1117198980.2666037     
  -1762028991.0591602       -528608697.31774807        676158923.28092229     
  -1791478704.0347779       -498656552.61740768        801828302.49634254     
  -1818045036.4124172       -459093139.25714099        920275274.58860672     
  -1841727988.1920793       -409918457.23694801        1031499839.5577149     
  -1862527559.3737626       -351132506.55682886        1135501997.4036674     
   5.9715453735688694E-003  -4.8765078513718797E-004   1102327784.2063739     
   6.1749026221917013E-003  -4.4808479271341147E-004   1172827969.3278606     
   6.4369240249350958E-003  -2.1327519649606136E-004   1239803726.8333650     
   6.7569168838396178E-003   2.1492437522919842E-004   1303255056.7228868     
   7.1349290944298120E-003   8.3652178590669715E-004   1363181958.9964261     
  -445104178.12721997       -81624813.126050323        1100611873.6679568     
  -447942414.70257401       -66423764.650130287        1166502160.4720395     
  -451635959.76371861       -54073744.460178614        1230225681.7241645     
  -456184813.31065357       -44574752.556195229        1291782437.4243319     
  -461588975.34337837       -37926788.938177451        1351172427.5725429     
  -903893497.40157306       -167355168.59396142        1105568939.0213666     
  -905690936.08384180       -135789361.30156982        1165851467.6078882     
  -909198991.73774946       -109925610.58130735        1225324892.7064776     
  -914417664.36329579       -89763916.433174074        1283989214.3171346     
  -921346953.96048069       -75304278.857168943        1341844432.4398596     
  -1376367957.8170869       -257191066.40422106        1117198980.2666037     
  -1373245564.1376274       -208096789.95476383        1170875890.7354081     
  -1372689095.9156556       -167555598.36359790        1225101359.7803051     
  -1374698553.1511705       -135567491.63072258        1279875387.4012945     
  -1379273935.8441727       -112132469.75613779        1335197973.5983782     
  -1862527559.3737626       -351132506.55682886        1135501997.4036674     
  -1850606298.8639321       -283346050.60971344        1181575429.8545980     
  -1842106272.2974365       -226963707.80705166        1229555082.9456460     
  -1837027479.6742771       -181985478.14884162        1279440956.6768122     
  -1835369920.9944530       -148411361.63508177        1331233051.0480967     
   7.1349290944298120E-003   8.3652178590669715E-004   1363181958.9964261     
   7.2591200449934785E-003   1.6154774404644407E-003   1376961146.1699543     
   7.4758308518022652E-003   2.7030060881868458E-003   1393109734.2241166     
   7.7883041133535724E-003   4.1093959736891285E-003   1411627723.1589117     
   8.1932171669895706E-003   5.8244389165165019E-003   1432515112.9743400     
  -461588975.34337837       -37926788.938177451        1351172427.5725429     
  -453359142.62971050       -29007010.224099457        1365158729.5074985     
  -445472935.49257410       -21232650.098459139        1381047860.6384025     
  -437930353.93197012       -14603708.561260611        1398839820.9652517     
  -430731397.94789779       -9120185.6125003397        1418534610.4880478     
  -921346953.96048069       -75304278.857168943        1341844432.4398596     
  -906220350.48951590       -57864640.016660869        1355636952.6301808     
  -891780998.17171037       -42715838.353348762        1370865730.3317609     
  -878028897.00706184       -29857873.867227197        1387530765.5446012     
  -864964046.99557233       -19290746.558303118        1405632058.2687008     
  -1379273935.8441727       -112132469.75613779        1335197973.5983782     
  -1358583623.5721598       -86572889.376075566        1348395815.5379994     
  -1338924188.0299318       -64449564.761961460        1362563343.3041928     
  -1320295629.2174883       -45762495.913797557        1377700556.8969610     
  -1302697947.1348283       -30511682.831577241        1393807456.3162982     
  -1835369920.9944530       -148411361.63508177        1331233051.0480967     
  -1810448961.8776412       -115131758.30234206        1343435318.2309551     
  -1786902505.0672402       -86433829.324303925        1356140699.5556986     
  -1764730550.5632482       -62317574.700963914        1369349195.0223289     
  -1743933098.3656690       -42782994.432330906        1383060804.6308436     
   8.1932171669895706E-003   5.8244389165165019E-003   1432515112.9743400     
   7.7800632236979163E-003   7.6714161579948146E-003   1444973367.1203983     
   7.5207239703289170E-003   1.0031455977243841E-002   1459968245.0211124     
   7.4154796314440784E-003   1.2904798566744872E-002   1477499746.6764829     
   7.4640842956935072E-003   1.6291318111388658E-002   1497567872.0865104     
  -430731397.94789779       -9120185.6125003397        1418534610.4880478     
  -422320571.26476771       -5526826.9615322202        1429384748.7817321     
  -415052091.86719573       -5741292.5957571864        1443338893.3890741     
  -408925959.75518507       -9763582.5151874125        1460397044.3100727     
  -403942174.92873377       -17593696.719814122        1480559201.5447285     
  -864964046.99557233       -19290746.558303118        1405632058.2687008     
  -846521300.60318005       -11617701.350493580        1413541342.2100127     
  -830363248.78206217       -11560304.713595718        1425122015.0239828     
  -816489891.53221822       -19118556.647611022        1440374076.7106109     
  -804901228.85364556       -34292457.152533770        1459297527.2698956     
  -1302697947.1348283       -30511682.831577241        1393807456.3162982     
  -1272602188.0074599       -18272623.159218490        1397443147.4052386     
  -1245933470.7370775       -17457036.343478978        1405317609.9258382     
  -1222691795.3236825       -28064922.384362400        1417430843.8780966     
  -1202877161.7672725       -50096281.281866312        1433782849.2620134     
  -1743933098.3656690       -42782994.432330906        1383060804.6308436     
  -1700563233.4776049       -25491592.387700438        1381090164.3674128     
  -1661762757.7322407       -23431487.485403061        1383925678.0946419     
  -1627531671.1295781       -36602679.725444257        1391567345.8125308     
  -1597869973.6696143       -65005169.107814908        1404015167.5210803     
   7.4640842956935072E-003   1.6291318111388658E-002   1497567872.0865104     
   6.8638775981636688E-003   1.9813294777742289E-002   1485392179.1801190     
   6.3399834832605362E-003   2.3589646719518281E-002   1479171820.1635268     
   5.8805067042916994E-003   2.7581417003798979E-002   1478906795.0367312     
   5.4980745231306416E-003   3.1828614835324821E-002   1484597103.7997367     
  -403942174.92873377       -17593696.719814122        1480559201.5447285     
  -391000174.85033089       -23935377.890894279        1469502279.7714181     
  -377508595.53606248       -28445128.275753438        1463908873.6709146     
  -363467436.98593044       -31122947.874402553        1463778983.2432146     
  -348876699.19993150       -31968836.686827168        1469112608.4883175     
  -804901228.85364556       -34292457.152533770        1459297527.2698956     
  -780422423.60194016       -47397377.969932050        1450000552.4047620     
  -754844459.87857497       -56838437.215129554        1445675274.9954386     
  -728167337.68355072       -62615634.888132662        1446321695.0419259     
  -700391057.01686728       -64728970.988936454        1451939812.5442202     
  -1202877161.7672725       -50096281.281866312        1433782849.2620134     
  -1168266746.2479613       -70386000.217290401        1426886997.0801482     
  -1132007593.0211983       -85179926.794542313        1424471024.1370995     
  -1094099702.0869796       -94478061.013608634        1426534930.4328661     
  -1054543073.4453069       -98280402.874496102        1433078715.9674499     
  -1597869973.6696143       -65005169.107814908        1404015167.5210803     
  -1554533142.7883945       -92901244.632974029        1400161613.7975774     
  -1508997994.9639297       -113469597.01398194        1400296121.0958965     
  -1461264530.1962142       -126710226.25082254        1404418689.4160373     
  -1411332748.4852524       -132623132.34350741        1412529318.7580016     
   5.4980745231306416E-003   3.1828614835324821E-002   1484597103.7997367     
   4.7525628121581022E-003   3.6217937989350586E-002   1465938929.9871764     
   4.0940694058354422E-003   4.0897322158875940E-002   1452189495.7681615     
   3.5383326305556996E-003   4.5917493708401716E-002   1443348801.1426935     
   3.0705291789021750E-003   5.1234245783633496E-002   1439416846.1107700     
  -348876699.19993150       -31968836.686827168        1469112608.4883175     
  -335926356.94937432       -32028989.707749516        1449781250.7618175     
  -322683052.53766918       -31112602.191513136        1435516836.6409240     
  -309146785.96481478       -29219674.138112918        1426319366.1256354     
  -295317557.23081374       -26350205.547555596        1422188839.2159510     
  -700391057.01686728       -64728970.988936454        1451939812.5442202     
  -674038361.05197632       -64713673.596252829        1432277060.0916796     
  -647099740.76488483       -62745295.129563093        1417839455.2568040     
  -619575196.15559030       -58823835.588863462        1408626998.0395916     
  -591464727.22409344       -52949294.974160731        1404639688.4400454     
  -1054543073.4453069       -98280402.874496102        1433078715.9674499     
  -1014336012.3030565       -98054051.629296303        1413426357.9767630     
  -973250064.67755163       -94898078.773249835        1399157351.6157990     
  -931285230.56878829       -88812484.306340724        1390271696.8845603     
  -888441509.97676933       -79797268.228579730        1386769393.7830458     
  -1411332748.4852524       -132623132.34350741        1412529318.7580016     
  -1356819310.7026169       -132050123.80689377        1393229144.4170632     
  -1301134024.2756667       -127570953.12256271        1379470525.7179110     
  -1244276889.2044117       -119185620.29055190        1371253462.6605406     
  -1186247905.4888442       -106894125.31082839        1368577955.2449548     
   3.0705291789021750E-003   5.1234245783633496E-002   1439416846.1107700     
   1.7044058472274262E-003   5.6628099645359080E-002   1421456211.7705135     
   4.6871847062986485E-004   6.2457433913398988E-002   1407749252.5050383     
  -6.3838586431759839E-004   6.8715031375577371E-002   1398295968.3143487     
  -1.6148254894437983E-003   7.5408177870493309E-002   1393096359.1984432     
  -295317557.23081374       -26350205.547555596        1422188839.2159510     
  -282921474.55966473       -22532388.762810424        1404370589.8380208     
  -269909590.08502996       -16661899.299780622        1390953078.9535432     
  -256281903.80690575       -8738737.1584505141        1381936306.5625212     
  -242038415.72529274        1237097.6611726284        1377320272.6649528     
  -591464727.22409344       -52949294.974160731        1404639688.4400454     
  -566252380.68422866       -45187607.051214874        1387682259.4616873     
  -539808430.53751683       -33320573.772115141        1375272632.3954594     
  -512132876.78395754       -17348195.136854738        1367410807.2413595     
  -483225719.42355150        2729528.8545594811        1364096783.9993808     
  -888441509.97676933       -79797268.228579730        1386769393.7830458     
  -849992718.37198293       -67965654.808571041        1371391220.6415153     
  -809696521.35699439       -49976023.354555249        1360707912.8307869     
  -767552918.93179202       -25828373.866492063        1354719470.3508551     
  -723561911.09638798        4477293.6555747092        1353425893.2017221     
  -1186247905.4888442       -106894125.31082839        1368577955.2449548     
  -1134142487.6229303       -90866532.034886777        1355497473.3775067     
  -1079573862.5434537       -66628248.047071457        1347258920.2595277     
  -1022542030.2504101       -34179273.347365737        1343862295.8910205     
  -963046990.74380529        6480392.0642123222        1345307600.2719786     
  -1.6148254894437983E-003   7.5408177870493309E-002   1393096359.1984432     
  -2.5003808547450872E-003   8.2073633603637772E-002   1193211265.2571537     
  -3.5691687700583376E-003   8.8126232501904517E-002   1006098141.4162716     
  -4.8133658231358581E-003   9.3592052606119192E-002   831756987.67579961     
  -6.2422594565874900E-003   9.8447074668152904E-002   670187804.03573096     
  -242038415.72529274        1237097.6611726284        1377320272.6649528     
  -203249806.36838740        22655145.429954275        1178617984.5732446     
  -162387761.51833245        50984644.842566080        992038491.78817368     
  -119452281.17512810        86225595.899008781        817581794.30973780     
  -74443365.338775337        128377998.59927961        655247892.13793945     
  -483225719.42355150        2729528.8545594811        1364096783.9993808     
  -407503285.83391047        45009188.847952425        1168996309.8327990     
  -327633981.25779098        101111752.12960654        985369456.17908096     
  -243617805.69519585        171037218.69951272        813216223.03823161     
  -155454759.14612517        254785588.55767381        652536610.41024041     
  -723561911.09638798        4477293.6555747092        1353425893.2017221     
  -612760438.39907539        67062130.336053908        1164346241.0358179     
  -495738659.22195244        150381321.94923151        986091034.58900547     
  -372496573.56502420        254434868.49508864        818660273.86128151     
  -243034181.42829719        379222769.97361791        662053958.85266578     
  -963046990.74380529        6480392.0642123222        1345307600.2719786     
  -819021264.06387794        88813969.894264042        1164667778.1822963     
  -666701795.41081071        198793354.30144662        994203227.01793957     
  -506088584.78461260        336418545.28573126        833913946.77890348     
  -337181632.18528473        501689542.84711748        683799937.46519208     
  -1762028991.0591602       -528608697.31774807        676158923.28092229     
  -1791478704.0347779       -498656552.61740768        801828302.49634254     
  -1818045036.4124172       -459093139.25714099        920275274.58860672     
  -1841727988.1920793       -409918457.23694801        1031499839.5577149     
  -1862527559.3737626       -351132506.55682886        1135501997.4036674     
  -2208383036.4014716       -662514910.92044151        693997852.93269491     
  -2246640890.6133356       -612632154.55380023        810895331.22260427     
  -2282913068.0381174       -556130475.56354988        923640351.45402563     
  -2317199568.6758161       -493009873.94968998        1032232913.6269591     
  -2349500392.5264320       -423270349.71222073        1136673017.7414045     
  -2692300392.9793921       -807690117.89381754        721042387.00127470     
  -2730595105.3855953       -735245364.94830346        828120643.25296259     
  -2767801844.8156109       -659174035.41549671        934116390.51082981     
  -2803920611.2694373       -579476129.29539728        1039029628.7748774     
  -2838951404.7470784       -496151646.58800608        1142860358.0451047     
  -3213781060.7929230       -964134318.23787689        757292525.48666203     
  -3243341348.3515573       -866496183.80091727        853504238.58741724     
  -3272711366.7448969       -768223818.81298172        951703391.75901985     
  -3301891115.9729452       -669317223.27407074        1051889985.0014707     
  -3330880596.0356994       -569776397.18418384        1154064018.3147693     
  -3772825039.8420625       -1131847511.9526188        802748268.38885629     
  -3784879619.5112181       -1006384611.1116409        887046117.22596800     
  -3797641633.8259768       -883279825.75600433        976401355.19859529     
  -3811111082.7863374       -762533155.88570905        1070813982.3067383     
  -3825287966.3923006       -644144601.50075543        1170283998.5503967     
  -1862527559.3737626       -351132506.55682886        1135501997.4036674     
  -1850606298.8639321       -283346050.60971344        1181575429.8545980     
  -1842106272.2974365       -226963707.80705166        1229555082.9456460     
  -1837027479.6742771       -181985478.14884162        1279440956.6768122     
  -1835369920.9944530       -148411361.63508177        1331233051.0480967     
  -2349500392.5264320       -423270349.71222073        1136673017.7414045     
  -2330202764.5139198       -340278723.86899281        1177044751.9961939     
  -2314359451.0598183       -268801479.88713276        1217675509.0984397     
  -2301970452.1641273       -208838617.76664007        1258565289.0481427     
  -2293035767.8268442       -160390137.50751376        1299714091.8453026     
  -2838951404.7470784       -496151646.58800608        1142860358.0451047     
  -2816983688.6394887       -399366734.67094612        1177491800.0528328     
  -2798503367.7053838       -314206473.33216941        1210735067.1153567     
  -2783510441.9447637       -240670862.57167566        1242590159.2326758     
  -2772004911.3576288       -178759902.38946569        1273057076.4047906     
  -3330880596.0356994       -569776397.18418384        1154064018.3147693     
  -3310949071.2406368       -460610083.01557326        1182916574.0245154     
  -3294538022.2341328       -363178688.14216220        1208733756.9963961     
  -3281647449.0161877       -277482212.56394780        1231515567.2304108     
  -3272277351.5868025       -203520656.28093219        1251262004.7265599     
  -3825287966.3923006       -644144601.50075543        1170283998.5503967     
  -3812098912.3173666       -524008768.90287519        1193319073.9112406     
  -3802463414.6460648       -415718124.31710708        1211671578.7415578     
  -3796381473.3783998       -319272667.74345541        1225341513.0413482     
  -3793853088.5143685       -234672399.18191874        1234328876.8106108     
  -1835369920.9944530       -148411361.63508177        1331233051.0480967     
  -1810448961.8776412       -115131758.30234206        1343435318.2309551     
  -1786902505.0672402       -86433829.324303925        1356140699.5556986     
  -1764730550.5632482       -62317574.700963914        1369349195.0223289     
  -1743933098.3656690       -42782994.432330906        1383060804.6308436     
  -2293035767.8268442       -160390137.50751376        1299714091.8453026     
  -2259821778.9170756       -114463600.16383159        1303129243.8180003     
  -2229618794.7591300       -78573745.326229572        1309502012.1024079     
  -2202426815.3530092       -52720572.994708180        1318832396.6985259     
  -2178245840.6987123       -36904083.169267416        1331120397.6063552     
  -2772004911.3576288       -178759902.38946569        1273057076.4047906     
  -2723485029.3125439       -118082572.03213358        1265775860.3143444     
  -2679612654.4646964       -72896932.332260013        1263906762.7054336     
  -2640387786.8140869       -43202983.289845109        1267449783.5780580     
  -2605810426.3607159       -29000724.904891491        1276404922.9322195     
  -3272277351.5868025       -203520656.28093219        1251262004.7265599     
  -3201438713.0640450       -125988673.90724337        1231375167.7199874     
  -3136884084.1839399       -69403390.342393279        1219354951.3647752     
  -3078613464.9464855       -33764805.586380243        1215201355.6609240     
  -3026626855.3516822       -19072919.639203787        1218914380.6084340     
  -3793853088.5143685       -234672399.18191874        1234328876.8106108     
  -3693682830.1715817       -138181905.78916609        1199927166.0349298     
  -3601433083.9168596       -68093119.356628418        1175846578.0804338     
  -3517103849.7502017       -24406039.884308338        1162087112.9471245     
  -3440695127.6716108       -7120667.3722076416        1158648770.6349988     
  -1743933098.3656690       -42782994.432330906        1383060804.6308436     
  -1700563233.4776049       -25491592.387700438        1381090164.3674128     
  -1661762757.7322407       -23431487.485403061        1383925678.0946419     
  -1627531671.1295781       -36602679.725444257        1391567345.8125308     
  -1597869973.6696143       -65005169.107814908        1404015167.5210803     
  -2178245840.6987123       -36904083.169267416        1331120397.6063552     
  -2124223232.1753163       -22645049.661165476        1326201211.2866385     
  -2074119253.9405804       -21448117.115262270        1325370066.5118697     
  -2027933905.9945052       -33313285.531568170        1328626963.2820497     
  -1985667188.3370931       -58240554.910076976        1335971901.5971768     
  -2605810426.3607159       -29000724.904891491        1276404922.9322195     
  -2543186824.0468788       -18389584.886785150        1269296409.2192612     
  -2483831093.1676621       -18671349.650747657        1265557824.6055398     
  -2427743233.7230678       -29846019.196786761        1265189169.0910554     
  -2374923245.7130957       -51913593.524896979        1268190442.6758075     
  -3026626855.3516822       -19072919.639203787        1218914380.6084340     
  -2957454009.0922933       -12725198.064559221        1210375758.1652813     
  -2890898275.4134860       -15101185.091853857        1204488952.3756535     
  -2826959654.3152623       -26200880.721093774        1201253963.2395508     
  -2765638145.7976189       -46024284.952271104        1200670790.7569730     
  -3440695127.6716108       -7120667.3722076416        1158648770.6349988     
  -3367024787.3115602       -5651889.1944928169        1149439258.1246963     
  -3295320800.6780519       -10737623.438585281        1142163449.8222094     
  -3225583167.7710872       -22377870.104489803        1136821345.7275348     
  -3157811888.5906663       -40572629.192205787        1133412945.8406737     
  -1597869973.6696143       -65005169.107814908        1404015167.5210803     
  -1554533142.7883945       -92901244.632974029        1400161613.7975774     
  -1508997994.9639297       -113469597.01398194        1400296121.0958965     
  -1461264530.1962142       -126710226.25082254        1404418689.4160373     
  -1411332748.4852524       -132623132.34350741        1412529318.7580016     
  -1985667188.3370931       -58240554.910076976        1335971901.5971768     
  -1930553473.6477394       -82531460.791257262        1334063910.0850546     
  -1873642712.5898952       -100832212.11080122        1336395036.7164481     
  -1814934905.1635566       -113142808.86870354        1342965281.4913590     
  -1754430051.3687303       -119463251.06496769        1353774644.4097874     
  -2374923245.7130957       -51913593.524896979        1268190442.6758075     
  -2307315341.1536193       -72384137.943498373        1267759864.3711827     
  -2238311660.8004107       -88202096.382987022        1271819461.3317692     
  -2167912204.6534648       -99367468.843356013        1280369233.5575674     
  -2096116972.7127829       -105880255.32460380        1293409181.0485802     
  -2765638145.7976189       -46024284.952271104        1200670790.7569730     
  -2684818745.3060365       -62459276.089698792        1201249476.6559627     
  -2603004839.5954757       -75579249.830535412        1206569394.9418595     
  -2520196428.6659331       -85384206.174772263        1216630545.6146650     
  -2436393512.5174170       -91874145.122416019        1231432928.6743748     
  -3157811888.5906663       -40572629.192205787        1133412945.8406737     
  -3063063686.1049891       -52756875.229865551        1134532746.9393945     
  -2967722248.9750886       -62963672.453448892        1140644837.5467184     
  -2871787577.2009673       -71193020.862962604        1151749217.6626453     
  -2775259670.7826233       -77444920.458392978        1167845887.2871742     
  -1411332748.4852524       -132623132.34350741        1412529318.7580016     
  -1356819310.7026169       -132050123.80689377        1393229144.4170632     
  -1301134024.2756667       -127570953.12256271        1379470525.7179110     
  -1244276889.2044117       -119185620.29055190        1371253462.6605406     
  -1186247905.4888442       -106894125.31082839        1368577955.2449548     
  -1754430051.3687303       -119463251.06496769        1353774644.4097874     
  -1685869388.7033453       -118701140.27132720        1336237351.0374174     
  -1616029413.9479470       -113674655.84430581        1323920420.6429882     
  -1544910127.1025274       -104383797.78388196        1316823853.2264984     
  -1472511528.1670940       -90828566.090077758        1314947648.7879493     
  -2096116972.7127829       -105880255.32460380        1293409181.0485802     
  -2014426778.4899199       -105204350.27152455        1277760142.6647666     
  -1931349808.7313354       -99905860.099368036        1267010274.5950503     
  -1846886063.4370277       -89984784.808137357        1261159576.8394279     
  -1761035542.6069989       -75441124.397835076        1260208049.3979058     
  -2436393512.5174170       -91874145.122416019        1231432928.6743748     
  -2342491480.0623403       -91559753.807472348        1217797519.2991085     
  -2247095208.6258388       -86264565.887769461        1208740087.5740967     
  -2150204698.2079077       -75988581.363306880        1204260633.4993374     
  -2051819948.8085485       -60731800.234085083        1204359157.0748305     
  -2775259670.7826233       -77444920.458392978        1167845887.2871742     
  -2670063493.4206042       -77767350.879169703        1156349480.9404469     
  -2563265613.6314554       -72750773.209508538        1149109859.5801284     
  -2454866031.4151645       -62395187.449379325        1146127023.2062178     
  -2344864746.7717481       -46700593.598823428        1147400971.8187158     
  -1186247905.4888442       -106894125.31082839        1368577955.2449548     
  -1134142487.6229303       -90866532.034886777        1355497473.3775067     
  -1079573862.5434537       -66628248.047071457        1347258920.2595277     
  -1022542030.2504101       -34179273.347365737        1343862295.8910205     
  -963046990.74380529        6480392.0642123222        1345307600.2719786     
  -1472511528.1670940       -90828566.090077758        1314947648.7879493     
  -1408146028.6330163       -74793313.049481869        1303519989.1993287     
  -1341835697.5622327       -52275288.219864011        1296679465.2756789     
  -1273580534.9547427       -23274491.601223409        1294426077.0169950     
  -1203380540.8105402        12209076.806452811        1296759824.4232743     
  -1761035542.6069989       -75441124.397835076        1260208049.3979058     
  -1685137941.6461937       -59616605.665011883        1249828440.4651179     
  -1607813884.8255360       -39037234.066018164        1243781174.1127951     
  -1529063372.1450284       -13703009.600853920        1242066250.3409359     
  -1448886403.6046681        16386067.730483651        1244683669.1495402     
  -2051819948.8085485       -60731800.234085083        1204359157.0748305     
  -1965118226.6624560       -45336409.881473422        1194422827.1748731     
  -1877508424.3333595       -26914085.585521221        1188564046.7708776     
  -1788990541.8212776       -5464827.3462833166        1186782815.8628438     
  -1699564579.1261945        19011364.836294174        1189079134.4507697     
  -2344864746.7717481       -46700593.598823428        1147400971.8187158     
  -2248086883.6817980       -31952725.698837638        1137303149.3285921     
  -2150919316.0857091       -15905842.778392076        1131028083.2499254     
  -2053362043.9834850        1440055.1625082493        1128575773.5827181     
  -1955415067.3751171        20084968.123882532        1129946220.3269696     
  -963046990.74380529        6480392.0642123222        1345307600.2719786     
  -819021264.06387794        88813969.894264042        1164667778.1822963     
  -666701795.41081071        198793354.30144662        994203227.01793957     
  -506088584.78461260        336418545.28573126        833913946.77890348     
  -337181632.18528473        501689542.84711748        683799937.46519208     
  -1203380540.8105402        12209076.806452811        1296759824.4232743     
  -1028365393.6441875        97729961.426805019        1126540260.2552001     
  -843036108.58199000        217631305.69996834        969247908.58436739     
  -647392685.62395275        371913109.62592959        824882769.41077781     
  -441435124.77007353        560575373.20470238        693444842.73442781     
  -1448886403.6046681        16386067.730483651        1244683669.1495402     
  -1235019145.7464099        107453066.20276552        1087241491.4795637     
  -1008817354.0696020        239635177.40354389        945478467.87874818     
  -770281028.57423949        412932401.33284080        819394598.34709942     
  -519410169.26032472        627344737.99064207        708989882.88460815     
  -1699564579.1261945        19011364.836294174        1189079134.4507697     
  -1438982520.3705449        117983284.22215223        1046771471.8553880     
  -1164045531.8736348        264804969.41220474        922894904.90109134     
  -874753613.63546205        459476420.40647292        817449433.58787644     
  -571106765.65602660        701997637.20494962        730435057.91574657     
  -1955415067.3751171        20084968.123882532        1129946220.3269696     
  -1640255517.5165930        129320615.48496497        1005130201.3826799     
  -1308720641.9941001        293140681.72593176        901497219.65139198     
  -960810440.80763042        511545166.84682178        819047275.13310707     
  -596524913.95719194        784534070.84761822        757780367.82781792     
  -3772825039.8420625       -1131847511.9526188        802748268.38885629     
  -3784879619.5112181       -1006384611.1116409        887046117.22596800     
  -3797641633.8259768       -883279825.75600433        976401355.19859529     
  -3811111082.7863374       -762533155.88570905        1070813982.3067383     
  -3825287966.3923006       -644144601.50075543        1170283998.5503967     
  -4342498847.9332094       -1302749654.3799629        862293690.19699466     
  -4339121236.2355824       -1123976125.2218213        945949016.90930080     
  -4336880150.1198740       -948991014.67007637        1024115418.2335023     
  -4335775589.5860844       -777794322.72472787        1096792894.1695993     
  -4335807554.6342125       -610386049.38577616        1163981444.7175915     
  -4895869002.8727589       -1468760700.8618279        940812865.40021324     
  -4907191527.0186911       -1245716241.5496252        1023325063.8953443     
  -4920079667.6828594       -1027890503.9648747        1089802022.4787509     
  -4934533424.8652639       -815283488.10757685        1140243741.1504323     
  -4950552798.5659027       -607895193.97773039        1174650219.9103897     
  -5432935504.6607151       -1629880651.3982143        1038305793.9985124     
  -5489090491.8605509       -1371604960.0950541        1119174258.1840990     
  -5547240186.5149364       -1119978293.6404006        1173461167.9343410     
  -5607384588.6238775       -875000652.03425574        1201166523.2492380     
  -5669523698.1873703       -636672035.27661777        1202290324.1287897     
  -5953698353.2970734       -1786109505.9891219        1154772475.9918916     
  -6084818130.7611551       -1501642280.8581066        1233496599.7755647     
  -6218361706.6161060       -1225254383.6966546        1275092854.6002727     
  -6354329080.8619261       -956945814.50476491        1279561240.4660158     
  -6492720253.4986143       -696716573.28243828        1246901757.3727932     
  -3825287966.3923006       -644144601.50075543        1170283998.5503967     
  -3812098912.3173666       -524008768.90287519        1193319073.9112406     
  -3802463414.6460648       -415718124.31710708        1211671578.7415578     
  -3796381473.3783998       -319272667.74345541        1225341513.0413482     
  -3793853088.5143685       -234672399.18191874        1234328876.8106108     
  -4335807554.6342125       -610386049.38577616        1163981444.7175915     
  -4309079288.8612776       -452576582.82488275        1147891040.1195087     
  -4292836613.5664520       -329719084.52435672        1138204068.7512581     
  -4287079528.7497368       -241813554.48419380        1134920530.6128390     
  -4291808034.4111309       -188859992.70440006        1138040425.7042527     
  -4950552798.5659027       -607895193.97773039        1174650219.9103897     
  -4878611024.6367989       -402909804.51637411        1111346962.2664917     
  -4824086875.2602797       -255983163.56363487        1065533141.6127849     
  -4786980350.4363470       -167115271.11951423        1037208757.9492691     
  -4767291450.1650000       -136306127.18401361        1026373811.2759448     
  -5669523698.1873703       -636672035.27661777        1202290324.1287897     
  -5520694119.6439295       -375008433.97734833        1083686840.3521886     
  -5396214199.7275486       -194510361.43494606        993658797.32613778     
  -5296083938.4382296       -95177817.649417162        932206195.05063689     
  -5220303335.7759705       -77010802.620758772        899329033.52568555     
  -6492720253.4986143       -696716573.28243828        1246901757.3727932     
  -6235328573.8826675       -368872471.20780420        1064910674.3766012     
  -6009218586.9682570       -145300678.13829017        922581035.89131665     
  -5814390292.7553825       -26001194.073899031        819912841.91694295     
  -5650843691.2440472       -10974019.014632702        756906092.45347655     
  -3793853088.5143685       -234672399.18191874        1234328876.8106108     
  -3693682830.1715817       -138181905.78916609        1199927166.0349298     
  -3601433083.9168596       -68093119.356628418        1175846578.0804338     
  -3517103849.7502017       -24406039.884308338        1162087112.9471245     
  -3440695127.6716108       -7120667.3722076416        1158648770.6349988     
  -4291808034.4111309       -188859992.70440006        1138040425.7042527     
  -4175724457.9447198       -121924971.41442060        1103647305.9335022     
  -4063833641.6341476       -68965817.310565948        1077994570.8449941     
  -3956135585.4794126       -29982530.392842054        1061082220.4387282     
  -3852630289.4805179       -4975110.6612474918        1052910254.7147046     
  -4767291450.1650000       -136306127.18401361        1026373811.2759448     
  -4639810950.2576590       -100281496.40161371        996338326.43105650     
  -4512795458.5739317       -65806893.031254053        973462488.12946701     
  -4386244975.1138153       -32882317.072933674        957746296.37117672     
  -4260159499.8773103       -1507768.5266528130        949189751.15618384     
  -5220303335.7759705       -77010802.620758772        899329033.52568555     
  -5085942307.1104002       -73251480.750749826        878000227.52759087     
  -4948318534.7362127       -58616346.518691301        862250329.93385160     
  -4807432018.6534100       -33105399.924581528        852079340.74446809     
  -4663282758.8619928        3281359.0315732956        847487259.95943856     
  -5650843691.2440472       -10974019.014632702        756906092.45347655     
  -5514118528.5029364       -40834924.461821079        748633009.22310638     
  -5370402870.1209860       -47394177.772875309        744358096.25814855     
  -5219696716.0981941       -30651778.947787285        744081353.55860198     
  -5062000066.4345617        9392272.0134365559        747802781.12446654     
  -3440695127.6716108       -7120667.3722076416        1158648770.6349988     
  -3367024787.3115602       -5651889.1944928169        1149439258.1246963     
  -3295320800.6780519       -10737623.438585281        1142163449.8222094     
  -3225583167.7710872       -22377870.104489803        1136821345.7275348     
  -3157811888.5906663       -40572629.192205787        1133412945.8406737     
  -3852630289.4805179       -4975110.6612474918        1052910254.7147046     
  -3770741776.0794153        2986681.8428533077        1042957733.5726527     
  -3691623530.5102701        1714248.2404284477        1035894791.8713530     
  -3615275552.7730823       -8792411.4685218334        1031721429.6108065     
  -3541697842.8678560       -28533297.284007788        1030437646.7910119     
  -4260159499.8773103       -1507768.5266528130        949189751.15618384     
  -4167321741.3410468        13766359.932061911        937556321.59273136     
  -4078058164.7421570        17126548.599535227        929768346.70297003     
  -3992368770.0806394        8572797.4757673740        925825826.48690033     
  -3910253557.3564939       -11894893.439243078        925728760.94452095     
  -4663282758.8619928        3281359.0315732956        847487259.95943856     
  -4556764683.0964565        26687145.073137760        833235022.18493354     
  -4454624703.3737087        35499277.638742685        823784114.31706202     
  -4356862819.6937456        29717756.728395700        819134536.35581744     
  -4263479032.0565701        9342582.3420865536        819286288.30120480     
  -5062000066.4345617        9392272.0134365559        747802781.12446654     
  -4939070601.3456411        41749037.266082764        729993835.34926045     
  -4821323146.4049225        56832435.358057499        717942094.71362436     
  -4708757701.6124058        54642466.289359808        711647559.21755767     
  -4601374266.9680920        35179130.059987068        711110228.86105943     
  -3157811888.5906663       -40572629.192205787        1133412945.8406737     
  -3063063686.1049891       -52756875.229865551        1134532746.9393945     
  -2967722248.9750886       -62963672.453448892        1140644837.5467184     
  -2871787577.2009673       -71193020.862962604        1151749217.6626453     
  -2775259670.7826233       -77444920.458392978        1167845887.2871742     
  -3541697842.8678560       -28533297.284007788        1030437646.7910119     
  -3434576857.7411895       -41794361.403223753        1037397657.4164202     
  -3327048128.4332209       -53696278.251439929        1049131400.1220379     
  -3219111654.9439545       -64239047.828665733        1065638874.9078677     
  -3110767437.2733917       -73422670.134898663        1086920081.7739105     
  -3910253557.3564939       -11894893.439243078        925728760.94452095     
  -3791384239.3842325       -26420110.578635216        938312575.55653739     
  -3672292667.6936002       -40204481.990108252        955451564.82037342     
  -3552978842.2845950       -53248007.673671484        977145728.73602962     
  -3433442763.1572113       -65550687.629316092        1003395067.3035058     
  -4263479032.0565701        9342582.3420865536        819286288.30120480     
  -4133485831.0341268       -6634122.7560999393        837277501.35975051     
  -4003455866.7562318       -22488283.669450521        859605331.64172673     
  -3873389139.2228870       -38219900.397970676        886269779.14713156     
  -3743285648.4340935       -53828972.941652536        917270843.87596762     
  -4601374266.9680920        35179130.059987068        711110228.86105943     
  -4460881632.6908693        17563602.064374924        734292434.82606065     
  -4320537725.6211138       -547683.28946995735        761592700.58609462     
  -4180342545.7588310       -19154726.001563549        793011026.14117157     
  -4040296093.1040282       -38257526.071904421        828547411.49128413     
  -2775259670.7826233       -77444920.458392978        1167845887.2871742     
  -2670063493.4206042       -77767350.879169703        1156349480.9404469     
  -2563265613.6314554       -72750773.209508538        1149109859.5801284     
  -2454866031.4151645       -62395187.449379325        1146127023.2062178     
  -2344864746.7717481       -46700593.598823428        1147400971.8187158     
  -3110767437.2733917       -73422670.134898663        1086920081.7739105     
  -2994499714.2694154       -76122557.913800597        1082466822.5184166     
  -2875932032.4177465       -71155916.200395346        1082821995.8529732     
  -2755064391.7183771       -58522744.994656682        1087985601.7775776     
  -2631896792.1713209       -38223044.296625614        1097957640.2922325     
  -3433442763.1572113       -65550687.629316092        1003395067.3035058     
  -3304527358.5008736       -70155191.963222384        1006799587.6299011     
  -3172613738.5762825       -64765645.402951717        1015564188.1499853     
  -3037701903.3834395       -49382047.948498845        1029688868.8637621     
  -2899791852.9223371       -24004399.599866033        1049173629.7712282     
  -3743285648.4340935       -53828972.941652536        917270843.87596762     
  -3600146426.1149912       -59865253.027444839        929347776.27490044     
  -3453310732.1070724       -53579960.817184687        947336436.47116566     
  -3302778566.4103403       -34973096.310884356        971236824.46476173     
  -3148549929.0247998       -4044659.5085459948        1001048940.2556953     
  -4040296093.1040282       -38257526.071904421        828547411.49128413     
  -3881356917.1117563       -45252741.106458664        850111388.45341218     
  -3718023013.0101075       -37598862.443094492        878138740.81651247     
  -3550294380.7990909       -15295890.081831455        912629468.58058619     
  -3378171020.4786954        21656175.977360725        953583571.74563432     
  -2344864746.7717481       -46700593.598823428        1147400971.8187158     
  -2248086883.6817980       -31952725.698837638        1137303149.3285921     
  -2150919316.0857091       -15905842.778392076        1131028083.2499254     
  -2053362043.9834850        1440055.1625082493        1128575773.5827181     
  -1955415067.3751171        20084968.123882532        1129946220.3269696     
  -2631896792.1713209       -38223044.296625614        1097957640.2922325     
  -2525459532.9304762       -20639352.102946877        1093894438.0813415     
  -2419803709.2928090       -5660445.2532037497        1092784363.1995969     
  -2314929321.2583318        6713676.2525750399        1094627415.6469965     
  -2210836368.8270369        16483012.414411068        1099423595.4235497     
  -2899791852.9223371       -24004399.599866033        1049173629.7712282     
  -2786179852.0514784       -4330279.4687578678        1049778717.7120240     
  -2674520426.8931274        8835254.9539992809        1052467303.8996565     
  -2564813577.4472809        15492203.668404579        1057239388.3341287     
  -2457059303.7139421        15640566.674448848        1064094971.0154392     
  -3148549929.0247998       -4044659.5085459948        1001048940.2556953     
  -3030247841.0448141        16974492.203728557        1004955988.2206351     
  -2915069468.8866515        27581257.843250513        1010076905.3501059     
  -2803014812.5503254        27775637.409995556        1016411691.6441019     
  -2694083872.0358224        17557630.903985023        1023960347.1026318     
  -3378171020.4786954        21656175.977360725        953583571.74563432     
  -3257663499.9104714        43274962.914524555        959426249.60717893     
  -3141450835.2733879        50577563.414542198        965613167.55094063     
  -3029533026.5674591        43563977.477380872        972144325.57692492     
  -2921910073.7926841        22234205.103043437        979019723.68512571     
  -1955415067.3751171        20084968.123882532        1129946220.3269696     
  -1640255517.5165930        129320615.48496497        1005130201.3826799     
  -1308720641.9941001        293140681.72593176        901497219.65139198     
  -960810440.80763042        511545166.84682178        819047275.13310707     
  -596524913.95719194        784534070.84761822        757780367.82781792     
  -2210836368.8270369        16483012.414411068        1099423595.4235497     
  -1849787428.3162811        112466645.57056201        989341499.64326024     
  -1481938919.9580748        231115504.88486481        896434055.04513109     
  -1107290843.7524147        372429590.35734403        820701261.62916160     
  -725843199.69931388        536408901.98798108        762143119.39536428     
  -2457059303.7139421        15640566.674448848        1064094971.0154392     
  -2061573504.0676277        94936426.170661688        957575080.94653833     
  -1668863894.3903930        164978319.10329521        864221456.02896023     
  -1278930474.6822305        225766245.47235012        784034096.26271021     
  -891773244.94313979        277300205.27783263        717013001.64777601     
  -2694083872.0358224        17557630.903985023        1023960347.1026318     
  -2275613744.7706437        76729957.285270333        909830945.29251122     
  -1869495565.2910631        94729124.381209850        804859422.60287392     
  -1475729333.5970786        71555132.191843331        709045779.03371739     
  -1094315049.6886833        7207980.7171689272        622390014.58505738     
  -2921910073.7926841        22234205.103043437        979019723.68512571     
  -2491908150.4253244        57847238.914359689        846109092.68117774     
  -2083833932.6600752        20367920.718635917        718347954.76687431     
  -1697687420.4969475       -90203749.484158099        595736309.94221890     
  -1333468613.9359403       -273867771.69400871        478274158.20720363     
  -5953698353.2970734       -1786109505.9891219        1154772475.9918916     
  -6084818130.7611551       -1501642280.8581066        1233496599.7755647     
  -6218361706.6161060       -1225254383.6966546        1275092854.6002727     
  -6354329080.8619261       -956945814.50476491        1279561240.4660158     
  -6492720253.4986143       -696716573.28243828        1246901757.3727932     
  -6804830183.0391092       -2041449054.9117329        1358089319.5506113     
  -6822684129.7312317       -1394552798.2623801        1207494106.0848105     
  -6891647456.5894852       -918021142.16679001        1097516854.8983271     
  -7011720163.6138639       -611854086.62496018        1028157565.9911609     
  -7182902250.8043718       -476051631.63689113        999416239.36331213     
  -8333003628.1440964       -2499901088.4432287        1716132732.8449304     
  -8015460797.6691685       -1423936516.3570118        1279418336.7251866     
  -7797712929.1356287       -680621817.40875435        961067734.12304235     
  -7679760022.5434761       -269956991.59845638        761080925.03849828     
  -7661602077.8927116       -191942038.92611742        679457909.47155368     
  -10538218688.612036       -3161465606.5836105        2228902715.8748498     
  -9663148134.5749626       -1589793435.1420012        1449269291.6966937     
  -8936558124.2545414       -513056409.42255068        865745492.27441931     
  -8358448657.6507654        68745470.574743271        478331317.60802728     
  -7928819734.7636337        155612204.84988022        287026767.69751734     
  -13420475364.442928       -4026142609.3328786        2896399268.6403685     
  -11765746140.448622       -1892123554.6173491        1717046970.9993305     
  -10308183041.946218       -415324918.20817518        811550129.35245728     
  -9047786068.9357243        404253299.89464283        179908743.69974804     
  -7984555221.4171391        566611099.69110394       -177877185.95879751     
  -6492720253.4986143       -696716573.28243828        1246901757.3727932     
  -6235328573.8826675       -368872471.20780420        1064910674.3766012     
  -6009218586.9682570       -145300678.13829017        922581035.89131665     
  -5814390292.7553825       -26001194.073899031        819912841.91694295     
  -5650843691.2440472       -10974019.014632702        756906092.45347655     
  -7182902250.8043718       -476051631.63689113        999416239.36331213     
  -6891100653.3413277       -298810410.94439626        856477254.21105015     
  -6612446602.9813652       -165394347.26218224        735100503.21075630     
  -6346940099.7244892       -75803440.590252876        635285986.36243069     
  -6094581143.5706997       -30037690.928607941        557033703.66607547     
  -7661602077.8927116       -191942038.92611742        679457909.47155368     
  -7387102592.1795387       -180817308.49485302        596727525.36141503     
  -7107616507.9709997       -153070583.07903433        517460165.04430705     
  -6823143825.2670918       -108701862.67865515        441655828.52022499     
  -6533684544.0678186       -47711147.293719053        369314515.78917152     
  -7928819734.7636337        155612204.84988022        287026767.69751734     
  -7723334390.3973083       -14893163.859180927        285661487.82769799     
  -7494728301.9371605       -108329385.58884144        269660021.39196593     
  -7243001469.3831959       -124696460.33910751        239022368.39032125     
  -6968153892.7354126       -63994388.109975338        193748528.82276550     
  -7984555221.4171391        566611099.69110394       -177877185.95879751     
  -7899796047.9946289        198962022.96263027       -76720858.390105411     
  -7773781984.8798494       -31170754.791612148       -8299927.7462627394     
  -7606513032.0727978       -123787233.57160902        27385605.972724218     
  -7397989189.5734739       -78887413.377371788        30335742.766860548     
  -5650843691.2440472       -10974019.014632702        756906092.45347655     
  -5514118528.5029364       -40834924.461821079        748633009.22310638     
  -5370402870.1209860       -47394177.772875309        744358096.25814855     
  -5219696716.0981941       -30651778.947787285        744081353.55860198     
  -5062000066.4345617        9392272.0134365559        747802781.12446654     
  -6094581143.5706997       -30037690.928607941        557033703.66607547     
  -5937973830.2793932       -29753038.561101198        555855744.05371213     
  -5779266621.1610880       -22468733.436930418        559016908.94961870     
  -5618459516.2157841       -8184775.5560979843        566517198.35379469     
  -5455552515.4434814        13098835.081400394        578356612.26624489     
  -6533684544.0678186       -47711147.293719053        369314515.78917152     
  -6356220925.2467203       -16988690.617640972        369525980.01199651     
  -6181548010.4124622        4431419.4356286526        374417522.98595357     
  -6009665799.5650492        16549182.866088867        383989144.71104145     
  -5840574292.7044802        19364599.673738956        398240845.18726027     
  -6968153892.7354126       -63994388.109975338        193748528.82276550     
  -6768859813.4049196       -2541880.6314463615        189643717.09796864     
  -6577247037.8751097        33306280.844805241        190559938.36715782     
  -6393315566.1459866        43550096.318770170        196497192.63033798     
  -6217065398.2175455        28189565.790461540        207455479.88750839     
  -7397989189.5734739       -78887413.377371788        30335742.766860548     
  -7175890494.7539883        13587391.397493839        16208955.311621295     
  -6966363703.5490265        64155850.790609360        7444155.0932287918     
  -6769408815.9585924        72817964.801959038        4041342.1116853557     
  -6585025831.9826889        39573733.431557178        6000516.3669949118     
  -5062000066.4345617        9392272.0134365559        747802781.12446654     
  -4939070601.3456411        41749037.266082764        729993835.34926045     
  -4821323146.4049225        56832435.358057499        717942094.71362436     
  -4708757701.6124058        54642466.289359808        711647559.21755767     
  -4601374266.9680920        35179130.059987068        711110228.86105943     
  -5455552515.4434814        13098835.081400394        578356612.26624489     
  -5320010623.4190941        25980452.996636391        560552460.68494260     
  -5186695523.9895391        31439428.929085732        551187235.60768175     
  -5055607217.1548233        29475762.878746748        550260937.03446066     
  -4926745702.9149437        20089454.845619678        557773564.96527731     
  -5840574292.7044802        19364599.673738956        398240845.18726027     
  -5684757912.7032728        15069688.563974380        383889241.61212069     
  -5528213107.7435408        13202860.649301767        380658285.90549320     
  -5370939877.8252811        13764115.929723263        388547978.06737930     
  -5212938222.9484911        16753454.405244827        407558318.09777343     
  -6217065398.2175455        28189565.790461540        207455479.88750839     
  -6033312469.1981821        9016743.9680941105        200004178.13079402     
  -5845875897.6669235        2122730.5187053680        206355245.60706249     
  -5654755683.6237726        7507525.4422938824        226508682.31631014     
  -5459951827.0687256        25171128.738863230        260464488.25853965     
  -6585025831.9826889        39573733.431557178        6000516.3669949118     
  -6365674292.9038172        7821619.2089941502        8897270.2409614641     
  -6139683893.7596874       -1800961.4627046585        28278114.712383460     
  -5907054634.5503063        10705991.416435480        64143049.781256489     
  -5667786515.2756538        45342477.846477032        116492075.44758160     
  -4601374266.9680920        35179130.059987068        711110228.86105943     
  -4460881632.6908693        17563602.064374924        734292434.82606065     
  -4320537725.6211138       -547683.28946995735        761592700.58609462     
  -4180342545.7588310       -19154726.001563549        793011026.14117157     
  -4040296093.1040282       -38257526.071904421        828547411.49128413     
  -4926745702.9149437        20089454.845619678        557773564.96527731     
  -4777818047.5636482        11970613.267281532        592083167.00275218     
  -4629797034.2627716        829631.52088809013        626571643.97510195     
  -4482682663.0123129       -13333490.393571377        661238995.88232458     
  -4336474933.8122711       -30518752.476081371        696085222.72442281     
  -5212938222.9484911        16753454.405244827        407558318.09777343     
  -5066830360.4093056        14754855.078320980        452111082.22428322     
  -4922387054.7634811        7207732.7735314369        492903536.42550784     
  -4779608306.0110216       -5887912.5091354847        529935680.70144713     
  -4638494114.1519232       -24532080.769679070        563207515.05209959     
  -5459951827.0687256        25171128.738863230        260464488.25853965     
  -5327918571.2278328        25916327.497497559        314376180.49065584     
  -5198307787.1232405        18586620.468451500        360588377.93732661     
  -5071119474.7549582        3182007.6517179012        399101080.59854257     
  -4946353634.1229744       -20297510.952688932        429914288.47431064     
  -5667786515.2756538        45342477.846477032        116492075.44758160     
  -5561082680.0192251        45455030.524831295        178878461.80186412     
  -5457559231.3420467        34966294.605674744        229626168.51054513     
  -5357216169.2441206        13876270.089014769        268735195.57360709     
  -5260053493.7254438       -17815043.025141001        296205542.99105406     
  -4040296093.1040282       -38257526.071904421        828547411.49128413     
  -3881356917.1117563       -45252741.106458664        850111388.45341218     
  -3718023013.0101075       -37598862.443094492        878138740.81651247     
  -3550294380.7990909       -15295890.081831455        912629468.58058619     
  -3378171020.4786954        21656175.977360725        953583571.74563432     
  -4336474933.8122711       -30518752.476081371        696085222.72442281     
  -4159462861.2733455       -35356966.294908047        720130918.05034244     
  -3979496402.5551996       -30347226.182994843        751117696.57677448     
  -3796575557.6578379       -15489532.140379190        789045558.30372345     
  -3610700326.5812511        9216115.8330016136        833914503.23118544     
  -4638494114.1519232       -24532080.769679070        563207515.05209959     
  -4442044265.6390800       -26803829.544604540        588054529.82329440     
  -4244080372.8771744       -24028764.155976295        620320335.59454846     
  -4044602435.8662052       -16206884.603806019        660004932.36585641     
  -3843610454.6061697       -3338190.8880763054        707108320.13722467     
  -4946353634.1229744       -20297510.952688932        429914288.47431064     
  -4729101130.2089624       -19593330.855551720        453882223.77227092     
  -4511774923.9760342       -18643476.362011671        485746657.86983359     
  -4294375015.4241977       -17447947.472130775        525507590.76698720     
  -4076901404.5534458       -16006744.185849667        573165022.46374345     
  -5260053493.7254438       -17815043.025141001        296205542.99105406     
  -5020633454.9829865       -13725470.227728367        317613999.89726919     
  -4782580055.8517704       -14191362.801106930        347396663.40262145     
  -4545893296.3318052       -19212720.745322227        385553533.50711411     
  -4310573176.4230757       -28789544.060335875        432084610.21075469     
  -3378171020.4786954        21656175.977360725        953583571.74563432     
  -3257663499.9104714        43274962.914524555        959426249.60717893     
  -3141450835.2733879        50577563.414542198        965613167.55094063     
  -3029533026.5674591        43563977.477380872        972144325.57692492     
  -2921910073.7926841        22234205.103043437        979019723.68512571     
  -3610700326.5812511        9216115.8330016136        833914503.23118544     
  -3476045935.2380538        16014813.766892910        841224851.60272658     
  -3346021115.6473441        7381605.8591420650        862493188.71970165     
  -3220625867.8091183       -16683507.890222549        897719514.58211839     
  -3099860191.7233887       -56180527.481223583        946903829.18997288     
  -3843610454.6061697       -3338190.8880763054        707108320.13722467     
  -3655912767.7359371        309345.46815943718        715495837.22719741     
  -3473179368.4395404       -12590743.421714067        751455091.72582412     
  -3295410256.7169700       -42038457.557673812        814986083.63311315     
  -3122605432.5682287       -88033796.939732790        906088812.94906175     
  -4076901404.5534458       -16006744.185849667        573165022.46374345     
  -3797263997.4041295       -3841441.9816713333        582239206.48058689     
  -3522925593.6499839       -9339484.4280421734        632498876.56930125     
  -3253886193.2910085       -32500871.524992585        723944032.72990489     
  -2990145796.3271952       -73325603.272479296        856574674.96237731     
  -4310573176.4230757       -28789544.060335875        432084610.21075469     
  -3900099624.2426205        3562451.4174220562        441454959.36290163     
  -3495259791.2786765        17135382.840141535        505624543.25015217     
  -3096053677.5312347        11929250.207867384        624593361.87248945     
  -2702481283.0003018       -12055946.479461193        798361415.22993970     
  -2921910073.7926841        22234205.103043437        979019723.68512571     
  -2491908150.4253244        57847238.914359689        846109092.68117774     
  -2083833932.6600752        20367920.718635917        718347954.76687431     
  -1697687420.4969475       -90203749.484158099        595736309.94221890     
  -1333468613.9359403       -273867771.69400871        478274158.20720363     
  -3099860191.7233887       -56180527.481223583        946903829.18997288     
  -2647380339.8495083       -51756387.022683144        843936950.85342622     
  -2226925702.6101036       -154082962.01240325        760308730.59058309     
  -1838496280.0051877       -363160252.45041943        696019168.40144026     
  -1482092072.0347474       -678988258.33668041        651068264.28600502     
  -3122605432.5682287       -88033796.939732790        906088812.94906175     
  -2607107180.8048000       -102636408.41904187        821285260.07548642     
  -2133731652.7082288       -257648098.78789186        770009530.25967872     
  -1702478848.2784951       -553068868.04619765        752261623.50163114     
  -1313348767.5156076       -988898716.19396818        768041539.80134177     
  -2990145796.3271952       -73325603.272479296        856574674.96237731     
  -2371088673.2912102       -94792825.274784088        778154020.34736502     
  -1804251782.9544234       -290327489.60776788        747450353.77416253     
  -1289635125.3168516       -659929596.27146220        764463675.24278247     
  -827238700.37849391       -1203599145.2658637        829193984.75321937     
  -2702481283.0003018       -12055946.479461193        798361415.22993970     
  -1939324817.3087118       -28225637.589780569        714543231.66904330     
  -1238486093.3487220       -252121134.47211331        692631201.13402820     
  -599965111.12030208       -683742437.12630630        732625323.62489700     
  -23761870.623424232       -1323089545.5523725        834525599.14163160     
 </DataArray>
 <DataArray  type="Float64" Name="VM" NumberOfComponents="1" format="ascii">
   12940387234.776381     
   11339992031.701109     
   10204201486.263634     
   9261779112.1735973     
   8288137831.6396246     
   10130978428.674467     
   9318938244.7458763     
   8819800753.7340794     
   8433824632.7824507     
   8023177161.2828026     
   7980733346.5525599     
   7731263384.2902117     
   7663630536.9347467     
   7662644347.2522697     
   7658419796.1484833     
   6489586559.8168821     
   6584324494.2095833     
   6754592449.1506529     
   6958430813.1333361     
   7169224227.3892422     
   5657141719.8706179     
   5891287009.8596106     
   6117824862.0024891     
   6334376500.1863632     
   6540759622.9278622     
   8288137831.6396246     
   8002236009.9668999     
   7758256890.4623594     
   7545530100.3182640     
   7359050197.7611341     
   8023177161.2828026     
   7731746147.1666431     
   7455798940.7353535     
   7193388486.9879484     
   6944491103.5220680     
   7658419796.1484833     
   7371194938.1704855     
   7089215125.2179756     
   6812532489.7925177     
   6541311804.5089731     
   7169224227.3892422     
   6907827670.0339184     
   6654266475.5023460     
   6404610819.3683949     
   6155697691.9452324     
   6540759622.9278622     
   6333833949.3213396     
   6149157997.6886768     
   5972721377.4870815     
   5795589951.3457947     
   7359050197.7611341     
   7182748696.2147551     
   6998674050.0995197     
   6806113556.4540510     
   6604909792.2139416     
   6944491103.5220680     
   6775555934.3140268     
   6602218628.0530796     
   6424223181.6545076     
   6241559622.3581238     
   6541311804.5089731     
   6379929274.2816420     
   6217677534.1621571     
   6054597835.1759796     
   5890803913.8507004     
   6155697691.9452324     
   6000889310.1334419     
   5848766915.7344809     
   5699473107.5532532     
   5553213063.0482206     
   5795589951.3457947     
   5644763606.3217211     
   5500104934.7674580     
   5361637019.7661810     
   5229637039.7176666     
   6604909792.2139416     
   6369607346.2329950     
   6138979001.3930054     
   5913458627.7503300     
   5694169177.1558704     
   6241559622.3581238     
   6047755492.7371655     
   5857851670.8703051     
   5672097493.4980726     
   5491144319.5927401     
   5890803913.8507004     
   5731010382.3050394     
   5573957741.0574551     
   5419780388.0566444     
   5268837790.7325087     
   5553213063.0482206     
   5420706733.1243744     
   5289356080.6092758     
   5159206560.1773357     
   5030460862.7687416     
   5229637039.7176666     
   5118694738.7607489     
   5006866974.2451448     
   4894079052.3930016     
   4780459008.5384855     
   5694169177.1558704     
   5592537744.9497356     
   5489552856.1716881     
   5384324621.4393730     
   5276171455.1425829     
   5491144319.5927401     
   5368609241.5546923     
   5244944253.3404503     
   5119594145.1141577     
   4992084382.4693441     
   5268837790.7325087     
   5134292672.4473257     
   4999428688.0823278     
   4864056310.0824184     
   4728006522.0473843     
   5030460862.7687416     
   4892501347.2715349     
   4755695361.0588703     
   4620234070.0243435     
   4486335514.9122419     
   4780459008.5384855     
   4647115095.4335136     
   4517161783.3248539     
   4391145277.7035103     
   4269702198.5364594     
   5276171455.1425829     
   5043874907.3757954     
   4813258291.5918646     
   4585207802.6042585     
   4360947355.9686699     
   4992084382.4693441     
   4784365138.0439157     
   4580414263.0629787     
   4381267836.8055162     
   4188278618.8448758     
   4728006522.0473843     
   4544319123.4463043     
   4366372355.0098944     
   4195275992.6308446     
   4032434536.8306842     
   4486335514.9122419     
   4325630709.8898067     
   4172418875.9936323     
   4027803047.6262727     
   3893168197.4256358     
   4269702198.5364594     
   4130303306.8997970     
   3999837285.1947470     
   3879329437.2213626     
   3770097025.8469167     
   4360947355.9686699     
   3976094959.7084413     
   3611647239.2027273     
   3285266333.6428113     
   3030365045.4778895     
   4188278618.8448758     
   3927040760.3839784     
   3684881835.5466585     
   3472083296.1947689     
   3305791101.0959330     
   4032434536.8306842     
   3860392736.5001845     
   3703168617.0415940     
   3565889647.3422818     
   3456372467.6123285     
   3893168197.4256358     
   3776479550.9864874     
   3667736945.9911227     
   3568848408.5214028     
   3482530439.7869773     
   3770097025.8469167     
   3676508622.7574239     
   3581533852.5404005     
   3485274803.5987525     
   3387987314.7261424     
   3030365045.4778895     
   2288832637.7952247     
   1650569081.6433718     
   1423888985.1420979     
   1951663499.7247393     
   3305791101.0959330     
   2687537166.2480478     
   2119395373.8456471     
   1732285072.6947834     
   1788854094.1384554     
   3456372467.6123285     
   2926343520.8659639     
   2418302180.2036414     
   1990081406.0094740     
   1781488188.6674016     
   3482530439.7869773     
   3001827989.1854334     
   2524681451.7514472     
   2073068550.5961452     
   1709669121.3132701     
   3387987314.7261424     
   2916299766.6702123     
   2435835262.7816033     
   1949832499.4699340     
   1474512303.7155688     
   5657141719.8706179     
   5891287009.8596106     
   6117824862.0024891     
   6334376500.1863632     
   6540759622.9278622     
   5152911744.0333490     
   5314151287.8227787     
   5472154036.9885540     
   5624084453.8680153     
   5768511863.8420534     
   4646645870.3894300     
   4760352088.9627705     
   4875391779.1211443     
   4989161355.5770903     
   5099755066.8512383     
   4138588558.6119881     
   4230683796.5794091     
   4328959489.0542955     
   4431753184.8748875     
   4537602918.6016121     
   3630184469.7514749     
   3726879600.6811714     
   3835096323.2075143     
   3954725488.8198242     
   4085634052.6975265     
   6540759622.9278622     
   6333833949.3213396     
   6149157997.6886768     
   5972721377.4870815     
   5795589951.3457947     
   5768511863.8420534     
   5663172214.9137764     
   5573994601.0155268     
   5491859371.7283392     
   5411271196.5867777     
   5099755066.8512383     
   5069794654.3870087     
   5050597902.0385437     
   5036917399.8486013     
   5025551282.9753180     
   4537602918.6016121     
   4558043771.3261976     
   4583476433.1925411     
   4611397247.4948158     
   4640058350.7813234     
   4085634052.6975265     
   4132933738.3660994     
   4177946943.6942964     
   4219804729.8186216     
   4257790872.5278554     
   5795589951.3457947     
   5644763606.3217211     
   5500104934.7674580     
   5361637019.7661810     
   5229637039.7176666     
   5411271196.5867777     
   5273734476.0854006     
   5140979161.3799734     
   5013129185.5099220     
   4890421528.7377501     
   5025551282.9753180     
   4904149776.4323606     
   4787020785.1500874     
   4674166260.9583235     
   4565678641.1693830     
   4640058350.7813234     
   4538339728.3446827     
   4441334419.5927954     
   4348675568.8374453     
   4260220375.8233500     
   4257790872.5278554     
   4179887865.4279141     
   4108231936.4403343     
   4041796128.2261848     
   3980117402.9245682     
   5229637039.7176666     
   5118694738.7607489     
   5006866974.2451448     
   4894079052.3930016     
   4780459008.5384855     
   4890421528.7377501     
   4792626151.4440718     
   4694564751.5671692     
   4596254685.0577116     
   4497873131.9391565     
   4565678641.1693830     
   4478969125.5914106     
   4392505243.0897188     
   4306363667.9890299     
   4220738506.2735491     
   4260220375.8233500     
   4182469004.0906472     
   4105319676.7422948     
   4028877630.7602086     
   3953326026.7116423     
   3980117402.9245682     
   3909154593.4597631     
   3838942901.4222717     
   3769588064.5501480     
   3701239798.8345208     
   4780459008.5384855     
   4647115095.4335136     
   4517161783.3248539     
   4391145277.7035103     
   4269702198.5364594     
   4497873131.9391565     
   4377376830.6185694     
   4260856454.6551862     
   4148853576.7900085     
   4041997672.5747085     
   4220738506.2735491     
   4112956983.7603717     
   4009784319.7806215     
   3911744659.9676251     
   3819445843.2542987     
   3953326026.7116423     
   3857862194.6163363     
   3767693262.6194558     
   3683309988.2703004     
   3605280832.0850530     
   3701239798.8345208     
   3617324760.9042711     
   3539448123.0334635     
   3468048425.6872330     
   3403634269.5310140     
   4269702198.5364594     
   4130303306.8997970     
   3999837285.1947470     
   3879329437.2213626     
   3770097025.8469167     
   4041997672.5747085     
   3916653715.7175574     
   3799412657.5485468     
   3691065414.0300827     
   3592623713.1815519     
   3819445843.2542987     
   3705931636.1223326     
   3599764993.3254027     
   3501548371.6741610     
   3412045889.9365926     
   3605280832.0850530     
   3501439342.6174588     
   3404250147.1975203     
   3314167888.3457003     
   3231760442.4596777     
   3403634269.5310140     
   3307427311.5564466     
   3217219938.6489577     
   3133354436.5674090     
   3056248029.9614034     
   3770097025.8469167     
   3676508622.7574239     
   3581533852.5404005     
   3485274803.5987525     
   3387987314.7261424     
   3592623713.1815519     
   3501990383.2485552     
   3411679656.8086390     
   3321866527.8471618     
   3232828836.6516299     
   3412045889.9365926     
   3325185415.8916030     
   3240344105.5580449     
   3157769573.9359593     
   3077776660.3058839     
   3231760442.4596777     
   3148978105.9079275     
   3069905187.2544055     
   2994847585.2261624     
   2924159213.9980569     
   3056248029.9614034     
   2977156104.3778663     
   2903475209.2321763     
   2835543077.0491881     
   2773744999.6368146     
   3387987314.7261424     
   2916299766.6702123     
   2435835262.7816033     
   1949832499.4699340     
   1474512303.7155688     
   3232828836.6516299     
   2800408933.3122931     
   2371598411.1226635     
   1948520197.6018565     
   1538692033.9052768     
   3077776660.3058839     
   2684337304.6177979     
   2308308272.0131888     
   1954354440.7461491     
   1631492188.5667179     
   2924159213.9980569     
   2564915490.1698036     
   2236702583.1524210     
   1948803830.5240562     
   1716542460.1030993     
   2773744999.6368146     
   2439291085.9861708     
   2149514398.6317248     
   1920637502.0775616     
   1778207821.7944753     
   3630184469.7514749     
   3726879600.6811714     
   3835096323.2075143     
   3954725488.8198242     
   4085634052.6975265     
   3143231296.8994412     
   3262689732.9127631     
   3391732704.6034894     
   3529854885.8983912     
   3676566988.0382819     
   2699260395.4345579     
   2836622883.0834651     
   2981357852.2143259     
   3132364286.6882701     
   3288715633.0255337     
   2301672003.4961085     
   2453365589.0385580     
   2609733731.3253174     
   2768859814.7228146     
   2929319490.6789069     
   1955587415.3925111     
   2119789515.4766369     
   2285196272.7424855     
   2448879863.4416924     
   2608908456.5206327     
   4085634052.6975265     
   4132933738.3660994     
   4177946943.6942964     
   4219804729.8186216     
   4257790872.5278554     
   3676566988.0382819     
   3721204608.4191761     
   3764636161.5011940     
   3805982046.7217388     
   3844504324.6941252     
   3288715633.0255337     
   3336066865.5022407     
   3383589387.2418947     
   3430456805.8779931     
   3475984171.9048796     
   2929319490.6789069     
   2984798009.1227021     
   3042139312.2762494     
   3100629123.9019227     
   3159703762.7470069     
   2608908456.5206327     
   2677504091.7117338     
   2749944341.1474390     
   2825665202.3895411     
   2904266385.6367078     
   4257790872.5278554     
   4179887865.4279141     
   4108231936.4403343     
   4041796128.2261848     
   3980117402.9245682     
   3844504324.6941252     
   3796128603.2605157     
   3753348863.3416290     
   3715534301.8159256     
   3682439964.0467038     
   3475984171.9048796     
   3451997054.9347467     
   3432591340.7880507     
   3417415455.4009833     
   3406339268.2972136     
   3159703762.7470069     
   3155260136.6647673     
   3153818457.5522552     
   3155203131.9568539     
   3159331452.5417180     
   2904266385.6367078     
   2914960712.5824594     
   2926327960.8320184     
   2938287821.5150900     
   2950778528.4744425     
   3980117402.9245682     
   3909154593.4597631     
   3838942901.4222717     
   3769588064.5501480     
   3701239798.8345208     
   3682439964.0467038     
   3619957235.4387708     
   3558966957.3931279     
   3499621664.2849755     
   3442152976.4772825     
   3406339268.2972136     
   3354803924.5601254     
   3305797764.8561673     
   3259521502.2026582     
   3216299992.3552284     
   3159331452.5417180     
   3121083618.9181204     
   3086707337.6404181     
   3056438676.5459676     
   3030690111.4582076     
   2950778528.4744425     
   2927703057.6748414     
   2910123325.8750944     
   2898276403.3080311     
   2892632034.8033547     
   3701239798.8345208     
   3617324760.9042711     
   3539448123.0334635     
   3468048425.6872330     
   3403634269.5310140     
   3442152976.4772825     
   3372456365.3917599     
   3309387009.5851855     
   3253316028.8704519     
   3204667503.5896854     
   3216299992.3552284     
   3159679688.8416610     
   3110139731.0120616     
   3067952638.9947724     
   3033430651.9580145     
   3030690111.4582076     
   2985581401.8101888     
   2947818802.5100446     
   2917552127.0199656     
   2894965236.2734208     
   2892632034.8033547     
   2856946534.9747443     
   2828641473.2300410     
   2807733590.4395318     
   2794278239.7718153     
   3403634269.5310140     
   3307427311.5564466     
   3217219938.6489577     
   3133354436.5674090     
   3056248029.9614034     
   3204667503.5896854     
   3119337104.7930975     
   3040755096.5199890     
   2969258244.7488461     
   2905251395.6781521     
   3033430651.9580145     
   2958896701.0041895     
   2891899930.5634632     
   2832748520.8538237     
   2781808050.0316963     
   2894965236.2734208     
   2830675133.6874928     
   2774719309.6061025     
   2727353089.1457968     
   2688876322.0568647     
   2794278239.7718153     
   2739067371.4946780     
   2692963791.7068367     
   2656151059.8376408     
   2628844684.1976895     
   3056248029.9614034     
   2977156104.3778663     
   2903475209.2321763     
   2835543077.0491881     
   2773744999.6368146     
   2905251395.6781521     
   2838061186.6871762     
   2777280019.8272619     
   2723251889.6247125     
   2676363166.0215759     
   2781808050.0316963     
   2725618316.9000444     
   2676714331.7630348     
   2635423212.4681540     
   2602113405.0765963     
   2688876322.0568647     
   2642090546.7827311     
   2603314004.0966802     
   2572843514.0533156     
   2551024123.6404910     
   2628844684.1976895     
   2589131227.8459907     
   2557989196.1209607     
   2535686947.0628095     
   2522558233.5619669     
   2773744999.6368146     
   2439291085.9861708     
   2149514398.6317248     
   1920637502.0775616     
   1778207821.7944753     
   2676363166.0215759     
   2354051438.5731282     
   2070887184.1878808     
   1839269380.3795443     
   1679430064.4961588     
   2602113405.0765963     
   2283814184.1766081     
   1999668521.7882466     
   1759585902.6762862     
   1580252366.6922626     
   2551024123.6404910     
   2230441102.5773034     
   1939038122.1671603     
   1685083151.3135338     
   1482958066.7060003     
   2522558233.5619669     
   2195626876.8767176     
   1892581870.7544882     
   1620431451.9113379     
   1391866161.8493590     
   1955587415.3925111     
   2119789515.4766369     
   2285196272.7424855     
   2448879863.4416924     
   2608908456.5206327     
   1650754665.5261149     
   1816659800.8912332     
   1984004295.4428856     
   2150103620.9004860     
   2313211434.7099252     
   1386914780.0574081     
   1563088610.3918333     
   1739908582.3766510     
   1915365012.3502529     
   2088206885.1683264     
   1197020975.4719248     
   1387319314.7412062     
   1576717627.6338112     
   1764430804.8315589     
   1949996995.7754040     
   1125290318.6602538     
   1321728765.7432840     
   1517874483.1342957     
   1713727470.8332875     
   1909287728.8402610     
   2608908456.5206327     
   2677504091.7117338     
   2749944341.1474390     
   2825665202.3895411     
   2904266385.6367078     
   2313211434.7099252     
   2399206267.5503960     
   2486959693.0799155     
   2576053812.3444610     
   2666190123.4017329     
   2088206885.1683264     
   2189374468.2438526     
   2289769741.7468982     
   2389146379.4131174     
   2487329696.4178815     
   1949996995.7754040     
   2063369180.0162516     
   2173210308.8404489     
   2279443520.7341714     
   2382015328.0251393     
   1909287728.8402610     
   2031397631.4136875     
   2147403046.2886336     
   2257303973.4650989     
   2361100412.9430842     
   2904266385.6367078     
   2914960712.5824594     
   2926327960.8320184     
   2938287821.5150900     
   2950778528.4744425     
   2666190123.4017329     
   2681443947.5373831     
   2698205929.8928900     
   2716437226.3468509     
   2736110939.5543175     
   2487329696.4178815     
   2507070036.4942679     
   2529194213.6583190     
   2553690473.9171000     
   2580552960.7051120     
   2382015328.0251393     
   2405036464.5529289     
   2431320211.5012188     
   2460865577.4150367     
   2493673131.7743440     
   2361100412.9430842     
   2384966665.2146363     
   2412936840.1949453     
   2445010937.8840089     
   2481188958.2818270     
   2950778528.4744425     
   2927703057.6748414     
   2910123325.8750944     
   2898276403.3080311     
   2892632034.8033547     
   2736110939.5543175     
   2730409948.7388120     
   2730504973.4521670     
   2736563302.2835598     
   2748883993.1044464     
   2580552960.7051120     
   2588666844.1738110     
   2602490304.7878442     
   2622106709.5967245     
   2647657028.2416019     
   2493673131.7743440     
   2511070169.9007578     
   2533692907.4795570     
   2561562368.3291140     
   2594713593.1660051     
   2481188958.2818270     
   2502767287.4364057     
   2528739177.8137341     
   2559104629.4138141     
   2593863642.2366452     
   2892632034.8033547     
   2856946534.9747443     
   2828641473.2300410     
   2807733590.4395318     
   2794278239.7718153     
   2748883993.1044464     
   2719483639.0819592     
   2698078127.5669270     
   2684700647.5378842     
   2679407216.4649010     
   2647657028.2416019     
   2623322416.3282375     
   2607690086.8935719     
   2600787008.9372168     
   2602650483.2058449     
   2594713593.1660051     
   2573403612.5053253     
   2561575912.5629253     
   2559240467.9655209     
   2566409816.2176242     
   2593863642.2366452     
   2572774723.5054197     
   2562000745.6473627     
   2561541708.6624703     
   2571397612.5507503     
   2794278239.7718153     
   2739067371.4946780     
   2692963791.7068367     
   2656151059.8376408     
   2628844684.1976895     
   2679407216.4649010     
   2632936496.6453185     
   2595531863.8180776     
   2567301356.7729721     
   2548369825.9219537     
   2602650483.2058449     
   2563035076.5785642     
   2532366234.3610692     
   2510692720.4651895     
   2498070149.9399304     
   2566409816.2176242     
   2531543011.0507064     
   2505429823.7566390     
   2488082225.0883727     
   2479513742.1954231     
   2571397612.5507503     
   2539080707.5309448     
   2515265988.8882847     
   2499953456.6227732     
   2493143110.7344055     
   2628844684.1976895     
   2589131227.8459907     
   2557989196.1209607     
   2535686947.0628095     
   2522558233.5619669     
   2548369825.9219537     
   2512265567.1425314     
   2484395040.9115710     
   2464908613.7955375     
   2453993975.0249257     
   2498070149.9399304     
   2464565326.3750668     
   2438983623.5247016     
   2421390800.6415572     
   2411869323.3662391     
   2479513742.1954231     
   2447641238.7059150     
   2423403186.1812863     
   2406815544.5887222     
   2397898444.6104598     
   2493143110.7344055     
   2462034379.5209150     
   2438293229.6558352     
   2421919661.1391730     
   2412913673.9709263     
   2522558233.5619669     
   2195626876.8767176     
   1892581870.7544882     
   1620431451.9113379     
   1391866161.8493590     
   2453993975.0249257     
   2118530672.7574859     
   1805560240.0461566     
   1519500196.8112431     
   1268852218.0082541     
   2411869323.3662391     
   2070285792.9436967     
   1750301160.7629800     
   1454040217.2687402     
   1185791547.5316970     
   2397898444.6104598     
   2052766293.0626216     
   1729066108.8999567     
   1427348421.4019260     
   1148751067.8088565     
   2412913673.9709263     
   2066702535.5889351     
   1742613098.3335998     
   1440645362.2049255     
   1160799327.2029002     
   1125290318.6602538     
   1321728765.7432840     
   1517874483.1342957     
   1713727470.8332875     
   1909287728.8402610     
   1197020975.4678321     
   1387319314.7373528     
   1576717627.6301284     
   1764430804.8279998     
   1949996995.7719381     
   1386914780.0506756     
   1563088610.3852549     
   1739908582.3701813     
   1915365012.3438513     
   2088206885.1619625     
   1650754665.5182309     
   1816659800.8832600     
   1984004295.4348204     
   2150103620.8923120     
   2313211434.7016268     
   1955587415.3845153     
   2119789515.4683211     
   2285196272.7338696     
   2448879863.4327765     
   2608908456.5114083     
   1909287728.8402610     
   2031397631.4136875     
   2147403046.2886336     
   2257303973.4650989     
   2361100412.9430842     
   1949996995.7719381     
   2063369180.0127919     
   2173210308.8369989     
   2279443520.7307396     
   2382015328.0217381     
   2088206885.1619625     
   2189374468.2374616     
   2289769741.7405000     
   2389146379.4067369     
   2487329696.4115467     
   2313211434.7016268     
   2399206267.5419955     
   2486959693.0714512     
   2576053812.3359771     
   2666190123.3932767     
   2608908456.5114083     
   2677504091.7023196     
   2749944341.1378808     
   2825665202.3798990     
   2904266385.6270447     
   2361100412.9430842     
   2384966665.2146363     
   2412936840.1949453     
   2445010937.8840089     
   2481188958.2818270     
   2382015328.0217381     
   2405036464.5498042     
   2431320211.4984059     
   2460865577.4125619     
   2493673131.7722406     
   2487329696.4115467     
   2507070036.4884267     
   2529194213.6530294     
   2553690473.9124222     
   2580552960.7010999     
   2666190123.3932767     
   2681443947.5295544     
   2698205929.8857689     
   2716437226.3405209     
   2736110939.5488544     
   2904266385.6270447     
   2914960712.5734849     
   2926327960.8238287     
   2938287821.5077868     
   2950778528.4681215     
   2481188958.2818270     
   2502767287.4364057     
   2528739177.8137341     
   2559104629.4138141     
   2593863642.2366452     
   2493673131.7722406     
   2511070169.8995657     
   2533692907.4792995     
   2561562368.3297949     
   2594713593.1675925     
   2580552960.7010999     
   2588666844.1715288     
   2602490304.7873454     
   2622106709.5980201     
   2647657028.2446470     
   2736110939.5488544     
   2730409948.7357235     
   2730504973.4515476     
   2736563302.2854514     
   2748883993.1088085     
   2950778528.4681215     
   2927703057.6713495     
   2910123325.8745704     
   2898276403.3105507     
   2892632034.8089070     
   2593863642.2366452     
   2572774723.5054197     
   2562000745.6473627     
   2561541708.6624703     
   2571397612.5507503     
   2594713593.1675925     
   2573403612.5076661     
   2561575912.5660028     
   2559240467.9693108     
   2566409816.2221155     
   2647657028.2446470     
   2623322416.3327360     
   2607690086.8994861     
   2600787008.9445205     
   2602650483.2145195     
   2748883993.1088085     
   2719483639.0883718     
   2698078127.5753579     
   2684700647.5483017     
   2679407216.4773083     
   2892632034.8089070     
   2856946534.9828262     
   2828641473.2406178     
   2807733590.4525938     
   2794278239.7873850     
   2571397612.5507503     
   2539080707.5309448     
   2515265988.8882847     
   2499953456.6227732     
   2493143110.7344055     
   2566409816.2221155     
   2531543011.0561395     
   2505429823.7630415     
   2488082225.0957623     
   2479513742.2038178     
   2602650483.2145195     
   2563035076.5890975     
   2532366234.3735065     
   2510692720.4795737     
   2498070149.9563169     
   2679407216.4773083     
   2632936496.6603994     
   2595531863.8359036     
   2567301356.7936335     
   2548369825.9455423     
   2794278239.7873850     
   2739067371.5135927     
   2692963791.7292347     
   2656151059.8636503     
   2628844684.2274628     
   2493143110.7344055     
   2462034379.5209150     
   2438293229.6558352     
   2421919661.1391730     
   2412913673.9709263     
   2479513742.2038178     
   2447641238.7158008     
   2423403186.1927409     
   2406815544.6018643     
   2397898444.6254225     
   2498070149.9563169     
   2464565326.3943887     
   2438983623.5471439     
   2421390800.6673503     
   2411869323.3956456     
   2548369825.9455423     
   2512265567.1704292     
   2484395040.9440651     
   2464908613.8329587     
   2453993975.0676937     
   2628844684.2274628     
   2589131227.8813286     
   2557989196.1622391     
   2535686947.1104946     
   2522558233.6166062     
   2412913673.9709263     
   2066702535.5889351     
   1742613098.3335998     
   1440645362.2049255     
   1160799327.2029002     
   2397898444.6254225     
   2052766293.0795643     
   1729066108.9202206     
   1427348421.4276812     
   1148751067.8437448     
   2411869323.3956456     
   2070285792.9770343     
   1750301160.8028193     
   1454040217.3192089     
   1185791547.5993471     
   2453993975.0676937     
   2118530672.8059545     
   1805560240.1038744     
   1519500196.8836892     
   1268852218.1034155     
   2522558233.6166062     
   2195626876.9385118     
   1892581870.8276758     
   1620431452.0020638     
   1391866161.9656413     
   1955587415.3845153     
   2119789515.4683211     
   2285196272.7338696     
   2448879863.4327765     
   2608908456.5114083     
   2301672003.4886680     
   2453365589.0306787     
   2609733731.3170123     
   2768859814.7140894     
   2929319490.6697626     
   2699260395.4281087     
   2836622883.0765562     
   2981357852.2069488     
   3132364286.6804194     
   3288715633.0172052     
   3143231296.8942986     
   3262689732.9072170     
   3391732704.5975046     
   3529854885.8919430     
   3676566988.0313473     
   3630184469.7478852     
   3726879600.6772928     
   3835096323.2032905     
   3954725488.8152032     
   4085634052.6924610     
   2608908456.5114083     
   2677504091.7023196     
   2749944341.1378808     
   2825665202.3798990     
   2904266385.6270447     
   2929319490.6697626     
   2984798009.1133089     
   3042139312.2666488     
   3100629123.8921657     
   3159703762.7371502     
   3288715633.0172052     
   3336066865.4936137     
   3383589387.2329998     
   3430456805.8688736     
   3475984171.8955851     
   3676566988.0313473     
   3721204608.4119120     
   3764636161.4936247     
   3805982046.7138982     
   3844504324.6860538     
   4085634052.6924610     
   4132933738.3606920     
   4177946943.6885667     
   4219804729.8126016     
   4257790872.5215759     
   2904266385.6270447     
   2914960712.5734849     
   2926327960.8238287     
   2938287821.5077868     
   2950778528.4681215     
   3159703762.7371502     
   3155260136.6556034     
   3153818457.5438919     
   3155203131.9493999     
   3159331452.5352755     
   3475984171.8955851     
   3451997054.9261179     
   3432591340.7801976     
   3417415455.3940167     
   3406339268.2912335     
   3844504324.6860538     
   3796128603.2530704     
   3753348863.3349094     
   3715534301.8100376     
   3682439964.0417390     
   4257790872.5215759     
   4179887865.4222169     
   4108231936.4353023     
   4041796128.2219090     
   3980117402.9211307     
   2950778528.4681215     
   2927703057.6713495     
   2910123325.8745704     
   2898276403.3105507     
   2892632034.8089070     
   3159331452.5352755     
   3121083618.9147410     
   3086707337.6402750     
   3056438676.5491858     
   3030690111.4648485     
   3406339268.2912335     
   3354803924.5572796     
   3305797764.8566508     
   3259521502.2066364     
   3216299992.3628230     
   3682439964.0417390     
   3619957235.4368877     
   3558966957.3945336     
   3499621664.2898641     
   3442152976.4858103     
   3980117402.9211307     
   3909154593.4592667     
   3838942901.4249272     
   3769588064.5561595     
   3701239798.8440700     
   2892632034.8089070     
   2856946534.9828262     
   2828641473.2406178     
   2807733590.4525938     
   2794278239.7873850     
   3030690111.4648485     
   2985581401.8197832     
   2947818802.5225916     
   2917552127.0354681     
   2894965236.2919059     
   3216299992.3628230     
   3159679688.8524590     
   3110139731.0260930     
   3067952639.0120702     
   3033430651.9786167     
   3442152976.4858103     
   3372456365.4035811     
   3309387009.6003628     
   3253316028.8890467     
   3204667503.6117611     
   3701239798.8440700     
   3617324760.9170609     
   3539448123.0495868     
   3468048425.7067804     
   3403634269.5540652     
   2794278239.7873850     
   2739067371.5135927     
   2692963791.7292347     
   2656151059.8636503     
   2628844684.2274628     
   2894965236.2919059     
   2830675133.7099028     
   2774719309.6325941     
   2727353089.1765442     
   2688876322.0920582     
   3033430651.9786167     
   2958896701.0290833     
   2891899930.5928588     
   2832748520.8879333     
   2781808050.0707698     
   3204667503.6117611     
   3119337104.8196306     
   3040755096.5512362     
   2969258244.7850690     
   2905251395.7196584     
   3403634269.5540652     
   3307427311.5839486     
   3217219938.6811867     
   3133354436.6046844     
   3056248030.0040803     
   2628844684.2274628     
   2589131227.8813286     
   2557989196.1622391     
   2535686947.1104946     
   2522558233.6166062     
   2688876322.0920582     
   2642090546.8245358     
   2603314004.1454635     
   2572843514.1095233     
   2551024123.7046199     
   2781808050.0707698     
   2725618316.9465828     
   2676714331.8174596     
   2635423212.5309224     
   2602113405.1482201     
   2905251395.7196584     
   2838061186.7367592     
   2777280019.8854070     
   2723251889.6919446     
   2676363166.0984507     
   3056248030.0040803     
   2977156104.4289370     
   2903475209.2922096     
   2835543077.1187968     
   2773744999.7166238     
   2522558233.6166062     
   2195626876.9385118     
   1892581870.8276758     
   1620431452.0020638     
   1391866161.9656413     
   2551024123.7046199     
   2230441102.6490970     
   1939038122.2508669     
   1685083151.4150546     
   1482958066.8322811     
   2602113405.1482201     
   2283814184.2562976     
   1999668521.8801887     
   1759585902.7860501     
   1580252366.8256507     
   2676363166.0984507     
   2354051438.6585279     
   2070887184.2859442     
   1839269380.4954493     
   1679430064.6346819     
   2773744999.7166238     
   2439291086.0751433     
   2149514398.7339821     
   1920637502.1979828     
   1778207821.9367445     
   3630184469.7478852     
   3726879600.6772928     
   3835096323.2032905     
   3954725488.8152032     
   4085634052.6924610     
   4138588558.6101265     
   4230683796.5773921     
   4328959489.0521088     
   4431753184.8725100     
   4537602918.5990105     
   4646645870.3894167     
   4760352088.9627371     
   4875391779.1211300     
   4989161355.5771065     
   5099755066.8512783     
   5152911744.0353079     
   5314151287.8248501     
   5472154036.9908228     
   5624084453.8705320     
   5768511863.8448362     
   5657141719.8746786     
   5891287009.8638983     
   6117824862.0071392     
   6334376500.1914606     
   6540759622.9334536     
   4085634052.6924610     
   4132933738.3606920     
   4177946943.6885667     
   4219804729.8126016     
   4257790872.5215759     
   4537602918.5990105     
   4558043771.3234272     
   4583476433.1895771     
   4611397247.4916468     
   4640058350.7779312     
   5099755066.8512783     
   5069794654.3871155     
   5050597902.0386524     
   5036917399.8486490     
   5025551282.9752407     
   5768511863.8448362     
   5663172214.9169283     
   5573994601.0189381     
   5491859371.7319069     
   5411271196.5903921     
   6540759622.9334536     
   6333833949.3276548     
   6149157997.6955709     
   5972721377.4944267     
   5795589951.3534527     
   4257790872.5215759     
   4179887865.4222169     
   4108231936.4353023     
   4041796128.2219090     
   3980117402.9211307     
   4640058350.7779312     
   4538339728.3418036     
   4441334419.5904846     
   4348675568.8357573     
   4260220375.8223519     
   5025551282.9752407     
   4904149776.4327412     
   4787020785.1509542     
   4674166260.9597178     
   4565678641.1713438     
   5411271196.5903921     
   5273734476.0894461     
   5140979161.3844624     
   5013129185.5148697     
   4890421528.7431870     
   5795589951.3534527     
   5644763606.3298140     
   5500104934.7759886     
   5361637019.7751551     
   5229637039.7270899     
   3980117402.9211307     
   3909154593.4592667     
   3838942901.4249272     
   3769588064.5561595     
   3701239798.8440700     
   4260220375.8223519     
   4182469004.0922828     
   4105319676.7467723     
   4028877630.7677279     
   3953326026.7223897     
   4565678641.1713438     
   4478969125.5956478     
   4392505243.0964289     
   4306363667.9984074     
   4220738506.2857780     
   4890421528.7431870     
   4792626151.4513969     
   4694564751.5765591     
   4596254685.0693483     
   4497873131.9532223     
   5229637039.7270899     
   5118694738.7716522     
   5006866974.2576857     
   4894079052.4073448     
   4780459008.5548010     
   3701239798.8440700     
   3617324760.9170609     
   3539448123.0495868     
   3468048425.7067804     
   3403634269.5540652     
   3953326026.7223897     
   3857862194.6300898     
   3767693262.6362848     
   3683309988.2902737     
   3605280832.1082435     
   4220738506.2857780     
   4112956983.7753162     
   4009784319.7983456     
   3911744659.9881787     
   3819445843.2777219     
   4497873131.9532223     
   4377376830.6350584     
   4260856454.6741304     
   4148853576.8114409     
   4041997672.5986571     
   4780459008.5548010     
   4647115095.4519558     
   4517161783.3454304     
   4391145277.7262278     
   4269702198.5613232     
   3403634269.5540652     
   3307427311.5839486     
   3217219938.6811867     
   3133354436.6046844     
   3056248030.0040803     
   3605280832.1082435     
   3501439342.6446743     
   3404250147.2290616     
   3314167888.3819118     
   3231760442.5009508     
   3819445843.2777219     
   3705931636.1492724     
   3599764993.3561621     
   3501548371.7090979     
   3412045889.9761195     
   4041997672.5986571     
   3916653715.7444320     
   3799412657.5786490     
   3691065414.0637636     
   3592623713.2192407     
   4269702198.5613232     
   4130303306.9269466     
   3999837285.2244596     
   3879329437.2539697     
   3770097025.8828382     
   3056248030.0040803     
   2977156104.4289370     
   2903475209.2922096     
   2835543077.1187968     
   2773744999.7166238     
   3231760442.5009508     
   3148978105.9573336     
   3069905187.3125329     
   2994847585.2936110     
   2924159214.0754428     
   3412045889.9761195     
   3325185415.9387221     
   3240344105.6133862     
   3157769574.0001507     
   3077776660.3795338     
   3592623713.2192407     
   3501990383.2930570     
   3411679656.8606219     
   3321866527.9072824     
   3232828836.7205124     
   3770097025.8828382     
   3676508622.7991786     
   3581533852.5886931     
   3485274803.6542606     
   3387987314.7895031     
   2773744999.7166238     
   2439291086.0751433     
   2149514398.7339821     
   1920637502.1979828     
   1778207821.9367445     
   2924159214.0754428     
   2564915490.2556357     
   2236702583.2491241     
   1948803830.6345551     
   1716542460.2301369     
   3077776660.3795338     
   2684337304.6994953     
   2308308272.1043072     
   1954354440.8479819     
   1631492188.6798654     
   3232828836.7205124     
   2800408933.3887811     
   2371598411.2073979     
   1948520197.6944921     
   1538692034.0027084     
   3387987314.7895031     
   2916299766.7403407     
   2435835262.8583965     
   1949832499.5507646     
   1474512303.7902305     
   5657141719.8746786     
   5891287009.8638983     
   6117824862.0071392     
   6334376500.1914606     
   6540759622.9334536     
   6489586559.8227739     
   6584324494.2165098     
   6754592449.1585836     
   6958430813.1421213     
   7169224227.3986835     
   7980733346.5596342     
   7731263384.2990303     
   7663630536.9451952     
   7662644347.2640896     
   7658419796.1613522     
   10130978428.682114     
   9318938244.7558556     
   8819800753.7463036     
   8433824632.7966385     
   8023177161.2986317     
   12940387234.784004     
   11339992031.711590     
   10204201486.276962     
   9261779112.1895142     
   8288137831.6578588     
   6540759622.9334536     
   6333833949.3276548     
   6149157997.6955709     
   5972721377.4944267     
   5795589951.3534527     
   7169224227.3986835     
   6907827670.0442247     
   6654266475.5134401     
   6404610819.3802166     
   6155697691.9577360     
   7658419796.1613522     
   7371194938.1844196     
   7089215125.2329607     
   6812532489.8085442     
   6541311804.5260487     
   8023177161.2986317     
   7731746147.1838217     
   7455798940.7539091     
   7193388487.0079107     
   6944491103.5434742     
   8288137831.6578588     
   8002236009.9868641     
   7758256890.4841251     
   7545530100.3418846     
   7359050197.7866545     
   5795589951.3534527     
   5644763606.3298140     
   5500104934.7759886     
   5361637019.7751551     
   5229637039.7270899     
   6155697691.9577360     
   6000889310.1466179     
   5848766915.7483015     
   5699473107.5676861     
   5553213063.0632353     
   6541311804.5260487     
   6379929274.2998552     
   6217677534.1814651     
   6054597835.1963387     
   5890803913.8720541     
   6944491103.5434742     
   6775555934.3372526     
   6602218628.0780821     
   6424223181.6812468     
   6241559622.3865452     
   7359050197.7866545     
   7182748696.2429838     
   6998674050.1304340     
   6806113556.4876194     
   6604909792.2501431     
   5229637039.7270899     
   5118694738.7716522     
   5006866974.2576857     
   4894079052.4073448     
   4780459008.5548010     
   5553213063.0632353     
   5420706733.1403484     
   5289356080.6262884     
   5159206560.1955004     
   5030460862.7881832     
   5890803913.8720541     
   5731010382.3268805     
   5573957741.0798082     
   5419780388.0795650     
   5268837790.7560854     
   6241559622.3865452     
   6047755492.7656956     
   5857851670.8989067     
   5672097493.5267467     
   5491144319.6215115     
   6604909792.2501431     
   6369607346.2690277     
   6138979001.4287815     
   5913458627.7857809     
   5694169177.1909542     
   4780459008.5548010     
   4647115095.4519558     
   4517161783.3454304     
   4391145277.7262278     
   4269702198.5613232     
   5030460862.7881832     
   4892501347.2925844     
   4755695361.0815678     
   4620234070.0487165     
   4486335514.9383345     
   5268837790.7560854     
   5134292672.4718561     
   4999428688.1078491     
   4864056310.1089869     
   4728006522.0750647     
   5491144319.6215115     
   5368609241.5836163     
   5244944253.3695660     
   5119594145.1435308     
   4992084382.4990644     
   5694169177.1909542     
   5592537744.9840250     
   5489552856.2052088     
   5384324621.4722099     
   5276171455.1748457     
   4269702198.5613232     
   4130303306.9269466     
   3999837285.2244596     
   3879329437.2539697     
   3770097025.8828382     
   4486335514.9383345     
   4325630709.9176817     
   4172418876.0234056     
   4027803047.6580701     
   3893168197.4596186     
   4728006522.0750647     
   4544319123.4756603     
   4366372355.0409260     
   4195275992.6635127     
   4032434536.8649487     
   4992084382.4990644     
   4784365138.0756397     
   4580414263.0966339     
   4381267836.8409510     
   4188278618.8818984     
   5276171455.1748457     
   5043874907.4108582     
   4813258291.6296072     
   4585207802.6444883     
   4360947356.0111141     
   3770097025.8828382     
   3676508622.7991786     
   3581533852.5886931     
   3485274803.6542606     
   3387987314.7895031     
   3893168197.4596186     
   3776479551.0243497     
   3667736946.0334353     
   3568848408.5688448     
   3482530439.8402991     
   4032434536.8649487     
   3860392736.5365672     
   3703168617.0805645     
   3565889647.3845110     
   3456372467.6586790     
   4188278618.8818984     
   3927040760.4215674     
   3684881835.5850592     
   3472083296.2344594     
   3305791101.1376410     
   4360947356.0111141     
   3976094959.7501197     
   3611647239.2434211     
   3285266333.6824002     
   3030365045.5162549     
   3387987314.7895031     
   2916299766.7403407     
   2435835262.8583965     
   1949832499.5507646     
   1474512303.7902305     
   3482530439.8402991     
   3001827989.2427516     
   2524681451.8123059     
   2073068550.6571224     
   1709669121.3632619     
   3456372467.6586790     
   2926343520.9126754     
   2418302180.2509251     
   1990081406.0554209     
   1781488188.7048752     
   3305791101.1376410     
   2687537166.2850423     
   2119395373.8795481     
   1732285072.7277215     
   1788854094.1717367     
   3030365045.5162549     
   2288832637.8214540     
   1650569081.6611612     
   1423888985.1636333     
   1951663499.7634671     
 </DataArray>
 <DataArray  type="Float64" Name="strain" NumberOfComponents="3" format="ascii">
  0.20354387636056887        0.0000000000000000       0.12551063497444293     
  0.18663515123420349       -2.7293338125243864E-002   7.4405368743319475E-002
  0.16972642610783817       -4.4618833239520199E-002   3.5167172271956010E-002
  0.15281770098147279       -5.1976485342829032E-002   7.7960455603525020E-003
  0.13590897585510744       -4.9366294435170349E-002  -7.7080113914910209E-003
  0.15982965011045425        0.0000000000000000        9.6585784354649692E-002
  0.15310350173368481       -2.1819183420471060E-002   6.2801669306918967E-002
  0.14637735335691535       -3.6131850464166497E-002   3.7515637998620080E-002
  0.13965120498014588       -4.2938001131086326E-002   2.0727690429753039E-002
  0.13292505660337645       -4.2237635421230518E-002   1.2437826600317767E-002
  0.12638388836002484        0.0000000000000000        7.4365751756725176E-002
  0.12647133071252314       -1.6345028715698269E-002   5.5441461258195296E-002
  0.12655877306502145       -2.7644867688812805E-002   4.1646268478769101E-002
  0.12664621541751972       -3.3899516919343606E-002   3.2980173418446557E-002
  0.12673365777001805       -3.5108976407290673E-002   2.9443176077227712E-002
  0.10320659110928071        0.0000000000000000        5.8850537180669411E-002
  0.10673863817071862       -1.0870874010925473E-002   5.2324744597148469E-002
  0.11027068523215650       -1.9157884913459100E-002   4.7559063712403073E-002
  0.11380273229359437       -2.4861032707600886E-002   4.4553494526433160E-002
  0.11733477935503228       -2.7980317393350829E-002   4.3308037039238842E-002
   9.0297758358221805E-002   0.0000000000000000        5.0040140626482391E-002
   9.3905424108271143E-002  -5.3967193061526782E-003   5.3451519323778521E-002
   9.7513089858320481E-002  -1.0670902138105405E-002   5.5254023699522023E-002
  0.10112075560836982       -1.5822548495858176E-002   5.5447653753712897E-002
  0.10472842135841917       -2.0851658379410998E-002   5.4032409486351116E-002
  0.13590897585510744       -4.9366294435170349E-002  -7.7080113914910209E-003
  0.13265807758105860       -4.2815013955914388E-002  -3.3245705301991474E-003
  0.12940717930700979       -3.8349397344431227E-002  -3.5966353564240855E-004
  0.12615628103296098       -3.5969444600720990E-002   1.1867095921792026E-003
  0.12290538275891216       -3.5675155724783608E-002   1.3145488532656791E-003
  0.13292505660337645       -4.2237635421230518E-002   1.2437826600317767E-002
  0.12864777402036903       -3.8368452554246063E-002   1.2378664472613158E-002
  0.12437049143736162       -3.5668151749780094E-002   1.1685267593726435E-002
  0.12009320885435423       -3.4136733007832543E-002   1.0357635963657789E-002
  0.11581592627134685       -3.3774196328403394E-002   8.3957695824070505E-003
  0.12673365777001805       -3.5108976407290673E-002   2.9443176077227712E-002
  0.12221428999360517       -3.3921891152577849E-002   2.5858192765781041E-002
  0.11769492221719227       -3.2986906155128982E-002   2.2423273818705462E-002
  0.11317555444077937       -3.2304021414944123E-002   1.9138419236000952E-002
  0.10865618666436651       -3.1873236932023194E-002   1.6003629017667366E-002
  0.11733477935503228       -2.7980317393350829E-002   4.3308037039238842E-002
  0.11335762550076697       -2.9475329750909607E-002   3.7114014349304600E-002
  0.10938047164650168       -3.0305660560477867E-002   3.1854355139294493E-002
  0.10540331779223640       -3.0471309822055634E-002   2.7529059409208571E-002
  0.10142616393797110       -2.9972277535642931E-002   2.4138127159046716E-002
  0.10472842135841917       -2.0851658379410998E-002   5.4032409486351116E-002
  0.10207778054185454       -2.5028768349241344E-002   4.6146129223183771E-002
   9.9427139725289909E-002  -2.7624414965826769E-002   3.9978511555493763E-002
   9.6776498908725250E-002  -2.8638598229167186E-002   3.5529556483280836E-002
   9.4125858092160647E-002  -2.8071318139262710E-002   3.2799264006545162E-002
  0.12290538275891216       -3.5675155724783608E-002   1.3145488532656791E-003
  0.11966611186908299       -3.6105908996922023E-002   7.0238806352515559E-004
  0.11642684097925374       -3.5901082697438684E-002   3.2258005406574086E-004
  0.11318757008942452       -3.5060676826333820E-002   1.7512482488749731E-004
  0.10994829919959531       -3.3584691383607534E-002   2.6002237599059841E-004
  0.11581592627134685       -3.3774196328403394E-002   8.3957695824070505E-003
  0.11280162081986837       -3.3801934389716459E-002   8.2178944076485988E-003
  0.10978731536838993       -3.3441339869995500E-002   8.2575973293105911E-003
  0.10677300991691148       -3.2692412769240571E-002   8.5148783473926390E-003
  0.10375870446543306       -3.1555153087451465E-002   8.9897374618949921E-003
  0.10865618666436651       -3.1873236932023194E-002   1.6003629017667366E-002
  0.10585207196737782       -3.1497959782510999E-002   1.6012792467303631E-002
  0.10304795727038912       -3.0981597042552291E-002   1.6224759329499360E-002
  0.10024384257340044       -3.0324148712147156E-002   1.6639529604254244E-002
   9.7439727876411794E-002  -2.9525614791295451E-002   1.7257103291568376E-002
  0.10142616393797110       -2.9972277535642931E-002   2.4138127159046716E-002
   9.8817465311611202E-002  -2.9193985175305488E-002   2.4087082242490267E-002
   9.6208766685251315E-002  -2.8521854215109069E-002   2.4224066054632110E-002
   9.3600068058891456E-002  -2.7955884655053685E-002   2.4549078595472184E-002
   9.0991369432531569E-002  -2.7496076495139410E-002   2.5062119865010675E-002
   9.4125858092160647E-002  -2.8071318139262710E-002   3.2799264006545162E-002
   9.1697800852568595E-002  -2.6890010568099983E-002   3.2440763733208311E-002
   8.9269743612976529E-002  -2.6062111387665874E-002   3.2255517504708779E-002
   8.6841686373384464E-002  -2.5587620597960326E-002   3.2243525321046587E-002
   8.4413629133792384E-002  -2.5466538198983368E-002   3.2404787182221839E-002
  0.10994829919959531       -3.3584691383607534E-002   2.6002237599059841E-004
  0.10613367964383846       -3.1958731784500843E-002   3.8554837716001100E-004
  0.10231906008808164       -3.0668403444254949E-002   1.2253849708842024E-003
   9.8504440532324836E-002  -2.9713706362869942E-002   2.7795321571630199E-003
   9.4689820976567973E-002  -2.9094640540345718E-002   5.0479899359969771E-003
  0.10375870446543306       -3.1555153087451465E-002   8.9897374618949921E-003
  0.10060029153933384       -3.0316841411974910E-002   8.6668477190484650E-003
   9.7441878613234695E-002  -2.9264758330157452E-002   8.9420606429625876E-003
   9.4283465687135512E-002  -2.8398903841998877E-002   9.8153762336369646E-003
   9.1125052761036385E-002  -2.7719277947499399E-002   1.1286794491072283E-002
   9.7439727876411794E-002  -2.9525614791295451E-002   1.7257103291568376E-002
   9.4821313654176093E-002  -2.8674951039449129E-002   1.6635200469907720E-002
   9.2202899431940377E-002  -2.7861113216059955E-002   1.6495192389213396E-002
   8.9584485209704676E-002  -2.7084101321127919E-002   1.6837079049485656E-002
   8.6966070987469002E-002  -2.6343915354653136E-002   1.7660860450723986E-002
   9.0991369432531569E-002  -2.7496076495139410E-002   2.5062119865010675E-002
   8.8796745988365136E-002  -2.7033060666923299E-002   2.4290606629737671E-002
   8.6602122544198717E-002  -2.6457468101962457E-002   2.3884780209636965E-002
   8.4407499100032271E-002  -2.5769298800257016E-002   2.3844640604708291E-002
   8.2212875655865908E-002  -2.4968552761806845E-002   2.4170187814951984E-002
   8.4413629133792384E-002  -2.5466538198983368E-002   3.2404787182221839E-002
   8.2526588541901064E-002  -2.5391170294397483E-002   3.1633066198538423E-002
   8.0639547950009730E-002  -2.5053822987864911E-002   3.1110824104232979E-002
   7.8752507358118368E-002  -2.4454496279386118E-002   3.0838060899305499E-002
   7.6865466766227075E-002  -2.3593190168960637E-002   3.0814776583756004E-002
   9.4689820976567973E-002  -2.9094640540345718E-002   5.0479899359969771E-003
   9.2911986485694764E-002  -2.8562997242051913E-002   7.7514000113975690E-003
   9.1134151994821500E-002  -2.7870567733358359E-002   9.9504673021407197E-003
   8.9356317503948290E-002  -2.7017352014264411E-002   1.1645191808226180E-002
   8.7578483013075026E-002  -2.6003350084771060E-002   1.2835573529653810E-002
   9.1125052761036385E-002  -2.7719277947499399E-002   1.1286794491072283E-002
   8.8928224490810448E-002  -2.7071531647604313E-002   1.3622967821167814E-002
   8.6731396220584484E-002  -2.6301315943258824E-002   1.5625496377215109E-002
   8.4534567950358561E-002  -2.5408630834462882E-002   1.7294380159214987E-002
   8.2337739680132582E-002  -2.4393476321216911E-002   1.8629619167167100E-002
   8.6966070987469002E-002  -2.6343915354653136E-002   1.7660860450723986E-002
   8.4520946948500375E-002  -2.5580066053156603E-002   1.9591480229563918E-002
   8.2075822909531831E-002  -2.4732064153159414E-002   2.1359153244966414E-002
   7.9630698870563274E-002  -2.3799909654661579E-002   2.2963879496931107E-002
   7.7185574831594717E-002  -2.2783602557663041E-002   2.4405658985458156E-002
   8.2212875655865908E-002  -2.4968552761806845E-002   2.4170187814951984E-002
   7.9690153858764753E-002  -2.4088600458708892E-002   2.5656937236587025E-002
   7.7167432061663571E-002  -2.3162812363059941E-002   2.7151437905394458E-002
   7.4644710264562403E-002  -2.2191188474860055E-002   2.8653689821374478E-002
   7.2121988467461234E-002  -2.1173728794109031E-002   3.0163692984526924E-002
   7.6865466766227075E-002  -2.3593190168960637E-002   3.0814776583756004E-002
   7.4435845221603375E-002  -2.2597134864261292E-002   3.1819338842236533E-002
   7.2006223676979703E-002  -2.1593560572960573E-002   3.3002350358499730E-002
   6.9576602132356044E-002  -2.0582467295058540E-002   3.4363811132545226E-002
   6.7146980587732358E-002  -1.9563855030555077E-002   3.5903721164373292E-002
   8.7578483013075026E-002  -2.6003350084771060E-002   1.2835573529653810E-002
   8.3608596897971843E-002  -2.4874409437682043E-002   1.3763273328897541E-002
   7.9638710782868660E-002  -2.3676377565802875E-002   1.5053855414127848E-002
   7.5668824667765505E-002  -2.2409254469133666E-002   1.6707319785344427E-002
   7.1698938552662295E-002  -2.1073040147673749E-002   1.8723666442547193E-002
   8.2337739680132582E-002  -2.4393476321216911E-002   1.8629619167167100E-002
   7.8720385515355207E-002  -2.3318950136584471E-002   1.9668229696711614E-002
   7.5103031350577804E-002  -2.2248150013629564E-002   2.1049021840921112E-002
   7.1485677185800414E-002  -2.1181075952352302E-002   2.2771995599795994E-002
   6.7868323021022969E-002  -2.0117727952752795E-002   2.4837150973336219E-002
   7.7185574831594717E-002  -2.2783602557663041E-002   2.4405658985458156E-002
   7.3900051945822054E-002  -2.1763490835486898E-002   2.5482362958835131E-002
   7.0614529060049377E-002  -2.0819922461456253E-002   2.6880547875555980E-002
   6.7329006174276784E-002  -1.9952897435571271E-002   2.8600213735621466E-002
   6.4043483288504066E-002  -1.9162415757831730E-002   3.0641360539030965E-002
   7.2121988467461234E-002  -2.1173728794109031E-002   3.0163692984526924E-002
   6.9147596189372357E-002  -2.0208031534389326E-002   3.1205673115268243E-002
   6.6173203911283451E-002  -1.9391694909282997E-002   3.2548433518032736E-002
   6.3198811633194504E-002  -1.8724718918790073E-002   3.4191974192820697E-002
   6.0224419355105661E-002  -1.8207103562910665E-002   3.6136295139631604E-002
   6.7146980587732358E-002  -1.9563855030555077E-002   3.5903721164373292E-002
   6.4463018246006171E-002  -1.8652572233291725E-002   3.6838160166011269E-002
   6.1779055904279970E-002  -1.7963467357109589E-002   3.8052678768351278E-002
   5.9095093562553803E-002  -1.7496540402009032E-002   3.9547276971393763E-002
   5.6411131220827582E-002  -1.7251791367989711E-002   4.1321954775138225E-002
   7.1698938552662295E-002  -2.1073040147673749E-002   1.8723666442547193E-002
   6.5019472660394761E-002  -1.9559872311407822E-002   1.9129714905730122E-002
   5.8340006768127284E-002  -1.7761888670320108E-002   2.1910396874099070E-002
   5.1660540875859834E-002  -1.5679089224410740E-002   2.7065712347653342E-002
   4.4981074983592273E-002  -1.3311473973679155E-002   3.4595661326393246E-002
   6.7868323021022969E-002  -2.0117727952752795E-002   2.4837150973336219E-002
   6.3268526079569676E-002  -1.8922295953727020E-002   2.5230365613943817E-002
   5.8668729138116382E-002  -1.7458969894171367E-002   2.7408284650994041E-002
   5.4068932196663061E-002  -1.5727749774086523E-002   3.1370908084487295E-002
   4.9469135255209795E-002  -1.3728635593471594E-002   3.7118235914422759E-002
   6.4043483288504066E-002  -1.9162415757831730E-002   3.0641360539030965E-002
   6.0933426189122009E-002  -1.8284719596046356E-002   3.1004819612771323E-002
   5.7823369089739937E-002  -1.7156051118022861E-002   3.2563053974211234E-002
   5.4713311990357873E-002  -1.5776410323762199E-002   3.5316063623350928E-002
   5.1603254890975808E-002  -1.4145797213263644E-002   3.9263848560190578E-002
   6.0224419355105661E-002  -1.8207103562910665E-002   3.6136295139631604E-002
   5.8014172989051808E-002  -1.7647143238365290E-002   3.6453076902212368E-002
   5.5803926622997990E-002  -1.6853132341874182E-002   3.7374704843749829E-002
   5.3593680256944151E-002  -1.5825070873437819E-002   3.8901178964244026E-002
   5.1383433890890319E-002  -1.4562958833055889E-002   4.1032499263695184E-002
   5.6411131220827582E-002  -1.7251791367989711E-002   4.1321954775138225E-002
   5.4510766479359041E-002  -1.7009566880684390E-002   4.1575137482267377E-002
   5.2610401737890472E-002  -1.6550213565725669E-002   4.1843237259610144E-002
   5.0710036996421931E-002  -1.5873731423113727E-002   4.2126254107166861E-002
   4.8809672254953362E-002  -1.4980120452848023E-002   4.2424188024937415E-002
   4.4981074983592273E-002  -1.3311473973679155E-002   3.4595661326393246E-002
   3.2180952100037574E-002  -9.2261967934560429E-003   3.0963540038819071E-002
   1.9380829216482820E-002  -1.9904115590699545E-003   3.0014018715602775E-002
   6.5807063329282600E-003   8.3958817294777291E-003   3.1747097356743942E-002
  -6.2194165506266330E-003   2.1932683072188208E-002   3.6162775962242932E-002
   4.9469135255209795E-002  -1.3728635593471594E-002   3.7118235914422759E-002
   3.9044180428034203E-002  -1.0275562944926764E-002   3.3720007547764830E-002
   2.8619225600858611E-002  -4.1824674210518831E-003   3.2389515329507401E-002
   1.8194270773683019E-002   4.5506509781530757E-003   3.3126759259651001E-002
   7.7693159465074269E-003   1.5923792252688695E-002   3.5931739338194602E-002
   5.1603254890975808E-002  -1.4145797213263644E-002   3.9263848560190578E-002
   4.2938604304222250E-002  -1.1324929096397651E-002   3.5589027935616468E-002
   3.4273953717468678E-002  -6.3745232830331594E-003   3.3367079643485856E-002
   2.5609303130715209E-002   7.0542022682914055E-004   3.2598003683798747E-002
   1.6944652543961602E-002   9.9149014331894048E-003   3.3281800056555011E-002
   5.1383433890890319E-002  -1.4562958833055889E-002   4.1032499263695184E-002
   4.3864223728601659E-002  -1.2374295247868233E-002   3.6570601202372932E-002
   3.6345013566312881E-002  -8.5665791450146508E-003   3.2946711657537361E-002
   2.8825803404024262E-002  -3.1398105244953758E-003   3.0160830629187368E-002
   2.1306593241735450E-002   3.9060106136900030E-003   2.8212958117324410E-002
   4.8809672254953362E-002  -1.4980120452848023E-002   4.2424188024937415E-002
   4.1821038701172375E-002  -1.3423661399338815E-002   3.6664727348034998E-002
   3.4832405147391360E-002  -1.0758635006996253E-002   3.1128411371661779E-002
   2.7843771593610331E-002  -6.9850412758195035E-003   2.5815240095817454E-002
   2.0855138039829302E-002  -2.1028802058093987E-003   2.0725213520502495E-002
   9.0297758358221805E-002   0.0000000000000000        5.0040140626482391E-002
   9.3905424108271143E-002  -5.3967193061526782E-003   5.3451519323778521E-002
   9.7513089858320481E-002  -1.0670902138105405E-002   5.5254023699522023E-002
  0.10112075560836982       -1.5822548495858176E-002   5.5447653753712897E-002
  0.10472842135841917       -2.0851658379410998E-002   5.4032409486351116E-002
   8.2399521820605157E-002   0.0000000000000000        4.4993251073452693E-002
   8.4626816730447058E-002  -4.5853697910405349E-003   4.8497551188159474E-002
   8.6854111640288945E-002  -9.0698960385486790E-003   5.0849983944003974E-002
   8.9081406550130832E-002  -1.3453578742524432E-002   5.2050549340986227E-002
   9.1308701459972733E-002  -1.7736417902967785E-002   5.2099247379106220E-002
   7.4254013210187791E-002   0.0000000000000000        4.0768557500868927E-002
   7.5557944242512609E-002  -3.7740202759283911E-003   4.4344086102318776E-002
   7.6861875274837427E-002  -7.4688899389919530E-003   4.7224754307596720E-002
   7.8165806307162217E-002  -1.1084608989190682E-002   4.9410562116702778E-002
   7.9469737339487048E-002  -1.4621177426524582E-002   5.0901509529636985E-002
   6.5861232526969710E-002   0.0000000000000000        3.7366059908731077E-002
   6.6698806644467812E-002  -2.9626707608162483E-003   4.0991124066256442E-002
   6.7536380761965928E-002  -5.8678838394352261E-003   4.4378334790300275E-002
   6.8373954879464030E-002  -8.7156392358569354E-003   4.7527692080862591E-002
   6.9211528996962146E-002  -1.1505936950081379E-002   5.0439195937943403E-002
   5.7221179770950883E-002   0.0000000000000000        3.4785758297039157E-002
   5.8049403936312659E-002  -2.1513212457041049E-003   3.8438665079972477E-002
   5.8877628101674434E-002  -4.2668777398785027E-003   4.2310725392114626E-002
   5.9705852267036209E-002  -6.3466694825231908E-003   4.6401939233465660E-002
   6.0534076432397985E-002  -8.3906964736381734E-003   5.0712306604025516E-002
  0.10472842135841917       -2.0851658379410998E-002   5.4032409486351116E-002
  0.10207778054185454       -2.5028768349241344E-002   4.6146129223183771E-002
   9.9427139725289909E-002  -2.7624414965826769E-002   3.9978511555493763E-002
   9.6776498908725250E-002  -2.8638598229167186E-002   3.5529556483280836E-002
   9.4125858092160647E-002  -2.8071318139262710E-002   3.2799264006545162E-002
   9.1308701459972733E-002  -1.7736417902967785E-002   5.2099247379106220E-002
   9.0136526490743718E-002  -2.1353330031904792E-002   4.6959763082120694E-002
   8.8964351521514703E-002  -2.3739231641361488E-002   4.3058547884329196E-002
   8.7792176552285689E-002  -2.4894122731337839E-002   4.0395601785731781E-002
   8.6620001583056674E-002  -2.4818003301833938E-002   3.8970924786328402E-002
   7.9469737339487048E-002  -1.4621177426524582E-002   5.0901509529636985E-002
   7.9295634721310487E-002  -1.7677891714568222E-002   4.8158368365068607E-002
   7.9121532103133912E-002  -1.9854048316896203E-002   4.6173102803411130E-002
   7.8947429484957338E-002  -2.1149647233508491E-002   4.4945712844664448E-002
   7.8773326866780763E-002  -2.1564688464405131E-002   4.4476198488828653E-002
   6.9211528996962146E-002  -1.1505936950081379E-002   5.0439195937943403E-002
   6.9555105233554820E-002  -1.4002453397231667E-002   4.9741945072027560E-002
   6.9898681470147508E-002  -1.5968864992430921E-002   4.9322176312739392E-002
   7.0242257706740183E-002  -1.7405171735679147E-002   4.9179889660078899E-002
   7.0585833943332871E-002  -1.8311373626976341E-002   4.9315085114046094E-002
   6.0534076432397985E-002  -8.3906964736381734E-003   5.0712306604025516E-002
   6.0914938027476738E-002  -1.0327015079895105E-002   5.1710493202997566E-002
   6.1295799622555505E-002  -1.2083681667965659E-002   5.2505768412314094E-002
   6.1676661217634245E-002  -1.3660696237849790E-002   5.3098132231975119E-002
   6.2057522812713019E-002  -1.5058058789547565E-002   5.3487584661980572E-002
   9.4125858092160647E-002  -2.8071318139262710E-002   3.2799264006545162E-002
   9.1697800852568595E-002  -2.6890010568099983E-002   3.2440763733208311E-002
   8.9269743612976529E-002  -2.6062111387665874E-002   3.2255517504708779E-002
   8.6841686373384464E-002  -2.5587620597960326E-002   3.2243525321046587E-002
   8.4413629133792384E-002  -2.5466538198983368E-002   3.2404787182221839E-002
   8.6620001583056674E-002  -2.4818003301833938E-002   3.8970924786328402E-002
   8.4399447714645318E-002  -2.4208853523000090E-002   3.8046676526388365E-002
   8.2178893846233919E-002  -2.3764653564986752E-002   3.7364180963972302E-002
   7.9958339977822535E-002  -2.3485403427793962E-002   3.6923438099080483E-002
   7.7737786109411136E-002  -2.3371103111421682E-002   3.6724447931712409E-002
   7.8773326866780763E-002  -2.1564688464405131E-002   4.4476198488828653E-002
   7.6828775022236728E-002  -2.1527696477900139E-002   4.3174660812193497E-002
   7.4884223177692721E-002  -2.1467195742307640E-002   4.2183374485769143E-002
   7.2939671333148687E-002  -2.1383186257627584E-002   4.1502339509555383E-002
   7.0995119488604680E-002  -2.1275668023859995E-002   4.1131555883552419E-002
   7.0585833943332871E-002  -1.8311373626976341E-002   4.9315085114046094E-002
   6.8985782775342924E-002  -1.8846539432800222E-002   4.7824716590623879E-002
   6.7385731607352936E-002  -1.9169737919628498E-002   4.6713098070099102E-002
   6.5785680439362976E-002  -1.9280969087461207E-002   4.5980229552471732E-002
   6.4185629271373001E-002  -1.9180232936298308E-002   4.5626111037741716E-002
   6.2057522812713019E-002  -1.5058058789547565E-002   5.3487584661980572E-002
   6.0870470973963794E-002  -1.6165382387700291E-002   5.1996843861679368E-002
   5.9683419135214563E-002  -1.6872280096949400E-002   5.0953351716962338E-002
   5.8496367296465353E-002  -1.7178751917294833E-002   5.0357108227829336E-002
   5.7309315457716128E-002  -1.7084797848736621E-002   5.0208113394280385E-002
   8.4413629133792384E-002  -2.5466538198983368E-002   3.2404787182221839E-002
   8.2526588541901064E-002  -2.5391170294397483E-002   3.1633066198538423E-002
   8.0639547950009730E-002  -2.5053822987864911E-002   3.1110824104232979E-002
   7.8752507358118368E-002  -2.4454496279386118E-002   3.0838060899305499E-002
   7.6865466766227075E-002  -2.3593190168960637E-002   3.0814776583756004E-002
   7.7737786109411136E-002  -2.3371103111421682E-002   3.6724447931712409E-002
   7.6079513776850849E-002  -2.3228609166595082E-002   3.6106850961394682E-002
   7.4421241444290576E-002  -2.2864778144039290E-002   3.5697311620361154E-002
   7.2762969111730316E-002  -2.2279610043754325E-002   3.5495829908611595E-002
   7.1104696779170001E-002  -2.1473104865740139E-002   3.5502405826146360E-002
   7.0995119488604680E-002  -2.1275668023859995E-002   4.1131555883552419E-002
   6.9524194155281577E-002  -2.1066048038792730E-002   4.0627440602383096E-002
   6.8053268821958515E-002  -2.0675733300213526E-002   4.0289961690403969E-002
   6.6582343488635412E-002  -2.0104723808122546E-002   4.0119119147615165E-002
   6.5111418155312323E-002  -1.9353019562519627E-002   4.0114912974016627E-002
   6.4185629271373001E-002  -1.9180232936298308E-002   4.5626111037741716E-002
   6.2860629677193247E-002  -1.8903486910990353E-002   4.5194835121503449E-002
   6.1535630083013465E-002  -1.8486688456387818E-002   4.4888774314361571E-002
   6.0210630488833704E-002  -1.7929837572490802E-002   4.4707928616316117E-002
   5.8885630894653936E-002  -1.7232934259299150E-002   4.4652298027367004E-002
   5.7309315457716128E-002  -1.7084797848736621E-002   5.0208113394280385E-002
   5.6088820342585805E-002  -1.6740925783187963E-002   4.9809034518755832E-002
   5.4868325227455515E-002  -1.6297643612562071E-002   4.9493749492233882E-002
   5.3647830112325198E-002  -1.5754951336859013E-002   4.9262258314714341E-002
   5.2427334997194902E-002  -1.5112848956078617E-002   4.9114560986197431E-002
   7.6865466766227075E-002  -2.3593190168960637E-002   3.0814776583756004E-002
   7.4435845221603375E-002  -2.2597134864261292E-002   3.1819338842236533E-002
   7.2006223676979703E-002  -2.1593560572960573E-002   3.3002350358499730E-002
   6.9576602132356044E-002  -2.0582467295058540E-002   3.4363811132545226E-002
   6.7146980587732358E-002  -1.9563855030555077E-002   3.5903721164373292E-002
   7.1104696779170001E-002  -2.1473104865740139E-002   3.5502405826146360E-002
   6.8858259903277139E-002  -2.0556860442261890E-002   3.6282025058674450E-002
   6.6611823027384234E-002  -1.9642474605584860E-002   3.7249564370881921E-002
   6.4365386151491316E-002  -1.8729947355708786E-002   3.8405023762768276E-002
   6.2118949275598412E-002  -1.7819278692633833E-002   3.9748403234333568E-002
   6.5111418155312323E-002  -1.9353019562519627E-002   4.0114912974016627E-002
   6.3057636770046749E-002  -1.8516586020262571E-002   4.0660211607190223E-002
   6.1003855384781119E-002  -1.7691388638209068E-002   4.1402901141939355E-002
   5.8950073999515525E-002  -1.6877427416359010E-002   4.2342981578264008E-002
   5.6896292614249951E-002  -1.6074702354712561E-002   4.3480452916164425E-002
   5.8885630894653936E-002  -1.7232934259299150E-002   4.4652298027367004E-002
   5.7033975821912192E-002  -1.6476311598263238E-002   4.4953898487783306E-002
   5.5182320749170441E-002  -1.5740302670833206E-002   4.5462360671671878E-002
   5.3330665676428704E-002  -1.5024907477009301E-002   4.6177684579032569E-002
   5.1479010603686960E-002  -1.4330126016791248E-002   4.7099870209865211E-002
   5.2427334997194902E-002  -1.5112848956078617E-002   4.9114560986197431E-002
   5.0787277058873523E-002  -1.4436037176263850E-002   4.9163085700454245E-002
   4.9147219120552144E-002  -1.3789216703457521E-002   4.9427942960079768E-002
   4.7507161182230764E-002  -1.3172387537659511E-002   4.9909132765073833E-002
   4.5867103243909413E-002  -1.2585549678870045E-002   5.0606655115436716E-002
   6.7146980587732358E-002  -1.9563855030555077E-002   3.5903721164373292E-002
   6.4463018246006171E-002  -1.8652572233291725E-002   3.6838160166011269E-002
   6.1779055904279970E-002  -1.7963467357109589E-002   3.8052678768351278E-002
   5.9095093562553803E-002  -1.7496540402009032E-002   3.9547276971393763E-002
   5.6411131220827582E-002  -1.7251791367989711E-002   4.1321954775138225E-002
   6.2118949275598412E-002  -1.7819278692633833E-002   3.9748403234333568E-002
   5.9703114169828986E-002  -1.7002977912868672E-002   4.0271736971561584E-002
   5.7287279064059504E-002  -1.6373554312921562E-002   4.1051245580000825E-002
   5.4871443958289988E-002  -1.5931007892793093E-002   4.2086929059651425E-002
   5.2455608852520541E-002  -1.5675338652482995E-002   4.3378787410513098E-002
   5.6896292614249951E-002  -1.6074702354712561E-002   4.3480452916164425E-002
   5.4724680014946223E-002  -1.5353383592445521E-002   4.3627982130245588E-002
   5.2553067415642515E-002  -1.4783641268733640E-002   4.4007781486046983E-002
   5.0381454816338801E-002  -1.4365475383577265E-002   4.4619850983568729E-002
   4.8209842217035129E-002  -1.4098885936976113E-002   4.5464190622810763E-002
   5.1479010603686960E-002  -1.4330126016791248E-002   4.7099870209865211E-002
   4.9527715781358020E-002  -1.3703789272022419E-002   4.6906895642062726E-002
   4.7576420959029114E-002  -1.3193728224545748E-002   4.6922286486489342E-002
   4.5625126136700160E-002  -1.2799942874361269E-002   4.7146042743145440E-002
   4.3673831314371261E-002  -1.2522433221469231E-002   4.7578164412030763E-002
   4.5867103243909413E-002  -1.2585549678870045E-002   5.0606655115436716E-002
   4.4112221469064281E-002  -1.2054194951599290E-002   5.0108477507013166E-002
   4.2357339694219176E-002  -1.1603815180357663E-002   4.9794760581328257E-002
   4.0602457919374071E-002  -1.1234410365145518E-002   4.9665504338381461E-002
   3.8847576144528939E-002  -1.0945980505962516E-002   4.9720708778173028E-002
   5.6411131220827582E-002  -1.7251791367989711E-002   4.1321954775138225E-002
   5.4510766479359041E-002  -1.7009566880684390E-002   4.1575137482267377E-002
   5.2610401737890472E-002  -1.6550213565725669E-002   4.1843237259610144E-002
   5.0710036996421931E-002  -1.5873731423113727E-002   4.2126254107166861E-002
   4.8809672254953362E-002  -1.4980120452848023E-002   4.2424188024937415E-002
   5.2455608852520541E-002  -1.5675338652482995E-002   4.3378787410513098E-002
   5.0589003144716593E-002  -1.5434147407685339E-002   4.3548092822137896E-002
   4.8722397436912590E-002  -1.5035034974094627E-002   4.3769999230878182E-002
   4.6855791729108559E-002  -1.4478001351711092E-002   4.4044506636733580E-002
   4.4989186021304611E-002  -1.3763046540534174E-002   4.4371615039704326E-002
   4.8209842217035129E-002  -1.4098885936976113E-002   4.5464190622810763E-002
   4.6414679469797271E-002  -1.3858727934686260E-002   4.5490411100070668E-002
   4.4619516722559399E-002  -1.3519856382463696E-002   4.5606916501347655E-002
   4.2824353975321562E-002  -1.3082271280308401E-002   4.5813706826641501E-002
   4.1029191228083670E-002  -1.2545972628220381E-002   4.6110782075952178E-002
   4.3673831314371261E-002  -1.2522433221469231E-002   4.7578164412030763E-002
   4.1987795454601129E-002  -1.2283308461687112E-002   4.7402092316065528E-002
   4.0301759594830996E-002  -1.2004677790832710E-002   4.7353989071019030E-002
   3.8615723735060864E-002  -1.1686541208905710E-002   4.7433854676891124E-002
   3.6929687875290731E-002  -1.1328898715906616E-002   4.7641689133681372E-002
   3.8847576144528939E-002  -1.0945980505962516E-002   4.9720708778173028E-002
   3.7308351099128140E-002  -1.0707888988688130E-002   4.9283136470122391E-002
   3.5769126053727313E-002  -1.0489499199201752E-002   4.9011216939892160E-002
   3.4229901008326458E-002  -1.0290811137503249E-002   4.8904950187481810E-002
   3.2690675962925630E-002  -1.0111824803592739E-002   4.8964336212891757E-002
   4.8809672254953362E-002  -1.4980120452848023E-002   4.2424188024937415E-002
   4.1821038701172375E-002  -1.3423661399338815E-002   3.6664727348034998E-002
   3.4832405147391360E-002  -1.0758635006996253E-002   3.1128411371661779E-002
   2.7843771593610331E-002  -6.9850412758195035E-003   2.5815240095817454E-002
   2.0855138039829302E-002  -2.1028802058093987E-003   2.0725213520502495E-002
   4.4989186021304611E-002  -1.3763046540534174E-002   4.4371615039704326E-002
   3.8310545532056761E-002  -1.2656901343692184E-002   3.9426007627919618E-002
   3.1631905042808897E-002  -1.0926296564312210E-002   3.4877241644671986E-002
   2.4953264553561130E-002  -8.5712322023948073E-003   3.0725317089961637E-002
   1.8274624064313238E-002  -5.5917082579399757E-003   2.6970233963788948E-002
   4.1029191228083670E-002  -1.2545972628220381E-002   4.6110782075952178E-002
   3.4834240531377264E-002  -1.1890141288045220E-002   4.1494920172989086E-002
   2.8639289834670727E-002  -1.1093958121628444E-002   3.7449596426571224E-002
   2.2444339137964186E-002  -1.0157423128970194E-002   3.3974810836698691E-002
   1.6249388441257784E-002  -9.0805363100704417E-003   3.1070563403371942E-002
   3.6929687875290731E-002  -1.1328898715906616E-002   4.7641689133681372E-002
   3.1392123699133682E-002  -1.1123381232398200E-002   4.2871464983243845E-002
   2.5854559522976640E-002  -1.1261619678944484E-002   3.8845475717359648E-002
   2.0316995346819664E-002  -1.1743614055545484E-002   3.5563721336028850E-002
   1.4779431170662605E-002  -1.2569364362200908E-002   3.3026201839251604E-002
   3.2690675962925630E-002  -1.0111824803592739E-002   4.8964336212891757E-002
   2.7984195035326259E-002  -1.0356621176751457E-002   4.3555642058683230E-002
   2.3277714107726805E-002  -1.1429281236260774E-002   3.9064879517036466E-002
   1.8571233180127350E-002  -1.3329804982120670E-002   3.5492048587951658E-002
   1.3864752252527979E-002  -1.6058192414331485E-002   3.2837149271428112E-002
   5.7221179770950883E-002   0.0000000000000000        3.4785758297039157E-002
   5.8049403936312659E-002  -2.1513212457041049E-003   3.8438665079972477E-002
   5.8877628101674434E-002  -4.2668777398785027E-003   4.2310725392114626E-002
   5.9705852267036209E-002  -6.3466694825231908E-003   4.6401939233465660E-002
   6.0534076432397985E-002  -8.3906964736381734E-003   5.0712306604025516E-002
   4.8742346088733762E-002   0.0000000000000000        3.2816009437932434E-002
   4.9723208220236292E-002  -1.7751036784213530E-003   3.6985183672289750E-002
   5.0704070351738829E-002  -3.5598265201964071E-003   4.1240480309719732E-002
   5.1684932483241360E-002  -5.3541685253251526E-003   4.5581899350222402E-002
   5.2665794614743890E-002  -7.1581296938076095E-003   5.0009440793797696E-002
   4.0833222626920733E-002   0.0000000000000000        3.1245170103550154E-002
   4.1833691598427834E-002  -1.3988861111386007E-003   3.5885227874448075E-002
   4.2834160569934943E-002  -2.8527753005143071E-003   4.0478376922282469E-002
   4.3834629541442044E-002  -4.3616675681271162E-003   4.5024617247053353E-002
   4.4835098512949152E-002  -5.9255629139770317E-003   4.9523948848760720E-002
   3.3493809385511789E-002   0.0000000000000000        3.0073240293892332E-002
   3.4380854070887285E-002  -1.0226685438558486E-003   3.5138797686447447E-002
   3.5267898756262787E-002  -2.1457240808322084E-003   4.0024415229802858E-002
   3.6154943441638276E-002  -3.3691666109290780E-003   4.4730092923958568E-002
   3.7041988127013786E-002  -4.6929961341464540E-003   4.9255830768914585E-002
   2.6724106364506936E-002   0.0000000000000000        2.9300220008958967E-002
   2.7364695637614643E-002  -6.4645097657309650E-004   3.4745893108287865E-002
   2.8005284910722350E-002  -1.4386728611501115E-003   3.9878595232280878E-002
   2.8645874183830057E-002  -2.3766656537310398E-003   4.4698326380938007E-002
   2.9286463456937764E-002  -3.4604293543158918E-003   4.9205086554259266E-002
   6.0534076432397985E-002  -8.3906964736381734E-003   5.0712306604025516E-002
   6.0914938027476738E-002  -1.0327015079895105E-002   5.1710493202997566E-002
   6.1295799622555505E-002  -1.2083681667965659E-002   5.2505768412314094E-002
   6.1676661217634245E-002  -1.3660696237849790E-002   5.3098132231975119E-002
   6.2057522812713019E-002  -1.5058058789547565E-002   5.3487584661980572E-002
   5.2665794614743890E-002  -7.1581296938076095E-003   5.0009440793797696E-002
   5.2879434105674708E-002  -8.8779106393099098E-003   5.1259718207886870E-002
   5.3093073596605526E-002  -1.0419711975498253E-002   5.2378462803335704E-002
   5.3306713087536352E-002  -1.1783533702372662E-002   5.3365674580144178E-002
   5.3520352578467170E-002  -1.2969375819933099E-002   5.4221353538312284E-002
   4.4835098512949152E-002  -5.9255629139770317E-003   4.9523948848760720E-002
   4.4952894470747205E-002  -7.4288061987247299E-003   5.1024644669094565E-002
   4.5070690428545265E-002  -8.7557422830309047E-003   5.2465186241803269E-002
   4.5188486386343332E-002  -9.9063711668955397E-003   5.3845573566886754E-002
   4.5306282344141378E-002  -1.0880692850318639E-002   5.5165806644345075E-002
   3.7041988127013786E-002  -4.6929961341464540E-003   4.9255830768914585E-002
   3.7135319122694237E-002  -5.9797017581395533E-003   5.1005272586620701E-002
   3.7228650118374687E-002  -7.0917725905635300E-003   5.2765938727716795E-002
   3.7321981114055151E-002  -8.0292086314184153E-003   5.4537829192202895E-002
   3.7415312109735595E-002  -8.7920098807041693E-003   5.6320943980079002E-002
   2.9286463456937764E-002  -3.4604293543158918E-003   4.9205086554259266E-002
   2.9426708061515788E-002  -4.5305973175543595E-003   5.1201601960465207E-002
   2.9566952666093823E-002  -5.4278028980961485E-003   5.3280720261076324E-002
   2.9707197270671847E-002  -6.1520460959412875E-003   5.5442441456092596E-002
   2.9847441875249875E-002  -6.7033269110897201E-003   5.7686765545514031E-002
   6.2057522812713019E-002  -1.5058058789547565E-002   5.3487584661980572E-002
   6.0870470973963794E-002  -1.6165382387700291E-002   5.1996843861679368E-002
   5.9683419135214563E-002  -1.6872280096949400E-002   5.0953351716962338E-002
   5.8496367296465353E-002  -1.7178751917294833E-002   5.0357108227829336E-002
   5.7309315457716128E-002  -1.7084797848736621E-002   5.0208113394280385E-002
   5.3520352578467170E-002  -1.2969375819933099E-002   5.4221353538312284E-002
   5.2727368514955825E-002  -1.3907382333532520E-002   5.3359590601340767E-002
   5.1934384451444500E-002  -1.4527697248523930E-002   5.2838714559260910E-002
   5.1141400387933147E-002  -1.4830320564907275E-002   5.2658725412072706E-002
   5.0348416324421823E-002  -1.4815252282682587E-002   5.2819623159776216E-002
   4.5306282344141378E-002  -1.0880692850318639E-002   5.5165806644345075E-002
   4.4801004295175494E-002  -1.1649382279364752E-002   5.4850287280407611E-002
   4.4295726246209623E-002  -1.2183114400098416E-002   5.4769293050669424E-002
   4.3790448197243731E-002  -1.2481889212519673E-002   5.4922823955130484E-002
   4.3285170148277846E-002  -1.2545706716628469E-002   5.5310879993790793E-002
   3.7415312109735595E-002  -8.7920098807041693E-003   5.6320943980079002E-002
   3.7091378314622767E-002  -9.3913822251969759E-003   5.6468933898880004E-002
   3.6767444519509931E-002  -9.8385315516729653E-003   5.6745087191187829E-002
   3.6443510724397103E-002  -1.0133457860132046E-002   5.7149403857002526E-002
   3.6119576929284261E-002  -1.0276161150574392E-002   5.7681883896324018E-002
   2.9847441875249875E-002  -6.7033269110897201E-003   5.7686765545514031E-002
   2.9598490573297657E-002  -7.1333821710292192E-003   5.8215530456757897E-002
   2.9349539271345440E-002  -7.4939487032474519E-003   5.8766096980816182E-002
   2.9100587969393236E-002  -7.7850265077445396E-003   5.9338465117688817E-002
   2.8851636667441012E-002  -8.0066155845203019E-003   5.9932634867375947E-002
   5.7309315457716128E-002  -1.7084797848736621E-002   5.0208113394280385E-002
   5.6088820342585805E-002  -1.6740925783187963E-002   4.9809034518755832E-002
   5.4868325227455515E-002  -1.6297643612562071E-002   4.9493749492233882E-002
   5.3647830112325198E-002  -1.5754951336859013E-002   4.9262258314714341E-002
   5.2427334997194902E-002  -1.5112848956078617E-002   4.9114560986197431E-002
   5.0348416324421823E-002  -1.4815252282682587E-002   5.2819623159776216E-002
   4.9227274161284529E-002  -1.4575183410915613E-002   5.2449616187169382E-002
   4.8106131998147242E-002  -1.4202804958672186E-002   5.2194521269546081E-002
   4.6984989835009941E-002  -1.3698116925952249E-002   5.2054338406906167E-002
   4.5863847671872640E-002  -1.3061119312755914E-002   5.2029067599249856E-002
   4.3285170148277846E-002  -1.2545706716628469E-002   5.5310879993790793E-002
   4.2294499143114533E-002  -1.2409441038643158E-002   5.5002844399500830E-002
   4.1303828137951221E-002  -1.2107966304782190E-002   5.4840839066175394E-002
   4.0313157132787915E-002  -1.1641282515045528E-002   5.4824863993814435E-002
   3.9322486127624609E-002  -1.1009389669433156E-002   5.4954919182417863E-002
   3.6119576929284261E-002  -1.0276161150574392E-002   5.7681883896324018E-002
   3.5290495288075902E-002  -1.0243698666370756E-002   5.7468719155750241E-002
   3.4461413646867528E-002  -1.0013127650892333E-002   5.7432702882121912E-002
   3.3632332005659162E-002  -9.5844481041387729E-003   5.7573835075439124E-002
   3.2803250364450795E-002  -8.9576600261104533E-003   5.7892115735701619E-002
   2.8851636667441012E-002  -8.0066155845203019E-003   5.9932634867375947E-002
   2.8215262596168564E-002  -8.0779562940983471E-003   5.9847240455917577E-002
   2.7578888524896119E-002  -7.9182889970022992E-003   5.9970112717385622E-002
   2.6942514453623674E-002  -7.5276136932320827E-003   6.0301251651780088E-002
   2.6306140382351212E-002  -6.9059303827876672E-003   6.0840657259100872E-002
   5.2427334997194902E-002  -1.5112848956078617E-002   4.9114560986197431E-002
   5.0787277058873523E-002  -1.4436037176263850E-002   4.9163085700454245E-002
   4.9147219120552144E-002  -1.3789216703457521E-002   4.9427942960079768E-002
   4.7507161182230764E-002  -1.3172387537659511E-002   4.9909132765073833E-002
   4.5867103243909413E-002  -1.2585549678870045E-002   5.0606655115436716E-002
   4.5863847671872640E-002  -1.3061119312755914E-002   5.2029067599249856E-002
   4.4434682707950091E-002  -1.2383105791242729E-002   5.2054143988185433E-002
   4.3005517744027548E-002  -1.1755370033572674E-002   5.2284673780550017E-002
   4.1576352780105019E-002  -1.1177912039745410E-002   5.2720656976343677E-002
   4.0147187816182456E-002  -1.0650731809761199E-002   5.3362093575566177E-002
   3.9322486127624609E-002  -1.1009389669433156E-002   5.4954919182417863E-002
   3.8093334996161257E-002  -1.0330174406221637E-002   5.4936260789197652E-002
   3.6864183864697933E-002  -9.7215233636877355E-003   5.5112176657466809E-002
   3.5635032733234595E-002  -9.1834365418312514E-003   5.5482666787225410E-002
   3.4405881601771285E-002  -8.7159139406522979E-003   5.6047731178473420E-002
   3.2803250364450795E-002  -8.9576600261104533E-003   5.7892115735701619E-002
   3.1763233923507050E-002  -8.2772430212006420E-003   5.7809436103491013E-002
   3.0723217482563313E-002  -7.6876766938028147E-003   5.7910451590830109E-002
   2.9683201041619565E-002  -7.1889610439171770E-003   5.8195162197719079E-002
   2.8643184600675813E-002  -6.7810960715435076E-003   5.8663567924157743E-002
   2.6306140382351212E-002  -6.9059303827876672E-003   6.0840657259100872E-002
   2.5444379489987436E-002  -6.2243116361794387E-003   6.0673669931065349E-002
   2.4582618597623673E-002  -5.6538300239179287E-003   6.0679498580640021E-002
   2.3720857705259883E-002  -5.1944855460029863E-003   6.0858143207824837E-002
   2.2859096812896121E-002  -4.8462782024346063E-003   6.1209603812619695E-002
   4.5867103243909413E-002  -1.2585549678870045E-002   5.0606655115436716E-002
   4.4112221469064281E-002  -1.2054194951599290E-002   5.0108477507013166E-002
   4.2357339694219176E-002  -1.1603815180357663E-002   4.9794760581328257E-002
   4.0602457919374071E-002  -1.1234410365145518E-002   4.9665504338381461E-002
   3.8847576144528939E-002  -1.0945980505962516E-002   4.9720708778173028E-002
   4.0147187816182456E-002  -1.0650731809761199E-002   5.3362093575566177E-002
   3.8583725898459223E-002  -1.0186461502613264E-002   5.2771225835912761E-002
   3.7020263980735976E-002  -9.7977332772945583E-003   5.2378737127764682E-002
   3.5456802063012743E-002  -9.4845471338056864E-003   5.2184627451122186E-002
   3.3893340145289497E-002  -9.2469030721460399E-003   5.2188896805984930E-002
   3.4405881601771285E-002  -8.7159139406522979E-003   5.6047731178473420E-002
   3.3047757889937038E-002  -8.3187280536270308E-003   5.5369606181789564E-002
   3.1689634178102728E-002  -7.9916513742314538E-003   5.4903778565378189E-002
   3.0331510466268478E-002  -7.7346839024657436E-003   5.4650248329239350E-002
   2.8973386754434199E-002  -7.5478256383296194E-003   5.4609015473373046E-002
   2.8643184600675813E-002  -6.7810960715435076E-003   5.8663567924157743E-002
   2.7504317443497611E-002  -6.4509946046407904E-003   5.7903618544643293E-002
   2.6365450286319383E-002  -6.1855694711683493E-003   5.7369884894168527E-002
   2.5226583129141184E-002  -5.9848206711256898E-003   5.7062366972733314E-002
   2.4087715971962964E-002  -5.8487482045131989E-003   5.6981064780337702E-002
   2.2859096812896121E-002  -4.8462782024346063E-003   6.1209603812619695E-002
   2.1953404559141063E-002  -4.5832611556548275E-003   6.0373262924474536E-002
   2.1047712305385990E-002  -4.3794875681052309E-003   5.9777056114135835E-002
   2.0142020051630925E-002  -4.2349574397859378E-003   5.9420983381603884E-002
   1.9236327797875860E-002  -4.1496707706967229E-003   5.9305044726878697E-002
   3.8847576144528939E-002  -1.0945980505962516E-002   4.9720708778173028E-002
   3.7308351099128140E-002  -1.0707888988688130E-002   4.9283136470122391E-002
   3.5769126053727313E-002  -1.0489499199201752E-002   4.9011216939892160E-002
   3.4229901008326458E-002  -1.0290811137503249E-002   4.8904950187481810E-002
   3.2690675962925630E-002  -1.0111824803592739E-002   4.8964336212891757E-002
   3.3893340145289497E-002  -9.2469030721460399E-003   5.2188896805984930E-002
   3.2525288394540511E-002  -9.0699843004611591E-003   5.1758322510196270E-002
   3.1157236643791567E-002  -8.9389740268961126E-003   5.1504442025891495E-002
   2.9789184893042588E-002  -8.8538722514507270E-003   5.1427255353070189E-002
   2.8421133142293609E-002  -8.8146789741251341E-003   5.1526762491732436E-002
   2.8973386754434199E-002  -7.5478256383296194E-003   5.4609015473373046E-002
   2.7787549332000554E-002  -7.4320796122342436E-003   5.4159232419514744E-002
   2.6601711909566887E-002  -7.3884488545905708E-003   5.3897184210803528E-002
   2.5415874487133262E-002  -7.4169333653983684E-003   5.3822870847239461E-002
   2.4230037064699575E-002  -7.5175331446577509E-003   5.3936292328822272E-002
   2.4087715971962964E-002  -5.8487482045131989E-003   5.6981064780337702E-002
   2.3095133911508137E-002  -5.7941749240073004E-003   5.6485866198077585E-002
   2.2102551851053361E-002  -5.8379236822849248E-003   5.6189443494628455E-002
   2.1109969790598544E-002  -5.9799944793459837E-003   5.6091796669989612E-002
   2.0117387730143758E-002  -6.2203873151903677E-003   5.6192925724161312E-002
   1.9236327797875860E-002  -4.1496707706967229E-003   5.9305044726878697E-002
   1.8448042133063378E-002  -4.1562702357803571E-003   5.8738223845885340E-002
   1.7659756468250902E-002  -4.2873985099794176E-003   5.8381219877365942E-002
   1.6871470803438416E-002  -4.5430555932935504E-003   5.8234032821320642E-002
   1.6083185138625944E-002  -4.9232414857228735E-003   5.8296662677749356E-002
   3.2690675962925630E-002  -1.0111824803592739E-002   4.8964336212891757E-002
   2.7984195035326259E-002  -1.0356621176751457E-002   4.3555642058683230E-002
   2.3277714107726805E-002  -1.1429281236260774E-002   3.9064879517036466E-002
   1.8571233180127350E-002  -1.3329804982120670E-002   3.5492048587951658E-002
   1.3864752252527979E-002  -1.6058192414331485E-002   3.2837149271428112E-002
   2.8421133142293609E-002  -8.8146789741251341E-003   5.1526762491732436E-002
   2.4572958426531233E-002  -9.1613006698782751E-003   4.5360097112643633E-002
   2.0724783710768899E-002  -1.0233643813668786E-002   3.9992112544666919E-002
   1.6876608995006592E-002  -1.2031708405496590E-002   3.5422808787803128E-002
   1.3028434279244161E-002  -1.4555494445361861E-002   3.1652185842051650E-002
   2.4230037064699575E-002  -7.5175331446577509E-003   5.3936292328822272E-002
   2.1120917759325085E-002  -7.9659801630051208E-003   4.7113797963166143E-002
   1.8011798453950643E-002  -9.0380063910767278E-003   4.0970733607173321E-002
   1.4902679148576188E-002  -1.0733611828872339E-002   3.5507099260843437E-002
   1.1793559843201712E-002  -1.3052796476392348E-002   3.0722894924177291E-002
   2.0117387730143758E-002  -6.2203873151903677E-003   5.6192925724161312E-002
   1.7628073033707913E-002  -6.7706596561320082E-003   4.8816744610250949E-002
   1.5138758337272077E-002  -7.8423689684847045E-003   4.2000742704554783E-002
   1.2649443640836299E-002  -9.4355152522481184E-003   3.5744920007072904E-002
   1.0160128944400375E-002  -1.1550098507422724E-002   3.0049276517804549E-002
   1.6083185138625944E-002  -4.9232414857228735E-003   5.8296662677749356E-002
   1.4094424249679577E-002  -5.5753391492588955E-003   5.0468937053898377E-002
   1.2105663360733196E-002  -6.6467315458926257E-003   4.3082139836811972E-002
   1.0116902471786815E-002  -8.1374186756239392E-003   3.6136271026490668E-002
   8.1281415828404202E-003  -1.0047400538453211E-002   2.9631330622933882E-002
   2.6724106364506936E-002   0.0000000000000000        2.9300220008958967E-002
   2.7364695637614643E-002  -6.4645097657309650E-004   3.4745893108287865E-002
   2.8005284910722350E-002  -1.4386728611501115E-003   3.9878595232280878E-002
   2.8645874183830057E-002  -2.3766656537310398E-003   4.4698326380938007E-002
   2.9286463456937764E-002  -3.4604293543158918E-003   4.9205086554259266E-002
   2.0190213783627755E-002   0.0000000000000000        2.8798350176707073E-002
   2.0556037995664758E-002  -4.8483823243363530E-004   3.4056590305645451E-002
   2.0921862207701765E-002  -1.0790046458692502E-003   3.9078271287778306E-002
   2.1287686419738775E-002  -1.7824992403068412E-003   4.3863393123105637E-002
   2.1653510631775778E-002  -2.5953220157464100E-003   4.8411955811627445E-002
   1.3558231862595822E-002   0.0000000000000000        2.8439871725093675E-002
   1.3725702842092485E-002  -3.2322548829417583E-004   3.3547121610643472E-002
   1.3893173821589153E-002  -7.1933643058838884E-004   3.8494224177918111E-002
   1.4060644801085816E-002  -1.1883328268826451E-003   4.3281179426917581E-002
   1.4228115780582485E-002  -1.7302146771769377E-003   4.7907987357641901E-002
   6.8281606014111403E-003   0.0000000000000000        2.8224784654118762E-002
   6.8736901768978237E-003  -1.6161274415471593E-004   3.3217487023281915E-002
   6.9192197523845096E-003  -3.5966821530753184E-004   3.8126453902700280E-002
   6.9647493278711938E-003  -5.9416641345844427E-004   4.2951685292373830E-002
   7.0102789033578781E-003  -8.6510733860746406E-004   4.7693181192302599E-002
   7.3708400494254533E-014   0.0000000000000000        2.8153088963782345E-002
   8.0773061850170080E-014  -1.5255158247740042E-014   3.3067686543560799E-002
   8.7835771642175153E-014  -2.6667903996191455E-014   3.7974960462124820E-002
   9.4899457216135463E-014  -3.4250380309686079E-014   4.2874910719474392E-002
   1.0196401015183376E-013  -3.7985239953464145E-014   4.7767537315609537E-002
   2.9286463456937764E-002  -3.4604293543158918E-003   4.9205086554259266E-002
   2.9426708061515788E-002  -4.5305973175543595E-003   5.1201601960465207E-002
   2.9566952666093823E-002  -5.4278028980961485E-003   5.3280720261076324E-002
   2.9707197270671847E-002  -6.1520460959412875E-003   5.5442441456092596E-002
   2.9847441875249875E-002  -6.7033269110897201E-003   5.7686765545514031E-002
   2.1653510631775778E-002  -2.5953220157464100E-003   4.8411955811627445E-002
   2.1846942119371743E-002  -3.3979479881753524E-003   5.0737955265274852E-002
   2.2040373606967707E-002  -4.0708521735810417E-003   5.3087725590552977E-002
   2.2233805094563679E-002  -4.6140345719635064E-003   5.5461266787461799E-002
   2.2427236582159636E-002  -5.0274951833227388E-003   5.7858578856001368E-002
   1.4228115780582485E-002  -1.7302146771769377E-003   4.7907987357641901E-002
   1.4415902128421955E-002  -2.2652986587963519E-003   5.0520230263057284E-002
   1.4603688476261428E-002  -2.7139014490659419E-003   5.3097412017328989E-002
   1.4791474824100899E-002  -3.0760230479857428E-003   5.5639532620456955E-002
   1.4979261171940372E-002  -3.3516634555557263E-003   5.8146592072441210E-002
   7.0102789033578781E-003  -8.6510733860746406E-004   4.7693181192302599E-002
   7.1335880886664264E-003  -1.1326493294173446E-003   5.0548426953812536E-002
   7.2568972739749729E-003  -1.3569507245508421E-003   5.3309779541404353E-002
   7.3802064592835212E-003  -1.5380115240079843E-003   5.5977238955078057E-002
   7.5035156445920660E-003  -1.6758317277887295E-003   5.8550805194833570E-002
   1.0196401015183376E-013  -3.7985239953464145E-014   4.7767537315609537E-002
   1.0515546766676209E-013  -3.8342592989515367E-014   5.0822545337540624E-002
   1.0834844306473190E-013  -3.5739206732943174E-014   5.3724828162779147E-002
   1.1154065952118097E-013  -3.0202511498711448E-014   5.6474385791325091E-002
   1.1473287597763004E-013  -2.1732615707037439E-014   5.9071218223178470E-002
   2.9847441875249875E-002  -6.7033269110897201E-003   5.7686765545514031E-002
   2.9598490573297657E-002  -7.1333821710292192E-003   5.8215530456757897E-002
   2.9349539271345440E-002  -7.4939487032474519E-003   5.8766096980816182E-002
   2.9100587969393236E-002  -7.7850265077445396E-003   5.9338465117688817E-002
   2.8851636667441012E-002  -8.0066155845203019E-003   5.9932634867375947E-002
   2.2427236582159636E-002  -5.0274951833227388E-003   5.7858578856001368E-002
   2.2210195946190128E-002  -5.3500366282742615E-003   5.8430485340041159E-002
   2.1993155310220627E-002  -5.6204615274336941E-003   5.9044411543231951E-002
   2.1776114674251112E-002  -5.8387698808009727E-003   5.9700357465573783E-002
   2.1559074038281612E-002  -6.0049616883761925E-003   6.0398323107066589E-002
   1.4979261171940372E-002  -3.3516634555557263E-003   5.8146592072441210E-002
   1.4814349308290167E-002  -3.5666910855193003E-003   5.8744267947347849E-002
   1.4649437444639962E-002  -3.7469743516198957E-003   5.9404181647742048E-002
   1.4484525580989756E-002  -3.8925132538574761E-003   6.0126333173623855E-002
   1.4319613717339549E-002  -4.0033077922320900E-003   6.0910722524993299E-002
   7.5035156445920660E-003  -1.6758317277887295E-003   5.8550805194833570E-002
   7.4109506595977578E-003  -1.7833455427643547E-003   5.9156878278677924E-002
   7.3183856746034453E-003  -1.8734871758060829E-003   5.9845407294346419E-002
   7.2258206896091311E-003  -1.9462566269140137E-003   6.0616392241839130E-002
   7.1332557046148229E-003  -2.0016538960879980E-003   6.1469833121156003E-002
   1.1473287597763004E-013  -2.1732615707037439E-014   5.9071218223178470E-002
   1.1290794688090244E-013  -9.3709762172267119E-015   5.9668316334031357E-002
   1.1108215042243685E-013   7.6709472107694410E-015   6.0368088483045056E-002
   1.0925808868744724E-013   2.9548412328050944E-014   6.1170534670219504E-002
   1.0743142486724366E-013   5.6107896106993849E-014   6.2075654895554735E-002
   2.8851636667441012E-002  -8.0066155845203019E-003   5.9932634867375947E-002
   2.8215262596168564E-002  -8.0779562940983471E-003   5.9847240455917577E-002
   2.7578888524896119E-002  -7.9182889970022992E-003   5.9970112717385622E-002
   2.6942514453623674E-002  -7.5276136932320827E-003   6.0301251651780088E-002
   2.6306140382351212E-002  -6.9059303827876672E-003   6.0840657259100872E-002
   2.1559074038281612E-002  -6.0049616883761925E-003   6.0398323107066589E-002
   2.1118673351157479E-002  -6.0584672205515402E-003   6.0555869720888354E-002
   2.0678272664033357E-002  -5.9387167477193484E-003   6.0897096430080400E-002
   2.0237871976909232E-002  -5.6457102698795839E-003   6.1422003234642586E-002
   1.9797471289785103E-002  -5.1794477870321654E-003   6.2130590134575045E-002
   1.4319613717339549E-002  -4.0033077922320900E-003   6.0910722524993299E-002
   1.4050599836807585E-002  -4.0389781470047091E-003   6.1253458162428533E-002
   1.3781585956275620E-002  -3.9591444984363681E-003   6.1755287317677883E-002
   1.3512572075743657E-002  -3.7638068465270292E-003   6.2416209990741350E-002
   1.3243558195211690E-002  -3.4529651912767328E-003   6.3236226181618838E-002
   7.1332557046148229E-003  -2.0016538960879980E-003   6.1469833121156003E-002
   7.0110420531188586E-003  -2.0194890734578485E-003   6.1940005780538203E-002
   6.8888284016228986E-003  -1.9795722491533748E-003   6.2544685380178364E-002
   6.7666147501269317E-003  -1.8819034231745025E-003   6.3283871920076354E-002
   6.6444010986309674E-003  -1.7264825955213212E-003   6.4157565400232347E-002
   1.0743142486724366E-013   5.6107896106993849E-014   6.2075654895554735E-002
   9.1310639604991195E-014   8.8956619848090668E-014   6.2615512575217261E-002
   7.5188119619262750E-014   1.2958731310241944E-013   6.3265290617581543E-002
   5.9067334357010282E-014   1.7800257795519414E-013   6.4024989022647597E-002
   4.2944814371281836E-014   2.3420154704467677E-013   6.4894607790415448E-002
   2.6306140382351212E-002  -6.9059303827876672E-003   6.0840657259100872E-002
   2.5444379489987436E-002  -6.2243116361794387E-003   6.0673669931065349E-002
   2.4582618597623673E-002  -5.6538300239179287E-003   6.0679498580640021E-002
   2.3720857705259883E-002  -5.1944855460029863E-003   6.0858143207824837E-002
   2.2859096812896121E-002  -4.8462782024346063E-003   6.1209603812619695E-002
   1.9797471289785103E-002  -5.1794477870321654E-003   6.2130590134575045E-002
   1.9119182436399956E-002  -4.6682337270605861E-003   6.1831769873347944E-002
   1.8440893583014806E-002  -4.2403725178481316E-003   6.1727077712467722E-002
   1.7762604729629657E-002  -3.8958641593946595E-003   6.1816513651934774E-002
   1.7084315876244510E-002  -3.6347086517002913E-003   6.2100077691748745E-002
   1.3243558195211690E-002  -3.4529651912767328E-003   6.3236226181618838E-002
   1.2770053503542109E-002  -3.1121558179417821E-003   6.2833357270787538E-002
   1.2296548811872528E-002  -2.8269150117782200E-003   6.2645928583040286E-002
   1.1823044120202955E-002  -2.5972427727863319E-003   6.2673940118377028E-002
   1.1349539428533367E-002  -2.4231391009658376E-003   6.2917391876797804E-002
   6.6444010986309674E-003  -1.7264825955213212E-003   6.4157565400232347E-002
   6.3969926914139042E-003  -1.5560779088228845E-003   6.3678432123384407E-002
   6.1495842841968349E-003  -1.4134575057083380E-003   6.3436051192357429E-002
   5.9021758769797622E-003  -1.2986213861779770E-003   6.3430422607151524E-002
   5.6547674697627025E-003  -1.2115695502314811E-003   6.3661546367766511E-002
   4.2944814371281836E-014   2.3420154704467677E-013   6.4894607790415448E-002
   1.5331486080683021E-014   2.9590219163821985E-013   6.4366994431138497E-002
  -1.2281842209915794E-014   3.6146086124233534E-013   6.4097445540419490E-002
  -3.9898639947466563E-014   4.3028774987519114E-013   6.4085961118258358E-002
  -6.7508498791113425E-014   5.0298654130642717E-013   6.4332541164655255E-002
   2.2859096812896121E-002  -4.8462782024346063E-003   6.1209603812619695E-002
   2.1953404559141063E-002  -4.5832611556548275E-003   6.0373262924474536E-002
   2.1047712305385990E-002  -4.3794875681052309E-003   5.9777056114135835E-002
   2.0142020051630925E-002  -4.2349574397859378E-003   5.9420983381603884E-002
   1.9236327797875860E-002  -4.1496707706967229E-003   5.9305044726878697E-002
   1.7084315876244510E-002  -3.6347086517002913E-003   6.2100077691748745E-002
   1.6415329946702015E-002  -3.4374458665962643E-003   6.1248475512123937E-002
   1.5746344017159519E-002  -3.2846156759136075E-003   6.0630151903117629E-002
   1.5077358087617010E-002  -3.1762180796525742E-003   6.0245106864729683E-002
   1.4408372158074514E-002  -3.1122530778128765E-003   6.0093340396960238E-002
   1.1349539428533367E-002  -2.4231391009658376E-003   6.2917391876797804E-002
   1.0910404316015181E-002  -2.2916305775374790E-003   6.2065339270502159E-002
   1.0471269203496981E-002  -2.1897437837219910E-003   6.1439709727636661E-002
   1.0032134090978782E-002  -2.1174787195191568E-003   6.1040503248201372E-002
   9.5929989784605992E-003  -2.0748353849290857E-003   6.0867719832196271E-002
   5.6547674697627025E-003  -1.2115695502314811E-003   6.3661546367766511E-002
   5.4386276670805407E-003  -1.1458152884788048E-003   6.2823854199608967E-002
   5.2224878643983893E-003  -1.0948718915303711E-003   6.2205729587693173E-002
   5.0063480617162362E-003  -1.0587393593857108E-003   6.1807172532019332E-002
   4.7902082590340839E-003  -1.0374176920452671E-003   6.1628183032587498E-002
  -6.7508498791113425E-014   5.0298654130642717E-013   6.4332541164655255E-002
  -1.0188030974411788E-013   5.7986948576171926E-013   6.3524020299444317E-002
  -1.3625212069712234E-013   6.6115168895208853E-013   6.2928211483287005E-002
  -1.7061525803274691E-013   7.4759989865391674E-013   6.2545114716183389E-002
  -2.0499574260313125E-013   8.3855145049938073E-013   6.2374729998133371E-002
   1.9236327797875860E-002  -4.1496707706967229E-003   5.9305044726878697E-002
   1.8448042133063378E-002  -4.1562702357803571E-003   5.8738223845885340E-002
   1.7659756468250902E-002  -4.2873985099794176E-003   5.8381219877365942E-002
   1.6871470803438416E-002  -4.5430555932935504E-003   5.8234032821320642E-002
   1.6083185138625944E-002  -4.9232414857228735E-003   5.8296662677749356E-002
   1.4408372158074514E-002  -3.1122530778128765E-003   6.0093340396960238E-002
   1.3826717031665277E-002  -3.1172026766016492E-003   5.9426952894108376E-002
   1.3245061905256032E-002  -3.2155488822248335E-003   5.8964009555588726E-002
   1.2663406778846770E-002  -3.4072916946831996E-003   5.8704510381401676E-002
   1.2081751652437550E-002  -3.6924311139759358E-003   5.8648455371546837E-002
   9.5929989784605992E-003  -2.0748353849290857E-003   6.0867719832196271E-002
   9.2116016423128798E-003  -2.0781351174225526E-003   6.0132897909766392E-002
   8.8302043061651691E-003  -2.1436992544704020E-003   5.9595147403527240E-002
   8.4488069700174584E-003  -2.2715277960725679E-003   5.9254468313478685E-002
   8.0674096338697390E-003  -2.4616207422290537E-003   5.9110860639620899E-002
   4.7902082590340839E-003  -1.0374176920452671E-003   6.1628183032587498E-002
   4.6026959650062082E-003  -1.0390675582437059E-003   6.0856058892859978E-002
   4.4151836709783385E-003  -1.0718496267159774E-003   6.0274633421181625E-002
   4.2276713769504610E-003  -1.1357638974621321E-003   5.9883906617552149E-002
   4.0401590829225922E-003  -1.2308103704820883E-003   5.9683878481971722E-002
  -2.0499574260313125E-013   8.3855145049938073E-013   6.2374729998133371E-002
  -2.5473373410633826E-013   9.3527963151984750E-013   6.1596435843388919E-002
  -3.0447519505649723E-013   1.0386136395368339E-012   6.1002467608551658E-002
  -3.5421492128318022E-013   1.1484424522478776E-012   6.0592825293621783E-002
  -4.0395464750986321E-013   1.2648770919554408E-012   6.0367508898599209E-002
   1.6083185138625944E-002  -4.9232414857228735E-003   5.8296662677749356E-002
   1.4094424249679577E-002  -5.5753391492588955E-003   5.0468937053898377E-002
   1.2105663360733196E-002  -6.6467315458926257E-003   4.3082139836811972E-002
   1.0116902471786815E-002  -8.1374186756239392E-003   3.6136271026490668E-002
   8.1281415828404202E-003  -1.0047400538453211E-002   2.9631330622933882E-002
   1.2081751652437550E-002  -3.6924311139759358E-003   5.8648455371546837E-002
   1.0547984624120946E-002  -4.1815043615991143E-003   5.0455003777719526E-002
   9.0142175958043344E-003  -4.9850486590477666E-003   4.2730611498387111E-002
   7.4804505674877161E-003  -6.1030640063219795E-003   3.5475278533549218E-002
   5.9466835391711326E-003  -7.5355504034220200E-003   2.8689004883206026E-002
   8.0674096338697390E-003  -2.4616207422290537E-003   5.9110860639620899E-002
   7.0167673739127967E-003  -2.7876695739393331E-003   5.0656506759089823E-002
   5.9661251139558301E-003  -3.3233657722030185E-003   4.2699343100783216E-002
   4.9154828539988565E-003  -4.0687093370200475E-003   3.5239369664701259E-002
   3.8648405940419212E-003  -5.0237002683906073E-003   2.8276586450843799E-002
   4.0401590829225922E-003  -1.2308103704820883E-003   5.9683878481971722E-002
   3.5007724990551402E-003  -1.3938347862794409E-003   5.1073445998008851E-002
   2.9613859151876700E-003  -1.6616828853583815E-003   4.2988334644000148E-002
   2.4219993313202154E-003  -2.0343546677181572E-003   3.5428544419946056E-002
   1.8826127474527686E-003  -2.5118501333593612E-003   2.8394075325846591E-002
  -4.0395464750986321E-013   1.2648770919554408E-012   6.0367508898599209E-002
  -4.5204118226394030E-013   1.3803957976676884E-012   5.1705821494476667E-002
  -5.0011730867716153E-013   1.4866163855487002E-012   4.3597586128038435E-002
  -5.4818302674952690E-013   1.5839343725509991E-012   3.6042802799284651E-002
  -5.9627303095055595E-013   1.6719958750854857E-012   2.9041471508215011E-002
   7.3708400494254533E-014   0.0000000000000000        2.8153088963782345E-002
   8.0773061850170080E-014  -1.5255158247740042E-014   3.3067686543560799E-002
   8.7835771642175153E-014  -2.6667903996191455E-014   3.7974960462124820E-002
   9.4899457216135463E-014  -3.4250380309686079E-014   4.2874910719474392E-002
   1.0196401015183376E-013  -3.7985239953464145E-014   4.7767537315609537E-002
  -6.8281606012660827E-003   0.0000000000000000        2.8224784654085563E-002
  -6.8736901767387486E-003   1.6161274412616541E-004   3.3217487023251238E-002
  -6.9192197522114137E-003   3.5966821525742956E-004   3.8126453902671886E-002
  -6.9647493276840814E-003   5.9416641339379763E-004   4.2951685292347511E-002
  -7.0102789031567473E-003   8.6510733853526096E-004   4.7693181192278132E-002
  -1.3558231862457840E-002   0.0000000000000000        2.8439871725029577E-002
  -1.3725702841940817E-002   3.2322548826758599E-004   3.3547121610583715E-002
  -1.3893173821423790E-002   7.1933643054153309E-004   3.8494224177862253E-002
  -1.4060644800906765E-002   1.1883328268218404E-003   4.3281179426865199E-002
  -1.4228115780389744E-002   1.7302146771085080E-003   4.7907987357592552E-002
  -2.0190213783501568E-002   0.0000000000000000        2.8798350176614376E-002
  -2.0556037995525432E-002   4.8483823240900656E-004   3.4056590305558250E-002
  -2.0921862207549290E-002   1.0790046458256318E-003   3.9078271287695948E-002
  -2.1287686419573158E-002   1.7824992402498858E-003   4.3863393123027464E-002
  -2.1653510631597012E-002   2.5953220156817512E-003   4.8411955811552825E-002
  -2.6724106364397263E-002   0.0000000000000000        2.9300220008839965E-002
  -2.7364695637492591E-002   6.4645097655042713E-004   3.4745893108174844E-002
  -2.8005284910587916E-002   1.4386728611097358E-003   3.9878595232172957E-002
  -2.8645874183683247E-002   2.3766656536779295E-003   4.4698326380834312E-002
  -2.9286463456778569E-002   3.4604293542550004E-003   4.9205086554158922E-002
   1.0196401015183376E-013  -3.7985239953464145E-014   4.7767537315609537E-002
   1.0515546766676209E-013  -3.8342592989515367E-014   5.0822545337540624E-002
   1.0834844306473190E-013  -3.5739206732943174E-014   5.3724828162779147E-002
   1.1154065952118097E-013  -3.0202511498711448E-014   5.6474385791325091E-002
   1.1473287597763004E-013  -2.1732615707037439E-014   5.9071218223178470E-002
  -7.0102789031567473E-003   8.6510733853526096E-004   4.7693181192278132E-002
  -7.1335880884589153E-003   1.1326493293440320E-003   5.0548426953788375E-002
  -7.2568972737610832E-003   1.3569507244822828E-003   5.3309779541380463E-002
  -7.3802064590632504E-003   1.5380115239500142E-003   5.5977238955054388E-002
  -7.5035156443654192E-003   1.6758317277472679E-003   5.8550805194810193E-002
  -1.4228115780389744E-002   1.7302146771085080E-003   4.7907987357592552E-002
  -1.4415902128222849E-002   2.2652986587263788E-003   5.0520230263008489E-002
  -1.4603688476055953E-002   2.7139014490002913E-003   5.3097412017280701E-002
  -1.4791474823889060E-002   3.0760230479302451E-003   5.5639532620409167E-002
  -1.4979261171722167E-002   3.3516634555162544E-003   5.8146592072393921E-002
  -2.1653510631597012E-002   2.5953220156817512E-003   4.8411955811552825E-002
  -2.1846942119186637E-002   3.3979479881087395E-003   5.0737955265201015E-002
  -2.2040373606776270E-002   4.0708521735183132E-003   5.3087725590479889E-002
  -2.2233805094365896E-002   4.6140345719104759E-003   5.5461266787389427E-002
  -2.2427236581955525E-002   5.0274951832852341E-003   5.7858578855929717E-002
  -2.9286463456778569E-002   3.4604293542550004E-003   4.9205086554158922E-002
  -2.9426708061350303E-002   4.5305973174911036E-003   5.1201601960365911E-002
  -2.9566952665922019E-002   5.4278028980363231E-003   5.3280720260977993E-002
  -2.9707197270493743E-002   6.1520460958906925E-003   5.5442441455995195E-002
  -2.9847441875065474E-002   6.7033269110542346E-003   5.7686765545417525E-002
   1.1473287597763004E-013  -2.1732615707037439E-014   5.9071218223178470E-002
   1.1290794688090244E-013  -9.3709762172267119E-015   5.9668316334031357E-002
   1.1108215042243685E-013   7.6709472107694410E-015   6.0368088483045056E-002
   1.0925808868744724E-013   2.9548412328050944E-014   6.1170534670219504E-002
   1.0743142486724366E-013   5.6107896106993849E-014   6.2075654895554735E-002
  -7.5035156443654192E-003   1.6758317277472679E-003   5.8550805194810193E-002
  -7.4109506593746776E-003   1.7833455427468947E-003   5.9156878278658273E-002
  -7.3183856743839386E-003   1.8734871758218849E-003   5.9845407294330778E-002
  -7.2258206893931996E-003   1.9462566269721742E-003   6.0616392241827570E-002
  -7.1332557044024615E-003   2.0016538961978164E-003   6.1469833121148745E-002
  -1.4979261171722167E-002   3.3516634555162544E-003   5.8146592072393921E-002
  -1.4814349308075295E-002   3.5666910855032315E-003   5.8744267947307839E-002
  -1.4649437444428429E-002   3.7469743516360728E-003   5.9404181647709643E-002
  -1.4484525580781562E-002   3.8925132539148559E-003   6.0126333173599389E-002
  -1.4319613717134690E-002   4.0033077923394764E-003   6.0910722524977035E-002
  -2.2427236581955525E-002   5.0274951832852341E-003   5.7858578855929717E-002
  -2.2210195945988952E-002   5.3500366282595397E-003   5.8430485339979979E-002
  -2.1993155310022390E-002   5.6204615274503015E-003   5.9044411543181692E-002
  -2.1776114674055817E-002   5.8387698808574822E-003   5.9700357465534974E-002
  -2.1559074038089255E-002   6.0049616884811884E-003   6.0398323107039596E-002
  -2.9847441875065474E-002   6.7033269110542346E-003   5.7686765545417525E-002
  -2.9598490573115640E-002   7.1333821710158375E-003   5.8215530456674727E-002
  -2.9349539271165816E-002   7.4939487032644695E-003   5.8766096980746946E-002
  -2.9100587969215982E-002   7.7850265078001756E-003   5.9338465117634250E-002
  -2.8851636667266162E-002   8.0066155846228310E-003   5.9932634867336562E-002
   1.0743142486724366E-013   5.6107896106993849E-014   6.2075654895554735E-002
   9.1310639604991195E-014   8.8956619848090668E-014   6.2615512575217261E-002
   7.5188119619262750E-014   1.2958731310241944E-013   6.3265290617581543E-002
   5.9067334357010282E-014   1.7800257795519414E-013   6.4024989022647597E-002
   4.2944814371281836E-014   2.3420154704467677E-013   6.4894607790415448E-002
  -7.1332557044024615E-003   2.0016538961978164E-003   6.1469833121148745E-002
  -7.0110420529384673E-003   2.0194890736316348E-003   6.1940005780541728E-002
  -6.8888284014744765E-003   1.9795722494066921E-003   6.2544685380193213E-002
  -6.7666147500104806E-003   1.8819034235228018E-003   6.3283871920103152E-002
  -6.6444010985464916E-003   1.7264825959801000E-003   6.4157565400271566E-002
  -1.4319613717134690E-002   4.0033077923394764E-003   6.0910722524977035E-002
  -1.4050599836633867E-002   4.0389781471743408E-003   6.1253458162433883E-002
  -1.3781585956133057E-002   3.9591444986837154E-003   6.1755287317705923E-002
  -1.3512572075632247E-002   3.7638068468675736E-003   6.2416209990793135E-002
  -1.3243558195131426E-002   3.4529651917259985E-003   6.3236226181695471E-002
  -2.1559074038089255E-002   6.0049616884811884E-003   6.0398323107039596E-002
  -2.1118673350994908E-002   6.0584672207169912E-003   6.0555869720893676E-002
  -2.0678272663900564E-002   5.9387167479607378E-003   6.0897096430119660E-002
  -2.0237871976806231E-002   5.6457102702123733E-003   6.1422003234717519E-002
  -1.9797471289711880E-002   5.1794477874719247E-003   6.2130590134687254E-002
  -2.8851636667266162E-002   8.0066155846228310E-003   5.9932634867336562E-002
  -2.8215262596021581E-002   8.0779562942596833E-003   5.9847240455921227E-002
  -2.7578888524776995E-002   7.9182889972378191E-003   5.9970112717434486E-002
  -2.6942514453532414E-002   7.5276136935571525E-003   6.0301251651876331E-002
  -2.6306140382287832E-002   6.9059303832178232E-003   6.0840657259246811E-002
   4.2944814371281836E-014   2.3420154704467677E-013   6.4894607790415448E-002
   1.5331486080683021E-014   2.9590219163821985E-013   6.4366994431138497E-002
  -1.2281842209915794E-014   3.6146086124233534E-013   6.4097445540419490E-002
  -3.9898639947466563E-014   4.3028774987519114E-013   6.4085961118258358E-002
  -6.7508498791113425E-014   5.0298654130642717E-013   6.4332541164655255E-002
  -6.6444010985464916E-003   1.7264825959801000E-003   6.4157565400271566E-002
  -6.3969926913843775E-003   1.5560779094034166E-003   6.3678432123428122E-002
  -6.1495842842222738E-003   1.4134575064177549E-003   6.3436051192406306E-002
  -5.9021758770601614E-003   1.2986213870229430E-003   6.3430422607205966E-002
  -5.6547674698980560E-003   1.2115695512192048E-003   6.3661546367827088E-002
  -1.3243558195131426E-002   3.4529651917259985E-003   6.3236226181695471E-002
  -1.2770053503516010E-002   3.1121558185108339E-003   6.2833357270873025E-002
  -1.2296548811900601E-002   2.8269150124740489E-003   6.2645928583135668E-002
  -1.1823044120285182E-002   2.5972427736155428E-003   6.2673940118483457E-002
  -1.1349539428669772E-002   2.4231391019353954E-003   6.2917391876916209E-002
  -1.9797471289711880E-002   5.1794477874719247E-003   6.2130590134687254E-002
  -1.9119182436379570E-002   4.6682337276182997E-003   6.1831769873473094E-002
  -1.8440893583047263E-002   4.2403725185302873E-003   6.1727077712607645E-002
  -1.7762604729714949E-002   3.8958641602080870E-003   6.1816513652090864E-002
  -1.7084315876382636E-002   3.6347086526515998E-003   6.2100077691922828E-002
  -2.6306140382287832E-002   6.9059303832178232E-003   6.0840657259246811E-002
  -2.5444379489975036E-002   6.2243116367257378E-003   6.0673669931228358E-002
  -2.4582618597662250E-002   5.6538300245866160E-003   6.0679498580822180E-002
  -2.3720857705349457E-002   5.1944855468006954E-003   6.0858143208028286E-002
  -2.2859096813036668E-002   4.8462782033678042E-003   6.1209603812846736E-002
  -6.7508498791113425E-014   5.0298654130642717E-013   6.4332541164655255E-002
  -1.0188030974411788E-013   5.7986948576171926E-013   6.3524020299444317E-002
  -1.3625212069712234E-013   6.6115168895208853E-013   6.2928211483287005E-002
  -1.7061525803274691E-013   7.4759989865391674E-013   6.2545114716183389E-002
  -2.0499574260313125E-013   8.3855145049938073E-013   6.2374729998133371E-002
  -5.6547674698980560E-003   1.2115695512192048E-003   6.3661546367827088E-002
  -5.4386276672841582E-003   1.1458152896177132E-003   6.2823854199678758E-002
  -5.2224878646702534E-003   1.0948718928297935E-003   6.2205729587773373E-002
  -5.0063480620563486E-003   1.0587393608555255E-003   6.1807172532110863E-002
  -4.7902082594424508E-003   1.0374176936948087E-003   6.1628183032691214E-002
  -1.1349539428669772E-002   2.4231391019353954E-003   6.2917391876916209E-002
  -1.0910404316218342E-002   2.2916305786556679E-003   6.2065339270639452E-002
  -1.0471269203766932E-002   2.1897437849983728E-003   6.1439709727794840E-002
  -1.0032134091315521E-002   2.1174787209635604E-003   6.1040503248382297E-002
  -9.5929989788640872E-003   2.0748353865511215E-003   6.0867719832401967E-002
  -1.7084315876382636E-002   3.6347086526515998E-003   6.2100077691922828E-002
  -1.6415329946904460E-002   3.4374458676936781E-003   6.1248475512326400E-002
  -1.5746344017426278E-002   3.2846156771669278E-003   6.0630151903351290E-002
  -1.5077358087948101E-002   3.1762180810715962E-003   6.0245106864997615E-002
  -1.4408372158469924E-002   3.1122530794075176E-003   6.0093340397265313E-002
  -2.2859096813036668E-002   4.8462782033678042E-003   6.1209603812846736E-002
  -2.1953404559342478E-002   4.5832611567315218E-003   6.0373262924739407E-002
  -2.1047712305648298E-002   4.3794875693356217E-003   5.9777056114442811E-002
  -2.0142020051954104E-002   4.2349574411795279E-003   5.9420983381956755E-002
  -1.9236327798259928E-002   4.1496707722637471E-003   5.9305044727281375E-002
  -2.0499574260313125E-013   8.3855145049938073E-013   6.2374729998133371E-002
  -2.5473373410633826E-013   9.3527963151984750E-013   6.1596435843388919E-002
  -3.0447519505649723E-013   1.0386136395368339E-012   6.1002467608551658E-002
  -3.5421492128318022E-013   1.1484424522478776E-012   6.0592825293621783E-002
  -4.0395464750986321E-013   1.2648770919554408E-012   6.0367508898599209E-002
  -4.7902082594424508E-003   1.0374176936948087E-003   6.1628183032691214E-002
  -4.6026959655136937E-003   1.0390675600848165E-003   6.0856058892980902E-002
  -4.4151836715849296E-003   1.0718496287621393E-003   6.0274633421320209E-002
  -4.2276713776561760E-003   1.1357638997270200E-003   5.9883906617709252E-002
  -4.0401590837274085E-003   1.2308103729793407E-003   5.9683878482147956E-002
  -9.5929989788640872E-003   2.0748353865511215E-003   6.0867719832401967E-002
  -9.2116016428144022E-003   2.0781351192342284E-003   6.0132897910006450E-002
  -8.8302043067647051E-003   2.1436992564856650E-003   5.9595147403803242E-002
  -8.4488069707150185E-003   2.2715277983055421E-003   5.9254468313792247E-002
  -8.0674096346653231E-003   2.4616207446937488E-003   5.9110860639973173E-002
  -1.4408372158469924E-002   3.1122530794075176E-003   6.0093340397265313E-002
  -1.3826717032156861E-002   3.1172026783837306E-003   5.9426952894465666E-002
  -1.3245061905843798E-002   3.2155488842090518E-003   5.8964009556000771E-002
  -1.2663406779530739E-002   3.4072916968840919E-003   5.8704510381870391E-002
  -1.2081751653217673E-002   3.6924311164081847E-003   5.8648455372074630E-002
  -1.9236327798259928E-002   4.1496707722637471E-003   5.9305044727281375E-002
  -1.8448042133541072E-002   4.1562702375332050E-003   5.8738223846358628E-002
  -1.7659756468822202E-002   4.2873985119327440E-003   5.8381219877912865E-002
  -1.6871470804103339E-002   4.5430555954626209E-003   5.8234032821944226E-002
  -1.6083185139384483E-002   4.9232414881225650E-003   5.8296662678452404E-002
  -4.0395464750986321E-013   1.2648770919554408E-012   6.0367508898599209E-002
  -4.5204118226394030E-013   1.3803957976676884E-012   5.1705821494476667E-002
  -5.0011730867716153E-013   1.4866163855487002E-012   4.3597586128038435E-002
  -5.4818302674952690E-013   1.5839343725509991E-012   3.6042802799284651E-002
  -5.9627303095055595E-013   1.6719958750854857E-012   2.9041471508215011E-002
  -4.0401590837274085E-003   1.2308103729793407E-003   5.9683878482147956E-002
  -3.5007724999562284E-003   1.3938347890078417E-003   5.1073445998173927E-002
  -2.9613859161850380E-003   1.6616828883010970E-003   4.2988334644154191E-002
  -2.4219993324138458E-003   2.0343546708591204E-003   3.5428544420088637E-002
  -1.8826127486426536E-003   2.5118501366818702E-003   2.8394075325977375E-002
  -8.0674096346653231E-003   2.4616207446937488E-003   5.9110860639973173E-002
  -7.0167673748049372E-003   2.7876695766354265E-003   5.0656506759421294E-002
  -5.9661251149445487E-003   3.3233657751157303E-003   4.2699343101093509E-002
  -4.9154828550841611E-003   4.0687093401345249E-003   3.5239369664990035E-002
  -3.8648405952237883E-003   5.0237002716918555E-003   2.8276586451110419E-002
  -1.2081751653217673E-002   3.6924311164081847E-003   5.8648455372074630E-002
  -1.0547984624998192E-002   4.1815043642629418E-003   5.0455003778218779E-002
  -9.0142175967786991E-003   4.9850486619302872E-003   4.2730611498856902E-002
  -7.4804505685591802E-003   6.1030640094099312E-003   3.5475278533988866E-002
  -5.9466835403397100E-003   7.5355504067017853E-003   2.8689004883615518E-002
  -1.6083185139384483E-002   4.9232414881225650E-003   5.8296662678452404E-002
  -1.4094424250535954E-002   5.5753391518904571E-003   5.0468937054566176E-002
  -1.2105663361687412E-002   6.6467315487448303E-003   4.3082139837444050E-002
  -1.0116902472838866E-002   8.1374186786852508E-003   3.6136271027085817E-002
  -8.1281415839903337E-003   1.0047400541711715E-002   2.9631330623491658E-002
  -2.6724106364397263E-002   0.0000000000000000        2.9300220008839965E-002
  -2.7364695637492591E-002   6.4645097655042713E-004   3.4745893108174844E-002
  -2.8005284910587916E-002   1.4386728611097358E-003   3.9878595232172957E-002
  -2.8645874183683247E-002   2.3766656536779295E-003   4.4698326380834312E-002
  -2.9286463456778569E-002   3.4604293542550004E-003   4.9205086554158922E-002
  -3.3493809385422318E-002   0.0000000000000000        3.0073240293750112E-002
  -3.4380854070786594E-002   1.0226685438366736E-003   3.5138797686312853E-002
  -3.5267898756150870E-002   2.1457240807980877E-003   4.0024415229674447E-002
  -3.6154943441515153E-002   3.3691666108842484E-003   4.4730092923834897E-002
  -3.7041988126879428E-002   4.6929961340951469E-003   4.9255830768794195E-002
  -4.0833222626854113E-002   0.0000000000000000        3.1245170103388571E-002
  -4.1833691598351735E-002   1.3988861111229193E-003   3.5885227874295045E-002
  -4.2834160569849358E-002   2.8527753004864405E-003   4.0478376922135961E-002
  -4.3834629541346974E-002   4.3616675680905664E-003   4.5024617246911355E-002
  -4.4835098512844611E-002   5.9255629139352908E-003   4.9523948848621206E-002
  -4.8742346088692663E-002   0.0000000000000000        3.2816009437755353E-002
  -4.9723208220188032E-002   1.7751036784091644E-003   3.6985183672121412E-002
  -5.0704070351683381E-002   3.5598265201747907E-003   4.1240480309557528E-002
  -5.1684932483178736E-002   5.3541685252968818E-003   4.5581899350063730E-002
  -5.2665794614674077E-002   7.1581296937754356E-003   5.0009440793640003E-002
  -5.7221179770937949E-002   0.0000000000000000        3.4785758296850440E-002
  -5.8049403936295436E-002   2.1513212456954122E-003   3.8438665079791948E-002
  -5.8877628101652930E-002   4.2668777398631452E-003   4.2310725391939127E-002
  -5.9705852267010411E-002   6.3466694825031998E-003   4.6401939233291993E-002
  -6.0534076432367898E-002   8.3906964736155769E-003   5.0712306603850524E-002
  -2.9286463456778569E-002   3.4604293542550004E-003   4.9205086554158922E-002
  -2.9426708061350303E-002   4.5305973174911036E-003   5.1201601960365911E-002
  -2.9566952665922019E-002   5.4278028980363231E-003   5.3280720260977993E-002
  -2.9707197270493743E-002   6.1520460958906925E-003   5.5442441455995195E-002
  -2.9847441875065474E-002   6.7033269110542346E-003   5.7686765545417525E-002
  -3.7041988126879428E-002   4.6929961340951469E-003   4.9255830768794195E-002
  -3.7135319122553696E-002   5.9797017580863849E-003   5.1005272586501733E-002
  -3.7228650118227971E-002   7.0917725905135448E-003   5.2765938727599056E-002
  -3.7321981113902253E-002   8.0292086313766345E-003   5.4537829192086183E-002
  -3.7415312109576507E-002   8.7920098806756608E-003   5.6320943979963109E-002
  -4.4835098512844611E-002   5.9255629139352908E-003   4.9523948848621206E-002
  -4.4952894470636745E-002   7.4288061986816731E-003   5.1024644668956093E-002
  -4.5070690428428879E-002   8.7557422829907597E-003   5.2465186241665455E-002
  -4.5188486386221013E-002   9.9063711668625556E-003   5.3845573566749287E-002
  -4.5306282344013148E-002   1.0880692850297049E-002   5.5165806644207595E-002
  -5.2665794614674077E-002   7.1581296937754356E-003   5.0009440793640003E-002
  -5.2879434105599414E-002   8.8779106392769640E-003   5.1259718207729003E-002
  -5.3093073596524737E-002   1.0419711975467962E-002   5.2378462803177164E-002
  -5.3306713087450053E-002   1.1783533702348473E-002   5.3365674579984465E-002
  -5.3520352578375383E-002   1.2969375819918477E-002   5.4221353538150927E-002
  -6.0534076432367898E-002   8.3906964736155769E-003   5.0712306603850524E-002
  -6.0914938027441731E-002   1.0327015079872246E-002   5.1710493202820430E-002
  -6.1295799622515544E-002   1.2083681667945205E-002   5.2505768412134175E-002
  -6.1676661217589392E-002   1.3660696237834410E-002   5.3098132231791752E-002
  -6.2057522812663211E-002   1.5058058789539863E-002   5.3487584661793139E-002
  -2.9847441875065474E-002   6.7033269110542346E-003   5.7686765545417525E-002
  -2.9598490573115640E-002   7.1333821710158375E-003   5.8215530456674727E-002
  -2.9349539271165816E-002   7.4939487032644695E-003   5.8766096980746946E-002
  -2.9100587969215982E-002   7.7850265078001756E-003   5.9338465117634250E-002
  -2.8851636667266162E-002   8.0066155846228310E-003   5.9932634867336562E-002
  -3.7415312109576507E-002   8.7920098806756608E-003   5.6320943979963109E-002
  -3.7091378314465434E-002   9.3913822251881843E-003   5.6468933898780015E-002
  -3.6767444519354354E-002   9.8385315516918252E-003   5.6745087191104340E-002
  -3.6443510724243282E-002   1.0133457860186577E-002   5.7149403856936128E-002
  -3.6119576929132202E-002   1.0276161150672439E-002   5.7681883896275390E-002
  -4.5306282344013148E-002   1.0880692850297049E-002   5.5165806644207595E-002
  -4.4801004295048401E-002   1.1649382279360495E-002   5.4850287280288262E-002
  -4.4295726246083647E-002   1.2183114400119151E-002   5.4769293050568789E-002
  -4.3790448197118893E-002   1.2481889212573018E-002   5.4922823955049181E-002
  -4.3285170148154140E-002   1.2545706716722053E-002   5.5310879993729509E-002
  -5.3520352578375383E-002   1.2969375819918477E-002   5.4221353538150927E-002
  -5.2727368514864537E-002   1.3907382333532836E-002   5.3359590601199450E-002
  -5.1934384451353705E-002   1.4527697248546479E-002   5.2838714559140257E-002
  -5.1141400387842859E-002   1.4830320564959424E-002   5.2658725411973376E-002
  -5.0348416324332013E-002   1.4815252282771679E-002   5.2819623159698806E-002
  -6.2057522812663211E-002   1.5058058789539863E-002   5.3487584661793139E-002
  -6.0870470973913862E-002   1.6165382387705141E-002   5.1996843861513625E-002
  -5.9683419135164520E-002   1.6872280096973825E-002   5.0953351716818800E-002
  -5.8496367296415157E-002   1.7178751917345868E-002   5.0357108227708725E-002
  -5.7309315457665815E-002   1.7084797848821262E-002   5.0208113394183282E-002
  -2.8851636667266162E-002   8.0066155846228310E-003   5.9932634867336562E-002
  -2.8215262596021581E-002   8.0779562942596833E-003   5.9847240455921227E-002
  -2.7578888524776995E-002   7.9182889972378191E-003   5.9970112717434486E-002
  -2.6942514453532414E-002   7.5276136935571525E-003   6.0301251651876331E-002
  -2.6306140382287832E-002   6.9059303832178232E-003   6.0840657259246811E-002
  -3.6119576929132202E-002   1.0276161150672439E-002   5.7681883896275390E-002
  -3.5290495287949447E-002   1.0243698666523825E-002   5.7468719155754334E-002
  -3.4461413646766692E-002   1.0013127651115197E-002   5.7432702882181018E-002
  -3.3632332005583916E-002   9.5844481044463914E-003   5.7573835075555482E-002
  -3.2803250364401168E-002   8.9576600265175166E-003   5.7892115735877658E-002
  -4.3285170148154140E-002   1.2545706716722053E-002   5.5310879993729509E-002
  -4.2294499143014051E-002   1.2409441038787973E-002   5.5002844399501316E-002
  -4.1303828137873963E-002   1.2107966304992517E-002   5.4840839066240057E-002
  -4.0313157132733861E-002   1.1641282515335558E-002   5.4824863993945733E-002
  -3.9322486127593780E-002   1.1009389669817196E-002   5.4954919182618321E-002
  -5.0348416324332013E-002   1.4815252282771679E-002   5.2819623159698806E-002
  -4.9227274161215424E-002   1.4575183411052146E-002   5.2449616187162186E-002
  -4.8106131998098829E-002   1.4202804958869865E-002   5.2194521269611653E-002
  -4.6984989834982234E-002   1.3698116926224748E-002   5.2054338407047207E-002
  -4.5863847671865625E-002   1.3061119313116910E-002   5.2029067599468827E-002
  -5.7309315457665815E-002   1.7084797848821262E-002   5.0208113394183282E-002
  -5.6088820342553539E-002   1.6740925783316256E-002   4.9809034518736833E-002
  -5.4868325227441270E-002   1.6297643612747170E-002   4.9493749492295742E-002
  -5.3647830112329008E-002   1.5754951337113941E-002   4.9262258314859836E-002
  -5.2427334997216746E-002   1.5112848956416569E-002   4.9114560986429190E-002
  -2.6306140382287832E-002   6.9059303832178232E-003   6.0840657259246811E-002
  -2.5444379489975036E-002   6.2243116367257378E-003   6.0673669931228358E-002
  -2.4582618597662250E-002   5.6538300245866160E-003   6.0679498580822180E-002
  -2.3720857705349457E-002   5.1944855468006954E-003   6.0858143208028286E-002
  -2.2859096813036668E-002   4.8462782033678042E-003   6.1209603812846736E-002
  -3.2803250364401168E-002   8.9576600265175166E-003   5.7892115735877658E-002
  -3.1763233923506037E-002   8.2772430217177423E-003   5.7809436103685705E-002
  -3.0723217482610917E-002   7.6876766944361241E-003   5.7910451591046089E-002
  -2.9683201041715762E-002   7.1889610446727245E-003   5.8195162197958887E-002
  -2.8643184600820666E-002   6.7810960724275227E-003   5.8663567924424120E-002
  -3.9322486127593780E-002   1.1009389669817196E-002   5.4954919182618321E-002
  -3.8093334996176162E-002   1.0330174406709788E-002   5.4936260789417921E-002
  -3.6864183864758572E-002   9.7215233642856010E-003   5.5112176657709996E-002
  -3.5635032733340968E-002   9.1834365425447241E-003   5.5482666787494590E-002
  -3.4405881601923365E-002   8.7159139414871856E-003   5.6047731178771806E-002
  -4.5863847671865625E-002   1.3061119313116910E-002   5.2029067599468827E-002
  -4.4434682707985444E-002   1.2383105791701869E-002   5.2054143988425054E-002
  -4.3005517744105250E-002   1.1755370034135121E-002   5.2284673780813910E-002
  -4.1576352780225027E-002   1.1177912040416795E-002   5.2720656976635485E-002
  -4.0147187816344874E-002   1.0650731810546821E-002   5.3362093575889578E-002
  -5.2427334997216746E-002   1.5112848956416569E-002   4.9114560986429190E-002
  -5.0787277058933822E-002   1.4436037176693853E-002   4.9163085700707099E-002
  -4.9147219120650898E-002   1.3789216703984628E-002   4.9427942960357796E-002
  -4.7507161182367974E-002   1.3172387538288793E-002   4.9909132765381295E-002
  -4.5867103244085092E-002   1.2585549679606567E-002   5.0606655115777555E-002
  -2.2859096813036668E-002   4.8462782033678042E-003   6.1209603812846736E-002
  -2.1953404559342478E-002   4.5832611567315218E-003   6.0373262924739407E-002
  -2.1047712305648298E-002   4.3794875693356217E-003   5.9777056114442811E-002
  -2.0142020051954104E-002   4.2349574411795279E-003   5.9420983381956755E-002
  -1.9236327798259928E-002   4.1496707722637471E-003   5.9305044727281375E-002
  -2.8643184600820666E-002   6.7810960724275227E-003   5.8663567924424120E-002
  -2.7504317443699119E-002   6.4509946056612727E-003   5.7903618544954752E-002
  -2.6365450286577590E-002   6.1855694723346386E-003   5.7369884894529488E-002
  -2.5226583129456047E-002   5.9848206724479377E-003   5.7062366973148260E-002
  -2.4087715972334514E-002   5.8487482060008422E-003   5.6981064780811136E-002
  -3.4405881601923365E-002   8.7159139414871856E-003   5.6047731178771806E-002
  -3.3047757890141041E-002   8.3187280545908571E-003   5.5369606182139881E-002
  -3.1689634178358753E-002   7.9916513753338775E-003   5.4903778565785516E-002
  -3.0331510466576440E-002   7.7346839037161809E-003   5.4650248329708544E-002
  -2.8973386754794141E-002   7.5478256397377430E-003   5.4609015473909256E-002
  -4.0147187816344874E-002   1.0650731810546821E-002   5.3362093575889578E-002
  -3.8583725898668313E-002   1.0186461503520497E-002   5.2771225836294698E-002
  -3.7020263980991792E-002   9.7977332783330331E-003   5.2378737128210853E-002
  -3.5456802063315258E-002   9.4845471349844241E-003   5.2184627451637960E-002
  -3.3893340145638717E-002   9.2469030734746577E-003   5.2188896806575992E-002
  -4.5867103244085092E-002   1.2585549679606567E-002   5.0606655115777555E-002
  -4.4112221469280885E-002   1.2054194952450192E-002   5.0108477507419369E-002
  -4.2357339694476713E-002   1.1603815181332133E-002   4.9794760581805569E-002
  -4.0602457919672513E-002   1.1234410366252834E-002   4.9665504338936101E-002
  -3.8847576144868348E-002   1.0945980507211683E-002   4.9720708778811018E-002
  -1.9236327798259928E-002   4.1496707722637471E-003   5.9305044727281375E-002
  -1.8448042133541072E-002   4.1562702375332050E-003   5.8738223846358628E-002
  -1.7659756468822202E-002   4.2873985119327440E-003   5.8381219877912865E-002
  -1.6871470804103339E-002   4.5430555954626209E-003   5.8234032821944226E-002
  -1.6083185139384483E-002   4.9232414881225650E-003   5.8296662678452404E-002
  -2.4087715972334514E-002   5.8487482060008422E-003   5.6981064780811136E-002
  -2.3095133911969531E-002   5.7941749256737174E-003   5.6485866198637574E-002
  -2.2102551851604556E-002   5.8379236841467619E-003   5.6189443495279420E-002
  -2.1109969791239594E-002   5.9799944814199896E-003   5.6091796670736445E-002
  -2.0117387730874601E-002   6.2203873174935809E-003   5.6192925725008558E-002
  -2.8973386754794141E-002   7.5478256397377430E-003   5.4609015473909256E-002
  -2.7787549332444837E-002   7.4320796138141049E-003   5.4159232420155107E-002
  -2.6601711910095509E-002   7.3884488563607104E-003   5.3897184211554455E-002
  -2.5415874487746203E-002   7.4169333673775768E-003   5.3822870848107225E-002
  -2.4230037065396889E-002   7.5175331468647355E-003   5.3936292329813409E-002
  -3.3893340145638717E-002   9.2469030734746577E-003   5.2188896806575992E-002
  -3.2525288394966899E-002   9.0699843019543883E-003   5.1758322510911170E-002
  -3.1157236644295053E-002   8.9389740285747768E-003   5.1504442026738026E-002
  -2.9789184893623210E-002   8.8538722533349993E-003   5.1427255354056560E-002
  -2.8421133142951378E-002   8.8146789762358763E-003   5.1526762492866682E-002
  -3.8847576144868348E-002   1.0945980507211683E-002   4.9720708778811018E-002
  -3.7308351099535786E-002   1.0707888990095032E-002   4.9283136470905653E-002
  -3.5769126054203189E-002   1.0489499200788677E-002   4.9011216940830105E-002
  -3.4229901008870620E-002   1.0290811139292561E-002   4.8904950188584456E-002
  -3.2690675963538030E-002   1.0111824805606962E-002   4.8964336214168680E-002
  -1.6083185139384483E-002   4.9232414881225650E-003   5.8296662678452404E-002
  -1.4094424250535954E-002   5.5753391518904571E-003   5.0468937054566176E-002
  -1.2105663361687412E-002   6.6467315487448303E-003   4.3082139837444050E-002
  -1.0116902472838866E-002   8.1374186786852508E-003   3.6136271027085817E-002
  -8.1281415839903337E-003   1.0047400541711715E-002   2.9631330623491658E-002
  -2.0117387730874601E-002   6.2203873174935809E-003   5.6192925725008558E-002
  -1.7628073034537152E-002   6.7706596586676882E-003   4.8816744611058671E-002
  -1.5138758338199674E-002   7.8423689712427552E-003   4.2000742705322586E-002
  -1.2649443641862195E-002   9.4355152552185913E-003   3.5744920007800371E-002
  -1.0160128945524739E-002   1.1550098510595408E-002   3.0049276518491874E-002
  -2.4230037065396889E-002   7.5175331468647355E-003   5.3936292329813409E-002
  -2.1120917760120660E-002   7.9659801654448081E-003   4.7113797964114426E-002
  -1.8011798454844422E-002   9.0380063937404095E-003   4.0970733608079089E-002
  -1.4902679149568197E-002   1.0733611831751878E-002   3.5507099261707642E-002
  -1.1793559844291954E-002   1.3052796479478990E-002   3.0722894924999689E-002
  -2.8421133142951378E-002   8.8146789762358763E-003   5.1526762492866682E-002
  -2.4572958427286511E-002   9.1613006722219281E-003   4.5360097113733483E-002
  -2.0724783711621605E-002   1.0233643816238255E-002   3.9992112545713956E-002
  -1.6876608995956732E-002   1.2031708408285192E-002   3.5422808788807977E-002
  -1.3028434280291858E-002   1.4555494448362627E-002   3.1652185843015684E-002
  -3.2690675963538030E-002   1.0111824805606962E-002   4.8964336214168680E-002
  -2.7984195036034706E-002   1.0356621178999048E-002   4.3555642059916133E-002
  -2.3277714108531328E-002   1.1429281238736030E-002   3.9064879518226986E-002
  -1.8571233181027949E-002   1.3329804984818516E-002   3.5492048589101308E-002
  -1.3864752253524626E-002   1.6058192417246264E-002   3.2837149272538779E-002
  -5.7221179770937949E-002   0.0000000000000000        3.4785758296850440E-002
  -5.8049403936295436E-002   2.1513212456954122E-003   3.8438665079791948E-002
  -5.8877628101652930E-002   4.2668777398631452E-003   4.2310725391939127E-002
  -5.9705852267010411E-002   6.3466694825031998E-003   4.6401939233291993E-002
  -6.0534076432367898E-002   8.3906964736155769E-003   5.0712306603850524E-002
  -6.5861232526987015E-002   0.0000000000000000        3.7366059908536434E-002
  -6.6698806644483938E-002   2.9626707608142247E-003   4.0991124066069702E-002
  -6.7536380761980846E-002   5.8678838394314297E-003   4.4378334790118434E-002
  -6.8373954879477755E-002   8.7156392358516202E-003   4.7527692080682638E-002
  -6.9211528996974664E-002   1.1505936950074794E-002   5.0439195937762304E-002
  -7.4254013210236849E-002   0.0000000000000000        4.0768557500675907E-002
  -7.5557944242563402E-002   3.7740202759330376E-003   4.4344086102131586E-002
  -7.6861875274889954E-002   7.4688899389997176E-003   4.7224754307412541E-002
  -7.8165806307216520E-002   1.1084608989200041E-002   4.9410562116518737E-002
  -7.9469737339543059E-002   1.4621177426534007E-002   5.0901509529450217E-002
  -8.2399521820687507E-002   0.0000000000000000        4.4993251073268868E-002
  -8.4626816730533919E-002   4.5853697910518514E-003   4.8497551187977626E-002
  -8.6854111640380274E-002   9.0698960385680039E-003   5.0849983943821446E-002
  -8.9081406550226686E-002   1.3453578742548459E-002   5.2050549340800313E-002
  -9.1308701460073083E-002   1.7736417902993223E-002   5.2099247378914221E-002
  -9.0297758358338948E-002   0.0000000000000000        5.0040140626315302E-002
  -9.3905424108395391E-002   5.3967193061706647E-003   5.3451519323607803E-002
  -9.7513089858451835E-002   1.0670902138136290E-002   5.5254023699345151E-002
 -0.10112075560850828        1.5822548495896881E-002   5.5447653753527351E-002
 -0.10472842135856472        2.0851658379452437E-002   5.4032409486154370E-002
  -6.0534076432367898E-002   8.3906964736155769E-003   5.0712306603850524E-002
  -6.0914938027441731E-002   1.0327015079872246E-002   5.1710493202820430E-002
  -6.1295799622515544E-002   1.2083681667945205E-002   5.2505768412134175E-002
  -6.1676661217589392E-002   1.3660696237834410E-002   5.3098132231791752E-002
  -6.2057522812663211E-002   1.5058058789539863E-002   5.3487584661793139E-002
  -6.9211528996974664E-002   1.1505936950074794E-002   5.0439195937762304E-002
  -6.9555105233563549E-002   1.4002453397225011E-002   4.9741945071845380E-002
  -6.9898681470152421E-002   1.5968864992426314E-002   4.9322176312554519E-002
  -7.0242257706741307E-002   1.7405171735678786E-002   4.9179889659889689E-002
  -7.0585833943330178E-002   1.8311373626982319E-002   4.9315085113850951E-002
  -7.9469737339543059E-002   1.4621177426534007E-002   5.0901509529450217E-002
  -7.9295634721364777E-002   1.7677891714577759E-002   4.8158368364881306E-002
  -7.9121532103186495E-002   1.9854048316907489E-002   4.6173102803220678E-002
  -7.8947429485008214E-002   2.1149647233523163E-002   4.4945712844468327E-002
  -7.8773326866829932E-002   2.1564688464424775E-002   4.4476198488624274E-002
  -9.1308701460073083E-002   1.7736417902993223E-002   5.2099247378914221E-002
  -9.0136526490845414E-002   2.1353330031930511E-002   4.6959763081928174E-002
  -8.8964351521617746E-002   2.3739231641388640E-002   4.3058547884132638E-002
  -8.7792176552390078E-002   2.4894122731367530E-002   4.0395601785527598E-002
  -8.6620001583162382E-002   2.4818003301867207E-002   3.8970924786113040E-002
 -0.10472842135856472        2.0851658379452437E-002   5.4032409486154370E-002
 -0.10207778054200545        2.5028768349283272E-002   4.6146129222986054E-002
  -9.9427139725446173E-002   2.7624414965869787E-002   3.9978511555290391E-002
  -9.6776498908886871E-002   2.8638598229211925E-002   3.5529556483067527E-002
  -9.4125858092327611E-002   2.8071318139309687E-002   3.2799264006317316E-002
  -6.2057522812663211E-002   1.5058058789539863E-002   5.3487584661793139E-002
  -6.0870470973913862E-002   1.6165382387705141E-002   5.1996843861513625E-002
  -5.9683419135164520E-002   1.6872280096973825E-002   5.0953351716818800E-002
  -5.8496367296415157E-002   1.7178751917345868E-002   5.0357108227708725E-002
  -5.7309315457665815E-002   1.7084797848821262E-002   5.0208113394183282E-002
  -7.0585833943330178E-002   1.8311373626982319E-002   4.9315085113850951E-002
  -6.8985782775339899E-002   1.8846539432816591E-002   4.7824716590451767E-002
  -6.7385731607349633E-002   1.9169737919661305E-002   4.6713098069949742E-002
  -6.5785680439359326E-002   1.9280969087516357E-002   4.5980229552344890E-002
  -6.4185629271369060E-002   1.9180232936381797E-002   4.5626111037637203E-002
  -7.8773326866829932E-002   2.1564688464424775E-002   4.4476198488624274E-002
  -7.6828775022286244E-002   2.1527696477928064E-002   4.3174660812012447E-002
  -7.4884223177742584E-002   2.1467195742348753E-002   4.2183374485610235E-002
  -7.2939671333198924E-002   2.1383186257686849E-002   4.1502339509417660E-002
  -7.0995119488655237E-002   2.1275668023942339E-002   4.1131555883434631E-002
  -8.6620001583162382E-002   2.4818003301867207E-002   3.8970924786113040E-002
  -8.4399447714752912E-002   2.4208853523039500E-002   3.8046676526195602E-002
  -8.2178893846343415E-002   2.3764653565036205E-002   3.7364180963800238E-002
  -7.9958339977933918E-002   2.3485403427857352E-002   3.6923438098926953E-002
  -7.7737786109524407E-002   2.3371103111502849E-002   3.6724447931575671E-002
  -9.4125858092327611E-002   2.8071318139309687E-002   3.2799264006317316E-002
  -9.1697800852739833E-002   2.6890010568150997E-002   3.2440763733001275E-002
  -8.9269743613152069E-002   2.6062111387723678E-002   3.2255517504519771E-002
  -8.6841686373564292E-002   2.5587620598027848E-002   3.2243525320872754E-002
  -8.4413629133976542E-002   2.5466538199063415E-002   3.2404787182060218E-002
  -5.7309315457665815E-002   1.7084797848821262E-002   5.0208113394183282E-002
  -5.6088820342553539E-002   1.6740925783316256E-002   4.9809034518736833E-002
  -5.4868325227441270E-002   1.6297643612747170E-002   4.9493749492295742E-002
  -5.3647830112329008E-002   1.5754951337113941E-002   4.9262258314859836E-002
  -5.2427334997216746E-002   1.5112848956416569E-002   4.9114560986429190E-002
  -6.4185629271369060E-002   1.9180232936381797E-002   4.5626111037637203E-002
  -6.2860629677204516E-002   1.8903486911111295E-002   4.5194835121481619E-002
  -6.1535630083039985E-002   1.8486688456558494E-002   4.4888774314425298E-002
  -6.0210630488875427E-002   1.7929837572723380E-002   4.4707928616468280E-002
  -5.8885630894710890E-002   1.7232934259605814E-002   4.4652298027610518E-002
  -7.0995119488655237E-002   2.1275668023942339E-002   4.1131555883434631E-002
  -6.9524194155344429E-002   2.1066048038906268E-002   4.0627440602351690E-002
  -6.8053268822033636E-002   2.0675733300369710E-002   4.0289961690462034E-002
  -6.6582343488722828E-002   2.0104723808332656E-002   4.0119119147765683E-002
  -6.5111418155412021E-002   1.9353019562795087E-002   4.0114912974262576E-002
  -7.7737786109524407E-002   2.3371103111502849E-002   3.6724447931575671E-002
  -7.6079513776973307E-002   2.3228609166701247E-002   3.6106850961347123E-002
  -7.4421241444422193E-002   2.2864778144180923E-002   3.5697311620406021E-002
  -7.2762969111871065E-002   2.2279610043941987E-002   3.5495829908752087E-002
  -7.1104696779319937E-002   2.1473104865984291E-002   3.5502405826385544E-002
  -8.4413629133976542E-002   2.5466538199063415E-002   3.2404787182060218E-002
  -8.2526588542091092E-002   2.5391170294496251E-002   3.1633066198467952E-002
  -8.0639547950205670E-002   2.5053822987992240E-002   3.1110824104257057E-002
  -7.8752507358320234E-002   2.4454496279551360E-002   3.0838060899427498E-002
  -7.6865466766434798E-002   2.3593190169173578E-002   3.0814776583979242E-002
  -5.2427334997216746E-002   1.5112848956416569E-002   4.9114560986429190E-002
  -5.0787277058933822E-002   1.4436037176693853E-002   4.9163085700707099E-002
  -4.9147219120650898E-002   1.3789216703984628E-002   4.9427942960357796E-002
  -4.7507161182367974E-002   1.3172387538288793E-002   4.9909132765381295E-002
  -4.5867103244085092E-002   1.2585549679606567E-002   5.0606655115777555E-002
  -5.8885630894710890E-002   1.7232934259605814E-002   4.4652298027610518E-002
  -5.7033975822003702E-002   1.6476311598652219E-002   4.4953898488044874E-002
  -5.5182320749296479E-002   1.5740302671308770E-002   4.5462360671954978E-002
  -5.3330665676589249E-002   1.5024907477575344E-002   4.6177684579340933E-002
  -5.1479010603882040E-002   1.4330126017451983E-002   4.7099870210202788E-002
  -6.5111418155412021E-002   1.9353019562795087E-002   4.0114912974262576E-002
  -6.3057636770177367E-002   1.8516586020610577E-002   4.0660211607449953E-002
  -6.1003855384942796E-002   1.7691388638632864E-002   4.1402901142216182E-002
  -5.8950073999708232E-002   1.6877427416861789E-002   4.2342981578561284E-002
  -5.6896292614473612E-002   1.6074702355297454E-002   4.3480452916485252E-002
  -7.1104696779319937E-002   2.1473104865984291E-002   3.5502405826385544E-002
  -6.8858259903454941E-002   2.0556860442568967E-002   3.6282025058922522E-002
  -6.6611823027589945E-002   1.9642474605956983E-002   3.7249564371141491E-002
  -6.4365386151724935E-002   1.8729947356148257E-002   3.8405023763042369E-002
  -6.2118949275859967E-002   1.7819278693142926E-002   3.9748403234625265E-002
  -7.6865466766434798E-002   2.3593190169173578E-002   3.0814776583979242E-002
  -7.4435845221836355E-002   2.2597134864527260E-002   3.1819338842462630E-002
  -7.2006223677237871E-002   2.1593560573281066E-002   3.3002350358730767E-002
  -6.9576602132639359E-002   2.0582467295434760E-002   3.4363811132784104E-002
  -6.7146980588040944E-002   1.9563855030988397E-002   3.5903721164622315E-002
  -4.5867103244085092E-002   1.2585549679606567E-002   5.0606655115777555E-002
  -4.4112221469280885E-002   1.2054194952450192E-002   5.0108477507419369E-002
  -4.2357339694476713E-002   1.1603815181332133E-002   4.9794760581805569E-002
  -4.0602457919672513E-002   1.1234410366252834E-002   4.9665504338936101E-002
  -3.8847576144868348E-002   1.0945980507211683E-002   4.9720708778811018E-002
  -5.1479010603882040E-002   1.4330126017451983E-002   4.7099870210202788E-002
  -4.9527715781587919E-002   1.3703789272783734E-002   4.6906895642464724E-002
  -4.7576420959293805E-002   1.3193728225415480E-002   4.6922286486962173E-002
  -4.5625126136999671E-002   1.2799942875347609E-002   4.7146042743695035E-002
  -4.3673831314705550E-002   1.2522433222579510E-002   4.7578164412663410E-002
  -5.6896292614473612E-002   1.6074702355297454E-002   4.3480452916485252E-002
  -5.4724680015198451E-002   1.5353383593117331E-002   4.3627982130629045E-002
  -5.2553067415923277E-002   1.4783641269498882E-002   4.4007781486499364E-002
  -5.0381454816648165E-002   1.4365475384442217E-002   4.4619850984096363E-002
  -4.8209842217372956E-002   1.4098885937947253E-002   4.5464190623419887E-002
  -6.2118949275859967E-002   1.7819278693142926E-002   3.9748403234625265E-002
  -5.9703114170112627E-002   1.7002977913450873E-002   4.0271736971912352E-002
  -5.7287279064365280E-002   1.6373554313582284E-002   4.1051245580417180E-002
  -5.4871443958617920E-002   1.5931007893536964E-002   4.2086929060139673E-002
  -5.2455608852870601E-002   1.5675338653314899E-002   4.3378787411080130E-002
  -6.7146980588040944E-002   1.9563855030988397E-002   3.5903721164622315E-002
  -6.4463018246330314E-002   1.8652572233784470E-002   3.6838160166314526E-002
  -6.1779055904619656E-002   1.7963467357665630E-002   3.8052678768715542E-002
  -5.9095093562909026E-002   1.7496540402631600E-002   3.9547276971825404E-002
  -5.6411131221198396E-002   1.7251791368682823E-002   4.1321954775644154E-002
  -3.8847576144868348E-002   1.0945980507211683E-002   4.9720708778811018E-002
  -3.7308351099535786E-002   1.0707888990095032E-002   4.9283136470905653E-002
  -3.5769126054203189E-002   1.0489499200788677E-002   4.9011216940830105E-002
  -3.4229901008870620E-002   1.0290811139292561E-002   4.8904950188584456E-002
  -3.2690675963538030E-002   1.0111824805606962E-002   4.8964336214168680E-002
  -4.3673831314705550E-002   1.2522433222579510E-002   4.7578164412663410E-002
  -4.1987795454993197E-002   1.2283308462936599E-002   4.7402092316858130E-002
  -4.0301759595280803E-002   1.2004677792243984E-002   4.7353989071982530E-002
  -3.8615723735568402E-002   1.1686541210501243E-002   4.7433854678036520E-002
  -3.6929687875856002E-002   1.1328898717708702E-002   4.7641689135020482E-002
  -4.8209842217372956E-002   1.4098885937947253E-002   4.5464190623419887E-002
  -4.6414679470180853E-002   1.3858727935778095E-002   4.5490411100854375E-002
  -4.4619516722988785E-002   1.3519856383698958E-002   4.5606916502318448E-002
  -4.2824353975796703E-002   1.3082271281709815E-002   4.5813706827812245E-002
  -4.1029191228604614E-002   1.2545972629810526E-002   4.6110782077335696E-002
  -5.2455608852870601E-002   1.5675338653314899E-002   4.3378787411080130E-002
  -5.0589003145098871E-002   1.5434147408619543E-002   4.3548092822894187E-002
  -4.8722397437327113E-002   1.5035034975154099E-002   4.3769999231837921E-002
  -4.6855791729555403E-002   1.4478001352918220E-002   4.4044506637911082E-002
  -4.4989186021783631E-002   1.3763046541912197E-002   4.4371615041114046E-002
  -5.6411131221198396E-002   1.7251791368682823E-002   4.1321954775644154E-002
  -5.4510766479747147E-002   1.7009566881461102E-002   4.1575137482977753E-002
  -5.2610401738295842E-002   1.6550213566609309E-002   4.1843237260540761E-002
  -5.0710036996844551E-002   1.5873731424126975E-002   4.2126254108333414E-002
  -4.8809672255393288E-002   1.4980120454014145E-002   4.2424188026355447E-002
  -3.2690675963538030E-002   1.0111824805606962E-002   4.8964336214168680E-002
  -2.7984195036034706E-002   1.0356621178999048E-002   4.3555642059916133E-002
  -2.3277714108531328E-002   1.1429281238736030E-002   3.9064879518226986E-002
  -1.8571233181027949E-002   1.3329804984818516E-002   3.5492048589101308E-002
  -1.3864752253524626E-002   1.6058192417246264E-002   3.2837149272538779E-002
  -3.6929687875856002E-002   1.1328898717708702E-002   4.7641689135020482E-002
  -3.1392123699790830E-002   1.1123381234424107E-002   4.2871464984541280E-002
  -2.5854559523725569E-002   1.1261619681204788E-002   3.8845475718622346E-002
  -2.0316995347660297E-002   1.1743614058051140E-002   3.5563721337263668E-002
  -1.4779431171595137E-002   1.2569364364962921E-002   3.3026201840465785E-002
  -4.1029191228604614E-002   1.2545972629810526E-002   4.6110782077335696E-002
  -3.4834240531980434E-002   1.1890141289849165E-002   4.1494920174349997E-002
  -2.8639289835356359E-002   1.1093958123673552E-002   3.7449596427921610E-002
  -2.2444339138732259E-002   1.0157423131283655E-002   3.3974810838050776E-002
  -1.6249388442108159E-002   9.0805363126795768E-003   3.1070563404736962E-002
  -4.4989186021783631E-002   1.3763046541912197E-002   4.4371615041114046E-002
  -3.8310545532603747E-002   1.2656901345274391E-002   3.9426007629342154E-002
  -3.1631905043423766E-002   1.0926296566142146E-002   3.4877241646124539E-002
  -2.4953264554243858E-002   8.5712322045161139E-003   3.0725317091461087E-002
  -1.8274624065063902E-002   5.5917082603962331E-003   2.6970233965352489E-002
  -4.8809672255393288E-002   1.4980120454014145E-002   4.2424188026355447E-002
  -4.1821038701660540E-002   1.3423661400699283E-002   3.6664727349517701E-002
  -3.4832405147927764E-002   1.0758635008610976E-002   3.1128411373231218E-002
  -2.7843771594195002E-002   6.9850412777487693E-003   2.5815240097496153E-002
  -2.0855138040462295E-002   2.1028802081128894E-003   2.0725213522312158E-002
  -9.0297758358338948E-002   0.0000000000000000        5.0040140626315302E-002
  -9.3905424108395391E-002   5.3967193061706647E-003   5.3451519323607803E-002
  -9.7513089858451835E-002   1.0670902138136290E-002   5.5254023699345151E-002
 -0.10112075560850828        1.5822548495896881E-002   5.5447653753527351E-002
 -0.10472842135856472        2.0851658379452437E-002   5.4032409486154370E-002
 -0.10320659110942650        0.0000000000000000        5.8850537180526484E-002
 -0.10673863817087530        1.0870874010949820E-002   5.2324744597008456E-002
 -0.11027068523232414        1.9157884913500931E-002   4.7559063712260839E-002
 -0.11380273229377294        2.4861032707653320E-002   4.4553494526283641E-002
 -0.11733477935522175        2.7980317393407013E-002   4.3308037039076860E-002
 -0.12638388836018546        0.0000000000000000        7.4365751756613654E-002
 -0.12647133071270109        1.6345028715728981E-002   5.5441461258091421E-002
 -0.12655877306521671        2.7644867688865572E-002   4.1646268478665170E-002
 -0.12664621541773233        3.3899516919409775E-002   3.2980173418334924E-002
 -0.12673365777024795        3.5108976407361603E-002   2.9443176077100661E-002
 -0.15982965011061587        0.0000000000000000        9.6585784354576820E-002
 -0.15310350173387272        2.1819183420508131E-002   6.2801669306856725E-002
 -0.14637735335712962        3.6131850464230203E-002   3.7515637998558171E-002
 -0.13965120498038647        4.2938001131166213E-002   2.0727690429681183E-002
 -0.13292505660364332        4.2237635421316179E-002   1.2437826600225750E-002
 -0.20354387636071775        0.0000000000000000       0.12551063497441597     
 -0.18663515123439028        2.7293338125287291E-002   7.4405368743304320E-002
 -0.16972642610806277        4.4618833239594834E-002   3.5167172271939814E-002
 -0.15281770098173528        5.1976485342922665E-002   7.7960455603224149E-003
 -0.13590897585540782        4.9366294435270755E-002  -7.7080113915478921E-003
 -0.10472842135856472        2.0851658379452437E-002   5.4032409486154370E-002
 -0.10207778054200545        2.5028768349283272E-002   4.6146129222986054E-002
  -9.9427139725446173E-002   2.7624414965869787E-002   3.9978511555290391E-002
  -9.6776498908886871E-002   2.8638598229211925E-002   3.5529556483067527E-002
  -9.4125858092327611E-002   2.8071318139309687E-002   3.2799264006317316E-002
 -0.11733477935522175        2.7980317393407013E-002   4.3308037039076860E-002
 -0.11335762550096681        2.9475329750966700E-002   3.7114014349145505E-002
 -0.10938047164671183        3.0305660560537118E-002   3.1854355139132776E-002
 -0.10540331779245689        3.0471309822118230E-002   2.7529059409038666E-002
 -0.10142616393820195        2.9972277535710030E-002   2.4138127158863272E-002
 -0.12673365777024795        3.5108976407361603E-002   2.9443176077100661E-002
 -0.12221428999385139        3.3921891152650145E-002   2.5858192765661318E-002
 -0.11769492221745483        3.2986906155204429E-002   2.2423273818586640E-002
 -0.11317555444105826        3.2304021415024538E-002   1.9138419235876416E-002
 -0.10865618666466172        3.1873236932110444E-002   1.6003629017530767E-002
 -0.13292505660364332        4.2237635421316179E-002   1.2437826600225750E-002
 -0.12864777402065924        3.8368452554333528E-002   1.2378664472533579E-002
 -0.12437049143767515        3.5668151749871785E-002   1.1685267593651858E-002
 -0.12009320885469106        3.4136733007930860E-002   1.0357635963580587E-002
 -0.11581592627170700        3.3774196328510808E-002   8.3957695823198390E-003
 -0.13590897585540782        4.9366294435270755E-002  -7.7080113915478921E-003
 -0.13265807758139031        4.2815013956016987E-002  -3.3245705302379011E-003
 -0.12940717930737278        3.8349397344539050E-002  -3.5966353567138537E-004
 -0.12615628103335524        3.5969444600837168E-002   1.1867095921513828E-003
 -0.12290538275933771        3.5675155724911173E-002   1.3145488532306238E-003
  -9.4125858092327611E-002   2.8071318139309687E-002   3.2799264006317316E-002
  -9.1697800852739833E-002   2.6890010568150997E-002   3.2440763733001275E-002
  -8.9269743613152069E-002   2.6062111387723678E-002   3.2255517504519771E-002
  -8.6841686373564292E-002   2.5587620598027848E-002   3.2243525320872754E-002
  -8.4413629133976542E-002   2.5466538199063415E-002   3.2404787182060218E-002
 -0.10142616393820195        2.9972277535710030E-002   2.4138127158863272E-002
  -9.8817465311851038E-002   2.9193985175378610E-002   2.4087082242327525E-002
  -9.6208766685500144E-002   2.8521854215189935E-002   2.4224066054483479E-002
  -9.3600068059149250E-002   2.7955884655143953E-002   2.4549078595331106E-002
  -9.0991369432798355E-002   2.7496076495240745E-002   2.5062119864870613E-002
 -0.10865618666466172        3.1873236932110444E-002   1.6003629017530767E-002
 -0.10585207196769046        3.1497959782606250E-002   1.6012792467186517E-002
 -0.10304795727071919        3.0981597042656125E-002   1.6224759329391322E-002
 -0.10024384257374794        3.0324148712260062E-002   1.6639529604145130E-002
  -9.7439727876776697E-002   2.9525614791418048E-002   1.7257103291447945E-002
 -0.11581592627170700        3.3774196328510808E-002   8.3957695823198390E-003
 -0.11280162082025809        3.3801934389833824E-002   8.2178944075786409E-003
 -0.10978731536880919        3.3441339870122301E-002   8.2575973292435059E-003
 -0.10677300991736029        3.2692412769376102E-002   8.5148783473146458E-003
 -0.10375870446591140        3.1555153087595419E-002   8.9897374617920311E-003
 -0.12290538275933771        3.5675155724911173E-002   1.3145488532306238E-003
 -0.11966611186955395        3.6105908997061509E-002   7.0238806350358951E-004
 -0.11642684097977016        3.5901082697588620E-002   3.2258005403991430E-004
 -0.11318757008998635        3.5060676826492290E-002   1.7512482483969874E-004
 -0.10994829920020260        3.3584691383772736E-002   2.6002237590311283E-004
  -8.4413629133976542E-002   2.5466538199063415E-002   3.2404787182060218E-002
  -8.2526588542091092E-002   2.5391170294496251E-002   3.1633066198467952E-002
  -8.0639547950205670E-002   2.5053822987992240E-002   3.1110824104257057E-002
  -7.8752507358320234E-002   2.4454496279551360E-002   3.0838060899427498E-002
  -7.6865466766434798E-002   2.3593190169173578E-002   3.0814776583979242E-002
  -9.0991369432798355E-002   2.7496076495240745E-002   2.5062119864870613E-002
  -8.8796745988634754E-002   2.7033060667039414E-002   2.4290606629680848E-002
  -8.6602122544471083E-002   2.6457468102099126E-002   2.3884780209666209E-002
  -8.4407499100307454E-002   2.5769298800419893E-002   2.3844640604826627E-002
  -8.2212875656143838E-002   2.4968552762001717E-002   2.4170187815162017E-002
  -9.7439727876776697E-002   2.9525614791418048E-002   1.7257103291447945E-002
  -9.4821313654541092E-002   2.8674951039582605E-002   1.6635200469858565E-002
  -9.2202899432305530E-002   2.7861113216206070E-002   1.6495192389238040E-002
  -8.9584485210069967E-002   2.7084101321288460E-002   1.6837079049586437E-002
  -8.6966070987834404E-002   2.6343915354829869E-002   1.7660860450903516E-002
 -0.10375870446591140        3.1555153087595419E-002   8.9897374617920311E-003
 -0.10060029153981016        3.0316841412125810E-002   8.6668477190010740E-003
  -9.7441878613708927E-002   2.9264758330313043E-002   8.9420606429727080E-003
  -9.4283465687607676E-002   2.8398903842157094E-002   9.8153762337067733E-003
  -9.1125052761506412E-002   2.7719277947658015E-002   1.1286794491203385E-002
 -0.10994829920020260        3.3584691383772736E-002   2.6002237590311283E-004
 -0.10613367964444193        3.1958731784668987E-002   3.8554837710833012E-004
 -0.10231906008868127        3.0668403444420025E-002   1.2253849708699499E-003
  -9.8504440532920609E-002   2.9713706363025453E-002   2.7795321571877814E-003
  -9.4689820977159944E-002   2.9094640540486216E-002   5.0479899360618696E-003
  -7.6865466766434798E-002   2.3593190169173578E-002   3.0814776583979242E-002
  -7.4435845221836355E-002   2.2597134864527260E-002   3.1819338842462630E-002
  -7.2006223677237871E-002   2.1593560573281066E-002   3.3002350358730767E-002
  -6.9576602132639359E-002   2.0582467295434760E-002   3.4363811132784104E-002
  -6.7146980588040944E-002   1.9563855030988397E-002   3.5903721164622315E-002
  -8.2212875656143838E-002   2.4968552762001717E-002   2.4170187815162017E-002
  -7.9690153859063875E-002   2.4088600458939596E-002   2.5656937236785929E-002
  -7.7167432061983982E-002   2.3162812363328664E-002   2.7151437905587751E-002
  -7.4644710264904018E-002   2.2191188475168707E-002   2.8653689821567397E-002
  -7.2121988467824125E-002   2.1173728794460001E-002   3.0163692984724988E-002
  -8.6966070987834404E-002   2.6343915354829869E-002   1.7660860450903516E-002
  -8.4520946948880016E-002   2.5580066053351870E-002   1.9591480229718940E-002
  -8.2075822909925683E-002   2.4732064153376265E-002   2.1359153245105341E-002
  -7.9630698870971350E-002   2.3799909654902852E-002   2.2963879497062710E-002
  -7.7185574832016990E-002   2.2783602557931631E-002   2.4405658985590981E-002
  -9.1125052761506412E-002   2.7719277947658015E-002   1.1286794491203385E-002
  -8.8928224491284694E-002   2.7071531647764119E-002   1.3622967821261753E-002
  -8.6731396221062934E-002   2.6301315943423727E-002   1.5625496377284154E-002
  -8.4534567950841230E-002   2.5408630834636757E-002   1.7294380159270178E-002
  -8.2337739680619457E-002   2.4393476321403387E-002   1.8629619167220127E-002
  -9.4689820977159944E-002   2.9094640540486216E-002   5.0479899360618696E-003
  -9.2911986486277909E-002   2.8562997242176646E-002   7.7514000114141113E-003
  -9.1134151995395818E-002   2.7870567733471477E-002   9.9504673021236223E-003
  -8.9356317504513755E-002   2.7017352014370850E-002   1.1645191808189639E-002
  -8.7578483013631692E-002   2.6003350084874866E-002   1.2835573529612343E-002
  -6.7146980588040944E-002   1.9563855030988397E-002   3.5903721164622315E-002
  -6.4463018246330314E-002   1.8652572233784470E-002   3.6838160166314526E-002
  -6.1779055904619656E-002   1.7963467357665630E-002   3.8052678768715542E-002
  -5.9095093562909026E-002   1.7496540402631600E-002   3.9547276971825404E-002
  -5.6411131221198396E-002   1.7251791368682823E-002   4.1321954775644154E-002
  -7.2121988467824125E-002   2.1173728794460001E-002   3.0163692984724988E-002
  -6.9147596189747876E-002   2.0208031534784926E-002   3.1205673115514837E-002
  -6.6173203911671696E-002   1.9391694909726087E-002   3.2548433518326897E-002
  -6.3198811633595406E-002   1.8724718919282873E-002   3.4191974193161348E-002
  -6.0224419355519199E-002   1.8207103563456284E-002   3.6136295140018038E-002
  -7.7185574832016990E-002   2.2783602557931631E-002   2.4405658985590981E-002
  -7.3900051946261647E-002   2.1763490835785326E-002   2.5482362959009422E-002
  -7.0614529060506359E-002   2.0819922461786267E-002   2.6880547875763765E-002
  -6.7329006174751058E-002   1.9952897435934258E-002   2.8600213735853780E-002
  -6.4043483288995784E-002   1.9162415758229578E-002   3.0641360539279738E-002
  -8.2337739680619457E-002   2.4393476321403387E-002   1.8629619167220127E-002
  -7.8720385515871613E-002   2.3318950136785616E-002   1.9668229696798406E-002
  -7.5103031351123839E-002   2.2248150013846640E-002   2.1049021841026121E-002
  -7.1485677186375982E-002   2.1181075952585476E-002   2.2771995599902780E-002
  -6.7868323021628180E-002   2.0117727953003067E-002   2.4837150973428885E-002
  -8.7578483013631692E-002   2.6003350084874866E-002   1.2835573529612343E-002
  -8.3608596898577803E-002   2.4874409437786127E-002   1.3763273328881664E-002
  -7.9638710783523969E-002   2.3676377565907070E-002   1.5053855414113596E-002
  -7.5668824668470136E-002   2.2409254469236986E-002   1.6707319785308278E-002
  -7.1698938553416247E-002   2.1073040147776445E-002   1.8723666442466036E-002
  -5.6411131221198396E-002   1.7251791368682823E-002   4.1321954775644154E-002
  -5.4510766479747147E-002   1.7009566881461102E-002   4.1575137482977753E-002
  -5.2610401738295842E-002   1.6550213566609309E-002   4.1843237260540761E-002
  -5.0710036996844551E-002   1.5873731424126975E-002   4.2126254108333414E-002
  -4.8809672255393288E-002   1.4980120454014145E-002   4.2424188026355447E-002
  -6.0224419355519199E-002   1.8207103563456284E-002   3.6136295140018038E-002
  -5.8014172989468690E-002   1.7647143238971819E-002   3.6453076902784820E-002
  -5.5803926623418112E-002   1.6853132342555754E-002   3.7374704844520407E-002
  -5.3593680257367528E-002   1.5825070874208549E-002   3.8901178965225131E-002
  -5.1383433891317026E-002   1.4562958833929884E-002   4.1032499264898825E-002
  -6.4043483288995784E-002   1.9162415758229578E-002   3.0641360539279738E-002
  -6.0933426189606413E-002   1.8284719596482341E-002   3.1004819613178553E-002
  -5.7823369090217104E-002   1.7156051118502470E-002   3.2563053974785712E-002
  -5.4713311990827795E-002   1.5776410324290287E-002   3.5316063624101571E-002
  -5.1603254891438480E-002   1.4145797213845596E-002   3.9263848561126011E-002
  -6.7868323021628180E-002   2.0117727953003067E-002   2.4837150973428885E-002
  -6.3268526080160467E-002   1.8922295953992793E-002   2.5230365614158763E-002
  -5.8668729138692852E-002   1.7458969894449217E-002   2.7408284651336386E-002
  -5.4068932197225181E-002   1.5727749774371833E-002   3.1370908084962547E-002
  -4.9469135255757524E-002   1.3728635593761321E-002   3.7118235915036352E-002
  -7.1698938553416247E-002   2.1073040147776445E-002   1.8723666442466036E-002
  -6.5019472661130784E-002   1.9559872311503468E-002   1.9129714905725737E-002
  -5.8340006768845321E-002   1.7761888670395742E-002   2.1910396874173260E-002
  -5.1660540876559913E-002   1.5679089224453963E-002   2.7065712347807878E-002
  -4.4981074984274394E-002   1.3311473973677157E-002   3.4595661326630722E-002
  -4.8809672255393288E-002   1.4980120454014145E-002   4.2424188026355447E-002
  -4.1821038701660540E-002   1.3423661400699283E-002   3.6664727349517701E-002
  -3.4832405147927764E-002   1.0758635008610976E-002   3.1128411373231218E-002
  -2.7843771594195002E-002   6.9850412777487693E-003   2.5815240097496153E-002
  -2.0855138040462295E-002   2.1028802081128894E-003   2.0725213522312158E-002
  -5.1383433891317026E-002   1.4562958833929884E-002   4.1032499264898825E-002
  -4.3864223729045054E-002   1.2374295248869488E-002   3.6570601203648467E-002
  -3.6345013566773041E-002   8.5665791461771307E-003   3.2946711658925265E-002
  -2.8825803404501034E-002   3.1398105258522817E-003   3.0160830630729080E-002
  -2.1306593242229055E-002  -3.9060106121042715E-003   2.8212958119060216E-002
  -5.1603254891438480E-002   1.4145797213845596E-002   3.9263848561126011E-002
  -4.2938604304651462E-002   1.1324929097039971E-002   3.5589027936604414E-002
  -3.4273953717864354E-002   6.3745232837429458E-003   3.3367079644586080E-002
  -2.5609303131077264E-002  -7.0542022604415215E-004   3.2598003685070681E-002
  -1.6944652544290284E-002  -9.9149014323214324E-003   3.3281800058058142E-002
  -4.9469135255757524E-002   1.3728635593761321E-002   3.7118235915036352E-002
  -3.9044180428479583E-002   1.0275562945209649E-002   3.3720007548385819E-002
  -2.8619225601201552E-002   4.1824674213093195E-003   3.2389515330213711E-002
  -1.8194270773923549E-002  -4.5506509779401133E-003   3.3126759260520576E-002
  -7.7693159466455802E-003  -1.5923792252538593E-002   3.5931739339306171E-002
  -4.4981074984274394E-002   1.3311473973677157E-002   3.4595661326630722E-002
  -3.2180952100529625E-002   9.2261967933805478E-003   3.0963540038991877E-002
  -1.9380829216784801E-002   1.9904115588750548E-003   3.0014018715807889E-002
  -6.5807063330401705E-003  -8.3958817298369279E-003   3.1747097357078868E-002
   6.2194165507047927E-003  -2.1932683072755754E-002   3.6162775962804039E-002
 </DataArray>
 </PointData>
 </Piece>
 <Piece  NumberOfPoints="          1600 "  NumberOfCells="         1024 ">
 <Points>
 <DataArray  type="Float64" NumberOfComponents="3"  format="ascii" >
  0.50000000000000000        0.0000000000000000        0.0000000000000000     
  0.53125000000000000        0.0000000000000000        0.0000000000000000     
  0.56250000000000000        0.0000000000000000        0.0000000000000000     
  0.59375000000000000        0.0000000000000000        0.0000000000000000     
  0.62500000000000000        0.0000000000000000        0.0000000000000000     
  0.50000000000000000        3.1250000000000000E-002   0.0000000000000000     
  0.53125000000000000        3.1250000000000000E-002   0.0000000000000000     
  0.56250000000000000        3.1250000000000000E-002   0.0000000000000000     
  0.59375000000000000        3.1250000000000000E-002   0.0000000000000000     
  0.62500000000000000        3.1250000000000000E-002   0.0000000000000000     
  0.50000000000000000        6.2500000000000000E-002   0.0000000000000000     
  0.53125000000000000        6.2500000000000000E-002   0.0000000000000000     
  0.56250000000000000        6.2500000000000000E-002   0.0000000000000000     
  0.59375000000000000        6.2500000000000000E-002   0.0000000000000000     
  0.62500000000000000        6.2500000000000000E-002   0.0000000000000000     
  0.50000000000000000        9.3750000000000000E-002   0.0000000000000000     
  0.53125000000000000        9.3750000000000000E-002   0.0000000000000000     
  0.56250000000000000        9.3750000000000000E-002   0.0000000000000000     
  0.59375000000000000        9.3750000000000000E-002   0.0000000000000000     
  0.62500000000000000        9.3750000000000000E-002   0.0000000000000000     
  0.50000000000000000       0.12500000000000000        0.0000000000000000     
  0.53125000000000000       0.12500000000000000        0.0000000000000000     
  0.56250000000000000       0.12500000000000000        0.0000000000000000     
  0.59375000000000000       0.12500000000000000        0.0000000000000000     
  0.62500000000000000       0.12500000000000000        0.0000000000000000     
  0.62500000000000000        0.0000000000000000        0.0000000000000000     
  0.65625000000000000        0.0000000000000000        0.0000000000000000     
  0.68750000000000000        0.0000000000000000        0.0000000000000000     
  0.71875000000000000        0.0000000000000000        0.0000000000000000     
  0.75000000000000000        0.0000000000000000        0.0000000000000000     
  0.62500000000000000        3.1250000000000000E-002   0.0000000000000000     
  0.65625000000000000        3.1250000000000000E-002   0.0000000000000000     
  0.68750000000000000        3.1250000000000000E-002   0.0000000000000000     
  0.71875000000000000        3.1250000000000000E-002   0.0000000000000000     
  0.75000000000000000        3.1250000000000000E-002   0.0000000000000000     
  0.62500000000000000        6.2500000000000000E-002   0.0000000000000000     
  0.65625000000000000        6.2500000000000000E-002   0.0000000000000000     
  0.68750000000000000        6.2500000000000000E-002   0.0000000000000000     
  0.71875000000000000        6.2500000000000000E-002   0.0000000000000000     
  0.75000000000000000        6.2500000000000000E-002   0.0000000000000000     
  0.62500000000000000        9.3750000000000000E-002   0.0000000000000000     
  0.65625000000000000        9.3750000000000000E-002   0.0000000000000000     
  0.68750000000000000        9.3750000000000000E-002   0.0000000000000000     
  0.71875000000000000        9.3750000000000000E-002   0.0000000000000000     
  0.75000000000000000        9.3750000000000000E-002   0.0000000000000000     
  0.62500000000000000       0.12500000000000000        0.0000000000000000     
  0.65625000000000000       0.12500000000000000        0.0000000000000000     
  0.68750000000000000       0.12500000000000000        0.0000000000000000     
  0.71875000000000000       0.12500000000000000        0.0000000000000000     
  0.75000000000000000       0.12500000000000000        0.0000000000000000     
  0.75000000000000000        0.0000000000000000        0.0000000000000000     
  0.78125000000000000        0.0000000000000000        0.0000000000000000     
  0.81250000000000000        0.0000000000000000        0.0000000000000000     
  0.84375000000000000        0.0000000000000000        0.0000000000000000     
  0.87500000000000000        0.0000000000000000        0.0000000000000000     
  0.75000000000000000        3.1250000000000000E-002   0.0000000000000000     
  0.78125000000000000        3.1250000000000000E-002   0.0000000000000000     
  0.81250000000000000        3.1250000000000000E-002   0.0000000000000000     
  0.84375000000000000        3.1250000000000000E-002   0.0000000000000000     
  0.87500000000000000        3.1250000000000000E-002   0.0000000000000000     
  0.75000000000000000        6.2500000000000000E-002   0.0000000000000000     
  0.78125000000000000        6.2500000000000000E-002   0.0000000000000000     
  0.81250000000000000        6.2500000000000000E-002   0.0000000000000000     
  0.84375000000000000        6.2500000000000000E-002   0.0000000000000000     
  0.87500000000000000        6.2500000000000000E-002   0.0000000000000000     
  0.75000000000000000        9.3750000000000000E-002   0.0000000000000000     
  0.78125000000000000        9.3750000000000000E-002   0.0000000000000000     
  0.81250000000000000        9.3750000000000000E-002   0.0000000000000000     
  0.84375000000000000        9.3750000000000000E-002   0.0000000000000000     
  0.87500000000000000        9.3750000000000000E-002   0.0000000000000000     
  0.75000000000000000       0.12500000000000000        0.0000000000000000     
  0.78125000000000000       0.12500000000000000        0.0000000000000000     
  0.81250000000000000       0.12500000000000000        0.0000000000000000     
  0.84375000000000000       0.12500000000000000        0.0000000000000000     
  0.87500000000000000       0.12500000000000000        0.0000000000000000     
  0.87500000000000000        0.0000000000000000        0.0000000000000000     
  0.90625000000000000        0.0000000000000000        0.0000000000000000     
  0.93750000000000000        0.0000000000000000        0.0000000000000000     
  0.96875000000000000        0.0000000000000000        0.0000000000000000     
   1.0000000000000000        0.0000000000000000        0.0000000000000000     
  0.87500000000000000        3.1250000000000000E-002   0.0000000000000000     
  0.90625000000000000        3.1250000000000000E-002   0.0000000000000000     
  0.93750000000000000        3.1250000000000000E-002   0.0000000000000000     
  0.96875000000000000        3.1250000000000000E-002   0.0000000000000000     
   1.0000000000000000        3.1250000000000000E-002   0.0000000000000000     
  0.87500000000000000        6.2500000000000000E-002   0.0000000000000000     
  0.90625000000000000        6.2500000000000000E-002   0.0000000000000000     
  0.93750000000000000        6.2500000000000000E-002   0.0000000000000000     
  0.96875000000000000        6.2500000000000000E-002   0.0000000000000000     
   1.0000000000000000        6.2500000000000000E-002   0.0000000000000000     
  0.87500000000000000        9.3750000000000000E-002   0.0000000000000000     
  0.90625000000000000        9.3750000000000000E-002   0.0000000000000000     
  0.93750000000000000        9.3750000000000000E-002   0.0000000000000000     
  0.96875000000000000        9.3750000000000000E-002   0.0000000000000000     
   1.0000000000000000        9.3750000000000000E-002   0.0000000000000000     
  0.87500000000000000       0.12500000000000000        0.0000000000000000     
  0.90625000000000000       0.12500000000000000        0.0000000000000000     
  0.93750000000000000       0.12500000000000000        0.0000000000000000     
  0.96875000000000000       0.12500000000000000        0.0000000000000000     
   1.0000000000000000       0.12500000000000000        0.0000000000000000     
   1.0000000000000000        0.0000000000000000        0.0000000000000000     
   1.0312500000000000        0.0000000000000000        0.0000000000000000     
   1.0625000000000000        0.0000000000000000        0.0000000000000000     
   1.0937500000000000        0.0000000000000000        0.0000000000000000     
   1.1250000000000000        0.0000000000000000        0.0000000000000000     
   1.0000000000000000        3.1250000000000000E-002   0.0000000000000000     
   1.0312500000000000        3.1250000000000000E-002   0.0000000000000000     
   1.0625000000000000        3.1250000000000000E-002   0.0000000000000000     
   1.0937500000000000        3.1250000000000000E-002   0.0000000000000000     
   1.1250000000000000        3.1250000000000000E-002   0.0000000000000000     
   1.0000000000000000        6.2500000000000000E-002   0.0000000000000000     
   1.0312500000000000        6.2500000000000000E-002   0.0000000000000000     
   1.0625000000000000        6.2500000000000000E-002   0.0000000000000000     
   1.0937500000000000        6.2500000000000000E-002   0.0000000000000000     
   1.1250000000000000        6.2500000000000000E-002   0.0000000000000000     
   1.0000000000000000        9.3750000000000000E-002   0.0000000000000000     
   1.0312500000000000        9.3750000000000000E-002   0.0000000000000000     
   1.0625000000000000        9.3750000000000000E-002   0.0000000000000000     
   1.0937500000000000        9.3750000000000000E-002   0.0000000000000000     
   1.1250000000000000        9.3750000000000000E-002   0.0000000000000000     
   1.0000000000000000       0.12500000000000000        0.0000000000000000     
   1.0312500000000000       0.12500000000000000        0.0000000000000000     
   1.0625000000000000       0.12500000000000000        0.0000000000000000     
   1.0937500000000000       0.12500000000000000        0.0000000000000000     
   1.1250000000000000       0.12500000000000000        0.0000000000000000     
   1.1250000000000000        0.0000000000000000        0.0000000000000000     
   1.1562500000000000        0.0000000000000000        0.0000000000000000     
   1.1875000000000000        0.0000000000000000        0.0000000000000000     
   1.2187500000000000        0.0000000000000000        0.0000000000000000     
   1.2500000000000000        0.0000000000000000        0.0000000000000000     
   1.1250000000000000        3.1250000000000000E-002   0.0000000000000000     
   1.1562500000000000        3.1250000000000000E-002   0.0000000000000000     
   1.1875000000000000        3.1250000000000000E-002   0.0000000000000000     
   1.2187500000000000        3.1250000000000000E-002   0.0000000000000000     
   1.2500000000000000        3.1250000000000000E-002   0.0000000000000000     
   1.1250000000000000        6.2500000000000000E-002   0.0000000000000000     
   1.1562500000000000        6.2500000000000000E-002   0.0000000000000000     
   1.1875000000000000        6.2500000000000000E-002   0.0000000000000000     
   1.2187500000000000        6.2500000000000000E-002   0.0000000000000000     
   1.2500000000000000        6.2500000000000000E-002   0.0000000000000000     
   1.1250000000000000        9.3750000000000000E-002   0.0000000000000000     
   1.1562500000000000        9.3750000000000000E-002   0.0000000000000000     
   1.1875000000000000        9.3750000000000000E-002   0.0000000000000000     
   1.2187500000000000        9.3750000000000000E-002   0.0000000000000000     
   1.2500000000000000        9.3750000000000000E-002   0.0000000000000000     
   1.1250000000000000       0.12500000000000000        0.0000000000000000     
   1.1562500000000000       0.12500000000000000        0.0000000000000000     
   1.1875000000000000       0.12500000000000000        0.0000000000000000     
   1.2187500000000000       0.12500000000000000        0.0000000000000000     
   1.2500000000000000       0.12500000000000000        0.0000000000000000     
   1.2500000000000000        0.0000000000000000        0.0000000000000000     
   1.2812500000000000        0.0000000000000000        0.0000000000000000     
   1.3125000000000000        0.0000000000000000        0.0000000000000000     
   1.3437500000000000        0.0000000000000000        0.0000000000000000     
   1.3750000000000000        0.0000000000000000        0.0000000000000000     
   1.2500000000000000        3.1250000000000000E-002   0.0000000000000000     
   1.2812500000000000        3.1250000000000000E-002   0.0000000000000000     
   1.3125000000000000        3.1250000000000000E-002   0.0000000000000000     
   1.3437500000000000        3.1250000000000000E-002   0.0000000000000000     
   1.3750000000000000        3.1250000000000000E-002   0.0000000000000000     
   1.2500000000000000        6.2500000000000000E-002   0.0000000000000000     
   1.2812500000000000        6.2500000000000000E-002   0.0000000000000000     
   1.3125000000000000        6.2500000000000000E-002   0.0000000000000000     
   1.3437500000000000        6.2500000000000000E-002   0.0000000000000000     
   1.3750000000000000        6.2500000000000000E-002   0.0000000000000000     
   1.2500000000000000        9.3750000000000000E-002   0.0000000000000000     
   1.2812500000000000        9.3750000000000000E-002   0.0000000000000000     
   1.3125000000000000        9.3750000000000000E-002   0.0000000000000000     
   1.3437500000000000        9.3750000000000000E-002   0.0000000000000000     
   1.3750000000000000        9.3750000000000000E-002   0.0000000000000000     
   1.2500000000000000       0.12500000000000000        0.0000000000000000     
   1.2812500000000000       0.12500000000000000        0.0000000000000000     
   1.3125000000000000       0.12500000000000000        0.0000000000000000     
   1.3437500000000000       0.12500000000000000        0.0000000000000000     
   1.3750000000000000       0.12500000000000000        0.0000000000000000     
   1.3750000000000000        0.0000000000000000        0.0000000000000000     
   1.4062500000000000        0.0000000000000000        0.0000000000000000     
   1.4375000000000000        0.0000000000000000        0.0000000000000000     
   1.4687500000000000        0.0000000000000000        0.0000000000000000     
   1.5000000000000000        0.0000000000000000        0.0000000000000000     
   1.3750000000000000        3.1250000000000000E-002   0.0000000000000000     
   1.4062500000000000        3.1250000000000000E-002   0.0000000000000000     
   1.4375000000000000        3.1250000000000000E-002   0.0000000000000000     
   1.4687500000000000        3.1250000000000000E-002   0.0000000000000000     
   1.5000000000000000        3.1250000000000000E-002   0.0000000000000000     
   1.3750000000000000        6.2500000000000000E-002   0.0000000000000000     
   1.4062500000000000        6.2500000000000000E-002   0.0000000000000000     
   1.4375000000000000        6.2500000000000000E-002   0.0000000000000000     
   1.4687500000000000        6.2500000000000000E-002   0.0000000000000000     
   1.5000000000000000        6.2500000000000000E-002   0.0000000000000000     
   1.3750000000000000        9.3750000000000000E-002   0.0000000000000000     
   1.4062500000000000        9.3750000000000000E-002   0.0000000000000000     
   1.4375000000000000        9.3750000000000000E-002   0.0000000000000000     
   1.4687500000000000        9.3750000000000000E-002   0.0000000000000000     
   1.5000000000000000        9.3750000000000000E-002   0.0000000000000000     
   1.3750000000000000       0.12500000000000000        0.0000000000000000     
   1.4062500000000000       0.12500000000000000        0.0000000000000000     
   1.4375000000000000       0.12500000000000000        0.0000000000000000     
   1.4687500000000000       0.12500000000000000        0.0000000000000000     
   1.5000000000000000       0.12500000000000000        0.0000000000000000     
  0.50000000000000000       0.12500000000000000        0.0000000000000000     
  0.53125000000000000       0.12500000000000000        0.0000000000000000     
  0.56250000000000000       0.12500000000000000        0.0000000000000000     
  0.59375000000000000       0.12500000000000000        0.0000000000000000     
  0.62500000000000000       0.12500000000000000        0.0000000000000000     
  0.50000000000000000       0.15625000000000000        0.0000000000000000     
  0.53125000000000000       0.15625000000000000        0.0000000000000000     
  0.56250000000000000       0.15625000000000000        0.0000000000000000     
  0.59375000000000000       0.15625000000000000        0.0000000000000000     
  0.62500000000000000       0.15625000000000000        0.0000000000000000     
  0.50000000000000000       0.18750000000000000        0.0000000000000000     
  0.53125000000000000       0.18750000000000000        0.0000000000000000     
  0.56250000000000000       0.18750000000000000        0.0000000000000000     
  0.59375000000000000       0.18750000000000000        0.0000000000000000     
  0.62500000000000000       0.18750000000000000        0.0000000000000000     
  0.50000000000000000       0.21875000000000000        0.0000000000000000     
  0.53125000000000000       0.21875000000000000        0.0000000000000000     
  0.56250000000000000       0.21875000000000000        0.0000000000000000     
  0.59375000000000000       0.21875000000000000        0.0000000000000000     
  0.62500000000000000       0.21875000000000000        0.0000000000000000     
  0.50000000000000000       0.25000000000000000        0.0000000000000000     
  0.53125000000000000       0.25000000000000000        0.0000000000000000     
  0.56250000000000000       0.25000000000000000        0.0000000000000000     
  0.59375000000000000       0.25000000000000000        0.0000000000000000     
  0.62500000000000000       0.25000000000000000        0.0000000000000000     
  0.62500000000000000       0.12500000000000000        0.0000000000000000     
  0.65625000000000000       0.12500000000000000        0.0000000000000000     
  0.68750000000000000       0.12500000000000000        0.0000000000000000     
  0.71875000000000000       0.12500000000000000        0.0000000000000000     
  0.75000000000000000       0.12500000000000000        0.0000000000000000     
  0.62500000000000000       0.15625000000000000        0.0000000000000000     
  0.65625000000000000       0.15625000000000000        0.0000000000000000     
  0.68750000000000000       0.15625000000000000        0.0000000000000000     
  0.71875000000000000       0.15625000000000000        0.0000000000000000     
  0.75000000000000000       0.15625000000000000        0.0000000000000000     
  0.62500000000000000       0.18750000000000000        0.0000000000000000     
  0.65625000000000000       0.18750000000000000        0.0000000000000000     
  0.68750000000000000       0.18750000000000000        0.0000000000000000     
  0.71875000000000000       0.18750000000000000        0.0000000000000000     
  0.75000000000000000       0.18750000000000000        0.0000000000000000     
  0.62500000000000000       0.21875000000000000        0.0000000000000000     
  0.65625000000000000       0.21875000000000000        0.0000000000000000     
  0.68750000000000000       0.21875000000000000        0.0000000000000000     
  0.71875000000000000       0.21875000000000000        0.0000000000000000     
  0.75000000000000000       0.21875000000000000        0.0000000000000000     
  0.62500000000000000       0.25000000000000000        0.0000000000000000     
  0.65625000000000000       0.25000000000000000        0.0000000000000000     
  0.68750000000000000       0.25000000000000000        0.0000000000000000     
  0.71875000000000000       0.25000000000000000        0.0000000000000000     
  0.75000000000000000       0.25000000000000000        0.0000000000000000     
  0.75000000000000000       0.12500000000000000        0.0000000000000000     
  0.78125000000000000       0.12500000000000000        0.0000000000000000     
  0.81250000000000000       0.12500000000000000        0.0000000000000000     
  0.84375000000000000       0.12500000000000000        0.0000000000000000     
  0.87500000000000000       0.12500000000000000        0.0000000000000000     
  0.75000000000000000       0.15625000000000000        0.0000000000000000     
  0.78125000000000000       0.15625000000000000        0.0000000000000000     
  0.81250000000000000       0.15625000000000000        0.0000000000000000     
  0.84375000000000000       0.15625000000000000        0.0000000000000000     
  0.87500000000000000       0.15625000000000000        0.0000000000000000     
  0.75000000000000000       0.18750000000000000        0.0000000000000000     
  0.78125000000000000       0.18750000000000000        0.0000000000000000     
  0.81250000000000000       0.18750000000000000        0.0000000000000000     
  0.84375000000000000       0.18750000000000000        0.0000000000000000     
  0.87500000000000000       0.18750000000000000        0.0000000000000000     
  0.75000000000000000       0.21875000000000000        0.0000000000000000     
  0.78125000000000000       0.21875000000000000        0.0000000000000000     
  0.81250000000000000       0.21875000000000000        0.0000000000000000     
  0.84375000000000000       0.21875000000000000        0.0000000000000000     
  0.87500000000000000       0.21875000000000000        0.0000000000000000     
  0.75000000000000000       0.25000000000000000        0.0000000000000000     
  0.78125000000000000       0.25000000000000000        0.0000000000000000     
  0.81250000000000000       0.25000000000000000        0.0000000000000000     
  0.84375000000000000       0.25000000000000000        0.0000000000000000     
  0.87500000000000000       0.25000000000000000        0.0000000000000000     
  0.87500000000000000       0.12500000000000000        0.0000000000000000     
  0.90625000000000000       0.12500000000000000        0.0000000000000000     
  0.93750000000000000       0.12500000000000000        0.0000000000000000     
  0.96875000000000000       0.12500000000000000        0.0000000000000000     
   1.0000000000000000       0.12500000000000000        0.0000000000000000     
  0.87500000000000000       0.15625000000000000        0.0000000000000000     
  0.90625000000000000       0.15625000000000000        0.0000000000000000     
  0.93750000000000000       0.15625000000000000        0.0000000000000000     
  0.96875000000000000       0.15625000000000000        0.0000000000000000     
   1.0000000000000000       0.15625000000000000        0.0000000000000000     
  0.87500000000000000       0.18750000000000000        0.0000000000000000     
  0.90625000000000000       0.18750000000000000        0.0000000000000000     
  0.93750000000000000       0.18750000000000000        0.0000000000000000     
  0.96875000000000000       0.18750000000000000        0.0000000000000000     
   1.0000000000000000       0.18750000000000000        0.0000000000000000     
  0.87500000000000000       0.21875000000000000        0.0000000000000000     
  0.90625000000000000       0.21875000000000000        0.0000000000000000     
  0.93750000000000000       0.21875000000000000        0.0000000000000000     
  0.96875000000000000       0.21875000000000000        0.0000000000000000     
   1.0000000000000000       0.21875000000000000        0.0000000000000000     
  0.87500000000000000       0.25000000000000000        0.0000000000000000     
  0.90625000000000000       0.25000000000000000        0.0000000000000000     
  0.93750000000000000       0.25000000000000000        0.0000000000000000     
  0.96875000000000000       0.25000000000000000        0.0000000000000000     
   1.0000000000000000       0.25000000000000000        0.0000000000000000     
   1.0000000000000000       0.12500000000000000        0.0000000000000000     
   1.0312500000000000       0.12500000000000000        0.0000000000000000     
   1.0625000000000000       0.12500000000000000        0.0000000000000000     
   1.0937500000000000       0.12500000000000000        0.0000000000000000     
   1.1250000000000000       0.12500000000000000        0.0000000000000000     
   1.0000000000000000       0.15625000000000000        0.0000000000000000     
   1.0312500000000000       0.15625000000000000        0.0000000000000000     
   1.0625000000000000       0.15625000000000000        0.0000000000000000     
   1.0937500000000000       0.15625000000000000        0.0000000000000000     
   1.1250000000000000       0.15625000000000000        0.0000000000000000     
   1.0000000000000000       0.18750000000000000        0.0000000000000000     
   1.0312500000000000       0.18750000000000000        0.0000000000000000     
   1.0625000000000000       0.18750000000000000        0.0000000000000000     
   1.0937500000000000       0.18750000000000000        0.0000000000000000     
   1.1250000000000000       0.18750000000000000        0.0000000000000000     
   1.0000000000000000       0.21875000000000000        0.0000000000000000     
   1.0312500000000000       0.21875000000000000        0.0000000000000000     
   1.0625000000000000       0.21875000000000000        0.0000000000000000     
   1.0937500000000000       0.21875000000000000        0.0000000000000000     
   1.1250000000000000       0.21875000000000000        0.0000000000000000     
   1.0000000000000000       0.25000000000000000        0.0000000000000000     
   1.0312500000000000       0.25000000000000000        0.0000000000000000     
   1.0625000000000000       0.25000000000000000        0.0000000000000000     
   1.0937500000000000       0.25000000000000000        0.0000000000000000     
   1.1250000000000000       0.25000000000000000        0.0000000000000000     
   1.1250000000000000       0.12500000000000000        0.0000000000000000     
   1.1562500000000000       0.12500000000000000        0.0000000000000000     
   1.1875000000000000       0.12500000000000000        0.0000000000000000     
   1.2187500000000000       0.12500000000000000        0.0000000000000000     
   1.2500000000000000       0.12500000000000000        0.0000000000000000     
   1.1250000000000000       0.15625000000000000        0.0000000000000000     
   1.1562500000000000       0.15625000000000000        0.0000000000000000     
   1.1875000000000000       0.15625000000000000        0.0000000000000000     
   1.2187500000000000       0.15625000000000000        0.0000000000000000     
   1.2500000000000000       0.15625000000000000        0.0000000000000000     
   1.1250000000000000       0.18750000000000000        0.0000000000000000     
   1.1562500000000000       0.18750000000000000        0.0000000000000000     
   1.1875000000000000       0.18750000000000000        0.0000000000000000     
   1.2187500000000000       0.18750000000000000        0.0000000000000000     
   1.2500000000000000       0.18750000000000000        0.0000000000000000     
   1.1250000000000000       0.21875000000000000        0.0000000000000000     
   1.1562500000000000       0.21875000000000000        0.0000000000000000     
   1.1875000000000000       0.21875000000000000        0.0000000000000000     
   1.2187500000000000       0.21875000000000000        0.0000000000000000     
   1.2500000000000000       0.21875000000000000        0.0000000000000000     
   1.1250000000000000       0.25000000000000000        0.0000000000000000     
   1.1562500000000000       0.25000000000000000        0.0000000000000000     
   1.1875000000000000       0.25000000000000000        0.0000000000000000     
   1.2187500000000000       0.25000000000000000        0.0000000000000000     
   1.2500000000000000       0.25000000000000000        0.0000000000000000     
   1.2500000000000000       0.12500000000000000        0.0000000000000000     
   1.2812500000000000       0.12500000000000000        0.0000000000000000     
   1.3125000000000000       0.12500000000000000        0.0000000000000000     
   1.3437500000000000       0.12500000000000000        0.0000000000000000     
   1.3750000000000000       0.12500000000000000        0.0000000000000000     
   1.2500000000000000       0.15625000000000000        0.0000000000000000     
   1.2812500000000000       0.15625000000000000        0.0000000000000000     
   1.3125000000000000       0.15625000000000000        0.0000000000000000     
   1.3437500000000000       0.15625000000000000        0.0000000000000000     
   1.3750000000000000       0.15625000000000000        0.0000000000000000     
   1.2500000000000000       0.18750000000000000        0.0000000000000000     
   1.2812500000000000       0.18750000000000000        0.0000000000000000     
   1.3125000000000000       0.18750000000000000        0.0000000000000000     
   1.3437500000000000       0.18750000000000000        0.0000000000000000     
   1.3750000000000000       0.18750000000000000        0.0000000000000000     
   1.2500000000000000       0.21875000000000000        0.0000000000000000     
   1.2812500000000000       0.21875000000000000        0.0000000000000000     
   1.3125000000000000       0.21875000000000000        0.0000000000000000     
   1.3437500000000000       0.21875000000000000        0.0000000000000000     
   1.3750000000000000       0.21875000000000000        0.0000000000000000     
   1.2500000000000000       0.25000000000000000        0.0000000000000000     
   1.2812500000000000       0.25000000000000000        0.0000000000000000     
   1.3125000000000000       0.25000000000000000        0.0000000000000000     
   1.3437500000000000       0.25000000000000000        0.0000000000000000     
   1.3750000000000000       0.25000000000000000        0.0000000000000000     
   1.3750000000000000       0.12500000000000000        0.0000000000000000     
   1.4062500000000000       0.12500000000000000        0.0000000000000000     
   1.4375000000000000       0.12500000000000000        0.0000000000000000     
   1.4687500000000000       0.12500000000000000        0.0000000000000000     
   1.5000000000000000       0.12500000000000000        0.0000000000000000     
   1.3750000000000000       0.15625000000000000        0.0000000000000000     
   1.4062500000000000       0.15625000000000000        0.0000000000000000     
   1.4375000000000000       0.15625000000000000        0.0000000000000000     
   1.4687500000000000       0.15625000000000000        0.0000000000000000     
   1.5000000000000000       0.15625000000000000        0.0000000000000000     
   1.3750000000000000       0.18750000000000000        0.0000000000000000     
   1.4062500000000000       0.18750000000000000        0.0000000000000000     
   1.4375000000000000       0.18750000000000000        0.0000000000000000     
   1.4687500000000000       0.18750000000000000        0.0000000000000000     
   1.5000000000000000       0.18750000000000000        0.0000000000000000     
   1.3750000000000000       0.21875000000000000        0.0000000000000000     
   1.4062500000000000       0.21875000000000000        0.0000000000000000     
   1.4375000000000000       0.21875000000000000        0.0000000000000000     
   1.4687500000000000       0.21875000000000000        0.0000000000000000     
   1.5000000000000000       0.21875000000000000        0.0000000000000000     
   1.3750000000000000       0.25000000000000000        0.0000000000000000     
   1.4062500000000000       0.25000000000000000        0.0000000000000000     
   1.4375000000000000       0.25000000000000000        0.0000000000000000     
   1.4687500000000000       0.25000000000000000        0.0000000000000000     
   1.5000000000000000       0.25000000000000000        0.0000000000000000     
  0.50000000000000000       0.25000000000000000        0.0000000000000000     
  0.53125000000000000       0.25000000000000000        0.0000000000000000     
  0.56250000000000000       0.25000000000000000        0.0000000000000000     
  0.59375000000000000       0.25000000000000000        0.0000000000000000     
  0.62500000000000000       0.25000000000000000        0.0000000000000000     
  0.50000000000000000       0.28125000000000000        0.0000000000000000     
  0.53125000000000000       0.28125000000000000        0.0000000000000000     
  0.56250000000000000       0.28125000000000000        0.0000000000000000     
  0.59375000000000000       0.28125000000000000        0.0000000000000000     
  0.62500000000000000       0.28125000000000000        0.0000000000000000     
  0.50000000000000000       0.31250000000000000        0.0000000000000000     
  0.53125000000000000       0.31250000000000000        0.0000000000000000     
  0.56250000000000000       0.31250000000000000        0.0000000000000000     
  0.59375000000000000       0.31250000000000000        0.0000000000000000     
  0.62500000000000000       0.31250000000000000        0.0000000000000000     
  0.50000000000000000       0.34375000000000000        0.0000000000000000     
  0.53125000000000000       0.34375000000000000        0.0000000000000000     
  0.56250000000000000       0.34375000000000000        0.0000000000000000     
  0.59375000000000000       0.34375000000000000        0.0000000000000000     
  0.62500000000000000       0.34375000000000000        0.0000000000000000     
  0.50000000000000000       0.37500000000000000        0.0000000000000000     
  0.53125000000000000       0.37500000000000000        0.0000000000000000     
  0.56250000000000000       0.37500000000000000        0.0000000000000000     
  0.59375000000000000       0.37500000000000000        0.0000000000000000     
  0.62500000000000000       0.37500000000000000        0.0000000000000000     
  0.62500000000000000       0.25000000000000000        0.0000000000000000     
  0.65625000000000000       0.25000000000000000        0.0000000000000000     
  0.68750000000000000       0.25000000000000000        0.0000000000000000     
  0.71875000000000000       0.25000000000000000        0.0000000000000000     
  0.75000000000000000       0.25000000000000000        0.0000000000000000     
  0.62500000000000000       0.28125000000000000        0.0000000000000000     
  0.65625000000000000       0.28125000000000000        0.0000000000000000     
  0.68750000000000000       0.28125000000000000        0.0000000000000000     
  0.71875000000000000       0.28125000000000000        0.0000000000000000     
  0.75000000000000000       0.28125000000000000        0.0000000000000000     
  0.62500000000000000       0.31250000000000000        0.0000000000000000     
  0.65625000000000000       0.31250000000000000        0.0000000000000000     
  0.68750000000000000       0.31250000000000000        0.0000000000000000     
  0.71875000000000000       0.31250000000000000        0.0000000000000000     
  0.75000000000000000       0.31250000000000000        0.0000000000000000     
  0.62500000000000000       0.34375000000000000        0.0000000000000000     
  0.65625000000000000       0.34375000000000000        0.0000000000000000     
  0.68750000000000000       0.34375000000000000        0.0000000000000000     
  0.71875000000000000       0.34375000000000000        0.0000000000000000     
  0.75000000000000000       0.34375000000000000        0.0000000000000000     
  0.62500000000000000       0.37500000000000000        0.0000000000000000     
  0.65625000000000000       0.37500000000000000        0.0000000000000000     
  0.68750000000000000       0.37500000000000000        0.0000000000000000     
  0.71875000000000000       0.37500000000000000        0.0000000000000000     
  0.75000000000000000       0.37500000000000000        0.0000000000000000     
  0.75000000000000000       0.25000000000000000        0.0000000000000000     
  0.78125000000000000       0.25000000000000000        0.0000000000000000     
  0.81250000000000000       0.25000000000000000        0.0000000000000000     
  0.84375000000000000       0.25000000000000000        0.0000000000000000     
  0.87500000000000000       0.25000000000000000        0.0000000000000000     
  0.75000000000000000       0.28125000000000000        0.0000000000000000     
  0.78125000000000000       0.28125000000000000        0.0000000000000000     
  0.81250000000000000       0.28125000000000000        0.0000000000000000     
  0.84375000000000000       0.28125000000000000        0.0000000000000000     
  0.87500000000000000       0.28125000000000000        0.0000000000000000     
  0.75000000000000000       0.31250000000000000        0.0000000000000000     
  0.78125000000000000       0.31250000000000000        0.0000000000000000     
  0.81250000000000000       0.31250000000000000        0.0000000000000000     
  0.84375000000000000       0.31250000000000000        0.0000000000000000     
  0.87500000000000000       0.31250000000000000        0.0000000000000000     
  0.75000000000000000       0.34375000000000000        0.0000000000000000     
  0.78125000000000000       0.34375000000000000        0.0000000000000000     
  0.81250000000000000       0.34375000000000000        0.0000000000000000     
  0.84375000000000000       0.34375000000000000        0.0000000000000000     
  0.87500000000000000       0.34375000000000000        0.0000000000000000     
  0.75000000000000000       0.37500000000000000        0.0000000000000000     
  0.78125000000000000       0.37500000000000000        0.0000000000000000     
  0.81250000000000000       0.37500000000000000        0.0000000000000000     
  0.84375000000000000       0.37500000000000000        0.0000000000000000     
  0.87500000000000000       0.37500000000000000        0.0000000000000000     
  0.87500000000000000       0.25000000000000000        0.0000000000000000     
  0.90625000000000000       0.25000000000000000        0.0000000000000000     
  0.93750000000000000       0.25000000000000000        0.0000000000000000     
  0.96875000000000000       0.25000000000000000        0.0000000000000000     
   1.0000000000000000       0.25000000000000000        0.0000000000000000     
  0.87500000000000000       0.28125000000000000        0.0000000000000000     
  0.90625000000000000       0.28125000000000000        0.0000000000000000     
  0.93750000000000000       0.28125000000000000        0.0000000000000000     
  0.96875000000000000       0.28125000000000000        0.0000000000000000     
   1.0000000000000000       0.28125000000000000        0.0000000000000000     
  0.87500000000000000       0.31250000000000000        0.0000000000000000     
  0.90625000000000000       0.31250000000000000        0.0000000000000000     
  0.93750000000000000       0.31250000000000000        0.0000000000000000     
  0.96875000000000000       0.31250000000000000        0.0000000000000000     
   1.0000000000000000       0.31250000000000000        0.0000000000000000     
  0.87500000000000000       0.34375000000000000        0.0000000000000000     
  0.90625000000000000       0.34375000000000000        0.0000000000000000     
  0.93750000000000000       0.34375000000000000        0.0000000000000000     
  0.96875000000000000       0.34375000000000000        0.0000000000000000     
   1.0000000000000000       0.34375000000000000        0.0000000000000000     
  0.87500000000000000       0.37500000000000000        0.0000000000000000     
  0.90625000000000000       0.37500000000000000        0.0000000000000000     
  0.93750000000000000       0.37500000000000000        0.0000000000000000     
  0.96875000000000000       0.37500000000000000        0.0000000000000000     
   1.0000000000000000       0.37500000000000000        0.0000000000000000     
   1.0000000000000000       0.25000000000000000        0.0000000000000000     
   1.0312500000000000       0.25000000000000000        0.0000000000000000     
   1.0625000000000000       0.25000000000000000        0.0000000000000000     
   1.0937500000000000       0.25000000000000000        0.0000000000000000     
   1.1250000000000000       0.25000000000000000        0.0000000000000000     
   1.0000000000000000       0.28125000000000000        0.0000000000000000     
   1.0312500000000000       0.28125000000000000        0.0000000000000000     
   1.0625000000000000       0.28125000000000000        0.0000000000000000     
   1.0937500000000000       0.28125000000000000        0.0000000000000000     
   1.1250000000000000       0.28125000000000000        0.0000000000000000     
   1.0000000000000000       0.31250000000000000        0.0000000000000000     
   1.0312500000000000       0.31250000000000000        0.0000000000000000     
   1.0625000000000000       0.31250000000000000        0.0000000000000000     
   1.0937500000000000       0.31250000000000000        0.0000000000000000     
   1.1250000000000000       0.31250000000000000        0.0000000000000000     
   1.0000000000000000       0.34375000000000000        0.0000000000000000     
   1.0312500000000000       0.34375000000000000        0.0000000000000000     
   1.0625000000000000       0.34375000000000000        0.0000000000000000     
   1.0937500000000000       0.34375000000000000        0.0000000000000000     
   1.1250000000000000       0.34375000000000000        0.0000000000000000     
   1.0000000000000000       0.37500000000000000        0.0000000000000000     
   1.0312500000000000       0.37500000000000000        0.0000000000000000     
   1.0625000000000000       0.37500000000000000        0.0000000000000000     
   1.0937500000000000       0.37500000000000000        0.0000000000000000     
   1.1250000000000000       0.37500000000000000        0.0000000000000000     
   1.1250000000000000       0.25000000000000000        0.0000000000000000     
   1.1562500000000000       0.25000000000000000        0.0000000000000000     
   1.1875000000000000       0.25000000000000000        0.0000000000000000     
   1.2187500000000000       0.25000000000000000        0.0000000000000000     
   1.2500000000000000       0.25000000000000000        0.0000000000000000     
   1.1250000000000000       0.28125000000000000        0.0000000000000000     
   1.1562500000000000       0.28125000000000000        0.0000000000000000     
   1.1875000000000000       0.28125000000000000        0.0000000000000000     
   1.2187500000000000       0.28125000000000000        0.0000000000000000     
   1.2500000000000000       0.28125000000000000        0.0000000000000000     
   1.1250000000000000       0.31250000000000000        0.0000000000000000     
   1.1562500000000000       0.31250000000000000        0.0000000000000000     
   1.1875000000000000       0.31250000000000000        0.0000000000000000     
   1.2187500000000000       0.31250000000000000        0.0000000000000000     
   1.2500000000000000       0.31250000000000000        0.0000000000000000     
   1.1250000000000000       0.34375000000000000        0.0000000000000000     
   1.1562500000000000       0.34375000000000000        0.0000000000000000     
   1.1875000000000000       0.34375000000000000        0.0000000000000000     
   1.2187500000000000       0.34375000000000000        0.0000000000000000     
   1.2500000000000000       0.34375000000000000        0.0000000000000000     
   1.1250000000000000       0.37500000000000000        0.0000000000000000     
   1.1562500000000000       0.37500000000000000        0.0000000000000000     
   1.1875000000000000       0.37500000000000000        0.0000000000000000     
   1.2187500000000000       0.37500000000000000        0.0000000000000000     
   1.2500000000000000       0.37500000000000000        0.0000000000000000     
   1.2500000000000000       0.25000000000000000        0.0000000000000000     
   1.2812500000000000       0.25000000000000000        0.0000000000000000     
   1.3125000000000000       0.25000000000000000        0.0000000000000000     
   1.3437500000000000       0.25000000000000000        0.0000000000000000     
   1.3750000000000000       0.25000000000000000        0.0000000000000000     
   1.2500000000000000       0.28125000000000000        0.0000000000000000     
   1.2812500000000000       0.28125000000000000        0.0000000000000000     
   1.3125000000000000       0.28125000000000000        0.0000000000000000     
   1.3437500000000000       0.28125000000000000        0.0000000000000000     
   1.3750000000000000       0.28125000000000000        0.0000000000000000     
   1.2500000000000000       0.31250000000000000        0.0000000000000000     
   1.2812500000000000       0.31250000000000000        0.0000000000000000     
   1.3125000000000000       0.31250000000000000        0.0000000000000000     
   1.3437500000000000       0.31250000000000000        0.0000000000000000     
   1.3750000000000000       0.31250000000000000        0.0000000000000000     
   1.2500000000000000       0.34375000000000000        0.0000000000000000     
   1.2812500000000000       0.34375000000000000        0.0000000000000000     
   1.3125000000000000       0.34375000000000000        0.0000000000000000     
   1.3437500000000000       0.34375000000000000        0.0000000000000000     
   1.3750000000000000       0.34375000000000000        0.0000000000000000     
   1.2500000000000000       0.37500000000000000        0.0000000000000000     
   1.2812500000000000       0.37500000000000000        0.0000000000000000     
   1.3125000000000000       0.37500000000000000        0.0000000000000000     
   1.3437500000000000       0.37500000000000000        0.0000000000000000     
   1.3750000000000000       0.37500000000000000        0.0000000000000000     
   1.3750000000000000       0.25000000000000000        0.0000000000000000     
   1.4062500000000000       0.25000000000000000        0.0000000000000000     
   1.4375000000000000       0.25000000000000000        0.0000000000000000     
   1.4687500000000000       0.25000000000000000        0.0000000000000000     
   1.5000000000000000       0.25000000000000000        0.0000000000000000     
   1.3750000000000000       0.28125000000000000        0.0000000000000000     
   1.4062500000000000       0.28125000000000000        0.0000000000000000     
   1.4375000000000000       0.28125000000000000        0.0000000000000000     
   1.4687500000000000       0.28125000000000000        0.0000000000000000     
   1.5000000000000000       0.28125000000000000        0.0000000000000000     
   1.3750000000000000       0.31250000000000000        0.0000000000000000     
   1.4062500000000000       0.31250000000000000        0.0000000000000000     
   1.4375000000000000       0.31250000000000000        0.0000000000000000     
   1.4687500000000000       0.31250000000000000        0.0000000000000000     
   1.5000000000000000       0.31250000000000000        0.0000000000000000     
   1.3750000000000000       0.34375000000000000        0.0000000000000000     
   1.4062500000000000       0.34375000000000000        0.0000000000000000     
   1.4375000000000000       0.34375000000000000        0.0000000000000000     
   1.4687500000000000       0.34375000000000000        0.0000000000000000     
   1.5000000000000000       0.34375000000000000        0.0000000000000000     
   1.3750000000000000       0.37500000000000000        0.0000000000000000     
   1.4062500000000000       0.37500000000000000        0.0000000000000000     
   1.4375000000000000       0.37500000000000000        0.0000000000000000     
   1.4687500000000000       0.37500000000000000        0.0000000000000000     
   1.5000000000000000       0.37500000000000000        0.0000000000000000     
  0.50000000000000000       0.37500000000000000        0.0000000000000000     
  0.53125000000000000       0.37500000000000000        0.0000000000000000     
  0.56250000000000000       0.37500000000000000        0.0000000000000000     
  0.59375000000000000       0.37500000000000000        0.0000000000000000     
  0.62500000000000000       0.37500000000000000        0.0000000000000000     
  0.50000000000000000       0.40625000000000000        0.0000000000000000     
  0.53125000000000000       0.40625000000000000        0.0000000000000000     
  0.56250000000000000       0.40625000000000000        0.0000000000000000     
  0.59375000000000000       0.40625000000000000        0.0000000000000000     
  0.62500000000000000       0.40625000000000000        0.0000000000000000     
  0.50000000000000000       0.43750000000000000        0.0000000000000000     
  0.53125000000000000       0.43750000000000000        0.0000000000000000     
  0.56250000000000000       0.43750000000000000        0.0000000000000000     
  0.59375000000000000       0.43750000000000000        0.0000000000000000     
  0.62500000000000000       0.43750000000000000        0.0000000000000000     
  0.50000000000000000       0.46875000000000000        0.0000000000000000     
  0.53125000000000000       0.46875000000000000        0.0000000000000000     
  0.56250000000000000       0.46875000000000000        0.0000000000000000     
  0.59375000000000000       0.46875000000000000        0.0000000000000000     
  0.62500000000000000       0.46875000000000000        0.0000000000000000     
  0.50000000000000000       0.50000000000000000        0.0000000000000000     
  0.53125000000000000       0.50000000000000000        0.0000000000000000     
  0.56250000000000000       0.50000000000000000        0.0000000000000000     
  0.59375000000000000       0.50000000000000000        0.0000000000000000     
  0.62500000000000000       0.50000000000000000        0.0000000000000000     
  0.62500000000000000       0.37500000000000000        0.0000000000000000     
  0.65625000000000000       0.37500000000000000        0.0000000000000000     
  0.68750000000000000       0.37500000000000000        0.0000000000000000     
  0.71875000000000000       0.37500000000000000        0.0000000000000000     
  0.75000000000000000       0.37500000000000000        0.0000000000000000     
  0.62500000000000000       0.40625000000000000        0.0000000000000000     
  0.65625000000000000       0.40625000000000000        0.0000000000000000     
  0.68750000000000000       0.40625000000000000        0.0000000000000000     
  0.71875000000000000       0.40625000000000000        0.0000000000000000     
  0.75000000000000000       0.40625000000000000        0.0000000000000000     
  0.62500000000000000       0.43750000000000000        0.0000000000000000     
  0.65625000000000000       0.43750000000000000        0.0000000000000000     
  0.68750000000000000       0.43750000000000000        0.0000000000000000     
  0.71875000000000000       0.43750000000000000        0.0000000000000000     
  0.75000000000000000       0.43750000000000000        0.0000000000000000     
  0.62500000000000000       0.46875000000000000        0.0000000000000000     
  0.65625000000000000       0.46875000000000000        0.0000000000000000     
  0.68750000000000000       0.46875000000000000        0.0000000000000000     
  0.71875000000000000       0.46875000000000000        0.0000000000000000     
  0.75000000000000000       0.46875000000000000        0.0000000000000000     
  0.62500000000000000       0.50000000000000000        0.0000000000000000     
  0.65625000000000000       0.50000000000000000        0.0000000000000000     
  0.68750000000000000       0.50000000000000000        0.0000000000000000     
  0.71875000000000000       0.50000000000000000        0.0000000000000000     
  0.75000000000000000       0.50000000000000000        0.0000000000000000     
  0.75000000000000000       0.37500000000000000        0.0000000000000000     
  0.78125000000000000       0.37500000000000000        0.0000000000000000     
  0.81250000000000000       0.37500000000000000        0.0000000000000000     
  0.84375000000000000       0.37500000000000000        0.0000000000000000     
  0.87500000000000000       0.37500000000000000        0.0000000000000000     
  0.75000000000000000       0.40625000000000000        0.0000000000000000     
  0.78125000000000000       0.40625000000000000        0.0000000000000000     
  0.81250000000000000       0.40625000000000000        0.0000000000000000     
  0.84375000000000000       0.40625000000000000        0.0000000000000000     
  0.87500000000000000       0.40625000000000000        0.0000000000000000     
  0.75000000000000000       0.43750000000000000        0.0000000000000000     
  0.78125000000000000       0.43750000000000000        0.0000000000000000     
  0.81250000000000000       0.43750000000000000        0.0000000000000000     
  0.84375000000000000       0.43750000000000000        0.0000000000000000     
  0.87500000000000000       0.43750000000000000        0.0000000000000000     
  0.75000000000000000       0.46875000000000000        0.0000000000000000     
  0.78125000000000000       0.46875000000000000        0.0000000000000000     
  0.81250000000000000       0.46875000000000000        0.0000000000000000     
  0.84375000000000000       0.46875000000000000        0.0000000000000000     
  0.87500000000000000       0.46875000000000000        0.0000000000000000     
  0.75000000000000000       0.50000000000000000        0.0000000000000000     
  0.78125000000000000       0.50000000000000000        0.0000000000000000     
  0.81250000000000000       0.50000000000000000        0.0000000000000000     
  0.84375000000000000       0.50000000000000000        0.0000000000000000     
  0.87500000000000000       0.50000000000000000        0.0000000000000000     
  0.87500000000000000       0.37500000000000000        0.0000000000000000     
  0.90625000000000000       0.37500000000000000        0.0000000000000000     
  0.93750000000000000       0.37500000000000000        0.0000000000000000     
  0.96875000000000000       0.37500000000000000        0.0000000000000000     
   1.0000000000000000       0.37500000000000000        0.0000000000000000     
  0.87500000000000000       0.40625000000000000        0.0000000000000000     
  0.90625000000000000       0.40625000000000000        0.0000000000000000     
  0.93750000000000000       0.40625000000000000        0.0000000000000000     
  0.96875000000000000       0.40625000000000000        0.0000000000000000     
   1.0000000000000000       0.40625000000000000        0.0000000000000000     
  0.87500000000000000       0.43750000000000000        0.0000000000000000     
  0.90625000000000000       0.43750000000000000        0.0000000000000000     
  0.93750000000000000       0.43750000000000000        0.0000000000000000     
  0.96875000000000000       0.43750000000000000        0.0000000000000000     
   1.0000000000000000       0.43750000000000000        0.0000000000000000     
  0.87500000000000000       0.46875000000000000        0.0000000000000000     
  0.90625000000000000       0.46875000000000000        0.0000000000000000     
  0.93750000000000000       0.46875000000000000        0.0000000000000000     
  0.96875000000000000       0.46875000000000000        0.0000000000000000     
   1.0000000000000000       0.46875000000000000        0.0000000000000000     
  0.87500000000000000       0.50000000000000000        0.0000000000000000     
  0.90625000000000000       0.50000000000000000        0.0000000000000000     
  0.93750000000000000       0.50000000000000000        0.0000000000000000     
  0.96875000000000000       0.50000000000000000        0.0000000000000000     
   1.0000000000000000       0.50000000000000000        0.0000000000000000     
   1.0000000000000000       0.37500000000000000        0.0000000000000000     
   1.0312500000000000       0.37500000000000000        0.0000000000000000     
   1.0625000000000000       0.37500000000000000        0.0000000000000000     
   1.0937500000000000       0.37500000000000000        0.0000000000000000     
   1.1250000000000000       0.37500000000000000        0.0000000000000000     
   1.0000000000000000       0.40625000000000000        0.0000000000000000     
   1.0312500000000000       0.40625000000000000        0.0000000000000000     
   1.0625000000000000       0.40625000000000000        0.0000000000000000     
   1.0937500000000000       0.40625000000000000        0.0000000000000000     
   1.1250000000000000       0.40625000000000000        0.0000000000000000     
   1.0000000000000000       0.43750000000000000        0.0000000000000000     
   1.0312500000000000       0.43750000000000000        0.0000000000000000     
   1.0625000000000000       0.43750000000000000        0.0000000000000000     
   1.0937500000000000       0.43750000000000000        0.0000000000000000     
   1.1250000000000000       0.43750000000000000        0.0000000000000000     
   1.0000000000000000       0.46875000000000000        0.0000000000000000     
   1.0312500000000000       0.46875000000000000        0.0000000000000000     
   1.0625000000000000       0.46875000000000000        0.0000000000000000     
   1.0937500000000000       0.46875000000000000        0.0000000000000000     
   1.1250000000000000       0.46875000000000000        0.0000000000000000     
   1.0000000000000000       0.50000000000000000        0.0000000000000000     
   1.0312500000000000       0.50000000000000000        0.0000000000000000     
   1.0625000000000000       0.50000000000000000        0.0000000000000000     
   1.0937500000000000       0.50000000000000000        0.0000000000000000     
   1.1250000000000000       0.50000000000000000        0.0000000000000000     
   1.1250000000000000       0.37500000000000000        0.0000000000000000     
   1.1562500000000000       0.37500000000000000        0.0000000000000000     
   1.1875000000000000       0.37500000000000000        0.0000000000000000     
   1.2187500000000000       0.37500000000000000        0.0000000000000000     
   1.2500000000000000       0.37500000000000000        0.0000000000000000     
   1.1250000000000000       0.40625000000000000        0.0000000000000000     
   1.1562500000000000       0.40625000000000000        0.0000000000000000     
   1.1875000000000000       0.40625000000000000        0.0000000000000000     
   1.2187500000000000       0.40625000000000000        0.0000000000000000     
   1.2500000000000000       0.40625000000000000        0.0000000000000000     
   1.1250000000000000       0.43750000000000000        0.0000000000000000     
   1.1562500000000000       0.43750000000000000        0.0000000000000000     
   1.1875000000000000       0.43750000000000000        0.0000000000000000     
   1.2187500000000000       0.43750000000000000        0.0000000000000000     
   1.2500000000000000       0.43750000000000000        0.0000000000000000     
   1.1250000000000000       0.46875000000000000        0.0000000000000000     
   1.1562500000000000       0.46875000000000000        0.0000000000000000     
   1.1875000000000000       0.46875000000000000        0.0000000000000000     
   1.2187500000000000       0.46875000000000000        0.0000000000000000     
   1.2500000000000000       0.46875000000000000        0.0000000000000000     
   1.1250000000000000       0.50000000000000000        0.0000000000000000     
   1.1562500000000000       0.50000000000000000        0.0000000000000000     
   1.1875000000000000       0.50000000000000000        0.0000000000000000     
   1.2187500000000000       0.50000000000000000        0.0000000000000000     
   1.2500000000000000       0.50000000000000000        0.0000000000000000     
   1.2500000000000000       0.37500000000000000        0.0000000000000000     
   1.2812500000000000       0.37500000000000000        0.0000000000000000     
   1.3125000000000000       0.37500000000000000        0.0000000000000000     
   1.3437500000000000       0.37500000000000000        0.0000000000000000     
   1.3750000000000000       0.37500000000000000        0.0000000000000000     
   1.2500000000000000       0.40625000000000000        0.0000000000000000     
   1.2812500000000000       0.40625000000000000        0.0000000000000000     
   1.3125000000000000       0.40625000000000000        0.0000000000000000     
   1.3437500000000000       0.40625000000000000        0.0000000000000000     
   1.3750000000000000       0.40625000000000000        0.0000000000000000     
   1.2500000000000000       0.43750000000000000        0.0000000000000000     
   1.2812500000000000       0.43750000000000000        0.0000000000000000     
   1.3125000000000000       0.43750000000000000        0.0000000000000000     
   1.3437500000000000       0.43750000000000000        0.0000000000000000     
   1.3750000000000000       0.43750000000000000        0.0000000000000000     
   1.2500000000000000       0.46875000000000000        0.0000000000000000     
   1.2812500000000000       0.46875000000000000        0.0000000000000000     
   1.3125000000000000       0.46875000000000000        0.0000000000000000     
   1.3437500000000000       0.46875000000000000        0.0000000000000000     
   1.3750000000000000       0.46875000000000000        0.0000000000000000     
   1.2500000000000000       0.50000000000000000        0.0000000000000000     
   1.2812500000000000       0.50000000000000000        0.0000000000000000     
   1.3125000000000000       0.50000000000000000        0.0000000000000000     
   1.3437500000000000       0.50000000000000000        0.0000000000000000     
   1.3750000000000000       0.50000000000000000        0.0000000000000000     
   1.3750000000000000       0.37500000000000000        0.0000000000000000     
   1.4062500000000000       0.37500000000000000        0.0000000000000000     
   1.4375000000000000       0.37500000000000000        0.0000000000000000     
   1.4687500000000000       0.37500000000000000        0.0000000000000000     
   1.5000000000000000       0.37500000000000000        0.0000000000000000     
   1.3750000000000000       0.40625000000000000        0.0000000000000000     
   1.4062500000000000       0.40625000000000000        0.0000000000000000     
   1.4375000000000000       0.40625000000000000        0.0000000000000000     
   1.4687500000000000       0.40625000000000000        0.0000000000000000     
   1.5000000000000000       0.40625000000000000        0.0000000000000000     
   1.3750000000000000       0.43750000000000000        0.0000000000000000     
   1.4062500000000000       0.43750000000000000        0.0000000000000000     
   1.4375000000000000       0.43750000000000000        0.0000000000000000     
   1.4687500000000000       0.43750000000000000        0.0000000000000000     
   1.5000000000000000       0.43750000000000000        0.0000000000000000     
   1.3750000000000000       0.46875000000000000        0.0000000000000000     
   1.4062500000000000       0.46875000000000000        0.0000000000000000     
   1.4375000000000000       0.46875000000000000        0.0000000000000000     
   1.4687500000000000       0.46875000000000000        0.0000000000000000     
   1.5000000000000000       0.46875000000000000        0.0000000000000000     
   1.3750000000000000       0.50000000000000000        0.0000000000000000     
   1.4062500000000000       0.50000000000000000        0.0000000000000000     
   1.4375000000000000       0.50000000000000000        0.0000000000000000     
   1.4687500000000000       0.50000000000000000        0.0000000000000000     
   1.5000000000000000       0.50000000000000000        0.0000000000000000     
  0.50000000000000000       0.50000000000000000        0.0000000000000000     
  0.53125000000000000       0.50000000000000000        0.0000000000000000     
  0.56250000000000000       0.50000000000000000        0.0000000000000000     
  0.59375000000000000       0.50000000000000000        0.0000000000000000     
  0.62500000000000000       0.50000000000000000        0.0000000000000000     
  0.50000000000000000       0.53125000000000000        0.0000000000000000     
  0.53125000000000000       0.53125000000000000        0.0000000000000000     
  0.56250000000000000       0.53125000000000000        0.0000000000000000     
  0.59375000000000000       0.53125000000000000        0.0000000000000000     
  0.62500000000000000       0.53125000000000000        0.0000000000000000     
  0.50000000000000000       0.56250000000000000        0.0000000000000000     
  0.53125000000000000       0.56250000000000000        0.0000000000000000     
  0.56250000000000000       0.56250000000000000        0.0000000000000000     
  0.59375000000000000       0.56250000000000000        0.0000000000000000     
  0.62500000000000000       0.56250000000000000        0.0000000000000000     
  0.50000000000000000       0.59375000000000000        0.0000000000000000     
  0.53125000000000000       0.59375000000000000        0.0000000000000000     
  0.56250000000000000       0.59375000000000000        0.0000000000000000     
  0.59375000000000000       0.59375000000000000        0.0000000000000000     
  0.62500000000000000       0.59375000000000000        0.0000000000000000     
  0.50000000000000000       0.62500000000000000        0.0000000000000000     
  0.53125000000000000       0.62500000000000000        0.0000000000000000     
  0.56250000000000000       0.62500000000000000        0.0000000000000000     
  0.59375000000000000       0.62500000000000000        0.0000000000000000     
  0.62500000000000000       0.62500000000000000        0.0000000000000000     
  0.62500000000000000       0.50000000000000000        0.0000000000000000     
  0.65625000000000000       0.50000000000000000        0.0000000000000000     
  0.68750000000000000       0.50000000000000000        0.0000000000000000     
  0.71875000000000000       0.50000000000000000        0.0000000000000000     
  0.75000000000000000       0.50000000000000000        0.0000000000000000     
  0.62500000000000000       0.53125000000000000        0.0000000000000000     
  0.65625000000000000       0.53125000000000000        0.0000000000000000     
  0.68750000000000000       0.53125000000000000        0.0000000000000000     
  0.71875000000000000       0.53125000000000000        0.0000000000000000     
  0.75000000000000000       0.53125000000000000        0.0000000000000000     
  0.62500000000000000       0.56250000000000000        0.0000000000000000     
  0.65625000000000000       0.56250000000000000        0.0000000000000000     
  0.68750000000000000       0.56250000000000000        0.0000000000000000     
  0.71875000000000000       0.56250000000000000        0.0000000000000000     
  0.75000000000000000       0.56250000000000000        0.0000000000000000     
  0.62500000000000000       0.59375000000000000        0.0000000000000000     
  0.65625000000000000       0.59375000000000000        0.0000000000000000     
  0.68750000000000000       0.59375000000000000        0.0000000000000000     
  0.71875000000000000       0.59375000000000000        0.0000000000000000     
  0.75000000000000000       0.59375000000000000        0.0000000000000000     
  0.62500000000000000       0.62500000000000000        0.0000000000000000     
  0.65625000000000000       0.62500000000000000        0.0000000000000000     
  0.68750000000000000       0.62500000000000000        0.0000000000000000     
  0.71875000000000000       0.62500000000000000        0.0000000000000000     
  0.75000000000000000       0.62500000000000000        0.0000000000000000     
  0.75000000000000000       0.50000000000000000        0.0000000000000000     
  0.78125000000000000       0.50000000000000000        0.0000000000000000     
  0.81250000000000000       0.50000000000000000        0.0000000000000000     
  0.84375000000000000       0.50000000000000000        0.0000000000000000     
  0.87500000000000000       0.50000000000000000        0.0000000000000000     
  0.75000000000000000       0.53125000000000000        0.0000000000000000     
  0.78125000000000000       0.53125000000000000        0.0000000000000000     
  0.81250000000000000       0.53125000000000000        0.0000000000000000     
  0.84375000000000000       0.53125000000000000        0.0000000000000000     
  0.87500000000000000       0.53125000000000000        0.0000000000000000     
  0.75000000000000000       0.56250000000000000        0.0000000000000000     
  0.78125000000000000       0.56250000000000000        0.0000000000000000     
  0.81250000000000000       0.56250000000000000        0.0000000000000000     
  0.84375000000000000       0.56250000000000000        0.0000000000000000     
  0.87500000000000000       0.56250000000000000        0.0000000000000000     
  0.75000000000000000       0.59375000000000000        0.0000000000000000     
  0.78125000000000000       0.59375000000000000        0.0000000000000000     
  0.81250000000000000       0.59375000000000000        0.0000000000000000     
  0.84375000000000000       0.59375000000000000        0.0000000000000000     
  0.87500000000000000       0.59375000000000000        0.0000000000000000     
  0.75000000000000000       0.62500000000000000        0.0000000000000000     
  0.78125000000000000       0.62500000000000000        0.0000000000000000     
  0.81250000000000000       0.62500000000000000        0.0000000000000000     
  0.84375000000000000       0.62500000000000000        0.0000000000000000     
  0.87500000000000000       0.62500000000000000        0.0000000000000000     
  0.87500000000000000       0.50000000000000000        0.0000000000000000     
  0.90625000000000000       0.50000000000000000        0.0000000000000000     
  0.93750000000000000       0.50000000000000000        0.0000000000000000     
  0.96875000000000000       0.50000000000000000        0.0000000000000000     
   1.0000000000000000       0.50000000000000000        0.0000000000000000     
  0.87500000000000000       0.53125000000000000        0.0000000000000000     
  0.90625000000000000       0.53125000000000000        0.0000000000000000     
  0.93750000000000000       0.53125000000000000        0.0000000000000000     
  0.96875000000000000       0.53125000000000000        0.0000000000000000     
   1.0000000000000000       0.53125000000000000        0.0000000000000000     
  0.87500000000000000       0.56250000000000000        0.0000000000000000     
  0.90625000000000000       0.56250000000000000        0.0000000000000000     
  0.93750000000000000       0.56250000000000000        0.0000000000000000     
  0.96875000000000000       0.56250000000000000        0.0000000000000000     
   1.0000000000000000       0.56250000000000000        0.0000000000000000     
  0.87500000000000000       0.59375000000000000        0.0000000000000000     
  0.90625000000000000       0.59375000000000000        0.0000000000000000     
  0.93750000000000000       0.59375000000000000        0.0000000000000000     
  0.96875000000000000       0.59375000000000000        0.0000000000000000     
   1.0000000000000000       0.59375000000000000        0.0000000000000000     
  0.87500000000000000       0.62500000000000000        0.0000000000000000     
  0.90625000000000000       0.62500000000000000        0.0000000000000000     
  0.93750000000000000       0.62500000000000000        0.0000000000000000     
  0.96875000000000000       0.62500000000000000        0.0000000000000000     
   1.0000000000000000       0.62500000000000000        0.0000000000000000     
   1.0000000000000000       0.50000000000000000        0.0000000000000000     
   1.0312500000000000       0.50000000000000000        0.0000000000000000     
   1.0625000000000000       0.50000000000000000        0.0000000000000000     
   1.0937500000000000       0.50000000000000000        0.0000000000000000     
   1.1250000000000000       0.50000000000000000        0.0000000000000000     
   1.0000000000000000       0.53125000000000000        0.0000000000000000     
   1.0312500000000000       0.53125000000000000        0.0000000000000000     
   1.0625000000000000       0.53125000000000000        0.0000000000000000     
   1.0937500000000000       0.53125000000000000        0.0000000000000000     
   1.1250000000000000       0.53125000000000000        0.0000000000000000     
   1.0000000000000000       0.56250000000000000        0.0000000000000000     
   1.0312500000000000       0.56250000000000000        0.0000000000000000     
   1.0625000000000000       0.56250000000000000        0.0000000000000000     
   1.0937500000000000       0.56250000000000000        0.0000000000000000     
   1.1250000000000000       0.56250000000000000        0.0000000000000000     
   1.0000000000000000       0.59375000000000000        0.0000000000000000     
   1.0312500000000000       0.59375000000000000        0.0000000000000000     
   1.0625000000000000       0.59375000000000000        0.0000000000000000     
   1.0937500000000000       0.59375000000000000        0.0000000000000000     
   1.1250000000000000       0.59375000000000000        0.0000000000000000     
   1.0000000000000000       0.62500000000000000        0.0000000000000000     
   1.0312500000000000       0.62500000000000000        0.0000000000000000     
   1.0625000000000000       0.62500000000000000        0.0000000000000000     
   1.0937500000000000       0.62500000000000000        0.0000000000000000     
   1.1250000000000000       0.62500000000000000        0.0000000000000000     
   1.1250000000000000       0.50000000000000000        0.0000000000000000     
   1.1562500000000000       0.50000000000000000        0.0000000000000000     
   1.1875000000000000       0.50000000000000000        0.0000000000000000     
   1.2187500000000000       0.50000000000000000        0.0000000000000000     
   1.2500000000000000       0.50000000000000000        0.0000000000000000     
   1.1250000000000000       0.53125000000000000        0.0000000000000000     
   1.1562500000000000       0.53125000000000000        0.0000000000000000     
   1.1875000000000000       0.53125000000000000        0.0000000000000000     
   1.2187500000000000       0.53125000000000000        0.0000000000000000     
   1.2500000000000000       0.53125000000000000        0.0000000000000000     
   1.1250000000000000       0.56250000000000000        0.0000000000000000     
   1.1562500000000000       0.56250000000000000        0.0000000000000000     
   1.1875000000000000       0.56250000000000000        0.0000000000000000     
   1.2187500000000000       0.56250000000000000        0.0000000000000000     
   1.2500000000000000       0.56250000000000000        0.0000000000000000     
   1.1250000000000000       0.59375000000000000        0.0000000000000000     
   1.1562500000000000       0.59375000000000000        0.0000000000000000     
   1.1875000000000000       0.59375000000000000        0.0000000000000000     
   1.2187500000000000       0.59375000000000000        0.0000000000000000     
   1.2500000000000000       0.59375000000000000        0.0000000000000000     
   1.1250000000000000       0.62500000000000000        0.0000000000000000     
   1.1562500000000000       0.62500000000000000        0.0000000000000000     
   1.1875000000000000       0.62500000000000000        0.0000000000000000     
   1.2187500000000000       0.62500000000000000        0.0000000000000000     
   1.2500000000000000       0.62500000000000000        0.0000000000000000     
   1.2500000000000000       0.50000000000000000        0.0000000000000000     
   1.2812500000000000       0.50000000000000000        0.0000000000000000     
   1.3125000000000000       0.50000000000000000        0.0000000000000000     
   1.3437500000000000       0.50000000000000000        0.0000000000000000     
   1.3750000000000000       0.50000000000000000        0.0000000000000000     
   1.2500000000000000       0.53125000000000000        0.0000000000000000     
   1.2812500000000000       0.53125000000000000        0.0000000000000000     
   1.3125000000000000       0.53125000000000000        0.0000000000000000     
   1.3437500000000000       0.53125000000000000        0.0000000000000000     
   1.3750000000000000       0.53125000000000000        0.0000000000000000     
   1.2500000000000000       0.56250000000000000        0.0000000000000000     
   1.2812500000000000       0.56250000000000000        0.0000000000000000     
   1.3125000000000000       0.56250000000000000        0.0000000000000000     
   1.3437500000000000       0.56250000000000000        0.0000000000000000     
   1.3750000000000000       0.56250000000000000        0.0000000000000000     
   1.2500000000000000       0.59375000000000000        0.0000000000000000     
   1.2812500000000000       0.59375000000000000        0.0000000000000000     
   1.3125000000000000       0.59375000000000000        0.0000000000000000     
   1.3437500000000000       0.59375000000000000        0.0000000000000000     
   1.3750000000000000       0.59375000000000000        0.0000000000000000     
   1.2500000000000000       0.62500000000000000        0.0000000000000000     
   1.2812500000000000       0.62500000000000000        0.0000000000000000     
   1.3125000000000000       0.62500000000000000        0.0000000000000000     
   1.3437500000000000       0.62500000000000000        0.0000000000000000     
   1.3750000000000000       0.62500000000000000        0.0000000000000000     
   1.3750000000000000       0.50000000000000000        0.0000000000000000     
   1.4062500000000000       0.50000000000000000        0.0000000000000000     
   1.4375000000000000       0.50000000000000000        0.0000000000000000     
   1.4687500000000000       0.50000000000000000        0.0000000000000000     
   1.5000000000000000       0.50000000000000000        0.0000000000000000     
   1.3750000000000000       0.53125000000000000        0.0000000000000000     
   1.4062500000000000       0.53125000000000000        0.0000000000000000     
   1.4375000000000000       0.53125000000000000        0.0000000000000000     
   1.4687500000000000       0.53125000000000000        0.0000000000000000     
   1.5000000000000000       0.53125000000000000        0.0000000000000000     
   1.3750000000000000       0.56250000000000000        0.0000000000000000     
   1.4062500000000000       0.56250000000000000        0.0000000000000000     
   1.4375000000000000       0.56250000000000000        0.0000000000000000     
   1.4687500000000000       0.56250000000000000        0.0000000000000000     
   1.5000000000000000       0.56250000000000000        0.0000000000000000     
   1.3750000000000000       0.59375000000000000        0.0000000000000000     
   1.4062500000000000       0.59375000000000000        0.0000000000000000     
   1.4375000000000000       0.59375000000000000        0.0000000000000000     
   1.4687500000000000       0.59375000000000000        0.0000000000000000     
   1.5000000000000000       0.59375000000000000        0.0000000000000000     
   1.3750000000000000       0.62500000000000000        0.0000000000000000     
   1.4062500000000000       0.62500000000000000        0.0000000000000000     
   1.4375000000000000       0.62500000000000000        0.0000000000000000     
   1.4687500000000000       0.62500000000000000        0.0000000000000000     
   1.5000000000000000       0.62500000000000000        0.0000000000000000     
  0.50000000000000000       0.62500000000000000        0.0000000000000000     
  0.53125000000000000       0.62500000000000000        0.0000000000000000     
  0.56250000000000000       0.62500000000000000        0.0000000000000000     
  0.59375000000000000       0.62500000000000000        0.0000000000000000     
  0.62500000000000000       0.62500000000000000        0.0000000000000000     
  0.50000000000000000       0.65625000000000000        0.0000000000000000     
  0.53125000000000000       0.65625000000000000        0.0000000000000000     
  0.56250000000000000       0.65625000000000000        0.0000000000000000     
  0.59375000000000000       0.65625000000000000        0.0000000000000000     
  0.62500000000000000       0.65625000000000000        0.0000000000000000     
  0.50000000000000000       0.68750000000000000        0.0000000000000000     
  0.53125000000000000       0.68750000000000000        0.0000000000000000     
  0.56250000000000000       0.68750000000000000        0.0000000000000000     
  0.59375000000000000       0.68750000000000000        0.0000000000000000     
  0.62500000000000000       0.68750000000000000        0.0000000000000000     
  0.50000000000000000       0.71875000000000000        0.0000000000000000     
  0.53125000000000000       0.71875000000000000        0.0000000000000000     
  0.56250000000000000       0.71875000000000000        0.0000000000000000     
  0.59375000000000000       0.71875000000000000        0.0000000000000000     
  0.62500000000000000       0.71875000000000000        0.0000000000000000     
  0.50000000000000000       0.75000000000000000        0.0000000000000000     
  0.53125000000000000       0.75000000000000000        0.0000000000000000     
  0.56250000000000000       0.75000000000000000        0.0000000000000000     
  0.59375000000000000       0.75000000000000000        0.0000000000000000     
  0.62500000000000000       0.75000000000000000        0.0000000000000000     
  0.62500000000000000       0.62500000000000000        0.0000000000000000     
  0.65625000000000000       0.62500000000000000        0.0000000000000000     
  0.68750000000000000       0.62500000000000000        0.0000000000000000     
  0.71875000000000000       0.62500000000000000        0.0000000000000000     
  0.75000000000000000       0.62500000000000000        0.0000000000000000     
  0.62500000000000000       0.65625000000000000        0.0000000000000000     
  0.65625000000000000       0.65625000000000000        0.0000000000000000     
  0.68750000000000000       0.65625000000000000        0.0000000000000000     
  0.71875000000000000       0.65625000000000000        0.0000000000000000     
  0.75000000000000000       0.65625000000000000        0.0000000000000000     
  0.62500000000000000       0.68750000000000000        0.0000000000000000     
  0.65625000000000000       0.68750000000000000        0.0000000000000000     
  0.68750000000000000       0.68750000000000000        0.0000000000000000     
  0.71875000000000000       0.68750000000000000        0.0000000000000000     
  0.75000000000000000       0.68750000000000000        0.0000000000000000     
  0.62500000000000000       0.71875000000000000        0.0000000000000000     
  0.65625000000000000       0.71875000000000000        0.0000000000000000     
  0.68750000000000000       0.71875000000000000        0.0000000000000000     
  0.71875000000000000       0.71875000000000000        0.0000000000000000     
  0.75000000000000000       0.71875000000000000        0.0000000000000000     
  0.62500000000000000       0.75000000000000000        0.0000000000000000     
  0.65625000000000000       0.75000000000000000        0.0000000000000000     
  0.68750000000000000       0.75000000000000000        0.0000000000000000     
  0.71875000000000000       0.75000000000000000        0.0000000000000000     
  0.75000000000000000       0.75000000000000000        0.0000000000000000     
  0.75000000000000000       0.62500000000000000        0.0000000000000000     
  0.78125000000000000       0.62500000000000000        0.0000000000000000     
  0.81250000000000000       0.62500000000000000        0.0000000000000000     
  0.84375000000000000       0.62500000000000000        0.0000000000000000     
  0.87500000000000000       0.62500000000000000        0.0000000000000000     
  0.75000000000000000       0.65625000000000000        0.0000000000000000     
  0.78125000000000000       0.65625000000000000        0.0000000000000000     
  0.81250000000000000       0.65625000000000000        0.0000000000000000     
  0.84375000000000000       0.65625000000000000        0.0000000000000000     
  0.87500000000000000       0.65625000000000000        0.0000000000000000     
  0.75000000000000000       0.68750000000000000        0.0000000000000000     
  0.78125000000000000       0.68750000000000000        0.0000000000000000     
  0.81250000000000000       0.68750000000000000        0.0000000000000000     
  0.84375000000000000       0.68750000000000000        0.0000000000000000     
  0.87500000000000000       0.68750000000000000        0.0000000000000000     
  0.75000000000000000       0.71875000000000000        0.0000000000000000     
  0.78125000000000000       0.71875000000000000        0.0000000000000000     
  0.81250000000000000       0.71875000000000000        0.0000000000000000     
  0.84375000000000000       0.71875000000000000        0.0000000000000000     
  0.87500000000000000       0.71875000000000000        0.0000000000000000     
  0.75000000000000000       0.75000000000000000        0.0000000000000000     
  0.78125000000000000       0.75000000000000000        0.0000000000000000     
  0.81250000000000000       0.75000000000000000        0.0000000000000000     
  0.84375000000000000       0.75000000000000000        0.0000000000000000     
  0.87500000000000000       0.75000000000000000        0.0000000000000000     
  0.87500000000000000       0.62500000000000000        0.0000000000000000     
  0.90625000000000000       0.62500000000000000        0.0000000000000000     
  0.93750000000000000       0.62500000000000000        0.0000000000000000     
  0.96875000000000000       0.62500000000000000        0.0000000000000000     
   1.0000000000000000       0.62500000000000000        0.0000000000000000     
  0.87500000000000000       0.65625000000000000        0.0000000000000000     
  0.90625000000000000       0.65625000000000000        0.0000000000000000     
  0.93750000000000000       0.65625000000000000        0.0000000000000000     
  0.96875000000000000       0.65625000000000000        0.0000000000000000     
   1.0000000000000000       0.65625000000000000        0.0000000000000000     
  0.87500000000000000       0.68750000000000000        0.0000000000000000     
  0.90625000000000000       0.68750000000000000        0.0000000000000000     
  0.93750000000000000       0.68750000000000000        0.0000000000000000     
  0.96875000000000000       0.68750000000000000        0.0000000000000000     
   1.0000000000000000       0.68750000000000000        0.0000000000000000     
  0.87500000000000000       0.71875000000000000        0.0000000000000000     
  0.90625000000000000       0.71875000000000000        0.0000000000000000     
  0.93750000000000000       0.71875000000000000        0.0000000000000000     
  0.96875000000000000       0.71875000000000000        0.0000000000000000     
   1.0000000000000000       0.71875000000000000        0.0000000000000000     
  0.87500000000000000       0.75000000000000000        0.0000000000000000     
  0.90625000000000000       0.75000000000000000        0.0000000000000000     
  0.93750000000000000       0.75000000000000000        0.0000000000000000     
  0.96875000000000000       0.75000000000000000        0.0000000000000000     
   1.0000000000000000       0.75000000000000000        0.0000000000000000     
   1.0000000000000000       0.62500000000000000        0.0000000000000000     
   1.0312500000000000       0.62500000000000000        0.0000000000000000     
   1.0625000000000000       0.62500000000000000        0.0000000000000000     
   1.0937500000000000       0.62500000000000000        0.0000000000000000     
   1.1250000000000000       0.62500000000000000        0.0000000000000000     
   1.0000000000000000       0.65625000000000000        0.0000000000000000     
   1.0312500000000000       0.65625000000000000        0.0000000000000000     
   1.0625000000000000       0.65625000000000000        0.0000000000000000     
   1.0937500000000000       0.65625000000000000        0.0000000000000000     
   1.1250000000000000       0.65625000000000000        0.0000000000000000     
   1.0000000000000000       0.68750000000000000        0.0000000000000000     
   1.0312500000000000       0.68750000000000000        0.0000000000000000     
   1.0625000000000000       0.68750000000000000        0.0000000000000000     
   1.0937500000000000       0.68750000000000000        0.0000000000000000     
   1.1250000000000000       0.68750000000000000        0.0000000000000000     
   1.0000000000000000       0.71875000000000000        0.0000000000000000     
   1.0312500000000000       0.71875000000000000        0.0000000000000000     
   1.0625000000000000       0.71875000000000000        0.0000000000000000     
   1.0937500000000000       0.71875000000000000        0.0000000000000000     
   1.1250000000000000       0.71875000000000000        0.0000000000000000     
   1.0000000000000000       0.75000000000000000        0.0000000000000000     
   1.0312500000000000       0.75000000000000000        0.0000000000000000     
   1.0625000000000000       0.75000000000000000        0.0000000000000000     
   1.0937500000000000       0.75000000000000000        0.0000000000000000     
   1.1250000000000000       0.75000000000000000        0.0000000000000000     
   1.1250000000000000       0.62500000000000000        0.0000000000000000     
   1.1562500000000000       0.62500000000000000        0.0000000000000000     
   1.1875000000000000       0.62500000000000000        0.0000000000000000     
   1.2187500000000000       0.62500000000000000        0.0000000000000000     
   1.2500000000000000       0.62500000000000000        0.0000000000000000     
   1.1250000000000000       0.65625000000000000        0.0000000000000000     
   1.1562500000000000       0.65625000000000000        0.0000000000000000     
   1.1875000000000000       0.65625000000000000        0.0000000000000000     
   1.2187500000000000       0.65625000000000000        0.0000000000000000     
   1.2500000000000000       0.65625000000000000        0.0000000000000000     
   1.1250000000000000       0.68750000000000000        0.0000000000000000     
   1.1562500000000000       0.68750000000000000        0.0000000000000000     
   1.1875000000000000       0.68750000000000000        0.0000000000000000     
   1.2187500000000000       0.68750000000000000        0.0000000000000000     
   1.2500000000000000       0.68750000000000000        0.0000000000000000     
   1.1250000000000000       0.71875000000000000        0.0000000000000000     
   1.1562500000000000       0.71875000000000000        0.0000000000000000     
   1.1875000000000000       0.71875000000000000        0.0000000000000000     
   1.2187500000000000       0.71875000000000000        0.0000000000000000     
   1.2500000000000000       0.71875000000000000        0.0000000000000000     
   1.1250000000000000       0.75000000000000000        0.0000000000000000     
   1.1562500000000000       0.75000000000000000        0.0000000000000000     
   1.1875000000000000       0.75000000000000000        0.0000000000000000     
   1.2187500000000000       0.75000000000000000        0.0000000000000000     
   1.2500000000000000       0.75000000000000000        0.0000000000000000     
   1.2500000000000000       0.62500000000000000        0.0000000000000000     
   1.2812500000000000       0.62500000000000000        0.0000000000000000     
   1.3125000000000000       0.62500000000000000        0.0000000000000000     
   1.3437500000000000       0.62500000000000000        0.0000000000000000     
   1.3750000000000000       0.62500000000000000        0.0000000000000000     
   1.2500000000000000       0.65625000000000000        0.0000000000000000     
   1.2812500000000000       0.65625000000000000        0.0000000000000000     
   1.3125000000000000       0.65625000000000000        0.0000000000000000     
   1.3437500000000000       0.65625000000000000        0.0000000000000000     
   1.3750000000000000       0.65625000000000000        0.0000000000000000     
   1.2500000000000000       0.68750000000000000        0.0000000000000000     
   1.2812500000000000       0.68750000000000000        0.0000000000000000     
   1.3125000000000000       0.68750000000000000        0.0000000000000000     
   1.3437500000000000       0.68750000000000000        0.0000000000000000     
   1.3750000000000000       0.68750000000000000        0.0000000000000000     
   1.2500000000000000       0.71875000000000000        0.0000000000000000     
   1.2812500000000000       0.71875000000000000        0.0000000000000000     
   1.3125000000000000       0.71875000000000000        0.0000000000000000     
   1.3437500000000000       0.71875000000000000        0.0000000000000000     
   1.3750000000000000       0.71875000000000000        0.0000000000000000     
   1.2500000000000000       0.75000000000000000        0.0000000000000000     
   1.2812500000000000       0.75000000000000000        0.0000000000000000     
   1.3125000000000000       0.75000000000000000        0.0000000000000000     
   1.3437500000000000       0.75000000000000000        0.0000000000000000     
   1.3750000000000000       0.75000000000000000        0.0000000000000000     
   1.3750000000000000       0.62500000000000000        0.0000000000000000     
   1.4062500000000000       0.62500000000000000        0.0000000000000000     
   1.4375000000000000       0.62500000000000000        0.0000000000000000     
   1.4687500000000000       0.62500000000000000        0.0000000000000000     
   1.5000000000000000       0.62500000000000000        0.0000000000000000     
   1.3750000000000000       0.65625000000000000        0.0000000000000000     
   1.4062500000000000       0.65625000000000000        0.0000000000000000     
   1.4375000000000000       0.65625000000000000        0.0000000000000000     
   1.4687500000000000       0.65625000000000000        0.0000000000000000     
   1.5000000000000000       0.65625000000000000        0.0000000000000000     
   1.3750000000000000       0.68750000000000000        0.0000000000000000     
   1.4062500000000000       0.68750000000000000        0.0000000000000000     
   1.4375000000000000       0.68750000000000000        0.0000000000000000     
   1.4687500000000000       0.68750000000000000        0.0000000000000000     
   1.5000000000000000       0.68750000000000000        0.0000000000000000     
   1.3750000000000000       0.71875000000000000        0.0000000000000000     
   1.4062500000000000       0.71875000000000000        0.0000000000000000     
   1.4375000000000000       0.71875000000000000        0.0000000000000000     
   1.4687500000000000       0.71875000000000000        0.0000000000000000     
   1.5000000000000000       0.71875000000000000        0.0000000000000000     
   1.3750000000000000       0.75000000000000000        0.0000000000000000     
   1.4062500000000000       0.75000000000000000        0.0000000000000000     
   1.4375000000000000       0.75000000000000000        0.0000000000000000     
   1.4687500000000000       0.75000000000000000        0.0000000000000000     
   1.5000000000000000       0.75000000000000000        0.0000000000000000     
  0.50000000000000000       0.75000000000000000        0.0000000000000000     
  0.53125000000000000       0.75000000000000000        0.0000000000000000     
  0.56250000000000000       0.75000000000000000        0.0000000000000000     
  0.59375000000000000       0.75000000000000000        0.0000000000000000     
  0.62500000000000000       0.75000000000000000        0.0000000000000000     
  0.50000000000000000       0.78125000000000000        0.0000000000000000     
  0.53125000000000000       0.78125000000000000        0.0000000000000000     
  0.56250000000000000       0.78125000000000000        0.0000000000000000     
  0.59375000000000000       0.78125000000000000        0.0000000000000000     
  0.62500000000000000       0.78125000000000000        0.0000000000000000     
  0.50000000000000000       0.81250000000000000        0.0000000000000000     
  0.53125000000000000       0.81250000000000000        0.0000000000000000     
  0.56250000000000000       0.81250000000000000        0.0000000000000000     
  0.59375000000000000       0.81250000000000000        0.0000000000000000     
  0.62500000000000000       0.81250000000000000        0.0000000000000000     
  0.50000000000000000       0.84375000000000000        0.0000000000000000     
  0.53125000000000000       0.84375000000000000        0.0000000000000000     
  0.56250000000000000       0.84375000000000000        0.0000000000000000     
  0.59375000000000000       0.84375000000000000        0.0000000000000000     
  0.62500000000000000       0.84375000000000000        0.0000000000000000     
  0.50000000000000000       0.87500000000000000        0.0000000000000000     
  0.53125000000000000       0.87500000000000000        0.0000000000000000     
  0.56250000000000000       0.87500000000000000        0.0000000000000000     
  0.59375000000000000       0.87500000000000000        0.0000000000000000     
  0.62500000000000000       0.87500000000000000        0.0000000000000000     
  0.62500000000000000       0.75000000000000000        0.0000000000000000     
  0.65625000000000000       0.75000000000000000        0.0000000000000000     
  0.68750000000000000       0.75000000000000000        0.0000000000000000     
  0.71875000000000000       0.75000000000000000        0.0000000000000000     
  0.75000000000000000       0.75000000000000000        0.0000000000000000     
  0.62500000000000000       0.78125000000000000        0.0000000000000000     
  0.65625000000000000       0.78125000000000000        0.0000000000000000     
  0.68750000000000000       0.78125000000000000        0.0000000000000000     
  0.71875000000000000       0.78125000000000000        0.0000000000000000     
  0.75000000000000000       0.78125000000000000        0.0000000000000000     
  0.62500000000000000       0.81250000000000000        0.0000000000000000     
  0.65625000000000000       0.81250000000000000        0.0000000000000000     
  0.68750000000000000       0.81250000000000000        0.0000000000000000     
  0.71875000000000000       0.81250000000000000        0.0000000000000000     
  0.75000000000000000       0.81250000000000000        0.0000000000000000     
  0.62500000000000000       0.84375000000000000        0.0000000000000000     
  0.65625000000000000       0.84375000000000000        0.0000000000000000     
  0.68750000000000000       0.84375000000000000        0.0000000000000000     
  0.71875000000000000       0.84375000000000000        0.0000000000000000     
  0.75000000000000000       0.84375000000000000        0.0000000000000000     
  0.62500000000000000       0.87500000000000000        0.0000000000000000     
  0.65625000000000000       0.87500000000000000        0.0000000000000000     
  0.68750000000000000       0.87500000000000000        0.0000000000000000     
  0.71875000000000000       0.87500000000000000        0.0000000000000000     
  0.75000000000000000       0.87500000000000000        0.0000000000000000     
  0.75000000000000000       0.75000000000000000        0.0000000000000000     
  0.78125000000000000       0.75000000000000000        0.0000000000000000     
  0.81250000000000000       0.75000000000000000        0.0000000000000000     
  0.84375000000000000       0.75000000000000000        0.0000000000000000     
  0.87500000000000000       0.75000000000000000        0.0000000000000000     
  0.75000000000000000       0.78125000000000000        0.0000000000000000     
  0.78125000000000000       0.78125000000000000        0.0000000000000000     
  0.81250000000000000       0.78125000000000000        0.0000000000000000     
  0.84375000000000000       0.78125000000000000        0.0000000000000000     
  0.87500000000000000       0.78125000000000000        0.0000000000000000     
  0.75000000000000000       0.81250000000000000        0.0000000000000000     
  0.78125000000000000       0.81250000000000000        0.0000000000000000     
  0.81250000000000000       0.81250000000000000        0.0000000000000000     
  0.84375000000000000       0.81250000000000000        0.0000000000000000     
  0.87500000000000000       0.81250000000000000        0.0000000000000000     
  0.75000000000000000       0.84375000000000000        0.0000000000000000     
  0.78125000000000000       0.84375000000000000        0.0000000000000000     
  0.81250000000000000       0.84375000000000000        0.0000000000000000     
  0.84375000000000000       0.84375000000000000        0.0000000000000000     
  0.87500000000000000       0.84375000000000000        0.0000000000000000     
  0.75000000000000000       0.87500000000000000        0.0000000000000000     
  0.78125000000000000       0.87500000000000000        0.0000000000000000     
  0.81250000000000000       0.87500000000000000        0.0000000000000000     
  0.84375000000000000       0.87500000000000000        0.0000000000000000     
  0.87500000000000000       0.87500000000000000        0.0000000000000000     
  0.87500000000000000       0.75000000000000000        0.0000000000000000     
  0.90625000000000000       0.75000000000000000        0.0000000000000000     
  0.93750000000000000       0.75000000000000000        0.0000000000000000     
  0.96875000000000000       0.75000000000000000        0.0000000000000000     
   1.0000000000000000       0.75000000000000000        0.0000000000000000     
  0.87500000000000000       0.78125000000000000        0.0000000000000000     
  0.90625000000000000       0.78125000000000000        0.0000000000000000     
  0.93750000000000000       0.78125000000000000        0.0000000000000000     
  0.96875000000000000       0.78125000000000000        0.0000000000000000     
   1.0000000000000000       0.78125000000000000        0.0000000000000000     
  0.87500000000000000       0.81250000000000000        0.0000000000000000     
  0.90625000000000000       0.81250000000000000        0.0000000000000000     
  0.93750000000000000       0.81250000000000000        0.0000000000000000     
  0.96875000000000000       0.81250000000000000        0.0000000000000000     
   1.0000000000000000       0.81250000000000000        0.0000000000000000     
  0.87500000000000000       0.84375000000000000        0.0000000000000000     
  0.90625000000000000       0.84375000000000000        0.0000000000000000     
  0.93750000000000000       0.84375000000000000        0.0000000000000000     
  0.96875000000000000       0.84375000000000000        0.0000000000000000     
   1.0000000000000000       0.84375000000000000        0.0000000000000000     
  0.87500000000000000       0.87500000000000000        0.0000000000000000     
  0.90625000000000000       0.87500000000000000        0.0000000000000000     
  0.93750000000000000       0.87500000000000000        0.0000000000000000     
  0.96875000000000000       0.87500000000000000        0.0000000000000000     
   1.0000000000000000       0.87500000000000000        0.0000000000000000     
   1.0000000000000000       0.75000000000000000        0.0000000000000000     
   1.0312500000000000       0.75000000000000000        0.0000000000000000     
   1.0625000000000000       0.75000000000000000        0.0000000000000000     
   1.0937500000000000       0.75000000000000000        0.0000000000000000     
   1.1250000000000000       0.75000000000000000        0.0000000000000000     
   1.0000000000000000       0.78125000000000000        0.0000000000000000     
   1.0312500000000000       0.78125000000000000        0.0000000000000000     
   1.0625000000000000       0.78125000000000000        0.0000000000000000     
   1.0937500000000000       0.78125000000000000        0.0000000000000000     
   1.1250000000000000       0.78125000000000000        0.0000000000000000     
   1.0000000000000000       0.81250000000000000        0.0000000000000000     
   1.0312500000000000       0.81250000000000000        0.0000000000000000     
   1.0625000000000000       0.81250000000000000        0.0000000000000000     
   1.0937500000000000       0.81250000000000000        0.0000000000000000     
   1.1250000000000000       0.81250000000000000        0.0000000000000000     
   1.0000000000000000       0.84375000000000000        0.0000000000000000     
   1.0312500000000000       0.84375000000000000        0.0000000000000000     
   1.0625000000000000       0.84375000000000000        0.0000000000000000     
   1.0937500000000000       0.84375000000000000        0.0000000000000000     
   1.1250000000000000       0.84375000000000000        0.0000000000000000     
   1.0000000000000000       0.87500000000000000        0.0000000000000000     
   1.0312500000000000       0.87500000000000000        0.0000000000000000     
   1.0625000000000000       0.87500000000000000        0.0000000000000000     
   1.0937500000000000       0.87500000000000000        0.0000000000000000     
   1.1250000000000000       0.87500000000000000        0.0000000000000000     
   1.1250000000000000       0.75000000000000000        0.0000000000000000     
   1.1562500000000000       0.75000000000000000        0.0000000000000000     
   1.1875000000000000       0.75000000000000000        0.0000000000000000     
   1.2187500000000000       0.75000000000000000        0.0000000000000000     
   1.2500000000000000       0.75000000000000000        0.0000000000000000     
   1.1250000000000000       0.78125000000000000        0.0000000000000000     
   1.1562500000000000       0.78125000000000000        0.0000000000000000     
   1.1875000000000000       0.78125000000000000        0.0000000000000000     
   1.2187500000000000       0.78125000000000000        0.0000000000000000     
   1.2500000000000000       0.78125000000000000        0.0000000000000000     
   1.1250000000000000       0.81250000000000000        0.0000000000000000     
   1.1562500000000000       0.81250000000000000        0.0000000000000000     
   1.1875000000000000       0.81250000000000000        0.0000000000000000     
   1.2187500000000000       0.81250000000000000        0.0000000000000000     
   1.2500000000000000       0.81250000000000000        0.0000000000000000     
   1.1250000000000000       0.84375000000000000        0.0000000000000000     
   1.1562500000000000       0.84375000000000000        0.0000000000000000     
   1.1875000000000000       0.84375000000000000        0.0000000000000000     
   1.2187500000000000       0.84375000000000000        0.0000000000000000     
   1.2500000000000000       0.84375000000000000        0.0000000000000000     
   1.1250000000000000       0.87500000000000000        0.0000000000000000     
   1.1562500000000000       0.87500000000000000        0.0000000000000000     
   1.1875000000000000       0.87500000000000000        0.0000000000000000     
   1.2187500000000000       0.87500000000000000        0.0000000000000000     
   1.2500000000000000       0.87500000000000000        0.0000000000000000     
   1.2500000000000000       0.75000000000000000        0.0000000000000000     
   1.2812500000000000       0.75000000000000000        0.0000000000000000     
   1.3125000000000000       0.75000000000000000        0.0000000000000000     
   1.3437500000000000       0.75000000000000000        0.0000000000000000     
   1.3750000000000000       0.75000000000000000        0.0000000000000000     
   1.2500000000000000       0.78125000000000000        0.0000000000000000     
   1.2812500000000000       0.78125000000000000        0.0000000000000000     
   1.3125000000000000       0.78125000000000000        0.0000000000000000     
   1.3437500000000000       0.78125000000000000        0.0000000000000000     
   1.3750000000000000       0.78125000000000000        0.0000000000000000     
   1.2500000000000000       0.81250000000000000        0.0000000000000000     
   1.2812500000000000       0.81250000000000000        0.0000000000000000     
   1.3125000000000000       0.81250000000000000        0.0000000000000000     
   1.3437500000000000       0.81250000000000000        0.0000000000000000     
   1.3750000000000000       0.81250000000000000        0.0000000000000000     
   1.2500000000000000       0.84375000000000000        0.0000000000000000     
   1.2812500000000000       0.84375000000000000        0.0000000000000000     
   1.3125000000000000       0.84375000000000000        0.0000000000000000     
   1.3437500000000000       0.84375000000000000        0.0000000000000000     
   1.3750000000000000       0.84375000000000000        0.0000000000000000     
   1.2500000000000000       0.87500000000000000        0.0000000000000000     
   1.2812500000000000       0.87500000000000000        0.0000000000000000     
   1.3125000000000000       0.87500000000000000        0.0000000000000000     
   1.3437500000000000       0.87500000000000000        0.0000000000000000     
   1.3750000000000000       0.87500000000000000        0.0000000000000000     
   1.3750000000000000       0.75000000000000000        0.0000000000000000     
   1.4062500000000000       0.75000000000000000        0.0000000000000000     
   1.4375000000000000       0.75000000000000000        0.0000000000000000     
   1.4687500000000000       0.75000000000000000        0.0000000000000000     
   1.5000000000000000       0.75000000000000000        0.0000000000000000     
   1.3750000000000000       0.78125000000000000        0.0000000000000000     
   1.4062500000000000       0.78125000000000000        0.0000000000000000     
   1.4375000000000000       0.78125000000000000        0.0000000000000000     
   1.4687500000000000       0.78125000000000000        0.0000000000000000     
   1.5000000000000000       0.78125000000000000        0.0000000000000000     
   1.3750000000000000       0.81250000000000000        0.0000000000000000     
   1.4062500000000000       0.81250000000000000        0.0000000000000000     
   1.4375000000000000       0.81250000000000000        0.0000000000000000     
   1.4687500000000000       0.81250000000000000        0.0000000000000000     
   1.5000000000000000       0.81250000000000000        0.0000000000000000     
   1.3750000000000000       0.84375000000000000        0.0000000000000000     
   1.4062500000000000       0.84375000000000000        0.0000000000000000     
   1.4375000000000000       0.84375000000000000        0.0000000000000000     
   1.4687500000000000       0.84375000000000000        0.0000000000000000     
   1.5000000000000000       0.84375000000000000        0.0000000000000000     
   1.3750000000000000       0.87500000000000000        0.0000000000000000     
   1.4062500000000000       0.87500000000000000        0.0000000000000000     
   1.4375000000000000       0.87500000000000000        0.0000000000000000     
   1.4687500000000000       0.87500000000000000        0.0000000000000000     
   1.5000000000000000       0.87500000000000000        0.0000000000000000     
  0.50000000000000000       0.87500000000000000        0.0000000000000000     
  0.53125000000000000       0.87500000000000000        0.0000000000000000     
  0.56250000000000000       0.87500000000000000        0.0000000000000000     
  0.59375000000000000       0.87500000000000000        0.0000000000000000     
  0.62500000000000000       0.87500000000000000        0.0000000000000000     
  0.50000000000000000       0.90625000000000000        0.0000000000000000     
  0.53125000000000000       0.90625000000000000        0.0000000000000000     
  0.56250000000000000       0.90625000000000000        0.0000000000000000     
  0.59375000000000000       0.90625000000000000        0.0000000000000000     
  0.62500000000000000       0.90625000000000000        0.0000000000000000     
  0.50000000000000000       0.93750000000000000        0.0000000000000000     
  0.53125000000000000       0.93750000000000000        0.0000000000000000     
  0.56250000000000000       0.93750000000000000        0.0000000000000000     
  0.59375000000000000       0.93750000000000000        0.0000000000000000     
  0.62500000000000000       0.93750000000000000        0.0000000000000000     
  0.50000000000000000       0.96875000000000000        0.0000000000000000     
  0.53125000000000000       0.96875000000000000        0.0000000000000000     
  0.56250000000000000       0.96875000000000000        0.0000000000000000     
  0.59375000000000000       0.96875000000000000        0.0000000000000000     
  0.62500000000000000       0.96875000000000000        0.0000000000000000     
  0.50000000000000000        1.0000000000000000        0.0000000000000000     
  0.53125000000000000        1.0000000000000000        0.0000000000000000     
  0.56250000000000000        1.0000000000000000        0.0000000000000000     
  0.59375000000000000        1.0000000000000000        0.0000000000000000     
  0.62500000000000000        1.0000000000000000        0.0000000000000000     
  0.62500000000000000       0.87500000000000000        0.0000000000000000     
  0.65625000000000000       0.87500000000000000        0.0000000000000000     
  0.68750000000000000       0.87500000000000000        0.0000000000000000     
  0.71875000000000000       0.87500000000000000        0.0000000000000000     
  0.75000000000000000       0.87500000000000000        0.0000000000000000     
  0.62500000000000000       0.90625000000000000        0.0000000000000000     
  0.65625000000000000       0.90625000000000000        0.0000000000000000     
  0.68750000000000000       0.90625000000000000        0.0000000000000000     
  0.71875000000000000       0.90625000000000000        0.0000000000000000     
  0.75000000000000000       0.90625000000000000        0.0000000000000000     
  0.62500000000000000       0.93750000000000000        0.0000000000000000     
  0.65625000000000000       0.93750000000000000        0.0000000000000000     
  0.68750000000000000       0.93750000000000000        0.0000000000000000     
  0.71875000000000000       0.93750000000000000        0.0000000000000000     
  0.75000000000000000       0.93750000000000000        0.0000000000000000     
  0.62500000000000000       0.96875000000000000        0.0000000000000000     
  0.65625000000000000       0.96875000000000000        0.0000000000000000     
  0.68750000000000000       0.96875000000000000        0.0000000000000000     
  0.71875000000000000       0.96875000000000000        0.0000000000000000     
  0.75000000000000000       0.96875000000000000        0.0000000000000000     
  0.62500000000000000        1.0000000000000000        0.0000000000000000     
  0.65625000000000000        1.0000000000000000        0.0000000000000000     
  0.68750000000000000        1.0000000000000000        0.0000000000000000     
  0.71875000000000000        1.0000000000000000        0.0000000000000000     
  0.75000000000000000        1.0000000000000000        0.0000000000000000     
  0.75000000000000000       0.87500000000000000        0.0000000000000000     
  0.78125000000000000       0.87500000000000000        0.0000000000000000     
  0.81250000000000000       0.87500000000000000        0.0000000000000000     
  0.84375000000000000       0.87500000000000000        0.0000000000000000     
  0.87500000000000000       0.87500000000000000        0.0000000000000000     
  0.75000000000000000       0.90625000000000000        0.0000000000000000     
  0.78125000000000000       0.90625000000000000        0.0000000000000000     
  0.81250000000000000       0.90625000000000000        0.0000000000000000     
  0.84375000000000000       0.90625000000000000        0.0000000000000000     
  0.87500000000000000       0.90625000000000000        0.0000000000000000     
  0.75000000000000000       0.93750000000000000        0.0000000000000000     
  0.78125000000000000       0.93750000000000000        0.0000000000000000     
  0.81250000000000000       0.93750000000000000        0.0000000000000000     
  0.84375000000000000       0.93750000000000000        0.0000000000000000     
  0.87500000000000000       0.93750000000000000        0.0000000000000000     
  0.75000000000000000       0.96875000000000000        0.0000000000000000     
  0.78125000000000000       0.96875000000000000        0.0000000000000000     
  0.81250000000000000       0.96875000000000000        0.0000000000000000     
  0.84375000000000000       0.96875000000000000        0.0000000000000000     
  0.87500000000000000       0.96875000000000000        0.0000000000000000     
  0.75000000000000000        1.0000000000000000        0.0000000000000000     
  0.78125000000000000        1.0000000000000000        0.0000000000000000     
  0.81250000000000000        1.0000000000000000        0.0000000000000000     
  0.84375000000000000        1.0000000000000000        0.0000000000000000     
  0.87500000000000000        1.0000000000000000        0.0000000000000000     
  0.87500000000000000       0.87500000000000000        0.0000000000000000     
  0.90625000000000000       0.87500000000000000        0.0000000000000000     
  0.93750000000000000       0.87500000000000000        0.0000000000000000     
  0.96875000000000000       0.87500000000000000        0.0000000000000000     
   1.0000000000000000       0.87500000000000000        0.0000000000000000     
  0.87500000000000000       0.90625000000000000        0.0000000000000000     
  0.90625000000000000       0.90625000000000000        0.0000000000000000     
  0.93750000000000000       0.90625000000000000        0.0000000000000000     
  0.96875000000000000       0.90625000000000000        0.0000000000000000     
   1.0000000000000000       0.90625000000000000        0.0000000000000000     
  0.87500000000000000       0.93750000000000000        0.0000000000000000     
  0.90625000000000000       0.93750000000000000        0.0000000000000000     
  0.93750000000000000       0.93750000000000000        0.0000000000000000     
  0.96875000000000000       0.93750000000000000        0.0000000000000000     
   1.0000000000000000       0.93750000000000000        0.0000000000000000     
  0.87500000000000000       0.96875000000000000        0.0000000000000000     
  0.90625000000000000       0.96875000000000000        0.0000000000000000     
  0.93750000000000000       0.96875000000000000        0.0000000000000000     
  0.96875000000000000       0.96875000000000000        0.0000000000000000     
   1.0000000000000000       0.96875000000000000        0.0000000000000000     
  0.87500000000000000        1.0000000000000000        0.0000000000000000     
  0.90625000000000000        1.0000000000000000        0.0000000000000000     
  0.93750000000000000        1.0000000000000000        0.0000000000000000     
  0.96875000000000000        1.0000000000000000        0.0000000000000000     
   1.0000000000000000        1.0000000000000000        0.0000000000000000     
   1.0000000000000000       0.87500000000000000        0.0000000000000000     
   1.0312500000000000       0.87500000000000000        0.0000000000000000     
   1.0625000000000000       0.87500000000000000        0.0000000000000000     
   1.0937500000000000       0.87500000000000000        0.0000000000000000     
   1.1250000000000000       0.87500000000000000        0.0000000000000000     
   1.0000000000000000       0.90625000000000000        0.0000000000000000     
   1.0312500000000000       0.90625000000000000        0.0000000000000000     
   1.0625000000000000       0.90625000000000000        0.0000000000000000     
   1.0937500000000000       0.90625000000000000        0.0000000000000000     
   1.1250000000000000       0.90625000000000000        0.0000000000000000     
   1.0000000000000000       0.93750000000000000        0.0000000000000000     
   1.0312500000000000       0.93750000000000000        0.0000000000000000     
   1.0625000000000000       0.93750000000000000        0.0000000000000000     
   1.0937500000000000       0.93750000000000000        0.0000000000000000     
   1.1250000000000000       0.93750000000000000        0.0000000000000000     
   1.0000000000000000       0.96875000000000000        0.0000000000000000     
   1.0312500000000000       0.96875000000000000        0.0000000000000000     
   1.0625000000000000       0.96875000000000000        0.0000000000000000     
   1.0937500000000000       0.96875000000000000        0.0000000000000000     
   1.1250000000000000       0.96875000000000000        0.0000000000000000     
   1.0000000000000000        1.0000000000000000        0.0000000000000000     
   1.0312500000000000        1.0000000000000000        0.0000000000000000     
   1.0625000000000000        1.0000000000000000        0.0000000000000000     
   1.0937500000000000        1.0000000000000000        0.0000000000000000     
   1.1250000000000000        1.0000000000000000        0.0000000000000000     
   1.1250000000000000       0.87500000000000000        0.0000000000000000     
   1.1562500000000000       0.87500000000000000        0.0000000000000000     
   1.1875000000000000       0.87500000000000000        0.0000000000000000     
   1.2187500000000000       0.87500000000000000        0.0000000000000000     
   1.2500000000000000       0.87500000000000000        0.0000000000000000     
   1.1250000000000000       0.90625000000000000        0.0000000000000000     
   1.1562500000000000       0.90625000000000000        0.0000000000000000     
   1.1875000000000000       0.90625000000000000        0.0000000000000000     
   1.2187500000000000       0.90625000000000000        0.0000000000000000     
   1.2500000000000000       0.90625000000000000        0.0000000000000000     
   1.1250000000000000       0.93750000000000000        0.0000000000000000     
   1.1562500000000000       0.93750000000000000        0.0000000000000000     
   1.1875000000000000       0.93750000000000000        0.0000000000000000     
   1.2187500000000000       0.93750000000000000        0.0000000000000000     
   1.2500000000000000       0.93750000000000000        0.0000000000000000     
   1.1250000000000000       0.96875000000000000        0.0000000000000000     
   1.1562500000000000       0.96875000000000000        0.0000000000000000     
   1.1875000000000000       0.96875000000000000        0.0000000000000000     
   1.2187500000000000       0.96875000000000000        0.0000000000000000     
   1.2500000000000000       0.96875000000000000        0.0000000000000000     
   1.1250000000000000        1.0000000000000000        0.0000000000000000     
   1.1562500000000000        1.0000000000000000        0.0000000000000000     
   1.1875000000000000        1.0000000000000000        0.0000000000000000     
   1.2187500000000000        1.0000000000000000        0.0000000000000000     
   1.2500000000000000        1.0000000000000000        0.0000000000000000     
   1.2500000000000000       0.87500000000000000        0.0000000000000000     
   1.2812500000000000       0.87500000000000000        0.0000000000000000     
   1.3125000000000000       0.87500000000000000        0.0000000000000000     
   1.3437500000000000       0.87500000000000000        0.0000000000000000     
   1.3750000000000000       0.87500000000000000        0.0000000000000000     
   1.2500000000000000       0.90625000000000000        0.0000000000000000     
   1.2812500000000000       0.90625000000000000        0.0000000000000000     
   1.3125000000000000       0.90625000000000000        0.0000000000000000     
   1.3437500000000000       0.90625000000000000        0.0000000000000000     
   1.3750000000000000       0.90625000000000000        0.0000000000000000     
   1.2500000000000000       0.93750000000000000        0.0000000000000000     
   1.2812500000000000       0.93750000000000000        0.0000000000000000     
   1.3125000000000000       0.93750000000000000        0.0000000000000000     
   1.3437500000000000       0.93750000000000000        0.0000000000000000     
   1.3750000000000000       0.93750000000000000        0.0000000000000000     
   1.2500000000000000       0.96875000000000000        0.0000000000000000     
   1.2812500000000000       0.96875000000000000        0.0000000000000000     
   1.3125000000000000       0.96875000000000000        0.0000000000000000     
   1.3437500000000000       0.96875000000000000        0.0000000000000000     
   1.3750000000000000       0.96875000000000000        0.0000000000000000     
   1.2500000000000000        1.0000000000000000        0.0000000000000000     
   1.2812500000000000        1.0000000000000000        0.0000000000000000     
   1.3125000000000000        1.0000000000000000        0.0000000000000000     
   1.3437500000000000        1.0000000000000000        0.0000000000000000     
   1.3750000000000000        1.0000000000000000        0.0000000000000000     
   1.3750000000000000       0.87500000000000000        0.0000000000000000     
   1.4062500000000000       0.87500000000000000        0.0000000000000000     
   1.4375000000000000       0.87500000000000000        0.0000000000000000     
   1.4687500000000000       0.87500000000000000        0.0000000000000000     
   1.5000000000000000       0.87500000000000000        0.0000000000000000     
   1.3750000000000000       0.90625000000000000        0.0000000000000000     
   1.4062500000000000       0.90625000000000000        0.0000000000000000     
   1.4375000000000000       0.90625000000000000        0.0000000000000000     
   1.4687500000000000       0.90625000000000000        0.0000000000000000     
   1.5000000000000000       0.90625000000000000        0.0000000000000000     
   1.3750000000000000       0.93750000000000000        0.0000000000000000     
   1.4062500000000000       0.93750000000000000        0.0000000000000000     
   1.4375000000000000       0.93750000000000000        0.0000000000000000     
   1.4687500000000000       0.93750000000000000        0.0000000000000000     
   1.5000000000000000       0.93750000000000000        0.0000000000000000     
   1.3750000000000000       0.96875000000000000        0.0000000000000000     
   1.4062500000000000       0.96875000000000000        0.0000000000000000     
   1.4375000000000000       0.96875000000000000        0.0000000000000000     
   1.4687500000000000       0.96875000000000000        0.0000000000000000     
   1.5000000000000000       0.96875000000000000        0.0000000000000000     
   1.3750000000000000        1.0000000000000000        0.0000000000000000     
   1.4062500000000000        1.0000000000000000        0.0000000000000000     
   1.4375000000000000        1.0000000000000000        0.0000000000000000     
   1.4687500000000000        1.0000000000000000        0.0000000000000000     
   1.5000000000000000        1.0000000000000000        0.0000000000000000     
 </DataArray>
 </Points>
 <Cells>
 <DataArray  type="Int32"  Name="connectivity"  format="ascii">
           0           1           6           5
           1           2           7           6
           2           3           8           7
           3           4           9           8
           5           6          11          10
           6           7          12          11
           7           8          13          12
           8           9          14          13
          10          11          16          15
          11          12          17          16
          12          13          18          17
          13          14          19          18
          15          16          21          20
          16          17          22          21
          17          18          23          22
          18          19          24          23
          25          26          31          30
          26          27          32          31
          27          28          33          32
          28          29          34          33
          30          31          36          35
          31          32          37          36
          32          33          38          37
          33          34          39          38
          35          36          41          40
          36          37          42          41
          37          38          43          42
          38          39          44          43
          40          41          46          45
          41          42          47          46
          42          43          48          47
          43          44          49          48
          50          51          56          55
          51          52          57          56
          52          53          58          57
          53          54          59          58
          55          56          61          60
          56          57          62          61
          57          58          63          62
          58          59          64          63
          60          61          66          65
          61          62          67          66
          62          63          68          67
          63          64          69          68
          65          66          71          70
          66          67          72          71
          67          68          73          72
          68          69          74          73
          75          76          81          80
          76          77          82          81
          77          78          83          82
          78          79          84          83
          80          81          86          85
          81          82          87          86
          82          83          88          87
          83          84          89          88
          85          86          91          90
          86          87          92          91
          87          88          93          92
          88          89          94          93
          90          91          96          95
          91          92          97          96
          92          93          98          97
          93          94          99          98
         100         101         106         105
         101         102         107         106
         102         103         108         107
         103         104         109         108
         105         106         111         110
         106         107         112         111
         107         108         113         112
         108         109         114         113
         110         111         116         115
         111         112         117         116
         112         113         118         117
         113         114         119         118
         115         116         121         120
         116         117         122         121
         117         118         123         122
         118         119         124         123
         125         126         131         130
         126         127         132         131
         127         128         133         132
         128         129         134         133
         130         131         136         135
         131         132         137         136
         132         133         138         137
         133         134         139         138
         135         136         141         140
         136         137         142         141
         137         138         143         142
         138         139         144         143
         140         141         146         145
         141         142         147         146
         142         143         148         147
         143         144         149         148
         150         151         156         155
         151         152         157         156
         152         153         158         157
         153         154         159         158
         155         156         161         160
         156         157         162         161
         157         158         163         162
         158         159         164         163
         160         161         166         165
         161         162         167         166
         162         163         168         167
         163         164         169         168
         165         166         171         170
         166         167         172         171
         167         168         173         172
         168         169         174         173
         175         176         181         180
         176         177         182         181
         177         178         183         182
         178         179         184         183
         180         181         186         185
         181         182         187         186
         182         183         188         187
         183         184         189         188
         185         186         191         190
         186         187         192         191
         187         188         193         192
         188         189         194         193
         190         191         196         195
         191         192         197         196
         192         193         198         197
         193         194         199         198
         200         201         206         205
         201         202         207         206
         202         203         208         207
         203         204         209         208
         205         206         211         210
         206         207         212         211
         207         208         213         212
         208         209         214         213
         210         211         216         215
         211         212         217         216
         212         213         218         217
         213         214         219         218
         215         216         221         220
         216         217         222         221
         217         218         223         222
         218         219         224         223
         225         226         231         230
         226         227         232         231
         227         228         233         232
         228         229         234         233
         230         231         236         235
         231         232         237         236
         232         233         238         237
         233         234         239         238
         235         236         241         240
         236         237         242         241
         237         238         243         242
         238         239         244         243
         240         241         246         245
         241         242         247         246
         242         243         248         247
         243         244         249         248
         250         251         256         255
         251         252         257         256
         252         253         258         257
         253         254         259         258
         255         256         261         260
         256         257         262         261
         257         258         263         262
         258         259         264         263
         260         261         266         265
         261         262         267         266
         262         263         268         267
         263         264         269         268
         265         266         271         270
         266         267         272         271
         267         268         273         272
         268         269         274         273
         275         276         281         280
         276         277         282         281
         277         278         283         282
         278         279         284         283
         280         281         286         285
         281         282         287         286
         282         283         288         287
         283         284         289         288
         285         286         291         290
         286         287         292         291
         287         288         293         292
         288         289         294         293
         290         291         296         295
         291         292         297         296
         292         293         298         297
         293         294         299         298
         300         301         306         305
         301         302         307         306
         302         303         308         307
         303         304         309         308
         305         306         311         310
         306         307         312         311
         307         308         313         312
         308         309         314         313
         310         311         316         315
         311         312         317         316
         312         313         318         317
         313         314         319         318
         315         316         321         320
         316         317         322         321
         317         318         323         322
         318         319         324         323
         325         326         331         330
         326         327         332         331
         327         328         333         332
         328         329         334         333
         330         331         336         335
         331         332         337         336
         332         333         338         337
         333         334         339         338
         335         336         341         340
         336         337         342         341
         337         338         343         342
         338         339         344         343
         340         341         346         345
         341         342         347         346
         342         343         348         347
         343         344         349         348
         350         351         356         355
         351         352         357         356
         352         353         358         357
         353         354         359         358
         355         356         361         360
         356         357         362         361
         357         358         363         362
         358         359         364         363
         360         361         366         365
         361         362         367         366
         362         363         368         367
         363         364         369         368
         365         366         371         370
         366         367         372         371
         367         368         373         372
         368         369         374         373
         375         376         381         380
         376         377         382         381
         377         378         383         382
         378         379         384         383
         380         381         386         385
         381         382         387         386
         382         383         388         387
         383         384         389         388
         385         386         391         390
         386         387         392         391
         387         388         393         392
         388         389         394         393
         390         391         396         395
         391         392         397         396
         392         393         398         397
         393         394         399         398
         400         401         406         405
         401         402         407         406
         402         403         408         407
         403         404         409         408
         405         406         411         410
         406         407         412         411
         407         408         413         412
         408         409         414         413
         410         411         416         415
         411         412         417         416
         412         413         418         417
         413         414         419         418
         415         416         421         420
         416         417         422         421
         417         418         423         422
         418         419         424         423
         425         426         431         430
         426         427         432         431
         427         428         433         432
         428         429         434         433
         430         431         436         435
         431         432         437         436
         432         433         438         437
         433         434         439         438
         435         436         441         440
         436         437         442         441
         437         438         443         442
         438         439         444         443
         440         441         446         445
         441         442         447         446
         442         443         448         447
         443         444         449         448
         450         451         456         455
         451         452         457         456
         452         453         458         457
         453         454         459         458
         455         456         461         460
         456         457         462         461
         457         458         463         462
         458         459         464         463
         460         461         466         465
         461         462         467         466
         462         463         468         467
         463         464         469         468
         465         466         471         470
         466         467         472         471
         467         468         473         472
         468         469         474         473
         475         476         481         480
         476         477         482         481
         477         478         483         482
         478         479         484         483
         480         481         486         485
         481         482         487         486
         482         483         488         487
         483         484         489         488
         485         486         491         490
         486         487         492         491
         487         488         493         492
         488         489         494         493
         490         491         496         495
         491         492         497         496
         492         493         498         497
         493         494         499         498
         500         501         506         505
         501         502         507         506
         502         503         508         507
         503         504         509         508
         505         506         511         510
         506         507         512         511
         507         508         513         512
         508         509         514         513
         510         511         516         515
         511         512         517         516
         512         513         518         517
         513         514         519         518
         515         516         521         520
         516         517         522         521
         517         518         523         522
         518         519         524         523
         525         526         531         530
         526         527         532         531
         527         528         533         532
         528         529         534         533
         530         531         536         535
         531         532         537         536
         532         533         538         537
         533         534         539         538
         535         536         541         540
         536         537         542         541
         537         538         543         542
         538         539         544         543
         540         541         546         545
         541         542         547         546
         542         543         548         547
         543         544         549         548
         550         551         556         555
         551         552         557         556
         552         553         558         557
         553         554         559         558
         555         556         561         560
         556         557         562         561
         557         558         563         562
         558         559         564         563
         560         561         566         565
         561         562         567         566
         562         563         568         567
         563         564         569         568
         565         566         571         570
         566         567         572         571
         567         568         573         572
         568         569         574         573
         575         576         581         580
         576         577         582         581
         577         578         583         582
         578         579         584         583
         580         581         586         585
         581         582         587         586
         582         583         588         587
         583         584         589         588
         585         586         591         590
         586         587         592         591
         587         588         593         592
         588         589         594         593
         590         591         596         595
         591         592         597         596
         592         593         598         597
         593         594         599         598
         600         601         606         605
         601         602         607         606
         602         603         608         607
         603         604         609         608
         605         606         611         610
         606         607         612         611
         607         608         613         612
         608         609         614         613
         610         611         616         615
         611         612         617         616
         612         613         618         617
         613         614         619         618
         615         616         621         620
         616         617         622         621
         617         618         623         622
         618         619         624         623
         625         626         631         630
         626         627         632         631
         627         628         633         632
         628         629         634         633
         630         631         636         635
         631         632         637         636
         632         633         638         637
         633         634         639         638
         635         636         641         640
         636         637         642         641
         637         638         643         642
         638         639         644         643
         640         641         646         645
         641         642         647         646
         642         643         648         647
         643         644         649         648
         650         651         656         655
         651         652         657         656
         652         653         658         657
         653         654         659         658
         655         656         661         660
         656         657         662         661
         657         658         663         662
         658         659         664         663
         660         661         666         665
         661         662         667         666
         662         663         668         667
         663         664         669         668
         665         666         671         670
         666         667         672         671
         667         668         673         672
         668         669         674         673
         675         676         681         680
         676         677         682         681
         677         678         683         682
         678         679         684         683
         680         681         686         685
         681         682         687         686
         682         683         688         687
         683         684         689         688
         685         686         691         690
         686         687         692         691
         687         688         693         692
         688         689         694         693
         690         691         696         695
         691         692         697         696
         692         693         698         697
         693         694         699         698
         700         701         706         705
         701         702         707         706
         702         703         708         707
         703         704         709         708
         705         706         711         710
         706         707         712         711
         707         708         713         712
         708         709         714         713
         710         711         716         715
         711         712         717         716
         712         713         718         717
         713         714         719         718
         715         716         721         720
         716         717         722         721
         717         718         723         722
         718         719         724         723
         725         726         731         730
         726         727         732         731
         727         728         733         732
         728         729         734         733
         730         731         736         735
         731         732         737         736
         732         733         738         737
         733         734         739         738
         735         736         741         740
         736         737         742         741
         737         738         743         742
         738         739         744         743
         740         741         746         745
         741         742         747         746
         742         743         748         747
         743         744         749         748
         750         751         756         755
         751         752         757         756
         752         753         758         757
         753         754         759         758
         755         756         761         760
         756         757         762         761
         757         758         763         762
         758         759         764         763
         760         761         766         765
         761         762         767         766
         762         763         768         767
         763         764         769         768
         765         766         771         770
         766         767         772         771
         767         768         773         772
         768         769         774         773
         775         776         781         780
         776         777         782         781
         777         778         783         782
         778         779         784         783
         780         781         786         785
         781         782         787         786
         782         783         788         787
         783         784         789         788
         785         786         791         790
         786         787         792         791
         787         788         793         792
         788         789         794         793
         790         791         796         795
         791         792         797         796
         792         793         798         797
         793         794         799         798
         800         801         806         805
         801         802         807         806
         802         803         808         807
         803         804         809         808
         805         806         811         810
         806         807         812         811
         807         808         813         812
         808         809         814         813
         810         811         816         815
         811         812         817         816
         812         813         818         817
         813         814         819         818
         815         816         821         820
         816         817         822         821
         817         818         823         822
         818         819         824         823
         825         826         831         830
         826         827         832         831
         827         828         833         832
         828         829         834         833
         830         831         836         835
         831         832         837         836
         832         833         838         837
         833         834         839         838
         835         836         841         840
         836         837         842         841
         837         838         843         842
         838         839         844         843
         840         841         846         845
         841         842         847         846
         842         843         848         847
         843         844         849         848
         850         851         856         855
         851         852         857         856
         852         853         858         857
         853         854         859         858
         855         856         861         860
         856         857         862         861
         857         858         863         862
         858         859         864         863
         860         861         866         865
         861         862         867         866
         862         863         868         867
         863         864         869         868
         865         866         871         870
         866         867         872         871
         867         868         873         872
         868         869         874         873
         875         876         881         880
         876         877         882         881
         877         878         883         882
         878         879         884         883
         880         881         886         885
         881         882         887         886
         882         883         888         887
         883         884         889         888
         885         886         891         890
         886         887         892         891
         887         888         893         892
         888         889         894         893
         890         891         896         895
         891         892         897         896
         892         893         898         897
         893         894         899         898
         900         901         906         905
         901         902         907         906
         902         903         908         907
         903         904         909         908
         905         906         911         910
         906         907         912         911
         907         908         913         912
         908         909         914         913
         910         911         916         915
         911         912         917         916
         912         913         918         917
         913         914         919         918
         915         916         921         920
         916         917         922         921
         917         918         923         922
         918         919         924         923
         925         926         931         930
         926         927         932         931
         927         928         933         932
         928         929         934         933
         930         931         936         935
         931         932         937         936
         932         933         938         937
         933         934         939         938
         935         936         941         940
         936         937         942         941
         937         938         943         942
         938         939         944         943
         940         941         946         945
         941         942         947         946
         942         943         948         947
         943         944         949         948
         950         951         956         955
         951         952         957         956
         952         953         958         957
         953         954         959         958
         955         956         961         960
         956         957         962         961
         957         958         963         962
         958         959         964         963
         960         961         966         965
         961         962         967         966
         962         963         968         967
         963         964         969         968
         965         966         971         970
         966         967         972         971
         967         968         973         972
         968         969         974         973
         975         976         981         980
         976         977         982         981
         977         978         983         982
         978         979         984         983
         980         981         986         985
         981         982         987         986
         982         983         988         987
         983         984         989         988
         985         986         991         990
         986         987         992         991
         987         988         993         992
         988         989         994         993
         990         991         996         995
         991         992         997         996
         992         993         998         997
         993         994         999         998
        1000        1001        1006        1005
        1001        1002        1007        1006
        1002        1003        1008        1007
        1003        1004        1009        1008
        1005        1006        1011        1010
        1006        1007        1012        1011
        1007        1008        1013        1012
        1008        1009        1014        1013
        1010        1011        1016        1015
        1011        1012        1017        1016
        1012        1013        1018        1017
        1013        1014        1019        1018
        1015        1016        1021        1020
        1016        1017        1022        1021
        1017        1018        1023        1022
        1018        1019        1024        1023
        1025        1026        1031        1030
        1026        1027        1032        1031
        1027        1028        1033        1032
        1028        1029        1034        1033
        1030        1031        1036        1035
        1031        1032        1037        1036
        1032        1033        1038        1037
        1033        1034        1039        1038
        1035        1036        1041        1040
        1036        1037        1042        1041
        1037        1038        1043        1042
        1038        1039        1044        1043
        1040        1041        1046        1045
        1041        1042        1047        1046
        1042        1043        1048        1047
        1043        1044        1049        1048
        1050        1051        1056        1055
        1051        1052        1057        1056
        1052        1053        1058        1057
        1053        1054        1059        1058
        1055        1056        1061        1060
        1056        1057        1062        1061
        1057        1058        1063        1062
        1058        1059        1064        1063
        1060        1061        1066        1065
        1061        1062        1067        1066
        1062        1063        1068        1067
        1063        1064        1069        1068
        1065        1066        1071        1070
        1066        1067        1072        1071
        1067        1068        1073        1072
        1068        1069        1074        1073
        1075        1076        1081        1080
        1076        1077        1082        1081
        1077        1078        1083        1082
        1078        1079        1084        1083
        1080        1081        1086        1085
        1081        1082        1087        1086
        1082        1083        1088        1087
        1083        1084        1089        1088
        1085        1086        1091        1090
        1086        1087        1092        1091
        1087        1088        1093        1092
        1088        1089        1094        1093
        1090        1091        1096        1095
        1091        1092        1097        1096
        1092        1093        1098        1097
        1093        1094        1099        1098
        1100        1101        1106        1105
        1101        1102        1107        1106
        1102        1103        1108        1107
        1103        1104        1109        1108
        1105        1106        1111        1110
        1106        1107        1112        1111
        1107        1108        1113        1112
        1108        1109        1114        1113
        1110        1111        1116        1115
        1111        1112        1117        1116
        1112        1113        1118        1117
        1113        1114        1119        1118
        1115        1116        1121        1120
        1116        1117        1122        1121
        1117        1118        1123        1122
        1118        1119        1124        1123
        1125        1126        1131        1130
        1126        1127        1132        1131
        1127        1128        1133        1132
        1128        1129        1134        1133
        1130        1131        1136        1135
        1131        1132        1137        1136
        1132        1133        1138        1137
        1133        1134        1139        1138
        1135        1136        1141        1140
        1136        1137        1142        1141
        1137        1138        1143        1142
        1138        1139        1144        1143
        1140        1141        1146        1145
        1141        1142        1147        1146
        1142        1143        1148        1147
        1143        1144        1149        1148
        1150        1151        1156        1155
        1151        1152        1157        1156
        1152        1153        1158        1157
        1153        1154        1159        1158
        1155        1156        1161        1160
        1156        1157        1162        1161
        1157        1158        1163        1162
        1158        1159        1164        1163
        1160        1161        1166        1165
        1161        1162        1167        1166
        1162        1163        1168        1167
        1163        1164        1169        1168
        1165        1166        1171        1170
        1166        1167        1172        1171
        1167        1168        1173        1172
        1168        1169        1174        1173
        1175        1176        1181        1180
        1176        1177        1182        1181
        1177        1178        1183        1182
        1178        1179        1184        1183
        1180        1181        1186        1185
        1181        1182        1187        1186
        1182        1183        1188        1187
        1183        1184        1189        1188
        1185        1186        1191        1190
        1186        1187        1192        1191
        1187        1188        1193        1192
        1188        1189        1194        1193
        1190        1191        1196        1195
        1191        1192        1197        1196
        1192        1193        1198        1197
        1193        1194        1199        1198
        1200        1201        1206        1205
        1201        1202        1207        1206
        1202        1203        1208        1207
        1203        1204        1209        1208
        1205        1206        1211        1210
        1206        1207        1212        1211
        1207        1208        1213        1212
        1208        1209        1214        1213
        1210        1211        1216        1215
        1211        1212        1217        1216
        1212        1213        1218        1217
        1213        1214        1219        1218
        1215        1216        1221        1220
        1216        1217        1222        1221
        1217        1218        1223        1222
        1218        1219        1224        1223
        1225        1226        1231        1230
        1226        1227        1232        1231
        1227        1228        1233        1232
        1228        1229        1234        1233
        1230        1231        1236        1235
        1231        1232        1237        1236
        1232        1233        1238        1237
        1233        1234        1239        1238
        1235        1236        1241        1240
        1236        1237        1242        1241
        1237        1238        1243        1242
        1238        1239        1244        1243
        1240        1241        1246        1245
        1241        1242        1247        1246
        1242        1243        1248        1247
        1243        1244        1249        1248
        1250        1251        1256        1255
        1251        1252        1257        1256
        1252        1253        1258        1257
        1253        1254        1259        1258
        1255        1256        1261        1260
        1256        1257        1262        1261
        1257        1258        1263        1262
        1258        1259        1264        1263
        1260        1261        1266        1265
        1261        1262        1267        1266
        1262        1263        1268        1267
        1263        1264        1269        1268
        1265        1266        1271        1270
        1266        1267        1272        1271
        1267        1268        1273        1272
        1268        1269        1274        1273
        1275        1276        1281        1280
        1276        1277        1282        1281
        1277        1278        1283        1282
        1278        1279        1284        1283
        1280        1281        1286        1285
        1281        1282        1287        1286
        1282        1283        1288        1287
        1283        1284        1289        1288
        1285        1286        1291        1290
        1286        1287        1292        1291
        1287        1288        1293        1292
        1288        1289        1294        1293
        1290        1291        1296        1295
        1291        1292        1297        1296
        1292        1293        1298        1297
        1293        1294        1299        1298
        1300        1301        1306        1305
        1301        1302        1307        1306
        1302        1303        1308        1307
        1303        1304        1309        1308
        1305        1306        1311        1310
        1306        1307        1312        1311
        1307        1308        1313        1312
        1308        1309        1314        1313
        1310        1311        1316        1315
        1311        1312        1317        1316
        1312        1313        1318        1317
        1313        1314        1319        1318
        1315        1316        1321        1320
        1316        1317        1322        1321
        1317        1318        1323        1322
        1318        1319        1324        1323
        1325        1326        1331        1330
        1326        1327        1332        1331
        1327        1328        1333        1332
        1328        1329        1334        1333
        1330        1331        1336        1335
        1331        1332        1337        1336
        1332        1333        1338        1337
        1333        1334        1339        1338
        1335        1336        1341        1340
        1336        1337        1342        1341
        1337        1338        1343        1342
        1338        1339        1344        1343
        1340        1341        1346        1345
        1341        1342        1347        1346
        1342        1343        1348        1347
        1343        1344        1349        1348
        1350        1351        1356        1355
        1351        1352        1357        1356
        1352        1353        1358        1357
        1353        1354        1359        1358
        1355        1356        1361        1360
        1356        1357        1362        1361
        1357        1358        1363        1362
        1358        1359        1364        1363
        1360        1361        1366        1365
        1361        1362        1367        1366
        1362        1363        1368        1367
        1363        1364        1369        1368
        1365        1366        1371        1370
        1366        1367        1372        1371
        1367        1368        1373        1372
        1368        1369        1374        1373
        1375        1376        1381        1380
        1376        1377        1382        1381
        1377        1378        1383        1382
        1378        1379        1384        1383
        1380        1381        1386        1385
        1381        1382        1387        1386
        1382        1383        1388        1387
        1383        1384        1389        1388
        1385        1386        1391        1390
        1386        1387        1392        1391
        1387        1388        1393        1392
        1388        1389        1394        1393
        1390        1391        1396        1395
        1391        1392        1397        1396
        1392        1393        1398        1397
        1393        1394        1399        1398
        1400        1401        1406        1405
        1401        1402        1407        1406
        1402        1403        1408        1407
        1403        1404        1409        1408
        1405        1406        1411        1410
        1406        1407        1412        1411
        1407        1408        1413        1412
        1408        1409        1414        1413
        1410        1411        1416        1415
        1411        1412        1417        1416
        1412        1413        1418        1417
        1413        1414        1419        1418
        1415        1416        1421        1420
        1416        1417        1422        1421
        1417        1418        1423        1422
        1418        1419        1424        1423
        1425        1426        1431        1430
        1426        1427        1432        1431
        1427        1428        1433        1432
        1428        1429        1434        1433
        1430        1431        1436        1435
        1431        1432        1437        1436
        1432        1433        1438        1437
        1433        1434        1439        1438
        1435        1436        1441        1440
        1436        1437        1442        1441
        1437        1438        1443        1442
        1438        1439        1444        1443
        1440        1441        1446        1445
        1441        1442        1447        1446
        1442        1443        1448        1447
        1443        1444        1449        1448
        1450        1451        1456        1455
        1451        1452        1457        1456
        1452        1453        1458        1457
        1453        1454        1459        1458
        1455        1456        1461        1460
        1456        1457        1462        1461
        1457        1458        1463        1462
        1458        1459        1464        1463
        1460        1461        1466        1465
        1461        1462        1467        1466
        1462        1463        1468        1467
        1463        1464        1469        1468
        1465        1466        1471        1470
        1466        1467        1472        1471
        1467        1468        1473        1472
        1468        1469        1474        1473
        1475        1476        1481        1480
        1476        1477        1482        1481
        1477        1478        1483        1482
        1478        1479        1484        1483
        1480        1481        1486        1485
        1481        1482        1487        1486
        1482        1483        1488        1487
        1483        1484        1489        1488
        1485        1486        1491        1490
        1486        1487        1492        1491
        1487        1488        1493        1492
        1488        1489        1494        1493
        1490        1491        1496        1495
        1491        1492        1497        1496
        1492        1493        1498        1497
        1493        1494        1499        1498
        1500        1501        1506        1505
        1501        1502        1507        1506
        1502        1503        1508        1507
        1503        1504        1509        1508
        1505        1506        1511        1510
        1506        1507        1512        1511
        1507        1508        1513        1512
        1508        1509        1514        1513
        1510        1511        1516        1515
        1511        1512        1517        1516
        1512        1513        1518        1517
        1513        1514        1519        1518
        1515        1516        1521        1520
        1516        1517        1522        1521
        1517        1518        1523        1522
        1518        1519        1524        1523
        1525        1526        1531        1530
        1526        1527        1532        1531
        1527        1528        1533        1532
        1528        1529        1534        1533
        1530        1531        1536        1535
        1531        1532        1537        1536
        1532        1533        1538        1537
        1533        1534        1539        1538
        1535        1536        1541        1540
        1536        1537        1542        1541
        1537        1538        1543        1542
        1538        1539        1544        1543
        1540        1541        1546        1545
        1541        1542        1547        1546
        1542        1543        1548        1547
        1543        1544        1549        1548
        1550        1551        1556        1555
        1551        1552        1557        1556
        1552        1553        1558        1557
        1553        1554        1559        1558
        1555        1556        1561        1560
        1556        1557        1562        1561
        1557        1558        1563        1562
        1558        1559        1564        1563
        1560        1561        1566        1565
        1561        1562        1567        1566
        1562        1563        1568        1567
        1563        1564        1569        1568
        1565        1566        1571        1570
        1566        1567        1572        1571
        1567        1568        1573        1572
        1568        1569        1574        1573
        1575        1576        1581        1580
        1576        1577        1582        1581
        1577        1578        1583        1582
        1578        1579        1584        1583
        1580        1581        1586        1585
        1581        1582        1587        1586
        1582        1583        1588        1587
        1583        1584        1589        1588
        1585        1586        1591        1590
        1586        1587        1592        1591
        1587        1588        1593        1592
        1588        1589        1594        1593
        1590        1591        1596        1595
        1591        1592        1597        1596
        1592        1593        1598        1597
        1593        1594        1599        1598
 </DataArray>
 <DataArray  type="Int32"  Name="offsets"  format="ascii"> 
           4
           8
          12
          16
          20
          24
          28
          32
          36
          40
          44
          48
          52
          56
          60
          64
          68
          72
          76
          80
          84
          88
          92
          96
         100
         104
         108
         112
         116
         120
         124
         128
         132
         136
         140
         144
         148
         152
         156
         160
         164
         168
         172
         176
         180
         184
         188
         192
         196
         200
         204
         208
         212
         216
         220
         224
         228
         232
         236
         240
         244
         248
         252
         256
         260
         264
         268
         272
         276
         280
         284
         288
         292
         296
         300
         304
         308
         312
         316
         320
         324
         328
         332
         336
         340
         344
         348
         352
         356
         360
         364
         368
         372
         376
         380
         384
         388
         392
         396
         400
         404
         408
         412
         416
         420
         424
         428
         432
         436
         440
         444
         448
         452
         456
         460
         464
         468
         472
         476
         480
         484
         488
         492
         496
         500
         504
         508
         512
         516
         520
         524
         528
         532
         536
         540
         544
         548
         552
         556
         560
         564
         568
         572
         576
         580
         584
         588
         592
         596
         600
         604
         608
         612
         616
         620
         624
         628
         632
         636
         640
         644
         648
         652
         656
         660
         664
         668
         672
         676
         680
         684
         688
         692
         696
         700
         704
         708
         712
         716
         720
         724
         728
         732
         736
         740
         744
         748
         752
         756
         760
         764
         768
         772
         776
         780
         784
         788
         792
         796
         800
         804
         808
         812
         816
         820
         824
         828
         832
         836
         840
         844
         848
         852
         856
         860
         864
         868
         872
         876
         880
         884
         888
         892
         896
         900
         904
         908
         912
         916
         920
         924
         928
         932
         936
         940
         944
         948
         952
         956
         960
         964
         968
         972
         976
         980
         984
         988
         992
         996
        1000
        1004
        1008
        1012
        1016
        1020
        1024
        1028
        1032
        1036
        1040
        1044
        1048
        1052
        1056
        1060
        1064
        1068
        1072
        1076
        1080
        1084
        1088
        1092
        1096
        1100
        1104
        1108
        1112
        1116
        1120
        1124
        1128
        1132
        1136
        1140
        1144
        1148
        1152
        1156
        1160
        1164
        1168
        1172
        1176
        1180
        1184
        1188
        1192
        1196
        1200
        1204
        1208
        1212
        1216
        1220
        1224
        1228
        1232
        1236
        1240
        1244
        1248
        1252
        1256
        1260
        1264
        1268
        1272
        1276
        1280
        1284
        1288
        1292
        1296
        1300
        1304
        1308
        1312
        1316
        1320
        1324
        1328
        1332
        1336
        1340
        1344
        1348
        1352
        1356
        1360
        1364
        1368
        1372
        1376
        1380
        1384
        1388
        1392
        1396
        1400
        1404
        1408
        1412
        1416
        1420
        1424
        1428
        1432
        1436
        1440
        1444
        1448
        1452
        1456
        1460
        1464
        1468
        1472
        1476
        1480
        1484
        1488
        1492
        1496
        1500
        1504
        1508
        1512
        1516
        1520
        1524
        1528
        1532
        1536
        1540
        1544
        1548
        1552
        1556
        1560
        1564
        1568
        1572
        1576
        1580
        1584
        1588
        1592
        1596
        1600
        1604
        1608
        1612
        1616
        1620
        1624
        1628
        1632
        1636
        1640
        1644
        1648
        1652
        1656
        1660
        1664
        1668
        1672
        1676
        1680
        1684
        1688
        1692
        1696
        1700
        1704
        1708
        1712
        1716
        1720
        1724
        1728
        1732
        1736
        1740
        1744
        1748
        1752
        1756
        1760
        1764
        1768
        1772
        1776
        1780
        1784
        1788
        1792
        1796
        1800
        1804
        1808
        1812
        1816
        1820
        1824
        1828
        1832
        1836
        1840
        1844
        1848
        1852
        1856
        1860
        1864
        1868
        1872
        1876
        1880
        1884
        1888
        1892
        1896
        1900
        1904
        1908
        1912
        1916
        1920
        1924
        1928
        1932
        1936
        1940
        1944
        1948
        1952
        1956
        1960
        1964
        1968
        1972
        1976
        1980
        1984
        1988
        1992
        1996
        2000
        2004
        2008
        2012
        2016
        2020
        2024
        2028
        2032
        2036
        2040
        2044
        2048
        2052
        2056
        2060
        2064
        2068
        2072
        2076
        2080
        2084
        2088
        2092
        2096
        2100
        2104
        2108
        2112
        2116
        2120
        2124
        2128
        2132
        2136
        2140
        2144
        2148
        2152
        2156
        2160
        2164
        2168
        2172
        2176
        2180
        2184
        2188
        2192
        2196
        2200
        2204
        2208
        2212
        2216
        2220
        2224
        2228
        2232
        2236
        2240
        2244
        2248
        2252
        2256
        2260
        2264
        2268
        2272
        2276
        2280
        2284
        2288
        2292
        2296
        2300
        2304
        2308
        2312
        2316
        2320
        2324
        2328
        2332
        2336
        2340
        2344
        2348
        2352
        2356
        2360
        2364
        2368
        2372
        2376
        2380
        2384
        2388
        2392
        2396
        2400
        2404
        2408
        2412
        2416
        2420
        2424
        2428
        2432
        2436
        2440
        2444
        2448
        2452
        2456
        2460
        2464
        2468
        2472
        2476
        2480
        2484
        2488
        2492
        2496
        2500
        2504
        2508
        2512
        2516
        2520
        2524
        2528
        2532
        2536
        2540
        2544
        2548
        2552
        2556
        2560
        2564
        2568
        2572
        2576
        2580
        2584
        2588
        2592
        2596
        2600
        2604
        2608
        2612
        2616
        2620
        2624
        2628
        2632
        2636
        2640
        2644
        2648
        2652
        2656
        2660
        2664
        2668
        2672
        2676
        2680
        2684
        2688
        2692
        2696
        2700
        2704
        2708
        2712
        2716
        2720
        2724
        2728
        2732
        2736
        2740
        2744
        2748
        2752
        2756
        2760
        2764
        2768
        2772
        2776
        2780
        2784
        2788
        2792
        2796
        2800
        2804
        2808
        2812
        2816
        2820
        2824
        2828
        2832
        2836
        2840
        2844
        2848
        2852
        2856
        2860
        2864
        2868
        2872
        2876
        2880
        2884
        2888
        2892
        2896
        2900
        2904
        2908
        2912
        2916
        2920
        2924
        2928
        2932
        2936
        2940
        2944
        2948
        2952
        2956
        2960
        2964
        2968
        2972
        2976
        2980
        2984
        2988
        2992
        2996
        3000
        3004
        3008
        3012
        3016
        3020
        3024
        3028
        3032
        3036
        3040
        3044
        3048
        3052
        3056
        3060
        3064
        3068
        3072
        3076
        3080
        3084
        3088
        3092
        3096
        3100
        3104
        3108
        3112
        3116
        3120
        3124
        3128
        3132
        3136
        3140
        3144
        3148
        3152
        3156
        3160
        3164
        3168
        3172
        3176
        3180
        3184
        3188
        3192
        3196
        3200
        3204
        3208
        3212
        3216
        3220
        3224
        3228
        3232
        3236
        3240
        3244
        3248
        3252
        3256
        3260
        3264
        3268
        3272
        3276
        3280
        3284
        3288
        3292
        3296
        3300
        3304
        3308
        3312
        3316
        3320
        3324
        3328
        3332
        3336
        3340
        3344
        3348
        3352
        3356
        3360
        3364
        3368
        3372
        3376
        3380
        3384
        3388
        3392
        3396
        3400
        3404
        3408
        3412
        3416
        3420
        3424
        3428
        3432
        3436
        3440
        3444
        3448
        3452
        3456
        3460
        3464
        3468
        3472
        3476
        3480
        3484
        3488
        3492
        3496
        3500
        3504
        3508
        3512
        3516
        3520
        3524
        3528
        3532
        3536
        3540
        3544
        3548
        3552
        3556
        3560
        3564
        3568
        3572
        3576
        3580
        3584
        3588
        3592
        3596
        3600
        3604
        3608
        3612
        3616
        3620
        3624
        3628
        3632
        3636
        3640
        3644
        3648
        3652
        3656
        3660
        3664
        3668
        3672
        3676
        3680
        3684
        3688
        3692
        3696
        3700
        3704
        3708
        3712
        3716
        3720
        3724
        3728
        3732
        3736
        3740
        3744
        3748
        3752
        3756
        3760
        3764
        3768
        3772
        3776
        3780
        3784
        3788
        3792
        3796
        3800
        3804
        3808
        3812
        3816
        3820
        3824
        3828
        3832
        3836
        3840
        3844
        3848
        3852
        3856
        3860
        3864
        3868
        3872
        3876
        3880
        3884
        3888
        3892
        3896
        3900
        3904
        3908
        3912
        3916
        3920
        3924
        3928
        3932
        3936
        3940
        3944
        3948
        3952
        3956
        3960
        3964
        3968
        3972
        3976
        3980
        3984
        3988
        3992
        3996
        4000
        4004
        4008
        4012
        4016
        4020
        4024
        4028
        4032
        4036
        4040
        4044
        4048
        4052
        4056
        4060
        4064
        4068
        4072
        4076
        4080
        4084
        4088
        4092
        4096
 </DataArray>
 <DataArray  type="UInt8"  Name="types"  format="ascii">
 9
 9
 9
 9
 9
 9
 9
 9
 9
 9
 9
 9
 9
 9
 9
 9
 9
 9
 9
 9
 9
 9
 9
 9
 9
 9
 9
 9
 9
 9
 9
 9
 9
 9
 9
 9
 9
 9
 9
 9
 9
 9
 9
 9
 9
 9
 9
 9
 9
 9
 9
 9
 9
 9
 9
 9
 9
 9
 9
 9
 9
 9
 9
 9
 9
 9
 9
 9
 9
 9
 9
 9
 9
 9
 9
 9
 9
 9
 9
 9
 9
 9
 9
 9
 9
 9
 9
 9
 9
 9
 9
 9
 9
 9
 9
 9
 9
 9
 9
 9
 9
 9
 9
 9
 9
 9
 9
 9
 9
 9
 9
 9
 9
 9
 9
 9
 9
 9
 9
 9
 9
 9
 9
 9
 9
 9
 9
 9
 9
 9
 9
 9
 9
 9
 9
 9
 9
 9
 9
 9
 9
 9
 9
 9
 9
 9
 9
 9
 9
 9
 9
 9
 9
 9
 9
 9
 9
 9
 9
 9
 9
 9
 9
 9
 9
 9
 9
 9
 9
 9
 9
 9
 9
 9
 9
 9
 9
 9
 9
 9
 9
 9
 9
 9
 9
 9
 9
 9
 9
 9
 9
 9
 9
 9
 9
 9
 9
 9
 9
 9
 9
 9
 9
 9
 9
 9
 9
 9
 9
 9
 9
 9
 9
 9
 9
 9
 9
 9
 9
 9
 9
 9
 9
 9
 9
 9
 9
 9
 9
 9
 9
 9
 9
 9
 9
 9
 9
 9
 9
 9
 9
 9
 9
 9
 9
 9
 9
 9
 9
 9
 9
 9
 9
 9
 9
 9
 9
 9
 9
 9
 9
 9
 9
 9
 9
 9
 9
 9
 9
 9
 9
 9
 9
 9
 9
 9
 9
 9
 9
 9
 9
 9
 9
 9
 9
 9
 9
 9
 9
 9
 9
 9
 9
 9
 9
 9
 9
 9
 9
 9
 9
 9
 9
 9
 9
 9
 9
 9
 9
 9
 9
 9
 9
 9
 9
 9
 9
 9
 9
 9
 9
 9
 9
 9
 9
 9
 9
 9
 9
 9
 9
 9
 9
 9
 9
 9
 9
 9
 9
 9
 9
 9
 9
 9
 9
 9
 9
 9
 9
 9
 9
 9
 9
 9
 9
 9
 9
 9
 9
 9
 9
 9
 9
 9
 9
 9
 9
 9
 9
 9
 9
 9
 9
 9
 9
 9
 9
 9
 9
 9
 9
 9
 9
 9
 9
 9
 9
 9
 9
 9
 9
 9
 9
 9
 9
 9
 9
 9
 9
 9
 9
 9
 9
 9
 9
 9
 9
 9
 9
 9
 9
 9
 9
 9
 9
 9
 9
 9
 9
 9
 9
 9
 9
 9
 9
 9
 9
 9
 9
 9
 9
 9
 9
 9
 9
 9
 9
 9
 9
 9
 9
 9
 9
 9
 9
 9
 9
 9
 9
 9
 9
 9
 9
 9
 9
 9
 9
 9
 9
 9
 9
 9
 9
 9
 9
 9
 9
 9
 9
 9
 9
 9
 9
 9
 9
 9
 9
 9
 9
 9
 9
 9
 9
 9
 9
 9
 9
 9
 9
 9
 9
 9
 9
 9
 9
 9
 9
 9
 9
 9
 9
 9
 9
 9
 9
 9
 9
 9
 9
 9
 9
 9
 9
 9
 9
 9
 9
 9
 9
 9
 9
 9
 9
 9
 9
 9
 9
 9
 9
 9
 9
 9
 9
 9
 9
 9
 9
 9
 9
 9
 9
 9
 9
 9
 9
 9
 9
 9
 9
 9
 9
 9
 9
 9
 9
 9
 9
 9
 9
 9
 9
 9
 9
 9
 9
 9
 9
 9
 9
 9
 9
 9
 9
 9
 9
 9
 9
 9
 9
 9
 9
 9
 9
 9
 9
 9
 9
 9
 9
 9
 9
 9
 9
 9
 9
 9
 9
 9
 9
 9
 9
 9
 9
 9
 9
 9
 9
 9
 9
 9
 9
 9
 9
 9
 9
 9
 9
 9
 9
 9
 9
 9
 9
 9
 9
 9
 9
 9
 9
 9
 9
 9
 9
 9
 9
 9
 9
 9
 9
 9
 9
 9
 9
 9
 9
 9
 9
 9
 9
 9
 9
 9
 9
 9
 9
 9
 9
 9
 9
 9
 9
 9
 9
 9
 9
 9
 9
 9
 9
 9
 9
 9
 9
 9
 9
 9
 9
 9
 9
 9
 9
 9
 9
 9
 9
 9
 9
 9
 9
 9
 9
 9
 9
 9
 9
 9
 9
 9
 9
 9
 9
 9
 9
 9
 9
 9
 9
 9
 9
 9
 9
 9
 9
 9
 9
 9
 9
 9
 9
 9
 9
 9
 9
 9
 9
 9
 9
 9
 9
 9
 9
 9
 9
 9
 9
 9
 9
 9
 9
 9
 9
 9
 9
 9
 9
 9
 9
 9
 9
 9
 9
 9
 9
 9
 9
 9
 9
 9
 9
 9
 9
 9
 9
 9
 9
 9
 9
 9
 9
 9
 9
 9
 9
 9
 9
 9
 9
 9
 9
 9
 9
 9
 9
 9
 9
 9
 9
 9
 9
 9
 9
 9
 9
 9
 9
 9
 9
 9
 9
 9
 9
 9
 9
 9
 9
 9
 9
 9
 9
 9
 9
 9
 9
 9
 9
 9
 9
 9
 9
 9
 9
 9
 9
 9
 9
 9
 9
 9
 9
 9
 9
 9
 9
 9
 9
 9
 9
 9
 9
 9
 9
 9
 9
 9
 9
 9
 9
 9
 9
 9
 9
 9
 9
 9
 9
 9
 9
 9
 9
 9
 9
 9
 9
 9
 9
 9
 9
 9
 9
 9
 9
 9
 9
 9
 9
 9
 9
 9
 9
 9
 9
 9
 9
 9
 9
 9
 9
 9
 9
 9
 9
 9
 9
 9
 9
 9
 9
 9
 9
 9
 9
 9
 9
 9
 9
 9
 9
 9
 9
 9
 9
 9
 9
 9
 9
 9
 9
 9
 9
 9
 9
 9
 9
 9
 9
 9
 9
 9
 9
 9
 9
 9
 9
 9
 9
 9
 9
 9
 9
 9
 9
 9
 9
 9
 9
 9
 9
 9
 9
 9
 9
 9
 9
 9
 9
 9
 9
 9
 9
 9
 9
 9
 9
 9
 9
 9
 9
 9
 9
 9
 9
 9
 9
 9
 9
 9
 9
 9
 9
 9
 9
 9
 9
 9
 9
 9
 9
 9
 9
 9
 9
 9
 9
 9
 9
 9
 9
 9
 9
 9
 9
 9
 9
 9
 9
 9
 9
 9
 9
 9
 9
 9
 9
 9
 9
 9
 9
 9
 9
 9
 9
 9
 9
 9
 </DataArray>
 </Cells> 
 <PointData>
 <DataArray  type="Float64" Name="disp" NumberOfComponents="3" format="ascii">
   7.8174369135235094E-002   5.5759733598655506E-002   0.0000000000000000     
   7.8320051040780353E-002   6.3898166609898055E-002   0.0000000000000000     
   7.8921182645945429E-002   7.1503957155034215E-002   0.0000000000000000     
   7.9977763950730307E-002   7.8577105234063999E-002   0.0000000000000000     
   8.1489794955135017E-002   8.5117610846987407E-002   0.0000000000000000     
   6.8234172393972836E-002   5.6609079631565841E-002   0.0000000000000000     
   6.9193005684626968E-002   6.4128676548037791E-002   0.0000000000000000     
   7.0466663826379020E-002   7.1285959366974197E-002   0.0000000000000000     
   7.2055146819228991E-002   7.8080928088375023E-002   0.0000000000000000     
   7.3958454663176826E-002   8.4513582712240298E-002   0.0000000000000000     
   5.9715117830536679E-002   5.7398759024736262E-002   0.0000000000000000     
   6.1188077610855297E-002   6.4324417206932133E-002   0.0000000000000000     
   6.2882290047490005E-002   7.1050997809108535E-002   0.0000000000000000     
   6.4797755140440796E-002   7.7578500831265468E-002   0.0000000000000000     
   6.6934472889707691E-002   8.3906926273402904E-002   0.0000000000000000     
   5.2617205444926665E-002   5.8128771778166763E-002   0.0000000000000000     
   5.4305266819465327E-002   6.4485388586581038E-002   0.0000000000000000     
   5.6168061309278365E-002   7.0799072481437228E-002   0.0000000000000000     
   5.8205588914365787E-002   7.7069823462735276E-002   0.0000000000000000     
   6.0417849634727586E-002   8.3297641530475225E-002   0.0000000000000000     
   4.6940435237142766E-002   5.8799117891857350E-002   0.0000000000000000     
   4.8544573310457056E-002   6.4611590686984563E-002   0.0000000000000000     
   5.0323977611744113E-002   7.0530183383960290E-002   0.0000000000000000     
   5.2278648141003942E-002   7.6554895982784518E-002   0.0000000000000000     
   5.4408584898236544E-002   8.2685728483457260E-002   0.0000000000000000     
   8.1489794955135017E-002   8.5117610846987407E-002   0.0000000000000000     
   8.3275313976782367E-002   9.1429421269204891E-002   0.0000000000000000     
   8.5152359333295208E-002   9.7816483776116930E-002   0.0000000000000000     
   8.7120931024673567E-002  0.10427879836772352        0.0000000000000000     
   8.9181029050917404E-002  0.11081636504402465        0.0000000000000000     
   7.3958454663176826E-002   8.4513582712240298E-002   0.0000000000000000     
   7.6015814904193818E-002   9.0806793220190293E-002   0.0000000000000000     
   7.8066455088251191E-002   9.7183429593845266E-002   0.0000000000000000     
   8.0110375215348945E-002  0.10364349183320523        0.0000000000000000     
   8.2147575285487079E-002  0.11018697993827019        0.0000000000000000     
   6.6934472889707691E-002   8.3906926273402904E-002   0.0000000000000000     
   6.9145438389583286E-002   9.0182884652914380E-002   0.0000000000000000     
   7.1283646734360204E-002   9.6552986487193446E-002   0.0000000000000000     
   7.3349097924038431E-002  0.10301723177624009        0.0000000000000000     
   7.5341791958618010E-002  0.10957562052005425        0.0000000000000000     
   6.0417849634727586E-002   8.3297641530475225E-002   0.0000000000000000     
   6.2664184432950742E-002   8.9557695567377235E-002   0.0000000000000000     
   6.4803934271622218E-002   9.5925154456161510E-002   0.0000000000000000     
   6.6837099150742041E-002  0.10240001819682802        0.0000000000000000     
   6.8763679070310182E-002  0.10898228678937680        0.0000000000000000     
   5.4408584898236544E-002   8.2685728483457260E-002   0.0000000000000000     
   5.6572053034296216E-002   8.8931225963578817E-002   0.0000000000000000     
   5.8627317700037283E-002   9.5299933500749431E-002   0.0000000000000000     
   6.0574378895459732E-002  0.10179185109496910        0.0000000000000000     
   6.2413236620563597E-002  0.10840697874623789        0.0000000000000000     
   8.9181029050917404E-002  0.11081636504402465        0.0000000000000000     
   9.1263761404105859E-002  0.11747381464250242        0.0000000000000000     
   9.3300236076318072E-002  0.12429577800063893        0.0000000000000000     
   9.5290453067554043E-002  0.13128225511843417        0.0000000000000000     
   9.7234412377813745E-002  0.13843324599588813        0.0000000000000000     
   8.2147575285487079E-002  0.11018697993827019        0.0000000000000000     
   8.4154473463869880E-002  0.11685605699970678        0.0000000000000000     
   8.6107487915701608E-002  0.12369288610818166        0.0000000000000000     
   8.8006618640982248E-002  0.13069746726369483        0.0000000000000000     
   8.9851865639711814E-002  0.13786980046624628        0.0000000000000000     
   7.5341791958618010E-002  0.10957562052005425        0.0000000000000000     
   7.7268023680038406E-002  0.11626522830854555        0.0000000000000000     
   7.9134087930239058E-002  0.12312313073162356        0.0000000000000000     
   8.0939984709219995E-002  0.13014932778928825        0.0000000000000000     
   8.2685714016981202E-002  0.13734381948153968        0.0000000000000000     
   6.8763679070310182E-002  0.10898228678937680        0.0000000000000000     
   7.0604412052611407E-002  0.11570132856901870        0.0000000000000000     
   7.2380036119930422E-002  0.12258651187096457        0.0000000000000000     
   7.4090551272267269E-002  0.12963783669521445        0.0000000000000000     
   7.5735957509621893E-002  0.13685530304176827        0.0000000000000000     
   6.2413236620563597E-002  0.10840697874623789        0.0000000000000000     
   6.4163638581588897E-002  0.11516435778112626        0.0000000000000000     
   6.5845332484775712E-002  0.12208302952620477        0.0000000000000000     
   6.7458318330124042E-002  0.12916299398147338        0.0000000000000000     
   6.9002596117633888E-002  0.13640425114693217        0.0000000000000000     
   9.7234412377813745E-002  0.13843324599588813        0.0000000000000000     
   9.9100977552872394E-002  0.14573010983530654        0.0000000000000000     
  0.10085901213850514       0.15315420583899511        0.0000000000000000     
  0.10250851613471199       0.16070553400695378        0.0000000000000000     
  0.10404948954149294       0.16838409433918261        0.0000000000000000     
   8.9851865639711814E-002  0.13786980046624628        0.0000000000000000     
   9.1622290531350584E-002  0.14519066053372259        0.0000000000000000     
   9.3296954935358820E-002  0.15264082228401041        0.0000000000000000     
   9.4875858851736508E-002  0.16022028571710967        0.0000000000000000     
   9.6359002280483622E-002  0.16792905083302040        0.0000000000000000     
   8.2685714016981202E-002  0.13734381948153968        0.0000000000000000     
   8.4358336245574206E-002  0.14468777217100312        0.0000000000000000     
   8.5944911787050507E-002  0.15216235222030400        0.0000000000000000     
   8.7445440641410119E-002  0.15976755962944228        0.0000000000000000     
   8.8859922808653000E-002  0.16750339439841794        0.0000000000000000     
   7.5735957509621893E-002  0.13685530304176827        0.0000000000000000     
   7.7309114695543260E-002  0.14422144474714810        0.0000000000000000     
   7.8802882693580226E-002  0.15171879564787588        0.0000000000000000     
   8.0217261503732845E-002  0.15934735574395156        0.0000000000000000     
   8.1552251126001063E-002  0.16710712503537525        0.0000000000000000     
   6.9002596117633888E-002  0.13640425114693217        0.0000000000000000     
   7.0474625881257705E-002  0.14379167826215755        0.0000000000000000     
   7.1870867654947962E-002  0.15131015256672603        0.0000000000000000     
   7.3191321438704673E-002  0.15895967406063763        0.0000000000000000     
   7.4435987232527812E-002  0.16674024274389232        0.0000000000000000     
  0.10404948954149294       0.16838409433918261        0.0000000000000000     
  0.10550034972705011       0.17616174931607503        0.0000000000000000     
  0.10687951405958561       0.18401036141802446        0.0000000000000000     
  0.10818698253909945       0.19192993064503094        0.0000000000000000     
  0.10942275516559161       0.19992045699709443        0.0000000000000000     
   9.6359002280483622E-002  0.16792905083302040        0.0000000000000000     
   9.7754461627724498E-002  0.17573700624151248        0.0000000000000000     
   9.9070313299583365E-002  0.18361404055235578        0.0000000000000000     
  0.10030655729606022       0.19156015376555027        0.0000000000000000     
  0.10146319361715510       0.19957534588109599        0.0000000000000000     
   8.8859922808653000E-002  0.16750339439841794        0.0000000000000000     
   9.0189320331142159E-002  0.17533864815987735        0.0000000000000000     
   9.1434595251240508E-002  0.18324211254646666        0.0000000000000000     
   9.2595747568948047E-002  0.19121378755818599        0.0000000000000000     
   9.3672777284264819E-002  0.19925367319503520        0.0000000000000000     
   8.1552251126001063E-002  0.16710712503537525        0.0000000000000000     
   8.2804925837303089E-002  0.17496667507116953        0.0000000000000000     
   8.3972359914557038E-002  0.18289457740035714        0.0000000000000000     
   8.5054553357762921E-002  0.19089083202293800        0.0000000000000000     
   8.6051506166920713E-002  0.19895543893891213        0.0000000000000000     
   7.4435987232527812E-002  0.16674024274389232        0.0000000000000000     
   7.5601278146207276E-002  0.17462108697538917        0.0000000000000000     
   7.6683607289532940E-002  0.18257143511402718        0.0000000000000000     
   7.7682974662504803E-002  0.19059128715980639        0.0000000000000000     
   7.8599380265122865E-002  0.19868064311272671        0.0000000000000000     
  0.10942275516559161       0.19992045699709443        0.0000000000000000     
  0.11058951696316115       0.20798730247718852        0.0000000000000000     
  0.11168995295590714       0.21613582908828680        0.0000000000000000     
  0.11272406314382961       0.22436603683038925        0.0000000000000000     
  0.11369184752692853       0.23267792570349585        0.0000000000000000     
  0.10146319361715510       0.19957534588109599        0.0000000000000000     
  0.10254692350417986       0.20766420860390541        0.0000000000000000     
  0.10356444819844646       0.21583133363889104        0.0000000000000000     
  0.10451576769995488       0.22407672098605286        0.0000000000000000     
  0.10540088200870509       0.23240037064539087        0.0000000000000000     
   9.3672777284264819E-002  0.19925367319503520        0.0000000000000000     
   9.4674120466845535E-002  0.20736569601087571        0.0000000000000000     
   9.5608213186345062E-002  0.21555378255956861        0.0000000000000000     
   9.6475055442763386E-002  0.22381793284111401        0.0000000000000000     
   9.7274647236100492E-002  0.23215814685551189        0.0000000000000000     
   8.6051506166920713E-002  0.19895543893891213        0.0000000000000000     
   8.6971107851158191E-002  0.20709176469809940        0.0000000000000000     
   8.7821247919602996E-002  0.21530317585031961        0.0000000000000000     
   8.8601926372255183E-002  0.22358967239557276        0.0000000000000000     
   8.9313143209114682E-002  0.23195125433385883        0.0000000000000000     
   7.8599380265122865E-002  0.19868064311272671        0.0000000000000000     
   7.9437885657117790E-002  0.20684241466557649        0.0000000000000000     
   8.0203552398220246E-002  0.21507951351114393        0.0000000000000000     
   8.0896380488430203E-002  0.22339193964942899        0.0000000000000000     
   8.1516369927747703E-002  0.23177969308043175        0.0000000000000000     
  0.11369184752692853       0.23267792570349585        0.0000000000000000     
  0.11461782611168379       0.24108815636005299        0.0000000000000000     
  0.11552651890457530       0.24961338945250705        0.0000000000000000     
  0.11641792590560306       0.25825362498085802        0.0000000000000000     
  0.11729204711476707       0.26700886294510590        0.0000000000000000     
  0.10540088200870509       0.23240037064539087        0.0000000000000000     
  0.10622210472336857       0.24082549608637766        0.0000000000000000     
  0.10698174944261667       0.24937531077848582        0.0000000000000000     
  0.10767981616644945       0.25804981472171529        0.0000000000000000     
  0.10831630489486685       0.26684900791606619        0.0000000000000000     
   9.7274647236100492E-002  0.23215814685551189        0.0000000000000000     
   9.7996008010168154E-002  0.24060050289822499        0.0000000000000000     
   9.8628157208778114E-002  0.24917107926471624        0.0000000000000000     
   9.9171094831930429E-002  0.25786987595498556        0.0000000000000000     
   9.9624820879625042E-002  0.26669689296903298        0.0000000000000000     
   8.9313143209114682E-002  0.23195125433385883        0.0000000000000000     
   8.9939535972082540E-002  0.24041317679559498        0.0000000000000000     
   9.0465742203059654E-002  0.24900069491119828        0.0000000000000000     
   9.0891761902045995E-002  0.25771380868066873        0.0000000000000000     
   9.1217595069041632E-002  0.26655251810400632        0.0000000000000000     
   8.1516369927747703E-002  0.23177969308043175        0.0000000000000000     
   8.2052688609111718E-002  0.24026351777848759        0.0000000000000000     
   8.2494504425461204E-002  0.24886415771793194        0.0000000000000000     
   8.2841817376796190E-002  0.25758161289876474        0.0000000000000000     
   8.3094627463116646E-002  0.26641588332098615        0.0000000000000000     
  0.11729204711476707       0.26700886294510590        0.0000000000000000     
  0.11808887948690022       0.27604430875904196        0.0000000000000000     
  0.11874841997683544       0.28552516783645748        0.0000000000000000     
  0.11927066858457273       0.29545144017735236        0.0000000000000000     
  0.11965562531011210       0.30582312578172677        0.0000000000000000     
  0.10831630489486685       0.26684900791606619        0.0000000000000000     
  0.10887191172275429       0.27590574595062572        0.0000000000000000     
  0.10932733274499716       0.28535288441448148        0.0000000000000000     
  0.10968256796159544       0.29519042330763329        0.0000000000000000     
  0.10993761737254915       0.30541836263008126        0.0000000000000000     
   9.9624820879625042E-002  0.26669689296903298        0.0000000000000000     
  0.10000011743945690       0.27575120508434170        0.0000000000000000     
  0.10030776659902089       0.28513188707839482        0.0000000000000000     
  0.10054776835831702       0.29483893895119234        0.0000000000000000     
  0.10072012271734535       0.30487236070273438        0.0000000000000000     
   9.1217595069041632E-002  0.26655251810400632        0.0000000000000000     
   9.1473496637008045E-002  0.27558068616018971        0.0000000000000000     
   9.1689721538906685E-002  0.28486217582819745        0.0000000000000000     
   9.1866269774737580E-002  0.29439698710802964        0.0000000000000000     
   9.2003141344500716E-002  0.30418511999968617        0.0000000000000000     
   8.3094627463116646E-002  0.26641588332098615        0.0000000000000000     
   8.3292049315407707E-002  0.27539418917816977        0.0000000000000000     
   8.3473197564654489E-002  0.28454375066388937        0.0000000000000000     
   8.3638072210856992E-002  0.29386456777814507        0.0000000000000000     
   8.3786673254015231E-002  0.30335664052093669        0.0000000000000000     
   4.6940435237142766E-002   5.8799117891857350E-002   0.0000000000000000     
   4.8544573310457056E-002   6.4611590686984563E-002   0.0000000000000000     
   5.0323977611744113E-002   7.0530183383960290E-002   0.0000000000000000     
   5.2278648141003942E-002   7.6554895982784518E-002   0.0000000000000000     
   5.4408584898236544E-002   8.2685728483457260E-002   0.0000000000000000     
   4.2087110543368840E-002   5.9314440802579263E-002   0.0000000000000000     
   4.3480496760186046E-002   6.4659838660047125E-002   0.0000000000000000     
   4.5064831196885397E-002   7.0238819454884666E-002   0.0000000000000000     
   4.6840113853466876E-002   7.6051383187091898E-002   0.0000000000000000     
   4.8806344729930493E-002   8.2097529856668808E-002   0.0000000000000000     
   3.7459534699788723E-002   5.9579383947103756E-002   0.0000000000000000     
   3.8687536845007843E-002   6.4586947657673213E-002   0.0000000000000000     
   4.0105414306700324E-002   6.9919469632417339E-002   0.0000000000000000     
   4.1713167084866179E-002   7.5576949871336147E-002   0.0000000000000000     
   4.3510795179505402E-002   8.1559388374429637E-002   0.0000000000000000     
   3.3057707706402414E-002   5.9593947325430822E-002   0.0000000000000000     
   3.4165693564922439E-002   6.4392917679862841E-002   0.0000000000000000     
   3.5445726941188922E-002   6.9572133916558324E-002   0.0000000000000000     
   3.6897807835201871E-002   7.5131596035517292E-002   0.0000000000000000     
   3.8521936246961284E-002   8.1071304036739747E-002   0.0000000000000000     
   2.8881629563209922E-002   5.9358130937560469E-002   0.0000000000000000     
   2.9914966919929849E-002   6.4077748726615980E-002   0.0000000000000000     
   3.1085769100351185E-002   6.9196812307307606E-002   0.0000000000000000     
   3.2394036104473944E-002   7.4715321679635321E-002   0.0000000000000000     
   3.3839767932298127E-002   8.0633276843599166E-002   0.0000000000000000     
   5.4408584898236544E-002   8.2685728483457260E-002   0.0000000000000000     
   5.6572053034296216E-002   8.8931225963578817E-002   0.0000000000000000     
   5.8627317700037283E-002   9.5299933500749431E-002   0.0000000000000000     
   6.0574378895459732E-002  0.10179185109496910        0.0000000000000000     
   6.2413236620563597E-002  0.10840697874623789        0.0000000000000000     
   4.8806344729930493E-002   8.2097529856668808E-002   0.0000000000000000     
   5.0820865655549163E-002   8.8330088887759950E-002   0.0000000000000000     
   5.2741018459595793E-002   9.4701889704509837E-002   0.0000000000000000     
   5.4566803142070373E-002  0.10121293230691845        0.0000000000000000     
   5.6298219702972906E-002  0.10786321669498584        0.0000000000000000     
   4.3510795179505402E-002   8.1559388374429637E-002   0.0000000000000000     
   4.5362443758639057E-002   8.7780897386161461E-002   0.0000000000000000     
   4.7132257990288168E-002   9.4155589150995311E-002   0.0000000000000000     
   4.8820237874452756E-002  0.10068346366893118        0.0000000000000000     
   5.0426383411132820E-002  0.10736452093996904        0.0000000000000000     
   3.8521936246961284E-002   8.1071304036739747E-002   0.0000000000000000     
   4.0196787343565896E-002   8.7283651458783390E-002   0.0000000000000000     
   4.1801036292114437E-002   9.3661031840205869E-002   0.0000000000000000     
   4.3334683092606907E-002  0.10020344518100727        0.0000000000000000     
   4.4797727745043307E-002  0.10691089148118749        0.0000000000000000     
   3.3839767932298127E-002   8.0633276843599166E-002   0.0000000000000000     
   3.5323896410329680E-002   8.6838351105625697E-002   0.0000000000000000     
   3.6747353365074578E-002   9.3218217772141551E-002   0.0000000000000000     
   3.8110138796532814E-002   9.9772876843146716E-002   0.0000000000000000     
   3.9412252704704401E-002  0.10650232831864118        0.0000000000000000     
   6.2413236620563597E-002  0.10840697874623789        0.0000000000000000     
   6.4163638581588897E-002  0.11516435778112626        0.0000000000000000     
   6.5845332484775712E-002  0.12208302952620477        0.0000000000000000     
   6.7458318330124042E-002  0.12916299398147338        0.0000000000000000     
   6.9002596117633888E-002  0.13640425114693217        0.0000000000000000     
   5.6298219702972906E-002  0.10786321669498584        0.0000000000000000     
   5.7947346271729358E-002  0.11466110130462660        0.0000000000000000     
   5.9526260977765644E-002  0.12161494457175530        0.0000000000000000     
   6.1034963821081784E-002  0.12872474649637194        0.0000000000000000     
   6.2473454801677757E-002  0.13599050707847657        0.0000000000000000     
   5.0426383411132820E-002  0.10736452093996904        0.0000000000000000     
   5.1957178127791243E-002  0.11419834449927807        0.0000000000000000     
   5.3419105551890930E-002  0.12118451788202737        0.0000000000000000     
   5.4812165683431884E-002  0.12832304108821696        0.0000000000000000     
   5.6136358522414095E-002  0.13561391411784682        0.0000000000000000     
   4.4797727745043307E-002  0.10691089148118749        0.0000000000000000     
   4.6193134149774571E-002  0.11377608736508071        0.0000000000000000     
   4.7523866207151579E-002  0.12079174945702101        0.0000000000000000     
   4.8789923917174349E-002  0.12795787775700843        0.0000000000000000     
   4.9991307279842877E-002  0.13527447226504286        0.0000000000000000     
   3.9412252704704401E-002  0.10650232831864118        0.0000000000000000     
   4.0655214337679317E-002  0.11339432990203452        0.0000000000000000     
   4.1840542943547582E-002  0.12043663929673622        0.0000000000000000     
   4.2968238522309195E-002  0.12762925650274631        0.0000000000000000     
   4.4038301073964142E-002  0.13497218152006474        0.0000000000000000     
   6.9002596117633888E-002  0.13640425114693217        0.0000000000000000     
   7.0474625881257705E-002  0.14379167826215755        0.0000000000000000     
   7.1870867654947962E-002  0.15131015256672603        0.0000000000000000     
   7.3191321438704673E-002  0.15895967406063763        0.0000000000000000     
   7.4435987232527812E-002  0.16674024274389232        0.0000000000000000     
   6.2473454801677757E-002  0.13599050707847657        0.0000000000000000     
   6.3840263681060078E-002  0.14339925181521254        0.0000000000000000     
   6.5133920220735220E-002  0.15093800620372330        0.0000000000000000     
   6.6354424420703204E-002  0.15860677024400879        0.0000000000000000     
   6.7501776280964002E-002  0.16640554393606904        0.0000000000000000     
   5.6136358522414095E-002  0.13561391411784682        0.0000000000000000     
   5.7391421973292875E-002  0.14304494450549421        0.0000000000000000     
   5.8577093940523517E-002  0.15060393978573644        0.0000000000000000     
   5.9693374424106042E-002  0.15829089995857348        0.0000000000000000     
   6.0740263424040424E-002  0.16610582502400539        0.0000000000000000     
   4.9991307279842877E-002  0.13527447226504286        0.0000000000000000     
   5.1128100757956089E-002  0.14272875633300253        0.0000000000000000     
   5.2200388814312847E-002  0.15030795331276547        0.0000000000000000     
   5.3208171448913169E-002  0.15801206320433175        0.0000000000000000     
   5.4151448661757057E-002  0.16584108600770134        0.0000000000000000     
   4.4038301073964142E-002  0.13497218152006474        0.0000000000000000     
   4.5050300035049715E-002  0.14245068729773747        0.0000000000000000     
   4.6003804842103216E-002  0.15005004678481040        0.0000000000000000     
   4.6898815495124611E-002  0.15777025998128352        0.0000000000000000     
   4.7735331994113929E-002  0.16561132688715688        0.0000000000000000     
   7.4435987232527812E-002  0.16674024274389232        0.0000000000000000     
   7.5601278146207276E-002  0.17462108697538917        0.0000000000000000     
   7.6683607289532940E-002  0.18257143511402718        0.0000000000000000     
   7.7682974662504803E-002  0.19059128715980639        0.0000000000000000     
   7.8599380265122865E-002  0.19868064311272671        0.0000000000000000     
   6.7501776280964002E-002  0.16640554393606904        0.0000000000000000     
   6.8573226541160048E-002  0.17430498443191714        0.0000000000000000     
   6.9566025940933737E-002  0.18227574888356618        0.0000000000000000     
   7.0480174480285096E-002  0.19031783729101609        0.0000000000000000     
   7.1315672159214111E-002  0.19843124965426692        0.0000000000000000     
   6.0740263424040424E-002  0.16610582502400539        0.0000000000000000     
   6.1715620305466713E-002  0.17402146800013457        0.0000000000000000     
   6.2617304433524965E-002  0.18201058190506356        0.0000000000000000     
   6.3445315808215191E-002  0.19007316673879224        0.0000000000000000     
   6.4199654429537359E-002  0.19820922250132073        0.0000000000000000     
   5.4151448661757057E-002  0.16584108600770134        0.0000000000000000     
   5.5028459439127292E-002  0.17377053768004141        0.0000000000000000     
   5.5837442767306629E-002  0.18177593417851923        0.0000000000000000     
   5.6578398646295061E-002  0.18985727550313480        0.0000000000000000     
   5.7251327076092609E-002  0.19801456165388809        0.0000000000000000     
   4.7735331994113929E-002  0.16561132688715688        0.0000000000000000     
   4.8511743942141763E-002  0.17355219347163769        0.0000000000000000     
   4.9226440942278689E-002  0.18157180570393333        0.0000000000000000     
   4.9879422994524719E-002  0.18967016358404379        0.0000000000000000     
   5.0470690098879854E-002  0.19784726711196907        0.0000000000000000     
   7.8599380265122865E-002  0.19868064311272671        0.0000000000000000     
   7.9437885657117790E-002  0.20684241466557649        0.0000000000000000     
   8.0203552398220246E-002  0.21507951351114393        0.0000000000000000     
   8.0896380488430203E-002  0.22339193964942899        0.0000000000000000     
   8.1516369927747703E-002  0.23177969308043175        0.0000000000000000     
   7.1315672159214111E-002  0.19843124965426692        0.0000000000000000     
   7.2074204919107251E-002  0.20661815189764826        0.0000000000000000     
   7.2757458701351002E-002  0.21488070994548977        0.0000000000000000     
   7.3365433505945335E-002  0.22321892379779135        0.0000000000000000     
   7.3898129332890292E-002  0.23163279345455312        0.0000000000000000     
   6.4199654429537359E-002  0.19820922250132073        0.0000000000000000     
   6.4879816671509452E-002  0.20641948237865604        0.0000000000000000     
   6.5485298908149456E-002  0.21470467955680525        0.0000000000000000     
   6.6016101139457370E-002  0.22306481403576836        0.0000000000000000     
   6.6472223365433167E-002  0.23149988581554537        0.0000000000000000     
   5.7251327076092609E-002  0.19801456165388809        0.0000000000000000     
   5.7854720914324413E-002  0.20624640610859971        0.0000000000000000     
   5.8387073018615648E-002  0.21455142234509034        0.0000000000000000     
   5.8848383388966273E-002  0.22292961036335993        0.0000000000000000     
   5.9238652025376343E-002  0.23138097016340856        0.0000000000000000     
   5.0470690098879854E-002  0.19784726711196907        0.0000000000000000     
   5.0998917647552121E-002  0.20609892308747940        0.0000000000000000     
   5.1462781032749531E-002  0.21442093831034512        0.0000000000000000     
   5.1862280254472100E-002  0.22281331278056618        0.0000000000000000     
   5.2197415312719819E-002  0.23127604649814257        0.0000000000000000     
   8.1516369927747703E-002  0.23177969308043175        0.0000000000000000     
   8.2052688609111718E-002  0.24026351777848759        0.0000000000000000     
   8.2494504425461204E-002  0.24886415771793194        0.0000000000000000     
   8.2841817376796190E-002  0.25758161289876474        0.0000000000000000     
   8.3094627463116646E-002  0.26641588332098615        0.0000000000000000     
   7.3898129332890292E-002  0.23163279345455312        0.0000000000000000     
   7.4352685004517985E-002  0.24013649920937277        0.0000000000000000     
   7.4726239343160569E-002  0.24874422135584809        0.0000000000000000     
   7.5018792348818059E-002  0.25745595989397907        0.0000000000000000     
   7.5230344021490425E-002  0.26627171482376571        0.0000000000000000     
   6.6472223365433167E-002  0.23149988581554537        0.0000000000000000     
   6.6856744241563612E-002  0.24001709445072042        0.0000000000000000     
   6.7172742423335471E-002  0.24862363949587757        0.0000000000000000     
   6.7420217910748717E-002  0.25731952095101679        0.0000000000000000     
   6.7599170703803363E-002  0.26610473881613816        0.0000000000000000     
   5.9238652025376343E-002  0.23138097016340856        0.0000000000000000     
   5.9564866320248613E-002  0.23990530350253053        0.0000000000000000     
   5.9834013665985890E-002  0.24850241213802035        0.0000000000000000     
   6.0046094062588165E-002  0.25717229606987801        0.0000000000000000     
   6.0201107510055453E-002  0.26591495529810355        0.0000000000000000     
   5.2197415312719819E-002  0.23127604649814257        0.0000000000000000     
   5.2477051240572975E-002  0.23980112636480311        0.0000000000000000     
   5.2710053071111831E-002  0.24838053928227646        0.0000000000000000     
   5.2896420804336410E-002  0.25701428525056269        0.0000000000000000     
   5.3036154440246702E-002  0.26570236426966176        0.0000000000000000     
   8.3094627463116646E-002  0.26641588332098615        0.0000000000000000     
   8.3292049315407707E-002  0.27539418917816977        0.0000000000000000     
   8.3473197564654489E-002  0.28454375066388937        0.0000000000000000     
   8.3638072210856992E-002  0.29386456777814507        0.0000000000000000     
   8.3786673254015231E-002  0.30335664052093669        0.0000000000000000     
   7.5230344021490425E-002  0.26627171482376571        0.0000000000000000     
   7.5402209820484331E-002  0.27518595194308815        0.0000000000000000     
   7.5575705205106466E-002  0.28419313704982657        0.0000000000000000     
   7.5750830175356790E-002  0.29329327014398093        0.0000000000000000     
   7.5927584731235315E-002  0.30248635122555118        0.0000000000000000     
   6.7599170703803363E-002  0.26610473881613816        0.0000000000000000     
   6.7750412498066362E-002  0.27495021225975103        0.0000000000000000     
   6.7914754989104709E-002  0.28382686045036470        0.0000000000000000     
   6.8092198176918362E-002  0.29273468338797937        0.0000000000000000     
   6.8282742061507376E-002  0.30167368107259496        0.0000000000000000     
   6.0201107510055453E-002  0.26591495529810355        0.0000000000000000     
   6.0336657348153779E-002  0.27468697012815835        0.0000000000000000     
   6.0490346916649215E-002  0.28344492086550410        0.0000000000000000     
   6.0662176215541749E-002  0.29218880751014054        0.0000000000000000     
   6.0852145244831374E-002  0.30091863006206793        0.0000000000000000     
   5.3036154440246702E-002  0.26570236426966176        0.0000000000000000     
   5.3160944370746609E-002  0.27439622554831017        0.0000000000000000     
   5.3302480987740007E-002  0.28304731829524438        0.0000000000000000     
   5.3460764291226918E-002  0.29165564251046444        0.0000000000000000     
   5.3635794281207322E-002  0.30022119819397031        0.0000000000000000     
   2.8881629563209922E-002   5.9358130937560469E-002   0.0000000000000000     
   2.9914966919929849E-002   6.4077748726615980E-002   0.0000000000000000     
   3.1085769100351185E-002   6.9196812307307606E-002   0.0000000000000000     
   3.2394036104473944E-002   7.4715321679635321E-002   0.0000000000000000     
   3.3839767932298127E-002   8.0633276843599166E-002   0.0000000000000000     
   2.4886088032037443E-002   5.8962128985118920E-002   0.0000000000000000     
   2.5855379787648590E-002   6.3678298779272613E-002   0.0000000000000000     
   2.6923383743984345E-002   6.8794327535422958E-002   0.0000000000000000     
   2.8090099901044711E-002   7.4310215253569956E-002   0.0000000000000000     
   2.9355528258829679E-002   8.0225961933713633E-002   0.0000000000000000     
   2.1025870874711174E-002   5.8496135669732399E-002   0.0000000000000000     
   2.1906955045697202E-002   6.3231425819172668E-002   0.0000000000000000     
   2.2856413831885639E-002   6.8365502331662178E-002   0.0000000000000000     
   2.3874247233276465E-002   7.3898365207200903E-002   0.0000000000000000     
   2.4960455249869711E-002   7.9830014445788897E-002   0.0000000000000000     
   1.7300978091231125E-002   5.7960150991400915E-002   0.0000000000000000     
   1.8069692694075688E-002   6.2737129846316145E-002   0.0000000000000000     
   1.8884859364055057E-002   6.7910336696025225E-002   0.0000000000000000     
   1.9746478101169238E-002   7.3479771540528177E-002   0.0000000000000000     
   2.0654548905418218E-002   7.9445434379824972E-002   0.0000000000000000     
   1.3711409681597288E-002   5.7354174950124459E-002   0.0000000000000000     
   1.4343592732784044E-002   6.2195410860703071E-002   0.0000000000000000     
   1.5008720340492615E-002   6.7428830628512168E-002   0.0000000000000000     
   1.5706792504723000E-002   7.3054434253551778E-002   0.0000000000000000     
   1.6437809225475199E-002   7.9072221735821874E-002   0.0000000000000000     
   3.3839767932298127E-002   8.0633276843599166E-002   0.0000000000000000     
   3.5323896410329680E-002   8.6838351105625697E-002   0.0000000000000000     
   3.6747353365074578E-002   9.3218217772141551E-002   0.0000000000000000     
   3.8110138796532814E-002   9.9772876843146716E-002   0.0000000000000000     
   3.9412252704704401E-002  0.10650232831864118        0.0000000000000000     
   2.9355528258829679E-002   8.0225961933713633E-002   0.0000000000000000     
   3.0644375788787922E-002   8.6432236526517589E-002   0.0000000000000000     
   3.1881349462368112E-002   9.2819707982645508E-002   0.0000000000000000     
   3.3066449279570254E-002   9.9388376302097459E-002   0.0000000000000000     
   3.4199675240394321E-002  0.10613824148487336        0.0000000000000000     
   2.4960455249869711E-002   7.9830014445788897E-002   0.0000000000000000     
   2.6058830308798138E-002   8.6052547921288219E-002   0.0000000000000000     
   2.7113164837194555E-002   9.2458063507561056E-002   0.0000000000000000     
   2.8123458835058956E-002   9.9046561204607364E-002   0.0000000000000000     
   2.9089712302391338E-002  0.10581804101242719        0.0000000000000000     
   2.0654548905418218E-002   7.9445434379824972E-002   0.0000000000000000     
   2.1567259970360332E-002   8.5699285289937616E-002   0.0000000000000000     
   2.2442799489553907E-002   9.2133284346888125E-002   0.0000000000000000     
   2.3281167462998943E-002   9.8747431550676473E-002   0.0000000000000000     
   2.4082363890695440E-002  0.10554172690130267        0.0000000000000000     
   1.6437809225475199E-002   7.9072221735821874E-002   0.0000000000000000     
   1.7169664773474497E-002   8.5372448632465750E-002   0.0000000000000000     
   1.7870253419446168E-002   9.1845370500626716E-002   0.0000000000000000     
   1.8539575163390217E-002   9.8490987340304745E-002   0.0000000000000000     
   1.9177630005306635E-002  0.10530929915149986        0.0000000000000000     
   3.9412252704704401E-002  0.10650232831864118        0.0000000000000000     
   4.0655214337679317E-002  0.11339432990203452        0.0000000000000000     
   4.1840542943547582E-002  0.12043663929673622        0.0000000000000000     
   4.2968238522309195E-002  0.12762925650274631        0.0000000000000000     
   4.4038301073964142E-002  0.13497218152006474        0.0000000000000000     
   3.4199675240394321E-002  0.10613824148487336        0.0000000000000000     
   3.5282303042394159E-002  0.11305411156959405        0.0000000000000000     
   3.6315608383123560E-002  0.12012079459488041        0.0000000000000000     
   3.7299591262582525E-002  0.12733829056073237        0.0000000000000000     
   3.8234251680771061E-002  0.13470659946715002        0.0000000000000000     
   2.9089712302391338E-002  0.10581804101242719        0.0000000000000000     
   3.0013284614807713E-002  0.11275647182721392        0.0000000000000000     
   3.0895535147924098E-002  0.11984582254516099        0.0000000000000000     
   3.1736463901740480E-002  0.12708609316626843        0.0000000000000000     
   3.2536070876256873E-002  0.13447728369053624        0.0000000000000000     
   2.4082363890695440E-002  0.10554172690130267        0.0000000000000000     
   2.4848159054919994E-002  0.11250141067489405        0.0000000000000000     
   2.5580323237949197E-002  0.11961172314757801        0.0000000000000000     
   2.6278856439783053E-002  0.12687266431935443        0.0000000000000000     
   2.6943758660421559E-002  0.13428423419022339        0.0000000000000000     
   1.9177630005306635E-002  0.10530929915149986        0.0000000000000000     
   1.9786926362731001E-002  0.11228892811263458        0.0000000000000000     
   2.0369972653198867E-002  0.11941849640213141        0.0000000000000000     
   2.0926768876710244E-002  0.12669800401999043        0.0000000000000000     
   2.1457315033265124E-002  0.13412745096621156        0.0000000000000000     
   4.4038301073964142E-002  0.13497218152006474        0.0000000000000000     
   4.5050300035049715E-002  0.14245068729773747        0.0000000000000000     
   4.6003804842103216E-002  0.15005004678481040        0.0000000000000000     
   4.6898815495124611E-002  0.15777025998128352        0.0000000000000000     
   4.7735331994113929E-002  0.16561132688715688        0.0000000000000000     
   3.8234251680771061E-002  0.13470659946715002        0.0000000000000000     
   3.9118350128736060E-002  0.14220857624406000        0.0000000000000000     
   3.9950647097524404E-002  0.14982707582138907        0.0000000000000000     
   4.0731142587136088E-002  0.15756209819913722        0.0000000000000000     
   4.1459836597571118E-002  0.16541364337730449        0.0000000000000000     
   3.2536070876256873E-002  0.13447728369053624        0.0000000000000000     
   3.3292581363177413E-002  0.14200026201633101        0.0000000000000000     
   3.4004220654206226E-002  0.14963589604201932        0.0000000000000000     
   3.4670988749343337E-002  0.15738418576760124        0.0000000000000000     
   3.5292885648588727E-002  0.16524513119307677        0.0000000000000000     
   2.6943758660421559E-002  0.13428423419022339        0.0000000000000000     
   2.7572993738373752E-002  0.14182574461455047        0.0000000000000000     
   2.8164525512148687E-002  0.14947650744670118        0.0000000000000000     
   2.8718353981746353E-002  0.15723652268667559        0.0000000000000000     
   2.9234479147166766E-002  0.16510579033447362        0.0000000000000000     
   2.1457315033265124E-002  0.13412745096621156        0.0000000000000000     
   2.1959587254325109E-002  0.14168502403871844        0.0000000000000000     
   2.2431561671351786E-002  0.14934891003543466        0.0000000000000000     
   2.2873238284345152E-002  0.15711910895636022        0.0000000000000000     
   2.3284617093305211E-002  0.16499562080149510        0.0000000000000000     
   4.7735331994113929E-002  0.16561132688715688        0.0000000000000000     
   4.8511743942141763E-002  0.17355219347163769        0.0000000000000000     
   4.9226440942278689E-002  0.18157180570393333        0.0000000000000000     
   4.9879422994524719E-002  0.18967016358404379        0.0000000000000000     
   5.0470690098879854E-002  0.19784726711196907        0.0000000000000000     
   4.1459836597571118E-002  0.16541364337730449        0.0000000000000000     
   4.2135180319097180E-002  0.17336415421769949        0.0000000000000000     
   4.2755624941981957E-002  0.18139607358213083        0.0000000000000000     
   4.3321170466225439E-002  0.18950940147059855        0.0000000000000000     
   4.3831816891827642E-002  0.19770413788310265        0.0000000000000000     
   3.5292885648588727E-002  0.16524513119307677        0.0000000000000000     
   3.5868475074580616E-002  0.17320413876100291        0.0000000000000000     
   3.6396320749957203E-002  0.18124661491393679        0.0000000000000000     
   3.6876422674718488E-002  0.18937255965187846        0.0000000000000000     
   3.7308780848864471E-002  0.19758197297482782        0.0000000000000000     
   2.9234479147166766E-002  0.16510579033447362        0.0000000000000000     
   2.9711628208592068E-002  0.17307214710154797        0.0000000000000000     
   3.0148528366204432E-002  0.18112342969935127        0.0000000000000000     
   3.0545179620003866E-002  0.18925963812788346        0.0000000000000000     
   3.0901581969990370E-002  0.19748077238714462        0.0000000000000000     
   2.3284617093305211E-002  0.16499562080149510        0.0000000000000000     
   2.3664639721131520E-002  0.17296817923933466        0.0000000000000000     
   2.4012247790723640E-002  0.18102651793837415        0.0000000000000000     
   2.4327441302081577E-002  0.18917063689861363        0.0000000000000000     
   2.4610220255205317E-002  0.19740053612005304        0.0000000000000000     
   5.0470690098879854E-002  0.19784726711196907        0.0000000000000000     
   5.0998917647552121E-002  0.20609892308747940        0.0000000000000000     
   5.1462781032749531E-002  0.21442093831034512        0.0000000000000000     
   5.1862280254472100E-002  0.22281331278056618        0.0000000000000000     
   5.2197415312719819E-002  0.23127604649814257        0.0000000000000000     
   4.3831816891827642E-002  0.19770413788310265        0.0000000000000000     
   4.4286938815571587E-002  0.20597311489016978        0.0000000000000000     
   4.4685910834240346E-002  0.21430916456232674        0.0000000000000000     
   4.5028732947833904E-002  0.22271228689957343        0.0000000000000000     
   4.5315405156352254E-002  0.23118248190190996        0.0000000000000000     
   3.7308780848864471E-002  0.19758197297482782        0.0000000000000000     
   3.7693316362761839E-002  0.20586506309154554        0.0000000000000000     
   3.8029950306777263E-002  0.21421203821079238        0.0000000000000000     
   3.8318682680910765E-002  0.22262289833256821        0.0000000000000000     
   3.8559513485162317E-002  0.23109764345687309        0.0000000000000000     
   3.0901581969990370E-002  0.19748077238714462        0.0000000000000000     
   3.1218050289122865E-002  0.20577476769160680        0.0000000000000000     
   3.1494899450360311E-002  0.21412955925574209        0.0000000000000000     
   3.1732129453702691E-002  0.22254514707955048        0.0000000000000000     
   3.1929740299150008E-002  0.23102153116303201        0.0000000000000000     
   2.4610220255205317E-002  0.19740053612005304        0.0000000000000000     
   2.4861140594654680E-002  0.20570222869035346        0.0000000000000000     
   2.5080758264989466E-002  0.21406172769717585        0.0000000000000000     
   2.5269073266209675E-002  0.22247903314052025        0.0000000000000000     
   2.5426085598315315E-002  0.23095414502038669        0.0000000000000000     
   5.2197415312719819E-002  0.23127604649814257        0.0000000000000000     
   5.2477051240572975E-002  0.23980112636480311        0.0000000000000000     
   5.2710053071111831E-002  0.24838053928227646        0.0000000000000000     
   5.2896420804336410E-002  0.25701428525056269        0.0000000000000000     
   5.3036154440246702E-002  0.26570236426966176        0.0000000000000000     
   4.5315405156352254E-002  0.23118248190190996        0.0000000000000000     
   4.5555283557380200E-002  0.23970443549777617        0.0000000000000000     
   4.5757724248502475E-002  0.24826283361561197        0.0000000000000000     
   4.5922727229719115E-002  0.25685767625541739        0.0000000000000000     
   4.6050292501030099E-002  0.26548896341719253        0.0000000000000000     
   3.8559513485162317E-002  0.23109764345687309        0.0000000000000000     
   3.8761547825513783E-002  0.23961510336168779        0.0000000000000000     
   3.8933890807946986E-002  0.24815410782499303        0.0000000000000000     
   3.9076542432461926E-002  0.25671465684678885        0.0000000000000000     
   3.9189502699058604E-002  0.26529675042707518        0.0000000000000000     
   3.1929740299150008E-002  0.23102153116303201        0.0000000000000000     
   3.2095844044973738E-002  0.23953312995653794        0.0000000000000000     
   3.2238552749445350E-002  0.24805436191041960        0.0000000000000000     
   3.2357866412564849E-002  0.25658522702467695        0.0000000000000000     
   3.2453785034332217E-002  0.26512572529931000        0.0000000000000000     
   2.5426085598315315E-002  0.23095414502038669        0.0000000000000000     
   2.5558172215760056E-002  0.23945851528232664        0.0000000000000000     
   2.5671710072997574E-002  0.24796359587189165        0.0000000000000000     
   2.5766699170027874E-002  0.25646938678908171        0.0000000000000000     
   2.5843139506850951E-002  0.26497588803389682        0.0000000000000000     
   5.3036154440246702E-002  0.26570236426966176        0.0000000000000000     
   5.3160944370746609E-002  0.27439622554831017        0.0000000000000000     
   5.3302480987740007E-002  0.28304731829524438        0.0000000000000000     
   5.3460764291226918E-002  0.29165564251046444        0.0000000000000000     
   5.3635794281207322E-002  0.30022119819397031        0.0000000000000000     
   4.6050292501030099E-002  0.26548896341719253        0.0000000000000000     
   4.6165489979290042E-002  0.27410733978162394        0.0000000000000000     
   4.6293389581353560E-002  0.28266345002939858        0.0000000000000000     
   4.6433991307220639E-002  0.29115729416051650        0.0000000000000000     
   4.6587295156891292E-002  0.29958887217497754        0.0000000000000000     
   3.9189502699058604E-002  0.26529675042707518        0.0000000000000000     
   3.9292510587229310E-002  0.27384967408951710        0.0000000000000000     
   3.9405305076466335E-002  0.28232271335777948        0.0000000000000000     
   3.9527886166769673E-002  0.29071586823186230        0.0000000000000000     
   3.9660253858139330E-002  0.29902913871176562        0.0000000000000000     
   3.2453785034332217E-002  0.26512572529931000        0.0000000000000000     
   3.2542006194564412E-002  0.27362322847198967        0.0000000000000000     
   3.2638227473078339E-002  0.28202510828038702        0.0000000000000000     
   3.2742448869874013E-002  0.29033136472450188        0.0000000000000000     
   3.2854670384951448E-002  0.29854199780433432        0.0000000000000000     
   2.5843139506850951E-002  0.26497588803389682        0.0000000000000000     
   2.5913976801295341E-002  0.27342800292904168        0.0000000000000000     
   2.5992156771189583E-002  0.28177063479722120        0.0000000000000000     
   2.6077679416533682E-002  0.29000378363843515        0.0000000000000000     
   2.6170544737327630E-002  0.29812744945268377        0.0000000000000000     
   1.3711409681597288E-002   5.7354174950124459E-002   0.0000000000000000     
   1.4343592732784044E-002   6.2195410860703071E-002   0.0000000000000000     
   1.5008720340492615E-002   6.7428830628512168E-002   0.0000000000000000     
   1.5706792504723000E-002   7.3054434253551778E-002   0.0000000000000000     
   1.6437809225475199E-002   7.9072221735821874E-002   0.0000000000000000     
   1.0213016909460358E-002   5.6793324692712324E-002   0.0000000000000000     
   1.0694229112387096E-002   6.1700659180204162E-002   0.0000000000000000     
   1.1199351843138670E-002   6.6995988880486371E-002   0.0000000000000000     
   1.1728385101715080E-002   7.2679313793558936E-002   0.0000000000000000     
   1.2281328888116328E-002   7.8750633919421872E-002   0.0000000000000000     
   6.7616510384710272E-003   5.6392717365973788E-002   0.0000000000000000     
   7.0871757834496734E-003   6.1347265122690203E-002   0.0000000000000000     
   7.4281089539335945E-003   6.6686816203311253E-002   0.0000000000000000     
   7.7844505499227879E-003   7.2411370607836922E-002   0.0000000000000000     
   8.1562005714172579E-003   7.8520928336267254E-002   0.0000000000000000     
   3.3573120686292927E-003   5.6152352969908871E-002   0.0000000000000000     
   3.5224327459717764E-003   6.1135228688161201E-002   0.0000000000000000     
   3.6949916728773887E-003   6.6501312596986828E-002   0.0000000000000000     
   3.8749888493461275E-003   7.2250604696385792E-002   0.0000000000000000     
   4.0624242753779958E-003   7.8383104986358032E-002   0.0000000000000000     
  -6.4842662489406067E-014   5.6072231504517553E-002   0.0000000000000000     
  -4.6595106245606033E-014   6.1064549876617129E-002   0.0000000000000000     
  -2.9948591349915343E-014   6.6439478061513096E-002   0.0000000000000000     
  -1.4904174899452172E-014   7.2197016059205435E-002   0.0000000000000000     
  -1.4604203263379745E-015   7.8337163869694193E-002   0.0000000000000000     
   1.6437809225475199E-002   7.9072221735821874E-002   0.0000000000000000     
   1.7169664773474497E-002   8.5372448632465750E-002   0.0000000000000000     
   1.7870253419446168E-002   9.1845370500626716E-002   0.0000000000000000     
   1.8539575163390217E-002   9.8490987340304745E-002   0.0000000000000000     
   1.9177630005306635E-002  0.10530929915149986        0.0000000000000000     
   1.2281328888116328E-002   7.8750633919421872E-002   0.0000000000000000     
   1.2833605005550607E-002   8.5098027920745167E-002   0.0000000000000000     
   1.3360635257226118E-002   9.1609574460198809E-002   0.0000000000000000     
   1.3862419643142863E-002   9.8285273537782838E-002   0.0000000000000000     
   1.4338958163300839E-002  0.10512512515349719        0.0000000000000000     
   8.1562005714172579E-003   7.8520928336267254E-002   0.0000000000000000     
   8.5266409539986321E-003   8.4902013126648357E-002   0.0000000000000000     
   8.8790536332485400E-003   9.1441148717026383E-002   0.0000000000000000     
   9.2134386091669851E-003   9.8138335107401331E-002   0.0000000000000000     
   9.5297958817539656E-003  0.10499357229777320        0.0000000000000000     
   4.0624242753779958E-003   7.8383104986358032E-002   0.0000000000000000     
   4.2487726188185698E-003   8.4784404250175319E-002   0.0000000000000000     
   4.4255085475134329E-003   9.1340093271109396E-002   0.0000000000000000     
   4.5926320614625808E-003   9.8050172049160236E-002   0.0000000000000000     
   4.7501431606660162E-003  0.10491464058432788        0.0000000000000000     
  -1.4604203263379745E-015   7.8337163869694193E-002   0.0000000000000000     
   1.0424820728882622E-014   8.4745201291326067E-002   0.0000000000000000     
   2.0794292936859859E-014   9.1306408122447877E-002   0.0000000000000000     
   2.9651235351584038E-014   9.8020784363059596E-002   0.0000000000000000     
   3.6992110763467423E-014  0.10488833001316122        0.0000000000000000     
   1.9177630005306635E-002  0.10530929915149986        0.0000000000000000     
   1.9786926362731001E-002  0.11228892811263458        0.0000000000000000     
   2.0369972653198867E-002  0.11941849640213141        0.0000000000000000     
   2.0926768876710244E-002  0.12669800401999043        0.0000000000000000     
   2.1457315033265124E-002  0.13412745096621156        0.0000000000000000     
   1.4338958163300839E-002  0.10512512515349719        0.0000000000000000     
   1.4793278771308278E-002  0.11212163400380584        0.0000000000000000     
   1.5228409420773413E-002  0.11926730478517263        0.0000000000000000     
   1.5644350111696240E-002  0.12656213749759762        0.0000000000000000     
   1.6041100844076769E-002  0.13400613214108079        0.0000000000000000     
   9.5297958817539656E-003  0.10499357229777320        0.0000000000000000     
   9.8309085137193841E-003  0.11200213821177832        0.0000000000000000     
   1.0119559567773141E-002  0.11915931077305304        0.0000000000000000     
   1.0395749043915237E-002  0.12646508998159731        0.0000000000000000     
   1.0659476942145673E-002  0.13391947583741118        0.0000000000000000     
   4.7501431606660162E-003  0.10491464058432788        0.0000000000000000     
   4.8998155899643145E-003  0.11193044073655208        0.0000000000000000     
   5.0434230941980539E-003  0.11909451436577261        0.0000000000000000     
   5.1809656733672283E-003  0.12640686147198948        0.0000000000000000     
   5.3124433274718448E-003  0.13386748205520271        0.0000000000000000     
   3.6992110763467423E-014  0.10488833001316122        0.0000000000000000     
   4.3072750227635126E-014  0.11190654157812706        0.0000000000000000     
   4.8147141655519032E-014  0.11907291556333137        0.0000000000000000     
   5.2216667404889061E-014  0.12638745196877418        0.0000000000000000     
   5.5279131966345929E-014  0.13385015079445547        0.0000000000000000     
   2.1457315033265124E-002  0.13412745096621156        0.0000000000000000     
   2.1959587254325109E-002  0.14168502403871844        0.0000000000000000     
   2.2431561671351786E-002  0.14934891003543466        0.0000000000000000     
   2.2873238284345152E-002  0.15711910895636022        0.0000000000000000     
   2.3284617093305211E-002  0.16499562080149510        0.0000000000000000     
   1.6041100844076769E-002  0.13400613214108079        0.0000000000000000     
   1.6416876115680018E-002  0.14157667964621606        0.0000000000000000     
   1.6769890424271031E-002  0.14925117094359749        0.0000000000000000     
   1.7100143769849797E-002  0.15702960603322502        0.0000000000000000     
   1.7407636152416323E-002  0.16491198491509865        0.0000000000000000     
   1.0659476942145673E-002  0.13391947583741118        0.0000000000000000     
   1.0909374527087045E-002  0.14149929079442455        0.0000000000000000     
   1.1144073063361947E-002  0.14918135730656742        0.0000000000000000     
   1.1363572550970381E-002  0.15696567537383985        0.0000000000000000     
   1.1567872989912346E-002  0.16485224499624174        0.0000000000000000     
   5.3124433274718448E-003  0.13386748205520271        0.0000000000000000     
   5.4370824885461846E-003  0.14145285748334388        0.0000000000000000     
   5.5541095886245387E-003  0.14913946912434450        0.0000000000000000     
   5.6635246277069043E-003  0.15692731697820467        0.0000000000000000     
   5.7653276057932825E-003  0.16481640104492429        0.0000000000000000     
   5.5279131966345929E-014  0.13385015079445547        0.0000000000000000     
   5.7440163736544037E-014  0.14143737971297404        0.0000000000000000     
   5.8801162723665090E-014  0.14912550639692873        0.0000000000000000     
   5.9364649697760119E-014  0.15691453084631948        0.0000000000000000     
   5.9128917040407458E-014  0.16480445306114638        0.0000000000000000     
   2.3284617093305211E-002  0.16499562080149510        0.0000000000000000     
   2.3664639721131520E-002  0.17296817923933466        0.0000000000000000     
   2.4012247790723640E-002  0.18102651793837415        0.0000000000000000     
   2.4327441302081577E-002  0.18917063689861363        0.0000000000000000     
   2.4610220255205317E-002  0.19740053612005304        0.0000000000000000     
   1.7407636152416323E-002  0.16491198491509865        0.0000000000000000     
   1.7691555264917041E-002  0.17288946777119046        0.0000000000000000     
   1.7951088800298384E-002  0.18095321478347234        0.0000000000000000     
   1.8186236758560358E-002  0.18910322595194437        0.0000000000000000     
   1.8396999139702951E-002  0.19733950127660646        0.0000000000000000     
   1.1567872989912346E-002  0.16485224499624174        0.0000000000000000     
   1.1756420492666678E-002  0.17283324529394276        0.0000000000000000     
   1.1928661171712216E-002  0.18090085538711254        0.0000000000000000     
   1.2084595027048953E-002  0.18905507527575105        0.0000000000000000     
   1.2224222058676897E-002  0.19729590495985824        0.0000000000000000     
   5.7653276057932825E-003  0.16481640104492429        0.0000000000000000     
   5.8592354043804371E-003  0.17279951180759162        0.0000000000000000     
   5.9449649049651346E-003  0.18086943974929470        0.0000000000000000     
   6.0225161075473706E-003  0.18902618487003364        0.0000000000000000     
   6.0918890121271514E-003  0.19726974716980833        0.0000000000000000     
   5.9128917040407458E-014  0.16480445306114638        0.0000000000000000     
   5.8313597006698359E-014  0.17278826731213698        0.0000000000000000     
   5.7139622894331055E-014  0.18085896787001893        0.0000000000000000     
   5.5606669442653800E-014  0.18901655473479220        0.0000000000000000     
   5.3715712433621832E-014  0.19726102790645680        0.0000000000000000     
   2.4610220255205317E-002  0.19740053612005304        0.0000000000000000     
   2.4861140594654680E-002  0.20570222869035346        0.0000000000000000     
   2.5080758264989466E-002  0.21406172769717585        0.0000000000000000     
   2.5269073266209675E-002  0.22247903314052025        0.0000000000000000     
   2.5426085598315315E-002  0.23095414502038669        0.0000000000000000     
   1.8396999139702951E-002  0.19733950127660646        0.0000000000000000     
   1.8584020678829891E-002  0.20564652548868145        0.0000000000000000     
   1.8747946111044887E-002  0.21400878331939210        0.0000000000000000     
   1.8888775436347947E-002  0.22242627476873836        0.0000000000000000     
   1.9006508654739060E-002  0.23089899983672027        0.0000000000000000     
   1.2224222058676897E-002  0.19729590495985824        0.0000000000000000     
   1.2348123941121128E-002  0.20560673748748678        0.0000000000000000     
   1.2456882348906732E-002  0.21397096590668924        0.0000000000000000     
   1.2550497282033710E-002  0.22238859021746563        0.0000000000000000     
   1.2628968740502063E-002  0.23085961041981590        0.0000000000000000     
   6.0918890121271514E-003  0.19726974716980833        0.0000000000000000     
   6.1534503815283866E-003  0.20558286468676934        0.0000000000000000     
   6.2075669785749930E-003  0.21394827545906725        0.0000000000000000     
   6.2542388032669699E-003  0.22236597948670195        0.0000000000000000     
   6.2934658556043173E-003  0.23083597676967352        0.0000000000000000     
   5.3715712433621832E-014  0.19726102790645680        0.0000000000000000     
   5.1669389253272691E-014  0.20557490708652926        0.0000000000000000     
   4.9671855170685397E-014  0.21394071197652617        0.0000000000000000     
   4.7725007539661801E-014  0.22235844257644749        0.0000000000000000     
   4.5826623745748307E-014  0.23082809888629319        0.0000000000000000     
   2.5426085598315315E-002  0.23095414502038669        0.0000000000000000     
   2.5558172215760056E-002  0.23945851528232664        0.0000000000000000     
   2.5671710072997574E-002  0.24796359587189165        0.0000000000000000     
   2.5766699170027874E-002  0.25646938678908171        0.0000000000000000     
   2.5843139506850951E-002  0.26497588803389682        0.0000000000000000     
   1.9006508654739060E-002  0.23089899983672027        0.0000000000000000     
   1.9105544562114930E-002  0.23939644688717754        0.0000000000000000     
   1.9190281954372241E-002  0.24788810428394981        0.0000000000000000     
   1.9260720831511004E-002  0.25637397202703721        0.0000000000000000     
   1.9316861193531206E-002  0.26485405011643964        0.0000000000000000     
   1.2628968740502063E-002  0.23085961041981590        0.0000000000000000     
   1.2694973308280549E-002  0.23935211231921422        0.0000000000000000     
   1.2751187569337937E-002  0.24783418172113481        0.0000000000000000     
   1.2797611523674217E-002  0.25630581862557750        0.0000000000000000     
   1.2834245171289399E-002  0.26476702303254246        0.0000000000000000     
   6.2934658556043173E-003  0.23083597676967352        0.0000000000000000     
   6.3264584542569178E-003  0.23932551157843673        0.0000000000000000     
   6.3544269178946533E-003  0.24780182818344637        0.0000000000000000     
   6.3773712465175231E-003  0.25626492658470257        0.0000000000000000     
   6.3952914401255254E-003  0.26471480678220521        0.0000000000000000     
   4.5826623745748307E-014  0.23082809888629319        0.0000000000000000     
   4.4032702831153792E-014  0.23931664466484504        0.0000000000000000     
   4.2393822827224703E-014  0.24779104367088478        0.0000000000000000     
   4.0913182130369874E-014  0.25625129590441248        0.0000000000000000     
   3.9588124445266715E-014  0.26469740136542802        0.0000000000000000     
   2.5843139506850951E-002  0.26497588803389682        0.0000000000000000     
   2.5913976801295341E-002  0.27342800292904168        0.0000000000000000     
   2.5992156771189583E-002  0.28177063479722120        0.0000000000000000     
   2.6077679416533682E-002  0.29000378363843515        0.0000000000000000     
   2.6170544737327630E-002  0.29812744945268377        0.0000000000000000     
   1.9316861193531206E-002  0.26485405011643964        0.0000000000000000     
   1.9369259331038419E-002  0.27327083936159113        0.0000000000000000     
   1.9428471534638187E-002  0.28156684057192571        0.0000000000000000     
   1.9494497804330525E-002  0.28974205374744350        0.0000000000000000     
   1.9567338140115430E-002  0.29779647888814431        0.0000000000000000     
   1.2834245171289399E-002  0.26476702303254246        0.0000000000000000     
   1.2868690707409931E-002  0.27315857967055596        0.0000000000000000     
   1.2908550327262274E-002  0.28142127326814448        0.0000000000000000     
   1.2953824030846420E-002  0.28955510382530797        0.0000000000000000     
   1.3004511818162378E-002  0.29756007134204648        0.0000000000000000     
   6.3952914401255254E-003  0.26471480678220521        0.0000000000000000     
   6.4122709304098883E-003  0.27309122385593626        0.0000000000000000     
   6.4323931490618365E-003  0.28133393288587744        0.0000000000000000     
   6.4556580960813655E-003  0.28944293387202874        0.0000000000000000     
   6.4820657714684806E-003  0.29741822681439034        0.0000000000000000     
   3.9588124445266715E-014  0.26469740136542802        0.0000000000000000     
   3.8287515519153104E-014  0.27306877191773188        0.0000000000000000     
   3.6879245317311682E-014  0.28130481942512447        0.0000000000000000     
   3.5362094112298403E-014  0.28940554388760570        0.0000000000000000     
   3.3736902160796944E-014  0.29737094530517572        0.0000000000000000     
  -6.4842662489406067E-014   5.6072231504517553E-002   0.0000000000000000     
  -4.6595106245606033E-014   6.1064549876617129E-002   0.0000000000000000     
  -2.9948591349915343E-014   6.6439478061513096E-002   0.0000000000000000     
  -1.4904174899452172E-014   7.2197016059205435E-002   0.0000000000000000     
  -1.4604203263379745E-015   7.8337163869694193E-002   0.0000000000000000     
  -3.3573120687599516E-003   5.6152352969800270E-002   0.0000000000000000     
  -3.5224327460660586E-003   6.1135228688058513E-002   0.0000000000000000     
  -3.6949916729384857E-003   6.6501312596890613E-002   0.0000000000000000     
  -3.8749888493772354E-003   7.2250604696296558E-002   0.0000000000000000     
  -4.0624242753823023E-003   7.8383104986276320E-002   0.0000000000000000     
  -6.7616510386046052E-003   5.6392717365757447E-002   0.0000000000000000     
  -7.0871757835472343E-003   6.1347265122485881E-002   0.0000000000000000     
  -7.4281089539982963E-003   6.6686816203119947E-002   0.0000000000000000     
  -7.7844505499577912E-003   7.2411370607659689E-002   0.0000000000000000     
  -8.1562005714257268E-003   7.8520928336105036E-002   0.0000000000000000     
  -1.0213016909598804E-002   5.6793324692389083E-002   0.0000000000000000     
  -1.0694229112490117E-002   6.1700659179899198E-002   0.0000000000000000     
  -1.1199351843209375E-002   6.6995988880201127E-002   0.0000000000000000     
  -1.1728385101756578E-002   7.2679313793294828E-002   0.0000000000000000     
  -1.2281328888131725E-002   7.8750633919180343E-002   0.0000000000000000     
  -1.3711409681742549E-002   5.7354174949695177E-002   0.0000000000000000     
  -1.4343592732894712E-002   6.2195410860298492E-002   0.0000000000000000     
  -1.5008720340571729E-002   6.7428830628134109E-002   0.0000000000000000     
  -1.5706792504773592E-002   7.3054434253202002E-002   0.0000000000000000     
  -1.6437809225500307E-002   7.9072221735502213E-002   0.0000000000000000     
  -1.4604203263379745E-015   7.8337163869694193E-002   0.0000000000000000     
   1.0424820728882622E-014   8.4745201291326067E-002   0.0000000000000000     
   2.0794292936859859E-014   9.1306408122447877E-002   0.0000000000000000     
   2.9651235351584038E-014   9.8020784363059596E-002   0.0000000000000000     
   3.6992110763467423E-014  0.10488833001316122        0.0000000000000000     
  -4.0624242753823023E-003   7.8383104986276320E-002   0.0000000000000000     
  -4.2487726187991860E-003   8.4784404250101197E-002   0.0000000000000000     
  -4.4255085474733738E-003   9.1340093271042380E-002   0.0000000000000000     
  -4.5926320614048700E-003   9.8050172049099882E-002   0.0000000000000000     
  -4.7501431605936704E-003  0.10491464058427370        0.0000000000000000     
  -8.1562005714257268E-003   7.8520928336105036E-002   0.0000000000000000     
  -8.5266409539836389E-003   8.4902013126501252E-002   0.0000000000000000     
  -8.8790536332130788E-003   9.1441148716893420E-002   0.0000000000000000     
  -9.2134386091140448E-003   9.8138335107281580E-002   0.0000000000000000     
  -9.5297958816865352E-003  0.10499357229766575        0.0000000000000000     
  -1.2281328888131725E-002   7.8750633919180343E-002   0.0000000000000000     
  -1.2833605005542934E-002   8.5098027920526217E-002   0.0000000000000000     
  -1.3360635257198316E-002   9.1609574460001023E-002   0.0000000000000000     
  -1.3862419643097873E-002   9.8285273537604745E-002   0.0000000000000000     
  -1.4338958163241603E-002  0.10512512515333738        0.0000000000000000     
  -1.6437809225500307E-002   7.9072221735502213E-002   0.0000000000000000     
  -1.7169664773477072E-002   8.5372448632176134E-002   0.0000000000000000     
  -1.7870253419429084E-002   9.1845370500365162E-002   0.0000000000000000     
  -1.8539575163356355E-002   9.8490987340069322E-002   0.0000000000000000     
  -1.9177630005258871E-002  0.10530929915128863        0.0000000000000000     
   3.6992110763467423E-014  0.10488833001316122        0.0000000000000000     
   4.3072750227635126E-014  0.11190654157812706        0.0000000000000000     
   4.8147141655519032E-014  0.11907291556333137        0.0000000000000000     
   5.2216667404889061E-014  0.12638745196877418        0.0000000000000000     
   5.5279131966345929E-014  0.13385015079445547        0.0000000000000000     
  -4.7501431605936704E-003  0.10491464058427370        0.0000000000000000     
  -4.8998155898798456E-003  0.11193044073650368        0.0000000000000000     
  -5.0434230941034603E-003  0.11909451436572971        0.0000000000000000     
  -5.1809656732645128E-003  0.12640686147195168        0.0000000000000000     
  -5.3124433273630057E-003  0.13386748205516968        0.0000000000000000     
  -9.5297958816865352E-003  0.10499357229766575        0.0000000000000000     
  -9.8309085136399424E-003  0.11200213821168238        0.0000000000000000     
  -1.0119559567683657E-002  0.11915931077296789        0.0000000000000000     
  -1.0395749043817674E-002  0.12646508998152234        0.0000000000000000     
  -1.0659476942041999E-002  0.13391947583734568        0.0000000000000000     
  -1.4338958163241603E-002  0.10512512515333738        0.0000000000000000     
  -1.4793278771237225E-002  0.11212163400366311        0.0000000000000000     
  -1.5228409420692446E-002  0.11926730478504603        0.0000000000000000     
  -1.5644350111607270E-002  0.12656213749748613        0.0000000000000000     
  -1.6041100843981700E-002  0.13400613214098345        0.0000000000000000     
  -1.9177630005258871E-002  0.10530929915128863        0.0000000000000000     
  -1.9786926362671681E-002  0.11228892811244592        0.0000000000000000     
  -2.0369972653129821E-002  0.11941849640196407        0.0000000000000000     
  -2.0926768876633296E-002  0.12669800401984307        0.0000000000000000     
  -2.1457315033182104E-002  0.13412745096608297        0.0000000000000000     
   5.5279131966345929E-014  0.13385015079445547        0.0000000000000000     
   5.7440163736544037E-014  0.14143737971297404        0.0000000000000000     
   5.8801162723665090E-014  0.14912550639692873        0.0000000000000000     
   5.9364649697760119E-014  0.15691453084631948        0.0000000000000000     
   5.9128917040407458E-014  0.16480445306114638        0.0000000000000000     
  -5.3124433273630057E-003  0.13386748205516968        0.0000000000000000     
  -5.4370824884330208E-003  0.14145285748331535        0.0000000000000000     
  -5.5541095885086383E-003  0.14913946912432030        0.0000000000000000     
  -5.6635246275898582E-003  0.15692731697818457        0.0000000000000000     
  -5.7653276056766805E-003  0.16481640104490816        0.0000000000000000     
  -1.0659476942041999E-002  0.13391947583734568        0.0000000000000000     
  -1.0909374526979026E-002  0.14149929079436802        0.0000000000000000     
  -1.1144073063251155E-002  0.14918135730651949        0.0000000000000000     
  -1.1363572550858384E-002  0.15696567537380007        0.0000000000000000     
  -1.1567872989800713E-002  0.16485224499620979        0.0000000000000000     
  -1.6041100843981700E-002  0.13400613214098345        0.0000000000000000     
  -1.6416876115580577E-002  0.14157667964613210        0.0000000000000000     
  -1.6769890424168744E-002  0.14925117094352630        0.0000000000000000     
  -1.7100143769746209E-002  0.15702960603316599        0.0000000000000000     
  -1.7407636152312965E-002  0.16491198491505127        0.0000000000000000     
  -2.1457315033182104E-002  0.13412745096608297        0.0000000000000000     
  -2.1959587254237668E-002  0.14168502403860755        0.0000000000000000     
  -2.2431561671261417E-002  0.14934891003534070        0.0000000000000000     
  -2.2873238284253340E-002  0.15711910895628237        0.0000000000000000     
  -2.3284617093213444E-002  0.16499562080143260        0.0000000000000000     
   5.9128917040407458E-014  0.16480445306114638        0.0000000000000000     
   5.8313597006698359E-014  0.17278826731213698        0.0000000000000000     
   5.7139622894331055E-014  0.18085896787001893        0.0000000000000000     
   5.5606669442653800E-014  0.18901655473479220        0.0000000000000000     
   5.3715712433621832E-014  0.19726102790645680        0.0000000000000000     
  -5.7653276056766805E-003  0.16481640104490816        0.0000000000000000     
  -5.8592354042654336E-003  0.17279951180757905        0.0000000000000000     
  -5.9449649048524435E-003  0.18086943974928527        0.0000000000000000     
  -6.0225161074377110E-003  0.18902618487002679        0.0000000000000000     
  -6.0918890120212335E-003  0.19726974716980364        0.0000000000000000     
  -1.1567872989800713E-002  0.16485224499620979        0.0000000000000000     
  -1.1756420492556549E-002  0.17283324529391789        0.0000000000000000     
  -1.1928661171604297E-002  0.18090085538709383        0.0000000000000000     
  -1.2084595026943952E-002  0.18905507527573751        0.0000000000000000     
  -1.2224222058575521E-002  0.19729590495984897        0.0000000000000000     
  -1.7407636152312965E-002  0.16491198491505127        0.0000000000000000     
  -1.7691555264815036E-002  0.17288946777115360        0.0000000000000000     
  -1.7951088800198415E-002  0.18095321478344462        0.0000000000000000     
  -1.8186236758463120E-002  0.18910322595192441        0.0000000000000000     
  -1.8396999139609134E-002  0.19733950127659278        0.0000000000000000     
  -2.3284617093213444E-002  0.16499562080143260        0.0000000000000000     
  -2.3664639721040881E-002  0.17296817923928609        0.0000000000000000     
  -2.4012247790634805E-002  0.18102651793833768        0.0000000000000000     
  -2.4327441301995208E-002  0.18917063689858732        0.0000000000000000     
  -2.4610220255122092E-002  0.19740053612003500        0.0000000000000000     
   5.3715712433621832E-014  0.19726102790645680        0.0000000000000000     
   5.1669389253272691E-014  0.20557490708652926        0.0000000000000000     
   4.9671855170685397E-014  0.21394071197652617        0.0000000000000000     
   4.7725007539661801E-014  0.22235844257644749        0.0000000000000000     
   4.5826623745748307E-014  0.23082809888629319        0.0000000000000000     
  -6.0918890120212335E-003  0.19726974716980364        0.0000000000000000     
  -6.1534503814265201E-003  0.20558286468676648        0.0000000000000000     
  -6.2075669784770783E-003  0.21394827545906595        0.0000000000000000     
  -6.2542388031729089E-003  0.22236597948670209        0.0000000000000000     
  -6.2934658555140075E-003  0.23083597676967482        0.0000000000000000     
  -1.2224222058575521E-002  0.19729590495984897        0.0000000000000000     
  -1.2348123941023675E-002  0.20560673748748107        0.0000000000000000     
  -1.2456882348813104E-002  0.21397096590668668        0.0000000000000000     
  -1.2550497281943806E-002  0.22238859021746579        0.0000000000000000     
  -1.2628968740415783E-002  0.23085961041981845        0.0000000000000000     
  -1.8396999139609134E-002  0.19733950127659278        0.0000000000000000     
  -1.8584020678739797E-002  0.20564652548867304        0.0000000000000000     
  -1.8747946110958407E-002  0.21400878331938833        0.0000000000000000     
  -1.8888775436264972E-002  0.22242627476873864        0.0000000000000000     
  -1.9006508654659495E-002  0.23089899983672402        0.0000000000000000     
  -2.4610220255122092E-002  0.19740053612003500        0.0000000000000000     
  -2.4861140594574879E-002  0.20570222869034233        0.0000000000000000     
  -2.5080758264912986E-002  0.21406172769717088        0.0000000000000000     
  -2.5269073266136408E-002  0.22247903314052064        0.0000000000000000     
  -2.5426085598245152E-002  0.23095414502039158        0.0000000000000000     
   4.5826623745748307E-014  0.23082809888629319        0.0000000000000000     
   4.4032702831153792E-014  0.23931664466484504        0.0000000000000000     
   4.2393822827224703E-014  0.24779104367088478        0.0000000000000000     
   4.0913182130369874E-014  0.25625129590441248        0.0000000000000000     
   3.9588124445266715E-014  0.26469740136542802        0.0000000000000000     
  -6.2934658555140075E-003  0.23083597676967482        0.0000000000000000     
  -6.3264584541701547E-003  0.23932551157843912        0.0000000000000000     
  -6.3544269178111342E-003  0.24780182818344987        0.0000000000000000     
  -6.3773712464369392E-003  0.25626492658470706        0.0000000000000000     
  -6.3952914400475722E-003  0.26471480678221071        0.0000000000000000     
  -1.2628968740415783E-002  0.23085961041981845        0.0000000000000000     
  -1.2694973308197698E-002  0.23935211231921891        0.0000000000000000     
  -1.2751187569258226E-002  0.24783418172114155        0.0000000000000000     
  -1.2797611523597366E-002  0.25630581862558638        0.0000000000000000     
  -1.2834245171215121E-002  0.26476702303255334        0.0000000000000000     
  -1.9006508654659495E-002  0.23089899983672402        0.0000000000000000     
  -1.9105544562038591E-002  0.23939644688718442        0.0000000000000000     
  -1.9190281954298886E-002  0.24788810428395983        0.0000000000000000     
  -1.9260720831440373E-002  0.25637397202705026        0.0000000000000000     
  -1.9316861193463049E-002  0.26485405011645574        0.0000000000000000     
  -2.5426085598245152E-002  0.23095414502039158        0.0000000000000000     
  -2.5558172215692843E-002  0.23945851528233564        0.0000000000000000     
  -2.5671710072933104E-002  0.24796359587190475        0.0000000000000000     
  -2.5766699169965945E-002  0.25646938678909886        0.0000000000000000     
  -2.5843139506791363E-002  0.26497588803391803        0.0000000000000000     
   3.9588124445266715E-014  0.26469740136542802        0.0000000000000000     
   3.8287515519153104E-014  0.27306877191773188        0.0000000000000000     
   3.6879245317311682E-014  0.28130481942512447        0.0000000000000000     
   3.5362094112298403E-014  0.28940554388760570        0.0000000000000000     
   3.3736902160796944E-014  0.29737094530517572        0.0000000000000000     
  -6.3952914400475722E-003  0.26471480678221071        0.0000000000000000     
  -6.4122709303345207E-003  0.27309122385594287        0.0000000000000000     
  -6.4323931489892626E-003  0.28133393288588554        0.0000000000000000     
  -6.4556580960118057E-003  0.28944293387203879        0.0000000000000000     
  -6.4820657714021439E-003  0.29741822681440250        0.0000000000000000     
  -1.2834245171215121E-002  0.26476702303255334        0.0000000000000000     
  -1.2868690707338185E-002  0.27315857967056917        0.0000000000000000     
  -1.2908550327193260E-002  0.28142127326816063        0.0000000000000000     
  -1.2953824030780351E-002  0.28955510382532773        0.0000000000000000     
  -1.3004511818099453E-002  0.29756007134207041        0.0000000000000000     
  -1.9316861193463049E-002  0.26485405011645574        0.0000000000000000     
  -1.9369259330972704E-002  0.27327083936161073        0.0000000000000000     
  -1.9428471534575113E-002  0.28156684057194964        0.0000000000000000     
  -1.9494497804270271E-002  0.28974205374747253        0.0000000000000000     
  -1.9567338140058187E-002  0.29779647888817945        0.0000000000000000     
  -2.5843139506791363E-002  0.26497588803391803        0.0000000000000000     
  -2.5913976801238081E-002  0.27342800292906755        0.0000000000000000     
  -2.5992156771134815E-002  0.28177063479725267        0.0000000000000000     
  -2.6077679416481574E-002  0.29000378363847334        0.0000000000000000     
  -2.6170544737278353E-002  0.29812744945272962        0.0000000000000000     
  -1.3711409681742549E-002   5.7354174949695177E-002   0.0000000000000000     
  -1.4343592732894712E-002   6.2195410860298492E-002   0.0000000000000000     
  -1.5008720340571729E-002   6.7428830628134109E-002   0.0000000000000000     
  -1.5706792504773592E-002   7.3054434253202002E-002   0.0000000000000000     
  -1.6437809225500307E-002   7.9072221735502213E-002   0.0000000000000000     
  -1.7300978091385474E-002   5.7960150990867543E-002   0.0000000000000000     
  -1.8069692694196445E-002   6.2737129845814060E-002   0.0000000000000000     
  -1.8884859364145187E-002   6.7910336695556517E-002   0.0000000000000000     
  -1.9746478101231691E-002   7.3479771540094968E-002   0.0000000000000000     
  -2.0654548905455962E-002   7.9445434379429372E-002   0.0000000000000000     
  -2.1025870874877218E-002   5.8496135669097983E-002   0.0000000000000000     
  -2.1906955045830755E-002   6.3231425818576187E-002   0.0000000000000000     
  -2.2856413831989587E-002   6.8365502331105998E-002   0.0000000000000000     
  -2.3874247233353737E-002   7.3898365206687425E-002   0.0000000000000000     
  -2.4960455249923186E-002   7.9830014445320480E-002   0.0000000000000000     
  -2.4886088032217778E-002   5.8962128984386505E-002   0.0000000000000000     
  -2.5855379787797620E-002   6.3678298778584885E-002   0.0000000000000000     
  -2.6923383744104936E-002   6.8794327534782526E-002   0.0000000000000000     
  -2.8090099901139722E-002   7.4310215252979414E-002   0.0000000000000000     
  -2.9355528258901982E-002   8.0225961933175563E-002   0.0000000000000000     
  -2.8881629563407160E-002   5.9358130936733110E-002   0.0000000000000000     
  -2.9914966920097062E-002   6.4077748725840156E-002   0.0000000000000000     
  -3.1085769100491229E-002   6.9196812306586086E-002   0.0000000000000000     
  -3.2394036104589657E-002   7.4715321678970895E-002   0.0000000000000000     
  -3.3839767932392344E-002   8.0633276842994608E-002   0.0000000000000000     
  -1.6437809225500307E-002   7.9072221735502213E-002   0.0000000000000000     
  -1.7169664773477072E-002   8.5372448632176134E-002   0.0000000000000000     
  -1.7870253419429084E-002   9.1845370500365162E-002   0.0000000000000000     
  -1.8539575163356355E-002   9.8490987340069322E-002   0.0000000000000000     
  -1.9177630005258871E-002  0.10530929915128863        0.0000000000000000     
  -2.0654548905455962E-002   7.9445434379429372E-002   0.0000000000000000     
  -2.1567259970376233E-002   8.5699285289579430E-002   0.0000000000000000     
  -2.2442799489550747E-002   9.2133284346564842E-002   0.0000000000000000     
  -2.3281167462979507E-002   9.8747431550385650E-002   0.0000000000000000     
  -2.4082363890662508E-002  0.10554172690104180        0.0000000000000000     
  -2.4960455249923186E-002   7.9830014445320480E-002   0.0000000000000000     
  -2.6058830308830608E-002   8.6052547920864544E-002   0.0000000000000000     
  -2.7113164837208662E-002   9.2458063507179028E-002   0.0000000000000000     
  -2.8123458835057347E-002   9.9046561204263930E-002   0.0000000000000000     
  -2.9089712302376669E-002  0.10581804101211927        0.0000000000000000     
  -2.9355528258901982E-002   8.0225961933175563E-002   0.0000000000000000     
  -3.0644375788840189E-002   8.6432236526031492E-002   0.0000000000000000     
  -3.1881349462402828E-002   9.2819707982207705E-002   0.0000000000000000     
  -3.3066449279589884E-002   9.9388376301704218E-002   0.0000000000000000     
  -3.4199675240401364E-002  0.10613824148452103        0.0000000000000000     
  -3.3839767932392344E-002   8.0633276842994608E-002   0.0000000000000000     
  -3.5323896410404981E-002   8.6838351105080244E-002   0.0000000000000000     
  -3.6747353365133233E-002   9.3218217771650874E-002   0.0000000000000000     
  -3.8110138796577098E-002   9.9772876842706498E-002   0.0000000000000000     
  -3.9412252704736583E-002  0.10650232831824707        0.0000000000000000     
  -1.9177630005258871E-002  0.10530929915128863        0.0000000000000000     
  -1.9786926362671681E-002  0.11228892811244592        0.0000000000000000     
  -2.0369972653129821E-002  0.11941849640196407        0.0000000000000000     
  -2.0926768876633296E-002  0.12669800401984307        0.0000000000000000     
  -2.1457315033182104E-002  0.13412745096608297        0.0000000000000000     
  -2.4082363890662508E-002  0.10554172690104180        0.0000000000000000     
  -2.4848159054875814E-002  0.11250141067466109        0.0000000000000000     
  -2.5580323237895497E-002  0.11961172314737137        0.0000000000000000     
  -2.6278856439721544E-002  0.12687266431917257        0.0000000000000000     
  -2.6943758660353968E-002  0.13428423419006474        0.0000000000000000     
  -2.9089712302376669E-002  0.10581804101211927        0.0000000000000000     
  -3.0013284614782112E-002  0.11275647182693903        0.0000000000000000     
  -3.0895535147889151E-002  0.11984582254491730        0.0000000000000000     
  -3.1736463901697792E-002  0.12708609316605401        0.0000000000000000     
  -3.2536070876208030E-002  0.13447728369034925        0.0000000000000000     
  -3.4199675240401364E-002  0.10613824148452103        0.0000000000000000     
  -3.5282303042390564E-002  0.11305411156927969        0.0000000000000000     
  -3.6315608383110792E-002  0.12012079459460182        0.0000000000000000     
  -3.7299591262562035E-002  0.12733829056048737        0.0000000000000000     
  -3.8234251680744298E-002  0.13470659946693642        0.0000000000000000     
  -3.9412252704736583E-002  0.10650232831824707        0.0000000000000000     
  -4.0655214337701195E-002  0.11339432990168311        0.0000000000000000     
  -4.1840542943560433E-002  0.12043663929642499        0.0000000000000000     
  -4.2968238522314281E-002  0.12762925650247270        0.0000000000000000     
  -4.4038301073962761E-002  0.13497218151982629        0.0000000000000000     
  -2.1457315033182104E-002  0.13412745096608297        0.0000000000000000     
  -2.1959587254237668E-002  0.14168502403860755        0.0000000000000000     
  -2.2431561671261417E-002  0.14934891003534070        0.0000000000000000     
  -2.2873238284253340E-002  0.15711910895628237        0.0000000000000000     
  -2.3284617093213444E-002  0.16499562080143260        0.0000000000000000     
  -2.6943758660353968E-002  0.13428423419006474        0.0000000000000000     
  -2.7572993738301656E-002  0.14182574461441372        0.0000000000000000     
  -2.8164525512073511E-002  0.14947650744658539        0.0000000000000000     
  -2.8718353981669529E-002  0.15723652268657967        0.0000000000000000     
  -2.9234479147089713E-002  0.16510579033439660        0.0000000000000000     
  -3.2536070876208030E-002  0.13447728369034925        0.0000000000000000     
  -3.3292581363123901E-002  0.14200026201616989        0.0000000000000000     
  -3.4004220654149396E-002  0.14963589604188288        0.0000000000000000     
  -3.4670988749284558E-002  0.15738418576748833        0.0000000000000000     
  -3.5292885648529344E-002  0.16524513119298612        0.0000000000000000     
  -3.8234251680744298E-002  0.13470659946693642        0.0000000000000000     
  -3.9118350128704377E-002  0.14220857624387601        0.0000000000000000     
  -3.9950647097489078E-002  0.14982707582123334        0.0000000000000000     
  -4.0731142587098389E-002  0.15756209819900838        0.0000000000000000     
  -4.1459836597532329E-002  0.16541364337720116        0.0000000000000000     
  -4.4038301073962761E-002  0.13497218151982629        0.0000000000000000     
  -4.5050300035043095E-002  0.14245068729753213        0.0000000000000000     
  -4.6003804842092537E-002  0.15005004678463663        0.0000000000000000     
  -4.6898815495111060E-002  0.15777025998113983        0.0000000000000000     
  -4.7735331994098670E-002  0.16561132688704167        0.0000000000000000     
  -2.3284617093213444E-002  0.16499562080143260        0.0000000000000000     
  -2.3664639721040881E-002  0.17296817923928609        0.0000000000000000     
  -2.4012247790634805E-002  0.18102651793833768        0.0000000000000000     
  -2.4327441301995208E-002  0.18917063689858732        0.0000000000000000     
  -2.4610220255122092E-002  0.19740053612003500        0.0000000000000000     
  -2.9234479147089713E-002  0.16510579033439660        0.0000000000000000     
  -2.9711628208515830E-002  0.17307214710148822        0.0000000000000000     
  -3.0148528366129666E-002  0.18112342969930634        0.0000000000000000     
  -3.0545179619931202E-002  0.18925963812785113        0.0000000000000000     
  -3.0901581969920457E-002  0.19748077238712244        0.0000000000000000     
  -3.5292885648529344E-002  0.16524513119298612        0.0000000000000000     
  -3.5868475074521608E-002  0.17320413876093257        0.0000000000000000     
  -3.6396320749899187E-002  0.18124661491388405        0.0000000000000000     
  -3.6876422674662089E-002  0.18937255965184041        0.0000000000000000     
  -3.7308780848810293E-002  0.19758197297480179        0.0000000000000000     
  -4.1459836597532329E-002  0.16541364337720116        0.0000000000000000     
  -4.2135180319058212E-002  0.17336415421761939        0.0000000000000000     
  -4.2755624941943383E-002  0.18139607358207074        0.0000000000000000     
  -4.3321170466187844E-002  0.18950940147055528        0.0000000000000000     
  -4.3831816891791595E-002  0.19770413788307306        0.0000000000000000     
  -4.7735331994098670E-002  0.16561132688704167        0.0000000000000000     
  -4.8511743942125651E-002  0.17355219347154849        0.0000000000000000     
  -4.9226440942262265E-002  0.18157180570386650        0.0000000000000000     
  -4.9879422994508503E-002  0.18967016358399574        0.0000000000000000     
  -5.0470690098864374E-002  0.19784726711193618        0.0000000000000000     
  -2.4610220255122092E-002  0.19740053612003500        0.0000000000000000     
  -2.4861140594574879E-002  0.20570222869034233        0.0000000000000000     
  -2.5080758264912986E-002  0.21406172769717088        0.0000000000000000     
  -2.5269073266136408E-002  0.22247903314052064        0.0000000000000000     
  -2.5426085598245152E-002  0.23095414502039158        0.0000000000000000     
  -3.0901581969920457E-002  0.19748077238712244        0.0000000000000000     
  -3.1218050289055985E-002  0.20577476769159317        0.0000000000000000     
  -3.1494899450296342E-002  0.21412955925573599        0.0000000000000000     
  -3.1732129453641539E-002  0.22254514707955089        0.0000000000000000     
  -3.1929740299091576E-002  0.23102153116303800        0.0000000000000000     
  -3.7308780848810293E-002  0.19758197297480179        0.0000000000000000     
  -3.7693316362710137E-002  0.20586506309152958        0.0000000000000000     
  -3.8029950306727969E-002  0.21421203821078522        0.0000000000000000     
  -3.8318682680863796E-002  0.22262289833256868        0.0000000000000000     
  -3.8559513485117602E-002  0.23109764345688005        0.0000000000000000     
  -4.3831816891791595E-002  0.19770413788307306        0.0000000000000000     
  -4.4286938815537358E-002  0.20597311489015155        0.0000000000000000     
  -4.4685910834207893E-002  0.21430916456231858        0.0000000000000000     
  -4.5028732947803171E-002  0.22271228689957395        0.0000000000000000     
  -4.5315405156323235E-002  0.23118248190191784        0.0000000000000000     
  -5.0470690098864374E-002  0.19784726711193618        0.0000000000000000     
  -5.0998917647537646E-002  0.20609892308745920        0.0000000000000000     
  -5.1462781032736091E-002  0.21442093831033607        0.0000000000000000     
  -5.1862280254459693E-002  0.22281331278056674        0.0000000000000000     
  -5.2197415312708467E-002  0.23127604649815126        0.0000000000000000     
  -2.5426085598245152E-002  0.23095414502039158        0.0000000000000000     
  -2.5558172215692843E-002  0.23945851528233564        0.0000000000000000     
  -2.5671710072933104E-002  0.24796359587190475        0.0000000000000000     
  -2.5766699169965945E-002  0.25646938678909886        0.0000000000000000     
  -2.5843139506791363E-002  0.26497588803391803        0.0000000000000000     
  -3.1929740299091576E-002  0.23102153116303800        0.0000000000000000     
  -3.2095844044917901E-002  0.23953312995654893        0.0000000000000000     
  -3.2238552749391962E-002  0.24805436191043562        0.0000000000000000     
  -3.2357866412513744E-002  0.25658522702469799        0.0000000000000000     
  -3.2453785034283263E-002  0.26512572529933609        0.0000000000000000     
  -3.8559513485117602E-002  0.23109764345688005        0.0000000000000000     
  -3.8761547825471226E-002  0.23961510336170061        0.0000000000000000     
  -3.8933890807906484E-002  0.24815410782501177        0.0000000000000000     
  -3.9076542432423408E-002  0.25671465684681355        0.0000000000000000     
  -3.9189502699021966E-002  0.26529675042710582        0.0000000000000000     
  -4.5315405156323235E-002  0.23118248190191784        0.0000000000000000     
  -4.5555283557352819E-002  0.23970443549779069        0.0000000000000000     
  -4.5757724248476711E-002  0.24826283361563323        0.0000000000000000     
  -4.5922727229694940E-002  0.25685767625544531        0.0000000000000000     
  -4.6050292501007457E-002  0.26548896341722711        0.0000000000000000     
  -5.2197415312708467E-002  0.23127604649815126        0.0000000000000000     
  -5.2477051240562678E-002  0.23980112636481918        0.0000000000000000     
  -5.2710053071102637E-002  0.24838053928229992        0.0000000000000000     
  -5.2896420804328333E-002  0.25701428525059355        0.0000000000000000     
  -5.3036154440239770E-002  0.26570236426970001        0.0000000000000000     
  -2.5843139506791363E-002  0.26497588803391803        0.0000000000000000     
  -2.5913976801238081E-002  0.27342800292906755        0.0000000000000000     
  -2.5992156771134815E-002  0.28177063479725267        0.0000000000000000     
  -2.6077679416481574E-002  0.29000378363847334        0.0000000000000000     
  -2.6170544737278353E-002  0.29812744945272962        0.0000000000000000     
  -3.2453785034283263E-002  0.26512572529933609        0.0000000000000000     
  -3.2542006194517609E-002  0.27362322847202147        0.0000000000000000     
  -3.2638227473033847E-002  0.28202510828042560        0.0000000000000000     
  -3.2742448869831978E-002  0.29033136472454851        0.0000000000000000     
  -3.2854670384912014E-002  0.29854199780439028        0.0000000000000000     
  -3.9189502699021966E-002  0.26529675042710582        0.0000000000000000     
  -3.9292510587194594E-002  0.27384967408955430        0.0000000000000000     
  -3.9405305076433667E-002  0.28232271335782461        0.0000000000000000     
  -3.9527886166739225E-002  0.29071586823191670        0.0000000000000000     
  -3.9660253858111241E-002  0.29902913871183062        0.0000000000000000     
  -4.6050292501007457E-002  0.26548896341722711        0.0000000000000000     
  -4.6165489979269017E-002  0.27410733978166602        0.0000000000000000     
  -4.6293389581334304E-002  0.28266345002944959        0.0000000000000000     
  -4.6433991307203312E-002  0.29115729416057778        0.0000000000000000     
  -4.6587295156876034E-002  0.29958887217505065        0.0000000000000000     
  -5.3036154440239770E-002  0.26570236426970001        0.0000000000000000     
  -5.3160944370740905E-002  0.27439622554835658        0.0000000000000000     
  -5.3302480987735726E-002  0.28304731829530055        0.0000000000000000     
  -5.3460764291224219E-002  0.29165564251053178        0.0000000000000000     
  -5.3635794281206392E-002  0.30022119819405046        0.0000000000000000     
  -2.8881629563407160E-002   5.9358130936733110E-002   0.0000000000000000     
  -2.9914966920097062E-002   6.4077748725840156E-002   0.0000000000000000     
  -3.1085769100491229E-002   6.9196812306586086E-002   0.0000000000000000     
  -3.2394036104589657E-002   7.4715321678970895E-002   0.0000000000000000     
  -3.3839767932392344E-002   8.0633276842994608E-002   0.0000000000000000     
  -3.3057707706619560E-002   5.9593947324512488E-002   0.0000000000000000     
  -3.4165693565111163E-002   6.4392917679003542E-002   0.0000000000000000     
  -3.5445726941351993E-002   6.9572133915760767E-002   0.0000000000000000     
  -3.6897807835342071E-002   7.5131596034784170E-002   0.0000000000000000     
  -3.8521936247081376E-002   8.1071304036073710E-002   0.0000000000000000     
  -3.7459534700029183E-002   5.9579383946099317E-002   0.0000000000000000     
  -3.8687536845222019E-002   6.4586947656736587E-002   0.0000000000000000     
  -4.0105414306890796E-002   6.9919469631550629E-002   0.0000000000000000     
  -4.1713167085035495E-002   7.5576949870541435E-002   0.0000000000000000     
  -4.3510795179656163E-002   8.1559388373708991E-002   0.0000000000000000     
  -4.2087110543636029E-002   5.9314440801493604E-002   0.0000000000000000     
  -4.3480496760429629E-002   6.4659838659039293E-002   0.0000000000000000     
  -4.5064831197107601E-002   7.0238819453955659E-002   0.0000000000000000     
  -4.6840113853669957E-002   7.6051383186242688E-002   0.0000000000000000     
  -4.8806344730116684E-002   8.2097529855900422E-002   0.0000000000000000     
  -4.6940435237440084E-002   5.8799117890695356E-002   0.0000000000000000     
  -4.8544573310733995E-002   6.4611590685911643E-002   0.0000000000000000     
  -5.0323977612002448E-002   7.0530183382975842E-002   0.0000000000000000     
  -5.2278648141245450E-002   7.6554895981887972E-002   0.0000000000000000     
  -5.4408584898462967E-002   8.2685728482648019E-002   0.0000000000000000     
  -3.3839767932392344E-002   8.0633276842994608E-002   0.0000000000000000     
  -3.5323896410404981E-002   8.6838351105080244E-002   0.0000000000000000     
  -3.6747353365133233E-002   9.3218217771650874E-002   0.0000000000000000     
  -3.8110138796577098E-002   9.9772876842706498E-002   0.0000000000000000     
  -3.9412252704736583E-002  0.10650232831824707        0.0000000000000000     
  -3.8521936247081376E-002   8.1071304036073710E-002   0.0000000000000000     
  -4.0196787343668272E-002   8.7283651458183287E-002   0.0000000000000000     
  -4.1801036292201096E-002   9.3661031839666745E-002   0.0000000000000000     
  -4.3334683092679856E-002  0.10020344518052404        0.0000000000000000     
  -4.4797727745104557E-002  0.10691089148075522        0.0000000000000000     
  -4.3510795179656163E-002   8.1559388373708991E-002   0.0000000000000000     
  -4.5362443758773331E-002   8.7780897385513104E-002   0.0000000000000000     
  -4.7132257990407614E-002   9.4155589150413513E-002   0.0000000000000000     
  -4.8820237874558990E-002  0.10068346366841023        0.0000000000000000     
  -5.0426383411227488E-002  0.10736452093950324        0.0000000000000000     
  -4.8806344730116684E-002   8.2097529855900422E-002   0.0000000000000000     
  -5.0820865655720159E-002   8.8330088887069627E-002   0.0000000000000000     
  -5.2741018459752771E-002   9.4701889703891179E-002   0.0000000000000000     
  -5.4566803142214515E-002  0.10121293230636498        0.0000000000000000     
  -5.6298219703105397E-002  0.10786321669449112        0.0000000000000000     
  -5.4408584898462967E-002   8.2685728482648019E-002   0.0000000000000000     
  -5.6572053034508782E-002   8.8931225962852925E-002   0.0000000000000000     
  -5.8627317700236596E-002   9.5299933500099715E-002   0.0000000000000000     
  -6.0574378895646423E-002  0.10179185109438833        0.0000000000000000     
  -6.2413236620738256E-002  0.10840697874571883        0.0000000000000000     
  -3.9412252704736583E-002  0.10650232831824707        0.0000000000000000     
  -4.0655214337701195E-002  0.11339432990168311        0.0000000000000000     
  -4.1840542943560433E-002  0.12043663929642499        0.0000000000000000     
  -4.2968238522314281E-002  0.12762925650247270        0.0000000000000000     
  -4.4038301073962761E-002  0.13497218151982629        0.0000000000000000     
  -4.4797727745104557E-002  0.10691089148075522        0.0000000000000000     
  -4.6193134149825663E-002  0.11377608736469547        0.0000000000000000     
  -4.7523866207193614E-002  0.12079174945667996        0.0000000000000000     
  -4.8789923917208461E-002  0.12795787775670875        0.0000000000000000     
  -4.9991307279870154E-002  0.13527447226478173        0.0000000000000000     
  -5.0426383411227488E-002  0.10736452093950324        0.0000000000000000     
  -5.1957178127875626E-002  0.11419834449886301        0.0000000000000000     
  -5.3419105551965960E-002  0.12118451788165999        0.0000000000000000     
  -5.4812165683498476E-002  0.12832304108789416        0.0000000000000000     
  -5.6136358522473187E-002  0.13561391411756554        0.0000000000000000     
  -5.6298219703105397E-002  0.10786321669449112        0.0000000000000000     
  -5.7947346271851136E-002  0.11466110130418573        0.0000000000000000     
  -5.9526260977877450E-002  0.12161494457136504        0.0000000000000000     
  -6.1034963821184361E-002  0.12872474649602908        0.0000000000000000     
  -6.2473454801771876E-002  0.13599050707817775        0.0000000000000000     
  -6.2413236620738256E-002  0.10840697874571883        0.0000000000000000     
  -6.4163638581752128E-002  0.11516435778066363        0.0000000000000000     
  -6.5845332484928076E-002  0.12208302952579514        0.0000000000000000     
  -6.7458318330266095E-002  0.12916299398111339        0.0000000000000000     
  -6.9002596117766185E-002  0.13640425114661839        0.0000000000000000     
  -4.4038301073962761E-002  0.13497218151982629        0.0000000000000000     
  -4.5050300035043095E-002  0.14245068729753213        0.0000000000000000     
  -4.6003804842092537E-002  0.15005004678463663        0.0000000000000000     
  -4.6898815495111060E-002  0.15777025998113983        0.0000000000000000     
  -4.7735331994098670E-002  0.16561132688704167        0.0000000000000000     
  -4.9991307279870154E-002  0.13527447226478173        0.0000000000000000     
  -5.1128100757977607E-002  0.14272875633277765        0.0000000000000000     
  -5.2200388814329715E-002  0.15030795331257527        0.0000000000000000     
  -5.3208171448926471E-002  0.15801206320417449        0.0000000000000000     
  -5.4151448661767874E-002  0.16584108600757536        0.0000000000000000     
  -5.6136358522473187E-002  0.13561391411756554        0.0000000000000000     
  -5.7391421973345423E-002  0.14304494450525204        0.0000000000000000     
  -5.8577093940570542E-002  0.15060393978553158        0.0000000000000000     
  -5.9693374424148529E-002  0.15829089995840417        0.0000000000000000     
  -6.0740263424079406E-002  0.16610582502386981        0.0000000000000000     
  -6.2473454801771876E-002  0.13599050707817775        0.0000000000000000     
  -6.3840263681146550E-002  0.14339925181495525        0.0000000000000000     
  -6.5133920220815017E-002  0.15093800620350564        0.0000000000000000     
  -6.6354424420777269E-002  0.15860677024382891        0.0000000000000000     
  -6.7501776281033293E-002  0.16640554393592505        0.0000000000000000     
  -6.9002596117766185E-002  0.13640425114661839        0.0000000000000000     
  -7.0474625881380995E-002  0.14379167826188730        0.0000000000000000     
  -7.1870867655063148E-002  0.15131015256649741        0.0000000000000000     
  -7.3191321438812643E-002  0.15895967406044864        0.0000000000000000     
  -7.4435987232629508E-002  0.16674024274374105        0.0000000000000000     
  -4.7735331994098670E-002  0.16561132688704167        0.0000000000000000     
  -4.8511743942125651E-002  0.17355219347154849        0.0000000000000000     
  -4.9226440942262265E-002  0.18157180570386650        0.0000000000000000     
  -4.9879422994508503E-002  0.18967016358399574        0.0000000000000000     
  -5.0470690098864374E-002  0.19784726711193618        0.0000000000000000     
  -5.4151448661767874E-002  0.16584108600757536        0.0000000000000000     
  -5.5028459439136396E-002  0.17377053767994391        0.0000000000000000     
  -5.5837442767314505E-002  0.18177593417844626        0.0000000000000000     
  -5.6578398646302215E-002  0.18985727550308232        0.0000000000000000     
  -5.7251327076099513E-002  0.19801456165385217        0.0000000000000000     
  -6.0740263424079406E-002  0.16610582502386981        0.0000000000000000     
  -6.1715620305502920E-002  0.17402146800002971        0.0000000000000000     
  -6.2617304433558826E-002  0.18201058190498504        0.0000000000000000     
  -6.3445315808247152E-002  0.19007316673873578        0.0000000000000000     
  -6.4199654429567890E-002  0.19820922250128201        0.0000000000000000     
  -6.7501776281033293E-002  0.16640554393592505        0.0000000000000000     
  -6.8573226541225232E-002  0.17430498443180575        0.0000000000000000     
  -6.9566025940995271E-002  0.18227574888348277        0.0000000000000000     
  -7.0480174480343327E-002  0.19031783729095605        0.0000000000000000     
  -7.1315672159269497E-002  0.19843124965422562        0.0000000000000000     
  -7.4435987232629508E-002  0.16674024274374105        0.0000000000000000     
  -7.5601278146303325E-002  0.17462108697527218        0.0000000000000000     
  -7.6683607289623756E-002  0.18257143511393956        0.0000000000000000     
  -7.7682974662590748E-002  0.19059128715974316        0.0000000000000000     
  -7.8599380265204341E-002  0.19868064311268308        0.0000000000000000     
  -5.0470690098864374E-002  0.19784726711193618        0.0000000000000000     
  -5.0998917647537646E-002  0.20609892308745920        0.0000000000000000     
  -5.1462781032736091E-002  0.21442093831033607        0.0000000000000000     
  -5.1862280254459693E-002  0.22281331278056674        0.0000000000000000     
  -5.2197415312708467E-002  0.23127604649815126        0.0000000000000000     
  -5.7251327076099513E-002  0.19801456165385217        0.0000000000000000     
  -5.7854720914331359E-002  0.20624640610857761        0.0000000000000000     
  -5.8387073018622705E-002  0.21455142234508040        0.0000000000000000     
  -5.8848383388973559E-002  0.22292961036336045        0.0000000000000000     
  -5.9238652025383906E-002  0.23138097016341788        0.0000000000000000     
  -6.4199654429567890E-002  0.19820922250128201        0.0000000000000000     
  -6.4879816671538859E-002  0.20641948237863209        0.0000000000000000     
  -6.5485298908177905E-002  0.21470467955679426        0.0000000000000000     
  -6.6016101139485014E-002  0.22306481403576861        0.0000000000000000     
  -6.6472223365460215E-002  0.23149988581555508        0.0000000000000000     
  -7.1315672159269497E-002  0.19843124965422562        0.0000000000000000     
  -7.2074204919160140E-002  0.20661815189762250        0.0000000000000000     
  -7.2757458701401670E-002  0.21488070994547770        0.0000000000000000     
  -7.3365433505994060E-002  0.22321892379779112        0.0000000000000000     
  -7.3898129332937351E-002  0.23163279345456286        0.0000000000000000     
  -7.8599380265204341E-002  0.19868064311268308        0.0000000000000000     
  -7.9437885657195201E-002  0.20684241466554898        0.0000000000000000     
  -8.0203552398293979E-002  0.21507951351113067        0.0000000000000000     
  -8.0896380488500702E-002  0.22339193964942808        0.0000000000000000     
  -8.1516369927815330E-002  0.23177969308044130        0.0000000000000000     
  -5.2197415312708467E-002  0.23127604649815126        0.0000000000000000     
  -5.2477051240562678E-002  0.23980112636481918        0.0000000000000000     
  -5.2710053071102637E-002  0.24838053928229992        0.0000000000000000     
  -5.2896420804328333E-002  0.25701428525059355        0.0000000000000000     
  -5.3036154440239770E-002  0.26570236426970001        0.0000000000000000     
  -5.9238652025383906E-002  0.23138097016341788        0.0000000000000000     
  -5.9564866320256572E-002  0.23990530350254791        0.0000000000000000     
  -5.9834013665994321E-002  0.24850241213804575        0.0000000000000000     
  -6.0046094062597186E-002  0.25717229606991138        0.0000000000000000     
  -6.0201107510065147E-002  0.26591495529814491        0.0000000000000000     
  -6.6472223365460215E-002  0.23149988581555508        0.0000000000000000     
  -6.6856744241590244E-002  0.24001709445073868        0.0000000000000000     
  -6.7172742423361853E-002  0.24862363949590444        0.0000000000000000     
  -6.7420217910775085E-002  0.25731952095105221        0.0000000000000000     
  -6.7599170703829883E-002  0.26610473881618207        0.0000000000000000     
  -7.3898129332937351E-002  0.23163279345456286        0.0000000000000000     
  -7.4352685004563684E-002  0.24013649920939159        0.0000000000000000     
  -7.4726239343205242E-002  0.24874422135587601        0.0000000000000000     
  -7.5018792348862010E-002  0.25745595989401593        0.0000000000000000     
  -7.5230344021533974E-002  0.26627171482381157        0.0000000000000000     
  -8.1516369927815330E-002  0.23177969308044130        0.0000000000000000     
  -8.2052688609176930E-002  0.24026351777850663        0.0000000000000000     
  -8.2494504425524459E-002  0.24886415771796042        0.0000000000000000     
  -8.2841817376857974E-002  0.25758161289880260        0.0000000000000000     
  -8.3094627463177445E-002  0.26641588332103339        0.0000000000000000     
  -5.3036154440239770E-002  0.26570236426970001        0.0000000000000000     
  -5.3160944370740905E-002  0.27439622554835658        0.0000000000000000     
  -5.3302480987735726E-002  0.28304731829530055        0.0000000000000000     
  -5.3460764291224219E-002  0.29165564251053178        0.0000000000000000     
  -5.3635794281206392E-002  0.30022119819405046        0.0000000000000000     
  -6.0201107510065147E-002  0.26591495529814491        0.0000000000000000     
  -6.0336657348164305E-002  0.27468697012820853        0.0000000000000000     
  -6.0490346916660762E-002  0.28344492086556455        0.0000000000000000     
  -6.0662176215554524E-002  0.29218880751021309        0.0000000000000000     
  -6.0852145244845578E-002  0.30091863006215408        0.0000000000000000     
  -6.7599170703829883E-002  0.26610473881618207        0.0000000000000000     
  -6.7750412498093257E-002  0.27495021225980421        0.0000000000000000     
  -6.7914754989132214E-002  0.28382686045042893        0.0000000000000000     
  -6.8092198176946755E-002  0.29273468338805603        0.0000000000000000     
  -6.8282742061536839E-002  0.30167368107268566        0.0000000000000000     
  -7.5230344021533974E-002  0.26627171482381157        0.0000000000000000     
  -7.5402209820527810E-002  0.27518595194314377        0.0000000000000000     
  -7.5575705205150126E-002  0.28419313704989346        0.0000000000000000     
  -7.5750830175400907E-002  0.29329327014406054        0.0000000000000000     
  -7.5927584731280182E-002  0.30248635122564521        0.0000000000000000     
  -8.3094627463177445E-002  0.26641588332103339        0.0000000000000000     
  -8.3292049315467936E-002  0.27539418917822700        0.0000000000000000     
  -8.3473197564714441E-002  0.28454375066395815        0.0000000000000000     
  -8.3638072210917014E-002  0.29386456777822673        0.0000000000000000     
  -8.3786673254075600E-002  0.30335664052103273        0.0000000000000000     
  -4.6940435237440084E-002   5.8799117890695356E-002   0.0000000000000000     
  -4.8544573310733995E-002   6.4611590685911643E-002   0.0000000000000000     
  -5.0323977612002448E-002   7.0530183382975842E-002   0.0000000000000000     
  -5.2278648141245450E-002   7.6554895981887972E-002   0.0000000000000000     
  -5.4408584898462967E-002   8.2685728482648019E-002   0.0000000000000000     
  -5.2617205445262619E-002   5.8128771776941757E-002   0.0000000000000000     
  -5.4305266819784592E-002   6.4485388585454911E-002   0.0000000000000000     
  -5.6168061309581872E-002   7.0799072480407871E-002   0.0000000000000000     
  -5.8205588914654466E-002   7.7069823461800635E-002   0.0000000000000000     
  -6.0417849635002366E-002   8.3297641529633190E-002   0.0000000000000000     
  -5.9715117830924883E-002   5.7398759023470032E-002   0.0000000000000000     
  -6.1188077611230893E-002   6.4324417205770368E-002   0.0000000000000000     
  -6.2882290047852452E-002   7.1050997808048397E-002   0.0000000000000000     
  -6.4797755140789559E-002   7.7578500830304070E-002   0.0000000000000000     
  -6.6934472890042201E-002   8.3906926272537430E-002   0.0000000000000000     
  -6.8234172394426862E-002   5.6609079630280147E-002   0.0000000000000000     
  -6.9193005685072889E-002   6.4128676546858013E-002   0.0000000000000000     
  -7.0466663826814185E-002   7.1285959365897406E-002   0.0000000000000000     
  -7.2055146819650723E-002   7.8080928087398291E-002   0.0000000000000000     
  -7.3958454663582501E-002   8.4513582711360724E-002   0.0000000000000000     
  -7.8174369135768570E-002   5.5759733597372130E-002   0.0000000000000000     
  -7.8320051041310609E-002   6.3898166608717819E-002   0.0000000000000000     
  -7.8921182646467081E-002   7.1503957153954883E-002   0.0000000000000000     
  -7.9977763951237971E-002   7.8577105233083283E-002   0.0000000000000000     
  -8.1489794955623279E-002   8.5117610846103059E-002   0.0000000000000000     
  -5.4408584898462967E-002   8.2685728482648019E-002   0.0000000000000000     
  -5.6572053034508782E-002   8.8931225962852925E-002   0.0000000000000000     
  -5.8627317700236596E-002   9.5299933500099715E-002   0.0000000000000000     
  -6.0574378895646423E-002  0.10179185109438833        0.0000000000000000     
  -6.2413236620738256E-002  0.10840697874571883        0.0000000000000000     
  -6.0417849635002366E-002   8.3297641529633190E-002   0.0000000000000000     
  -6.2664184433212103E-002   8.9557695566622852E-002   0.0000000000000000     
  -6.4803934271870284E-002   9.5925154455486883E-002   0.0000000000000000     
  -6.6837099150976867E-002  0.10240001819622532        0.0000000000000000     
  -6.8763679070531880E-002  0.10898228678883813        0.0000000000000000     
  -6.6934472890042201E-002   8.3906926272537430E-002   0.0000000000000000     
  -6.9145438389903127E-002   9.0182884652139278E-002   0.0000000000000000     
  -7.1283646734665099E-002   9.6552986486500431E-002   0.0000000000000000     
  -7.3349097924328074E-002  0.10301723177562087        0.0000000000000000     
  -7.5341791958892040E-002  0.10957562051950065        0.0000000000000000     
  -7.3958454663582501E-002   8.4513582711360724E-002   0.0000000000000000     
  -7.6015814904581841E-002   9.0806793219402229E-002   0.0000000000000000     
  -7.8066455088621006E-002   9.7183429593140330E-002   0.0000000000000000     
  -8.0110375215699983E-002  0.10364349183257508        0.0000000000000000     
  -8.2147575285818772E-002  0.11018697993770642        0.0000000000000000     
  -8.1489794955623279E-002   8.5117610846103059E-002   0.0000000000000000     
  -8.3275313977248216E-002   9.1429421268411665E-002   0.0000000000000000     
  -8.5152359333737992E-002   9.7816483775406582E-002   0.0000000000000000     
  -8.7120931025092593E-002  0.10427879836708784        0.0000000000000000     
  -8.9181029051312047E-002  0.11081636504345541        0.0000000000000000     
  -6.2413236620738256E-002  0.10840697874571883        0.0000000000000000     
  -6.4163638581752128E-002  0.11516435778066363        0.0000000000000000     
  -6.5845332484928076E-002  0.12208302952579514        0.0000000000000000     
  -6.7458318330266095E-002  0.12916299398111339        0.0000000000000000     
  -6.9002596117766185E-002  0.13640425114661839        0.0000000000000000     
  -6.8763679070531880E-002  0.10898228678883813        0.0000000000000000     
  -7.0604412052820253E-002  0.11570132856853838        0.0000000000000000     
  -7.2380036120126917E-002  0.12258651187053911        0.0000000000000000     
  -7.4090551272451927E-002  0.12963783669484036        0.0000000000000000     
  -7.5735957509795213E-002  0.13685530304144214        0.0000000000000000     
  -7.5341791958892040E-002  0.10957562051950065        0.0000000000000000     
  -7.7268023680297046E-002  0.11626522830805162        0.0000000000000000     
  -7.9134087930483016E-002  0.12312313073118583        0.0000000000000000     
  -8.0939984709450033E-002  0.13014932778890317        0.0000000000000000     
  -8.2685714017198000E-002  0.13734381948120372        0.0000000000000000     
  -8.2147575285818772E-002  0.11018697993770642        0.0000000000000000     
  -8.4154473464182547E-002  0.11685605699920344        0.0000000000000000     
  -8.6107487915996442E-002  0.12369288610773524        0.0000000000000000     
  -8.8006618641260415E-002  0.13069746726330184        0.0000000000000000     
  -8.9851865639974549E-002  0.13786980046590316        0.0000000000000000     
  -8.9181029051312047E-002  0.11081636504345541        0.0000000000000000     
  -9.1263761404476756E-002  0.11747381464199377        0.0000000000000000     
  -9.3300236076667098E-002  0.12429577800018742        0.0000000000000000     
  -9.5290453067883155E-002  0.13128225511803635        0.0000000000000000     
  -9.7234412378124843E-002  0.13843324599554052        0.0000000000000000     
  -6.9002596117766185E-002  0.13640425114661839        0.0000000000000000     
  -7.0474625881380995E-002  0.14379167826188730        0.0000000000000000     
  -7.1870867655063148E-002  0.15131015256649741        0.0000000000000000     
  -7.3191321438812643E-002  0.15895967406044864        0.0000000000000000     
  -7.4435987232629508E-002  0.16674024274374105        0.0000000000000000     
  -7.5735957509795213E-002  0.13685530304144214        0.0000000000000000     
  -7.7309114695705908E-002  0.14422144474686710        0.0000000000000000     
  -7.8802882693733076E-002  0.15171879564763802        0.0000000000000000     
  -8.0217261503876661E-002  0.15934735574375486        0.0000000000000000     
  -8.1552251126136732E-002  0.16710712503521769        0.0000000000000000     
  -8.2685714017198000E-002  0.13734381948120372        0.0000000000000000     
  -8.4358336245778459E-002  0.14468777217071352        0.0000000000000000     
  -8.5944911787242881E-002  0.15216235222005858        0.0000000000000000     
  -8.7445440641591279E-002  0.15976755962923900        0.0000000000000000     
  -8.8859922808823627E-002  0.16750339439825473        0.0000000000000000     
  -8.9851865639974549E-002  0.13786980046590316        0.0000000000000000     
  -9.1622290531598635E-002  0.14519066053342658        0.0000000000000000     
  -9.3296954935592633E-002  0.15264082228375919        0.0000000000000000     
  -9.4875858851956457E-002  0.16022028571690106        0.0000000000000000     
  -9.6359002280690192E-002  0.16792905083285223        0.0000000000000000     
  -9.7234412378124843E-002  0.13843324599554052        0.0000000000000000     
  -9.9100977553166464E-002  0.14573010983500628        0.0000000000000000     
 -0.10085901213878228       0.15315420583873976        0.0000000000000000     
 -0.10250851613497226       0.16070553400674109        0.0000000000000000     
 -0.10404948954173643       0.16838409433901017        0.0000000000000000     
  -7.4435987232629508E-002  0.16674024274374105        0.0000000000000000     
  -7.5601278146303325E-002  0.17462108697527218        0.0000000000000000     
  -7.6683607289623756E-002  0.18257143511393956        0.0000000000000000     
  -7.7682974662590748E-002  0.19059128715974316        0.0000000000000000     
  -7.8599380265204341E-002  0.19868064311268308        0.0000000000000000     
  -8.1552251126136732E-002  0.16710712503521769        0.0000000000000000     
  -8.2804925837431195E-002  0.17496667507104749        0.0000000000000000     
  -8.3972359914677941E-002  0.18289457740026549        0.0000000000000000     
  -8.5054553357877011E-002  0.19089083202287174        0.0000000000000000     
  -8.6051506167028363E-002  0.19895543893886605        0.0000000000000000     
  -8.8859922808823627E-002  0.16750339439825473        0.0000000000000000     
  -9.0189320331302752E-002  0.17533864815975048        0.0000000000000000     
  -9.1434595251391415E-002  0.18324211254637093        0.0000000000000000     
  -9.2595747569089670E-002  0.19121378755811619        0.0000000000000000     
  -9.3672777284397463E-002  0.19925367319498624        0.0000000000000000     
  -9.6359002280690192E-002  0.16792905083285223        0.0000000000000000     
  -9.7754461627918024E-002  0.17573700624138103        0.0000000000000000     
  -9.9070313299764221E-002  0.18361404055225583        0.0000000000000000     
 -0.10030655729622877       0.19156015376547675        0.0000000000000000     
 -0.10146319361731167       0.19957534588104364        0.0000000000000000     
 -0.10404948954173643       0.16838409433901017        0.0000000000000000     
 -0.10550034972727701       0.17616174931593914        0.0000000000000000     
 -0.10687951405979630       0.18401036141792018        0.0000000000000000     
 -0.10818698253929429       0.19192993064495323        0.0000000000000000     
 -0.10942275516577095       0.19992045699703836        0.0000000000000000     
  -7.8599380265204341E-002  0.19868064311268308        0.0000000000000000     
  -7.9437885657195201E-002  0.20684241466554898        0.0000000000000000     
  -8.0203552398293979E-002  0.21507951351113067        0.0000000000000000     
  -8.0896380488500702E-002  0.22339193964942808        0.0000000000000000     
  -8.1516369927815330E-002  0.23177969308044130        0.0000000000000000     
  -8.6051506167028363E-002  0.19895543893886605        0.0000000000000000     
  -8.6971107851259846E-002  0.20709176469806995        0.0000000000000000     
  -8.7821247919699336E-002  0.21530317585030484        0.0000000000000000     
  -8.8601926372346748E-002  0.22358967239557079        0.0000000000000000     
  -8.9313143209202167E-002  0.23195125433386776        0.0000000000000000     
  -9.3672777284397463E-002  0.19925367319498624        0.0000000000000000     
  -9.4674120466969935E-002  0.20736569601084384        0.0000000000000000     
  -9.5608213186462163E-002  0.21555378255955193        0.0000000000000000     
  -9.6475055442874075E-002  0.22381793284111060        0.0000000000000000     
  -9.7274647236205783E-002  0.23215814685551969        0.0000000000000000     
 -0.10146319361731167       0.19957534588104364        0.0000000000000000     
 -0.10254692350432539       0.20766420860387072        0.0000000000000000     
 -0.10356444819858239       0.21583133363887194        0.0000000000000000     
 -0.10451576770008267       0.22407672098604745        0.0000000000000000     
 -0.10540088200882626       0.23240037064539712        0.0000000000000000     
 -0.10942275516577095       0.19992045699703836        0.0000000000000000     
 -0.11058951696332624       0.20798730247715055        0.0000000000000000     
 -0.11168995295606010       0.21613582908826490        0.0000000000000000     
 -0.11272406314397253       0.22436603683038142        0.0000000000000000     
 -0.11369184752706353       0.23267792570350007        0.0000000000000000     
  -8.1516369927815330E-002  0.23177969308044130        0.0000000000000000     
  -8.2052688609176930E-002  0.24026351777850663        0.0000000000000000     
  -8.2494504425524459E-002  0.24886415771796042        0.0000000000000000     
  -8.2841817376857974E-002  0.25758161289880260        0.0000000000000000     
  -8.3094627463177445E-002  0.26641588332103339        0.0000000000000000     
  -8.9313143209202167E-002  0.23195125433386776        0.0000000000000000     
  -8.9939535972166501E-002  0.24041317679561375        0.0000000000000000     
  -9.0465742203140784E-002  0.24900069491122684        0.0000000000000000     
  -9.0891761902124973E-002  0.25771380868070709        0.0000000000000000     
  -9.1217595069119084E-002  0.26655251810405434        0.0000000000000000     
  -9.7274647236205783E-002  0.23215814685551969        0.0000000000000000     
  -9.7996008010268962E-002  0.24060050289824306        0.0000000000000000     
  -9.8628157208875342E-002  0.24917107926474449        0.0000000000000000     
  -9.9171094832024950E-002  0.25786987595502397        0.0000000000000000     
  -9.9624820879717732E-002  0.26669689296908144        0.0000000000000000     
 -0.10540088200882626       0.23240037064539712        0.0000000000000000     
 -0.10622210472348438       0.24082549608639453        0.0000000000000000     
 -0.10698174944272824       0.24937531077851324        0.0000000000000000     
 -0.10767981616655793       0.25804981472175331        0.0000000000000000     
 -0.10831630489497338       0.26684900791611466        0.0000000000000000     
 -0.11369184752706353       0.23267792570350007        0.0000000000000000     
 -0.11461782611181265       0.24108815636006825        0.0000000000000000     
 -0.11552651890469942       0.24961338945253325        0.0000000000000000     
 -0.11641792590572389       0.25825362498089516        0.0000000000000000     
 -0.11729204711488603       0.26700886294515391        0.0000000000000000     
  -8.3094627463177445E-002  0.26641588332103339        0.0000000000000000     
  -8.3292049315467936E-002  0.27539418917822700        0.0000000000000000     
  -8.3473197564714441E-002  0.28454375066395815        0.0000000000000000     
  -8.3638072210917014E-002  0.29386456777822673        0.0000000000000000     
  -8.3786673254075600E-002  0.30335664052103273        0.0000000000000000     
  -9.1217595069119084E-002  0.26655251810405434        0.0000000000000000     
  -9.1473496637084498E-002  0.27558068616024806        0.0000000000000000     
  -9.1689721538982513E-002  0.28486217582826745        0.0000000000000000     
  -9.1866269774813145E-002  0.29439698710811257        0.0000000000000000     
  -9.2003141344576406E-002  0.30418511999978337        0.0000000000000000     
  -9.9624820879717732E-002  0.26669689296908144        0.0000000000000000     
 -0.10000011743954842       0.27575120508440076        0.0000000000000000     
 -0.10030776659911167       0.28513188707846571        0.0000000000000000     
 -0.10054776835840751       0.29483893895127622        0.0000000000000000     
 -0.10072012271743591       0.30487236070283241        0.0000000000000000     
 -0.10831630489497338       0.26684900791611466        0.0000000000000000     
 -0.10887191172285968       0.27590574595068523        0.0000000000000000     
 -0.10932733274510190       0.28535288441455287        0.0000000000000000     
 -0.10968256796170006       0.29519042330771772        0.0000000000000000     
 -0.10993761737265410       0.30541836263017974        0.0000000000000000     
 -0.11729204711488603       0.26700886294515391        0.0000000000000000     
 -0.11808887948701829       0.27604430875910124        0.0000000000000000     
 -0.11874841997695323       0.28552516783652893        0.0000000000000000     
 -0.11927066858469078       0.29545144017743702        0.0000000000000000     
 -0.11965562531023100       0.30582312578182547        0.0000000000000000     
 </DataArray>
 <DataArray  type="Float64" Name="stress" NumberOfComponents="3" format="ascii">
   383389949.68498170        1803041342.2436550       -1658594648.0341711     
   944756315.46494126        759384483.94340158       -1341040407.9913015     
   1616179377.2894719        82583279.125029981       -1144705497.4686430     
   2397659135.1585569       -227362272.21148229       -1069589916.4662086     
   3289195589.0722065       -170452170.06611323       -1115693664.9839940     
   2209634487.5969591        2236354755.3166070       -1129012938.1731453     
   2490057084.6766634        1156217698.5557139       -906496133.36001599     
   2876047469.8805752        427973268.87552333       -770452082.99748909     
   3367605643.2086906        51621466.276006937       -720880787.08556664     
   3964731604.6610126        27162290.757187605       -757782245.62425303     
   3355331391.6146879        2465503878.2212915       -578426955.55752015     
   3454086148.7644501        1378669401.6308622       -456184645.21453869     
   3653919786.1180620        628764525.71993661       -385668514.25254941     
   3954832303.6755219        215789250.48850560       -366878562.67156249     
   4356823701.4368382        139743575.93658113       -399814790.47156006     
   3820480661.7381377        2490488710.9576855       -6836700.1872805059     
   3836843507.7282825        1426739593.1688128        9894056.4451286271     
   3949796326.0019245        684957049.65825689        9645208.7661558110     
   4159339116.5590544        265141080.42600775       -7583243.2241927916     
   4465471879.3996859        167291685.47208738       -41791299.525923505     
   3605082297.9673223        2311309253.5258031        585757827.93756425     
   3638329161.5681696        1300428273.1695793        491739971.61899084     
   3763677089.5321598        596550840.69048905        415489086.05865109     
   3981126081.8592839        199676956.08853340        357005171.25653929     
   4290676138.5495462        109806619.36369467        316288227.21266365     
   3289195589.0722065       -170452170.06611323       -1115693664.9839940     
   3470106413.2534342       -153184632.60119510       -815722255.02482593     
   3655385898.0313616       -121354893.14726925       -600194689.00521147     
   3845034043.4060030       -74962951.704295397       -469110966.92514962     
   4039050849.3773475       -14008808.272322893       -422471088.78463042     
   3964731604.6610126        27162290.757187605       -757782245.62425303     
   3939206442.3953028       -14913218.920293331       -539087522.06552124     
   3919660087.3614974       -37059371.158097744       -381051317.87818080     
   3906092539.5595870       -39276165.956240892       -283673633.06222057     
   3898503798.9895830       -21563603.314712763       -246954467.61764726     
   4356823701.4368382        139743575.93658113       -399814790.47156006     
   4192820622.9189639        58712440.175169945       -260518248.90554914     
   4036406498.2681761        2977817.3040499687       -158094902.14275396     
   3887581327.4844747       -27460292.676781416       -92544750.183184281     
   3746345110.5678749       -32601889.767282248       -63867793.026827469     
   4465471879.3996859        167291685.47208738       -41791299.525923505     
   4230948954.8243957        67692344.685152531        19985564.455092050     
   4005625130.7513905       -1243327.7608580589        68674558.201063335     
   3789500407.1806693       -39515331.865910053        104275681.71197395     
   3582574784.1122260       -47123667.630039215        126788934.98783343     
   4290676138.5495462        109806619.36369467        316288227.21266365     
   4053591438.1116104        12026494.609662056        302423918.01641113     
   3827315984.8111515       -49722806.352780819        299257063.15327108     
   3611849778.6481538       -75441283.523676395        306787662.62324858     
   3407192819.6226430       -65128936.902969599        325015716.42633349     
   4039050849.3773475       -14008808.272322893       -422471088.78463042     
   3945994290.1798444       -28148180.682677746       -355200398.86603159     
   3855840604.6988101       -32611307.371467113       -294056869.09111512     
   3768589792.9342432       -27398188.338711262       -239040499.45989051     
   3684241854.8861470       -12508823.584362745       -190151289.97235975     
   3898503798.9895830       -21563603.314712763       -246954467.61764726     
   3794992594.3146734       -21745102.304193258       -180860881.53452379     
   3692677974.2323604       -17937985.985041618       -119903218.00282353     
   3591559938.7426238       -10142254.357297182       -64081477.022556089     
   3491638487.8454890        1642092.5791213512       -13395658.593734911     
   3746345110.5678749       -32601889.767282248       -63867793.026827469     
   3635211367.8220077       -17975883.113957644       -941981.42369533295     
   3523567920.5448461       -5048891.5649425983        57839145.220257312     
   3411414768.7363849        6179084.8797376156        112475586.90502343     
   3298751912.3966351        15708046.220122933        162967343.63060942     
   3582574784.1122260       -47123667.630039215        126788934.98783343     
   3466650610.7018361       -16840523.111973286        184556301.46643838     
   3348510443.6362696        6055975.8888413906        239170220.57811463     
   3228154282.9155226        21565829.372388840        290630692.32285941     
   3105582128.5395994        29689037.338675141        338937716.70068330     
   3407192819.6226430       -65128936.902969599        325015716.42633349     
   3289310322.9541640       -18339022.298240900        375633967.13588250     
   3167505543.5066285        15376616.376296639        424090008.07075930     
   3041778481.2800345        36017979.120634675        470383839.23095071     
   2912129136.2743859        43585065.934790611        514515460.61647189     
   3684241854.8861470       -12508823.584362745       -190151289.97235975     
   3470729035.3389244       -29622449.749371052       -166577330.09799361     
   3258761566.3809557       -41584907.283519983       -132444660.73235039     
   3048339448.0122914       -48396196.186660886       -87753281.875423670     
   2839462680.2328854       -50056316.458940506       -32503193.527204484     
   3491638487.8454890        1642092.5791213512       -13395658.593734911     
   3304497226.9249716       -9294989.6537904739        10478957.710493905     
   3118430489.4367337       -16650327.112446904        42655322.559670843     
   2933438275.3807740       -20423919.796836376        83133435.953770921     
   2749520584.7570992       -20615767.706943035        131913297.89280760     
   3298751912.3966351        15708046.220122933        162967343.63060942     
   3131533750.2561312        9012969.9653270245        186593318.01488501     
   2964919284.3909006        4330214.6281174421        216264079.99774036     
   2798908514.8009582        1659780.2085390091        251979629.57919195     
   2633501441.4862943        1001666.7065485716        293739966.75922108     
   3105582128.5395994        29689037.338675141        338937716.70068330     
   2951838605.3323941        25301429.107973814        361765750.81516063     
   2798227951.2434654        21356717.938207150        388381611.58188736     
   2644750166.2728271        17854903.829399347        418785299.00083816     
   2491405250.4204707        14795986.781534791        452976813.07203597     
   2912129136.2743859        43585065.934790611        514515460.61647189     
   2765411792.1537633        39570387.774152398        535996256.11133951     
   2618356489.9944320        34429182.817829967        559007917.31209087     
   2470963229.7963824        28161451.065768957        583550444.21872616     
   2323232011.5596223        20767192.518013358        609623836.83125997     
   2839462680.2328854       -50056316.458940506       -32503193.527204484     
   2708321591.7119222       -28339818.856791854       -17079109.865590315     
   2575672019.0392132       -11651601.760473013       -8751840.9998586476     
   2441513962.2147222        8334.8299151659012       -7521386.9300184445     
   2305847421.2384562        6639990.9143787622       -13387747.656068427     
   2749520584.7570992       -20615767.706943035        131913297.89280760     
   2599786203.6822090       -10241248.845116258        138077657.88088962     
   2449182600.6523709       -2764136.4997640848        139653679.64037928     
   2297709775.6675906        1815569.3291039467        136641363.17125285     
   2145367728.7278728        3497868.6415157318        129040708.47354044     
   2633501441.4862943        1001666.7065485716        293739966.75922108     
   2472340843.7639866        2184329.5999733210        291390408.97007889     
   2310950286.2835774        2600459.9663860798        286960989.51961708     
   2149329769.0450439        2250057.8057216406        280451708.40784919     
   1987479292.0483913        1133123.1180098057        271862565.63475662     
   2491405250.4204707        14795986.781534791        452976813.07203597     
   2325985511.9572849        8936916.4785425663        442859143.40196973     
   2160975075.9328103        4442187.6379175186        433170088.63786215     
   1996373942.3470478        1311800.2596642971        423909648.77971870     
   1832182111.2000115       -454245.65617215633        415077823.82755703     
   2323232011.5596223        20767192.518013358        609623836.83125997     
   2160720208.2620869        10016511.790546179        592483861.17655575     
   1999256969.6000926        2761046.5148854256        578280976.99510252     
   1838842295.5736423       -999203.30897045135        567015184.28689730     
   1679476186.1827285       -1264237.6810251474        558686483.05195713     
   2305847421.2384562        6639990.9143787622       -13387747.656068427     
   2179481757.1196404        9906261.3890259266       -14623476.338643676     
   2050565907.7018023        4671914.2002569437       -15339657.998766268     
   1919099872.9848919       -9063050.6520767212       -15536292.636449017     
   1785083652.9689686       -31298633.167797089       -15213380.251668859     
   2145367728.7278728        3497868.6415157318        129040708.47354044     
   2019979929.3863845        9251771.1555762291        125756773.46933553     
   1892814316.1243625        9079627.2678595781        122131426.18536659     
   1763870888.9418011        2981436.9783456326        118164666.62164515     
   1633149647.8386884       -9042799.7130078077        113856494.77817249     
   1987479292.0483913        1133123.1180098057        271862565.63475662     
   1860609473.7636526        8636692.5553138256        267431524.25048321     
   1732734212.9368801        12788786.852489591        261798111.28426114     
   1603853509.5680492        13589406.009489536        254962326.73607081     
   1473967363.6571898        11038550.026389360        246924170.60593885     
   1832182111.2000115       -454245.65617215633        415077823.82755703     
   1701370390.2514405        8061025.5881923437        410400776.00481606     
   1570325598.1393328        15799392.954093397        403660397.29791158     
   1439047734.8636765        22760856.441493928        394856687.70684797     
   1307536800.4244847        28945416.050437927        383989647.23163468     
   1679476186.1827285       -1264237.6810251474        558686483.05195713     
   1542262678.8497486        7524770.2542302608        554664528.73232245     
   1405588471.7317269        18111445.572664678        547718284.22633517     
   1269453564.8286674        30495788.274313629        537847749.53397942     
   1133857958.1405592        44677798.359133542        525052924.65526199     
   1785083652.9689686       -31298633.167797089       -15213380.251668859     
   1757301191.5092235       -13277770.105610728       -9453674.8556391858     
   1737598355.7953806        31675178.776282310       -42552934.608831324     
   1725975145.8274505        103560213.47786856       -114511159.51126194     
   1722431561.6054182        202377333.99911368       -225328349.56289130     
   1633149647.8386884       -9042799.7130078077        113856494.77817249     
   1513393999.5040047       -14129123.503695786        130383519.35235657     
   1397821594.8064563       -5271301.8372659087        120353331.52264221     
   1286432433.7460377        17530665.286250830        83765931.289004415     
   1179226516.3227198        54276777.866793573        20621318.651459221     
   1473967363.6571898        11038550.026389360        246924170.60593885     
   1297386393.4341862       -6610601.1211406589        269672735.23137391     
   1121092284.7395239       -23303547.174203277        278165840.19821727     
   945085037.57319665       -39040288.132808626        272403485.50645804     
   769364651.93521929       -53820823.996913880        252385671.15609679     
   1307536800.4244847        28945416.050437927        383989647.23163468     
   1109278373.2997472        9277797.0420182347        408413972.78141451     
   907410425.59457111       -22421557.234540045        430884591.41790092     
   701932957.30895209       -66152646.779242516        451401503.14109021     
   492845968.44289106       -121915471.59209633        469964707.95099318     
   1133857958.1405592        44677798.359133542        525052924.65526199     
   949069939.10069263        33536070.985805809        546607232.00246572     
   756776017.37159693       -2625332.0182915926        578509585.18167722     
   556976192.95328522       -63806410.653111875        620759984.19291413     
   349670465.84573352       -150007164.91872090        673358429.03616893     
   1722431561.6054182        202377333.99911368       -225328349.56289130     
   1453744451.2130747        185421678.75807953       -97035366.568192050     
   1153089988.9795127        61908184.046305299        60345551.546523944     
   820468174.90472496       -168163150.13622600        246814404.78123108     
   455879008.98869574       -504792323.78954101        462371193.13591397     
   1179226516.3227198        54276777.866793573        20621318.651459221     
   973816349.24332297        10765377.060770273        153273028.05119890     
   730730913.14886034       -158330253.79547271        311639623.08663476     
   449970208.03937429       -453010114.70178282        495721103.75780642     
   131534233.91485155       -873274205.65823722        705517470.06470251     
   769364651.93521929       -53820823.996913880        252385671.15609679     
   617594143.92794228       -126779155.64025435        382736870.25806707     
   422440449.73180795       -344348107.91312754        535429905.51147312     
   183903569.34683046       -706527680.81545675        710464776.91632521     
  -98016497.227005720       -1213317874.3473372        907841484.47262847     
   492845968.44289106       -121915471.59209633        469964707.95099318     
   385077835.26695281       -227211919.34493491        591356160.05241120     
   228218598.72834718       -496145378.30668652        731716398.82099724     
   22268258.827079952       -928715848.47731316        891045424.25675249     
  -232773184.43686429       -1524923329.8568380        1069343236.3596587     
   349670465.84573352       -150007164.91872090        673358429.03616893     
   276267423.26034200       -290532914.05332190        779130897.43425822     
   148065360.13847604       -613722064.97617698        900499103.01523685     
  -34935723.519876182       -1119574617.6873167        1037463045.7791029     
  -272735827.71471584       -1808090572.1867366        1190022725.7258623     
   3605082297.9673223        2311309253.5258031        585757827.93756425     
   3638329161.5681696        1300428273.1695793        491739971.61899084     
   3763677089.5321598        596550840.69048905        415489086.05865109     
   3981126081.8592839        199676956.08853340        357005171.25653929     
   4290676138.5495462        109806619.36369467        316288227.21266365     
   2985393262.7617049        1644673391.8650649        360484519.46288449     
   3133532565.8617830        916402461.61964083        394095576.68535703     
   3350930603.4123359        418993979.54247630        433100758.89266765     
   3637587375.4133711        152447945.63357770        477500066.08481896     
   3993502881.8648825        116764359.89293766        527293498.26180321     
   2479100762.1840873        1012056490.5927250        243975256.61457586     
   2706781516.8594141        555790314.08090758        378565842.47999114     
   2980878676.0725503        254245486.02847683        506177707.55685312     
   3301392239.8235121        107422006.43544281        626810851.84515154     
   3668322208.1122861        115319875.30179238        740465275.34489918     
   2086204796.2344763        413458549.70878851        236230039.39264062     
   2358076014.5610657        218591830.55337870        445150769.00289345     
   2653521307.5128040        102305360.14849150        634719932.05119598     
   2972540675.0897021        64599138.494118810        804937528.53754568     
   3315134117.2917557        105473165.59027302        955803558.46194506     
   1806705364.9128680       -151120430.78674853        337248867.79707587     
   2087416058.9667311       -95192988.962942600        593850356.25406384     
   2368858497.7330899       -36826398.097489953        818727432.37570453     
   2651032681.2119422        23979341.809614182        1011880096.1619982     
   2933938609.4032888        87224230.758365750        1173308347.6129451     
   4290676138.5495462        109806619.36369467        316288227.21266365     
   4053591438.1116104        12026494.609662056        302423918.01641113     
   3827315984.8111515       -49722806.352780819        299257063.15327108     
   3611849778.6481538       -75441283.523676395        306787662.62324858     
   3407192819.6226430       -65128936.902969599        325015716.42633349     
   3993502881.8648825        116764359.89293766        527293498.26180321     
   3786804560.6400914        31725933.871369839        514984826.65249974     
   3589592103.6606288       -21692944.665766954        512412446.55116761     
   3401865510.9264913       -43492275.718490124        519576357.95779949     
   3223624782.4376774       -33672059.286793113        536476560.87239987     
   3668322208.1122861        115319875.30179238        740465275.34489918     
   3489264086.6002231        42199294.162568569        728168294.61504281     
   3318368446.4413414       -3713015.7993791103        724646442.56800807     
   3155635287.6356373       -22417054.584067822        729899719.20379281     
   3001064610.1831164       -13912822.191481829        743928124.52240098     
   3315134117.2917557        105473165.59027302        955803558.46194506     
   3160970015.9920030        43446575.483267307        941974321.90403283     
   3013645013.1532841        4216980.2463741302        935959051.20379412     
   2873159108.7756033       -12215620.120399714        937757746.36123300     
   2739512302.8589525       -5851225.6170549393        947370407.37634706     
   2933938609.4032888        87224230.758365750        1173308347.6129451     
   2801922348.8154316        35467777.833452344        1156402908.5194707     
   2675421803.7964630        2097043.4715026617        1146350272.4585266     
   2554436974.3463826       -12887972.327484012        1143150439.4301150     
   2438967860.4651895       -9487269.5635110140        1146803409.4342299     
   3407192819.6226430       -65128936.902969599        325015716.42633349     
   3289310322.9541640       -18339022.298240900        375633967.13588250     
   3167505543.5066285        15376616.376296639        424090008.07075930     
   3041778481.2800345        36017979.120634675        470383839.23095071     
   2912129136.2743859        43585065.934790611        514515460.61647189     
   3223624782.4376774       -33672059.286793113        536476560.87239987     
   3099678899.5920291        2530919.3033574820        570560279.25112081     
   2972902740.5002632        29299643.739779949        604585203.27160048     
   2843296305.1623945        46634114.022527337        638551332.93382764     
   2710859593.5784140        54534330.151574135        672458668.23781312     
   3001064610.1831164       -13912822.191481829        743928124.52240098     
   2877065099.4929428        13506147.883848190        762751318.19207335     
   2751327319.0896063        35130885.581975222        783619132.91992831     
   2623851268.9731193        50961390.902929187        806531568.70597100     
   2494636949.1434679        60997663.846677184        831488625.55019307     
   2739512302.8589525       -5851225.6170549393        947370407.37634706     
   2621468922.6569123        14586663.443266749        952207083.95874763     
   2502779279.2746634        32870341.902891636        961191797.01575398     
   2383443372.7122073        48999809.761823297        974324546.54737985     
   2263461202.9695449        62975067.020074368        991605332.55362070     
   2438967860.4651895       -9487269.5635110140        1146803409.4342299     
   2332890369.0839410        5772465.9816031456        1138927576.5511246     
   2227258621.0554280        22518012.702505589        1137303195.5590718     
   2122072616.3796697        40749370.599252701        1141930266.4580555     
   2017332355.0566494        60466539.671796560        1152808789.2480853     
   2912129136.2743859        43585065.934790611        514515460.61647189     
   2765411792.1537633        39570387.774152398        535996256.11133951     
   2618356489.9944320        34429182.817829967        559007917.31209087     
   2470963229.7963824        28161451.065768957        583550444.21872616     
   2323232011.5596223        20767192.518013358        609623836.83125997     
   2710859593.5784140        54534330.151574135        672458668.23781312     
   2570315912.5012369        54230367.353564024        688355157.15024030     
   2428796735.3103247        50674750.843093395        706613432.99882090     
   2286302062.0056686        43867480.620142937        727233495.78355575     
   2142831892.5872757        33808556.684740305        750215345.50445855     
   2494636949.1434679        60997663.846677184        831488625.55019307     
   2362640991.7676444        65116634.608652234        841057013.45931602     
   2229032000.2030611        63858824.741417050        853818109.53486323     
   2093809974.4497075        57224234.244949460        869771913.77683699     
   1956974914.5075891        45212863.119258523        888918426.18523967     
   2263461202.9695449        62975067.020074368        991605332.55362070     
   2142387029.9529891        72229189.539426684        994101825.03857279     
   2019062284.6726432        73981404.512790799        1000621946.9202203     
   1893486967.1284997        68231711.940178633        1011165698.1985559     
   1765661077.3205631        54980111.821578205        1025733078.8735956     
   2017332355.0566494        60466539.671796560        1152808789.2480853     
   1909554027.0572684        75568032.145881414        1147489591.8880050     
   1798887588.7190661        81042490.157222629        1147024945.1548870     
   1685333040.0420420        76889913.705827475        1151414849.0487287     
   1568890381.0261989        63110302.791696429        1160659303.5695367     
   2323232011.5596223        20767192.518013358        609623836.83125997     
   2160720208.2620869        10016511.790546179        592483861.17655575     
   1999256969.6000926        2761046.5148854256        578280976.99510252     
   1838842295.5736423       -999203.30897045135        567015184.28689730     
   1679476186.1827285       -1264237.6810251474        558686483.05195713     
   2142831892.5872757        33808556.684740305        750215345.50445855     
   1987900449.1182835        20735918.491096735        732755854.80241764     
   1834224502.6137676        11848270.179047704        718726154.98743963     
   1681804053.0737190        7145611.7485615015        708126246.05949903     
   1530639100.4981587        6627943.1996852756        700956128.01860857     
   1956974914.5075891        45212863.119258523        888918426.18523967     
   1811031543.4779775        30240581.242691517        871380841.48629367     
   1666550601.7417762        20143063.677489221        857765747.08819723     
   1523532089.2989867        14920310.423663914        848073142.99094415     
   1381976006.1496108        14572321.481209040        842303029.19453073     
   1765661077.3205631        54980111.821578205        1025733078.8735956     
   1630113491.3411806        38530500.045344889        1008358821.2281709     
   1496235266.9841378        27645427.010256946        995399753.29738629     
   1364026404.2494419        22324892.716312706        986855875.08124304     
   1233486903.1370919        22568897.163534760        982727186.57973933     
   1568890381.0261989        63110302.791696429        1160659303.5695367     
   1445146292.7078791        45605674.899043620        1143689794.0280552     
   1323278498.3408356        34355360.177307308        1131628173.6150095     
   1203286997.9250786        29359358.626523077        1124474442.3303959     
   1085171791.4606028        30617670.246676207        1122228600.1742132     
   1679476186.1827285       -1264237.6810251474        558686483.05195713     
   1542262678.8497486        7524770.2542302608        554664528.73232245     
   1405588471.7317269        18111445.572664678        547718284.22633517     
   1269453564.8286674        30495788.274313629        537847749.53397942     
   1133857958.1405592        44677798.359133542        525052924.65526199     
   1530639100.4981587        6627943.1996852756        700956128.01860857     
   1387154485.5146286        10131350.210726559        698359866.68843007     
   1243546444.5220015        13223337.191456914        695083720.64208341     
   1099814977.5202725        15903904.141841233        691127689.87957311     
   955960084.50944734        18173051.061905921        686491774.40089405     
   1381976006.1496108        14572321.481209040        842303029.19453073     
   1238632870.5732291        14713903.685370564        840359280.25908232     
   1094503582.7636874        12234978.445666790        839980052.07765281     
   949588142.72099364        7135545.7621306181        841165344.65024579     
   803886550.44514215       -584394.36527308822        843915157.97687221     
   1233486903.1370919        22568897.163534760        982727186.57973933     
   1096697834.0255461        21272430.678107023        980662769.44427514     
   958459886.45678234        15146369.335302234        982407278.53303182     
   818773060.43081212        4190713.1351357102        987960713.84600616     
   677637355.94762707       -11594537.922415048        997323075.38319278     
   1085171791.4606028        30617670.246676207        1122228600.1742132     
   961349375.87158465        29806931.188976645        1119270334.2440114     
   835415355.60129154        21957509.860367000        1122365400.0082214     
   707369730.64973724        7069406.2608807087        1131513797.4668365     
   577212501.01690888       -14857379.609524637        1146715526.6198552     
   1133857958.1405592        44677798.359133542        525052924.65526199     
   949069939.10069263        33536070.985805809        546607232.00246572     
   756776017.37159693       -2625332.0182915926        578509585.18167722     
   556976192.95328522       -63806410.653111875        620759984.19291413     
   349670465.84573352       -150007164.91872090        673358429.03616893     
   955960084.50944734        18173051.061905921        686491774.40089405     
   795621638.96981263        2120097.0344704688        707255458.61422455     
   626586596.23780549       -42921514.300853550        737611821.22358656     
   448854956.31344825       -116951782.94401947        777560862.22897089     
   262426719.19673032       -219970708.89505711        827102581.63039434     
   803886550.44514215       -584394.36527308822        843915157.97687221     
   665839485.73147714       -22196032.849114865        862499075.46934450     
   517905129.32231122       -76765310.317938864        889920303.92185640     
   360083481.21766484       -164292226.77170414        926178843.33442068     
   192374541.41752446       -284776782.21045744        971274693.70701313     
   677637355.94762707       -11594537.922415048        997323075.38319278     
   559723479.38568449       -39412318.664924026        1012338082.5678240     
   430731616.62512261       -104156720.06950289        1035435033.2765012     
   290661767.66593468       -205827742.13616294        1066613927.5092369     
   139513932.50812489       -344425384.86490095        1105874765.2660301     
   577212501.01690888       -14857379.609524637        1146715526.6198552     
   477273619.93244159       -49528760.412978292        1156772479.9096513     
   365066058.14621925       -125095743.55562633        1174156009.2875140     
   240589815.65824699       -241558329.03743517        1198866114.7534521     
   103844892.46851587       -398916516.85844052        1230902796.3074400     
   349670465.84573352       -150007164.91872090        673358429.03616893     
   276267423.26034200       -290532914.05332190        779130897.43425822     
   148065360.13847604       -613722064.97617698        900499103.01523685     
  -34935723.519876182       -1119574617.6873167        1037463045.7791029     
  -272735827.71471584       -1808090572.1867366        1190022725.7258623     
   262426719.19673032       -219970708.89505711        827102581.63039434     
   223825696.44703063       -359070132.74789697        878689997.06566846     
   140891383.71698585       -645947189.86856222        941123307.81894433     
   13623781.006597638       -1080601880.2570496        1014402513.8902162     
  -157977111.68413985       -1663034203.9133489        1098527615.2795115     
   192374541.41752446       -284776782.21045744        971274693.70701313     
   175004561.74671146       -426521173.80860430        980887075.16161191     
   123767022.65169373       -681157430.15410721        996595510.06934619     
   38661924.132476807       -1048685551.2469512        1018399998.4302036     
  -80310733.810952723       -1529105537.0871646        1046300540.2441878     
   139513932.50812489       -344425384.86490095        1105874765.2660301     
   129804019.15940076       -492886037.23538744        1085722131.7221298     
   96692276.942606270       -719352785.83278120        1066915709.7664735     
   40178705.857755363       -1023825630.6570379        1049455499.3990605     
  -39736694.095174909       -1406304571.7082033        1033341500.6199194     
   103844892.46851587       -398916516.85844052        1230902796.3074400     
   88224068.685085088       -558164723.02829206        1193195166.7471929     
   59667146.589722365       -760533256.90458918        1152083906.9103229     
   18174126.182435751       -1006022118.4872961        1107569016.7968137     
  -36254992.536795676       -1294631307.7764750        1059650496.4066679     
   1806705364.9128680       -151120430.78674853        337248867.79707587     
   2087416058.9667311       -95192988.962942600        593850356.25406384     
   2368858497.7330899       -36826398.097489953        818727432.37570453     
   2651032681.2119422        23979341.809614182        1011880096.1619982     
   2933938609.4032888        87224230.758365750        1173308347.6129451     
   1668155847.1904395       -327068702.95781493        434481946.26904500     
   1881387786.9509389       -248053655.06029904        673545849.62636650     
   2094411028.4333954       -169734268.08959544        887099522.15327954     
   2307225571.6378107       -92110542.045691013        1075142963.8497877     
   2519831416.5641809       -15182476.928604841        1237676174.7158921     
   1469749797.2616329       -520973934.79079640        548929475.08615243     
   1633257787.0285981       -413544839.52962005        769358609.85484719     
   1795616635.5269837       -309946215.16371143        970491695.29807770     
   1956826342.7567878       -210178061.69307041        1152328731.4158411     
   2116886908.7180150       -114240379.11769104        1314869718.2081418     
   1211487215.1264439       -732836126.28569365        680591454.24840236     
   1343026059.1997056       -591666542.37090659        881288636.93950844     
   1472475319.0138500       -457462239.31984657        1068903951.8100939     
   1599834994.5688777       -330223217.13251114        1243437398.8601532     
   1725105085.8647871       -209949475.80890000        1404888978.0896902     
   893368100.78487921       -962655277.44249988        829467883.75579119     
   1010692603.4642646       -782418763.58416259        1009335930.8803540     
   1124987078.8939986       -612282340.55799758        1182336291.6893344     
   1236251527.0740762       -452246008.36402583        1348468966.1827309     
   1344485948.0045023       -302309767.00221932        1507733954.3605402     
   2933938609.4032888        87224230.758365750        1173308347.6129451     
   2801922348.8154316        35467777.833452344        1156402908.5194707     
   2675421803.7964630        2097043.4715026617        1146350272.4585266     
   2554436974.3463826       -12887972.327484012        1143150439.4301150     
   2438967860.4651895       -9487269.5635110140        1146803409.4342299     
   2519831416.5641809       -15182476.928604841        1237676174.7158921     
   2415908833.3051682       -29598406.972427011        1229051057.5016770     
   2314578157.0899405       -35374646.870292544        1226566614.5353277     
   2215839387.9184952       -32511196.622219563        1230222845.8168468     
   2119692525.7908301       -21008056.228211641        1240019751.3462348     
   2116886908.7180150       -114240379.11769104        1314869718.2081418     
   2039023349.1173844       -91926182.381559968        1311113812.9272273     
   1960827888.0354328       -70718323.916490436        1312786453.1095164     
   1882300525.4721599       -50616803.722496271        1319887638.7550120     
   1803441261.4275670       -31621621.799571633        1332417369.8637154     
   1725105085.8647871       -209949475.80890000        1404888978.0896902     
   1671265896.2520776       -151515548.39394784        1402591174.7961211     
   1614170996.6329415       -103933987.66708481        1405009788.1810946     
   1553820387.0073786       -67204793.628310025        1412144818.2446153     
   1490214067.3753917       -41327966.277617991        1423996264.9866779     
   1344485948.0045023       -302309767.00221932        1507733954.3605402     
   1312636474.7092481       -208366505.00960237        1503483143.1083615     
   1274607482.8824687       -135021638.12206542        1503236619.7500634     
   1230398972.5241547       -82275166.339650273        1506994384.2856486     
   1180010943.6343117       -50127089.662325621        1514756436.7151167     
   2438967860.4651895       -9487269.5635110140        1146803409.4342299     
   2332890369.0839410        5772465.9816031456        1138927576.5511246     
   2227258621.0554280        22518012.702505589        1137303195.5590718     
   2122072616.3796697        40749370.599252701        1141930266.4580555     
   2017332355.0566494        60466539.671796560        1152808789.2480853     
   2119692525.7908301       -21008056.228211641        1240019751.3462348     
   2030321638.9799261       -3247260.1337956190        1233460942.9423192     
   1941144469.1507404        15159259.233012915        1232924749.1131694     
   1852161016.3032842        34211501.872251272        1238411169.8587902     
   1763371280.4375503        53909467.783905983        1249920205.1791792     
   1803441261.4275670       -31621621.799571633        1332417369.8637154     
   1730123158.2833581       -11555911.426963925        1326881555.1727972     
   1656746745.7498524        8315434.3146544695        1327139517.7403684     
   1583312023.8270555        27992415.425300181        1333191257.5664341     
   1509818992.5149639        47475031.904967546        1345036774.6509912     
   1490214067.3753917       -41327966.277617991        1423996264.9866779     
   1432294926.9942350       -19153487.897903502        1419189413.2425644     
   1374065450.8527670        1986537.9474380016        1419947501.4406662     
   1315525638.9509845        22092111.258394837        1426270529.5809908     
   1256675491.2888892        41163232.034983456        1438158497.6635213     
   1180010943.6343117       -50127089.662325621        1514756436.7151167     
   1136836945.1125650       -26039989.546592176        1510384517.1516194     
   1093100584.4594836       -3827429.8686361909        1511348700.2140660     
   1048801861.6750698        16510589.371540904        1517648985.9024529     
   1003940776.7593278        34974068.173956633        1529285374.2167783     
   2017332355.0566494        60466539.671796560        1152808789.2480853     
   1909554027.0572684        75568032.145881414        1147489591.8880050     
   1798887588.7190661        81042490.157222629        1147024945.1548870     
   1685333040.0420420        76889913.705827475        1151414849.0487287     
   1568890381.0261989        63110302.791696429        1160659303.5695367     
   1763371280.4375503        53909467.783905983        1249920205.1791792     
   1668150680.2616925        68036933.928294718        1241633605.7969542     
   1570335545.2090101        73515950.483276486        1238377021.7281003     
   1469925875.2795155        70346517.448876560        1240150452.9726155     
   1366921670.4731929        58528634.825056553        1246953899.5304942     
   1509818992.5149639        47475031.904967546        1345036774.6509912     
   1427657447.8380709        60778870.022291064        1334125277.9522927     
   1343194943.7463584        66412843.423551798        1328419261.2533729     
   1256431480.2398288        64376952.108754396        1327918724.5542290     
   1167367057.3184826        54671196.077905297        1332623667.8548553     
   1256675491.2888892        41163232.034983456        1438158497.6635213     
   1188074329.7864084        53793840.427876830        1424964608.3540227     
   1117465784.3311105        59733168.978041589        1417151663.7307079     
   1044849854.9229976        58981217.685493767        1414719663.7935698     
   970226541.56207740        51537986.550252110        1417668608.5426102     
   1003940776.7593278        34974068.173956633        1529285374.2167783     
   949401326.10670388        47081845.145046502        1514151597.0021484     
   893148066.96326780        53476927.146760374        1504574229.1600988     
   835180999.32902050        54159314.179104567        1500553270.6906397     
   775500123.20396185        49129006.242072642        1502088721.5937681     
   1568890381.0261989        63110302.791696429        1160659303.5695367     
   1445146292.7078791        45605674.899043620        1143689794.0280552     
   1323278498.3408356        34355360.177307308        1131628173.6150095     
   1203286997.9250786        29359358.626523077        1124474442.3303959     
   1085171791.4606028        30617670.246676207        1122228600.1742132     
   1366921670.4731929        58528634.825056553        1246953899.5304942     
   1256831927.4413009        42917056.023000896        1232921109.1440771     
   1148236916.1803613        32287916.457448423        1224046914.6747983     
   1041136636.6903613        26641216.128360569        1220331316.1226649     
   935531088.97131610        25976955.035795808        1221774313.4876707     
   1167367057.3184826        54671196.077905297        1332623667.8548553     
   1071647964.6836228        41167557.899626613        1321082440.7464366     
   977042041.63937807        31374485.023409247        1314950516.3438783     
   883549288.18574929        25291977.449242890        1314227894.6471694     
   791169704.32274210        22920035.177142590        1318914575.6563191     
   970226541.56207740        51537986.550252110        1417668608.5426102     
   889594404.43484569        40357180.528933436        1408173788.8351467     
   809693874.71790457        31615065.875243455        1404338978.6222510     
   730524952.41124272        25311642.589153558        1406164177.9039185     
   652087637.51486897        21446910.670693010        1413649386.6801512     
   775500123.20396185        49129006.242072642        1502088721.5937681     
   710671246.69496000        40485923.910884410        1494195153.4102066     
   646192415.41592550        33009659.012912720        1492212301.5099196     
   582063629.36683333        26700211.548083365        1496140165.8929052     
   518284888.54770368        21557581.516462415        1505978746.5591643     
   1085171791.4606028        30617670.246676207        1122228600.1742132     
   961349375.87158465        29806931.188976645        1119270334.2440114     
   835415355.60129154        21957509.860367000        1122365400.0082214     
   707369730.64973724        7069406.2608807087        1131513797.4668365     
   577212501.01690888       -14857379.609524637        1146715526.6198552     
   935531088.97131610        25976955.035795808        1221774313.4876707     
   827009347.12884569        23597208.042158931        1218249376.4063249     
   716438613.51717746        14387488.484527111        1220802935.4208205     
   603818888.13629174       -1652203.6371563375        1229434990.5311675     
   489150170.98620725       -24521868.322846711        1244145541.7373528     
   791169704.32274210        22920035.177142590        1318914575.6563191     
   698020534.51664531        18992849.734541059        1314896015.8212285     
   602884985.85340273        8444401.4347832203        1316981116.4834237     
   505763058.33301586       -8725309.7221223414        1325169877.6428993     
   406654751.95548356       -32516283.736175388        1339462299.2996547     
   652087637.51486897        21446910.670693010        1413649386.6801512     
   574382938.03495955        15993856.266048491        1409210252.4887276     
   494754472.60996878        4128248.7111378312        1410899943.1960239     
   413202241.23989785       -14149911.994044423        1418718458.8020322     
   329726243.92473990       -38840625.849513412        1432665799.3067627     
   518284888.54770368        21557581.516462415        1505978746.5591643     
   456096557.68380094        14600227.636727303        1501192086.4088125     
   392047073.78688294        1439030.3136135638        1502559415.5586138     
   326136436.85694021       -17926010.452917546        1510080734.0085709     
   258364646.89397553       -43494894.662857622        1523756041.7586837     
   577212501.01690888       -14857379.609524637        1146715526.6198552     
   477273619.93244159       -49528760.412978292        1156772479.9096513     
   365066058.14621925       -125095743.55562633        1174156009.2875140     
   240589815.65824699       -241558329.03743517        1198866114.7534521     
   103844892.46851587       -398916516.85844052        1230902796.3074400     
   489150170.98620725       -24521868.322846711        1244145541.7373528     
   407749124.79890060       -56257345.551034570        1242405525.6527536     
   315971061.26124656       -122582880.61371957        1246921290.2682135     
   213815980.37324369       -223498473.51090330        1257692835.5837486     
   101283882.13487698       -359004124.24261659        1274720161.5993614     
   406654751.95548356       -32516283.736175388        1339462299.2996547     
   340732125.27106112       -62233682.007382125        1328132254.4172850     
   266324144.58769423       -120235593.60840088        1321987194.8469923     
   183430809.90537447       -206522018.53925806        1321027120.5887673     
   92052121.224110380       -321092956.79994094        1325252031.6426194     
   329726243.92473990       -38840625.849513412        1432665799.3067627     
   276222621.34892374       -67457769.782011539        1413952666.2032681     
   216125308.12556818       -118053882.53964385        1399353723.0238461     
   149434304.25465131       -190628964.12248218        1388868969.7684994     
   76149609.736208841       -285183014.53039414        1382498406.4372358     
   258364646.89397553       -43494894.662857622        1523756041.7586837     
   214220613.03248689       -71929608.874940798        1499866761.0106931     
   165374551.87486395       -116037747.40746865        1479020874.7987826     
   111826463.42108707       -175819310.26051244        1461218383.1229546     
   53576347.671171829       -251274297.43401462        1446459285.9832079     
   103844892.46851587       -398916516.85844052        1230902796.3074400     
   88224068.685085088       -558164723.02829206        1193195166.7471929     
   59667146.589722365       -760533256.90458918        1152083906.9103229     
   18174126.182435751       -1006022118.4872961        1107569016.7968137     
  -36254992.536795676       -1294631307.7764750        1059650496.4066679     
   101283882.13487698       -359004124.24261659        1274720161.5993614     
   83479535.140788019       -499645539.89910632        1220696429.0543370     
   53928629.476352185       -679442151.12341607        1164102818.8131196     
   12631165.141558349       -898393957.91556644        1104939330.8757193     
  -40412857.863581419       -1156500960.2755616        1043205965.2421205     
   92052121.224110380       -321092956.79994094        1325252031.6426194     
   74446401.249195367       -442412936.87409252        1256299992.3613384     
   46283662.245506912       -598922980.37748468        1185611827.9643052     
   7563904.2130469382       -790623087.31012702        1113187538.4515085     
  -41712872.848186374       -1017513257.6719943        1039027123.8229818     
   76149609.736208841       -285183014.53039414        1382498406.4372358     
   61124667.010295153       -386466913.95327926        1300005856.6681979     
   36732244.897187263       -518975744.66680926        1216610934.3638439     
   2972343.3968912661       -682709506.67095411        1132313639.5241902     
  -40155037.490601301       -877668199.96577013        1047113972.1492085     
   53576347.671171829       -251274297.43401462        1446459285.9832079     
   43514332.424092829       -331807471.13666344        1351814021.9749174     
   25274377.431401670       -439600443.99134707        1257100138.0117626     
  -1143517.3069110513       -574653215.99811518        1162317634.0937343     
  -35739351.790831715       -736965787.15689039        1067466510.2208338     
   893368100.78487921       -962655277.44249988        829467883.75579119     
   1010692603.4642646       -782418763.58416259        1009335930.8803540     
   1124987078.8939986       -612282340.55799758        1182336291.6893344     
   1236251527.0740762       -452246008.36402583        1348468966.1827309     
   1344485948.0045023       -302309767.00221932        1507733954.3605402     
   685795097.44186902       -717260751.55208027        914553274.73245347     
   772105015.14667606       -582588403.94834185        1087845134.1931164     
   856142412.41428673       -455491124.46859348        1254662114.5091996     
   937907289.24470031       -335968913.11283344        1415004215.6807206     
   1017399645.6379205       -224021769.88105392        1568871437.7076731     
   467709412.86433470       -475020030.03201294        985250713.36509693     
   524127051.79746068       -385575156.82201314        1152850143.1097155     
   579029677.10585093       -301180329.02779955        1314367500.8807836     
   632417288.78949976       -221835546.64938989        1469802786.6782942     
   684289886.84841359       -147540809.68676269        1619156000.5022521     
   239111047.05227345       -235933112.88230777        1041560199.6537138     
   266758713.41662079       -191379022.20516980        1204350957.6301646     
   293648872.96868813       -149349954.23563045        1361452450.8040740     
   319781525.70847464       -109845908.97369471        1512864679.1754477     
   345156671.63598371       -72866886.419349998        1658587642.7442801     
   5.6861109227683906E-003 -0.10295711170063225        1083481733.5983114     
   4.1542776544785734E-003  -9.7814476298860642E-002   1242347577.7544611     
   2.8012848451143026E-003  -9.2073624365832746E-002   1395916964.2790806     
   1.6239985546816008E-003  -8.5746737091671063E-002   1544189893.1721816     
   6.2994481426087087E-004  -7.8811156318973993E-002   1687166364.4337564     
   1344485948.0045023       -302309767.00221932        1507733954.3605402     
   1312636474.7092481       -208366505.00960237        1503483143.1083615     
   1274607482.8824687       -135021638.12206542        1503236619.7500634     
   1230398972.5241547       -82275166.339650273        1506994384.2856486     
   1180010943.6343117       -50127089.662325621        1514756436.7151167     
   1017399645.6379205       -224021769.88105392        1568871437.7076731     
   989723833.70328355       -154700935.47372317        1556646174.0188587     
   957413382.86996484       -100828897.39533544        1549309229.8486295     
   920468293.13796151       -62405655.645897329        1546860605.1969795     
   878888564.50727463       -39431210.225402296        1549300300.0639145     
   684289886.84841359       -147540809.68676269        1619156000.5022521     
   663313540.91639328       -102084661.47212502        1600758643.9484599     
   639247435.71853602       -66927710.810279638        1588133638.5379510     
   612091571.25484240       -42069957.701218933        1581280984.2707262     
   581845947.52531290       -27511402.144944668        1580200681.1467800     
   345156671.63598371       -72866886.419349998        1658587642.7442801     
   333405596.34857738       -50517683.004806295        1635820552.8971658     
   320109641.42818004       -33318078.366900265        1619709845.8180370     
   305268806.87479597       -21268072.505616978        1610255521.5068867     
   288883092.68842196       -14367665.420965046        1607457579.9637187     
   6.2994481426087087E-004  -7.8811156318973993E-002   1687166364.4337564     
  -1.6250737019788200E-004  -7.1759722706135162E-002   1661831900.8649769     
  -1.1038560175814609E-003  -6.5204263691683903E-002   1644037851.6888807     
  -2.1798382695961821E-003  -5.9098450721074426E-002   1633784216.9054635     
  -3.4009425312583365E-003  -5.3474990003842274E-002   1631070996.5147262     
   1180010943.6343117       -50127089.662325621        1514756436.7151167     
   1136836945.1125650       -26039989.546592176        1510384517.1516194     
   1093100584.4594836       -3827429.8686361909        1511348700.2140660     
   1048801861.6750698        16510589.371540904        1517648985.9024529     
   1003940776.7593278        34974068.173956633        1529285374.2167783     
   878888564.50727463       -39431210.225402296        1549300300.0639145     
   847557929.37041450       -21050926.010853827        1545659735.1374142     
   815805522.63502192       -4076547.1247465611        1547110304.6274700     
   783631344.30110371        11491926.432943285        1553652008.5340774     
   751035394.36866403        25654494.662225187        1565284846.8572378     
   581845947.52531290       -27511402.144944668        1580200681.1467800     
   561658766.60365641       -15047906.582505196        1577455493.1455498     
   541190404.61627877       -3521681.2391371131        1579556471.3514893     
   520440861.56317669        7067273.8851509690        1586503615.7645965     
   499410137.44435889        16718958.790386289        1598296926.3848712     
   288883092.68842196       -14367665.420965046        1607457579.9637187     
   279139456.81229299       -8030931.2615377605        1605771791.1760325     
   269255230.40325338       -2162832.2118127048        1608687200.3861282     
   259230413.46129480        3236631.7281820476        1616203807.5940034     
   249065005.98642200        8167460.5584620386        1628321612.7996542     
  -3.4009425312583365E-003  -5.3474990003842274E-002   1631070996.5147262     
  -3.6744874542350061E-003  -4.7948206760328980E-002   1630608629.2288587     
  -4.0541745784670440E-003  -4.2773843075552813E-002   1634502491.7313819     
  -4.5510298826193472E-003  -3.7990386935206052E-002   1642752584.0223010     
  -5.1493607912476910E-003  -3.3545876699169822E-002   1655358906.1016126     
   1003940776.7593278        34974068.173956633        1529285374.2167783     
   949401326.10670388        47081845.145046502        1514151597.0021484     
   893148066.96326780        53476927.146760374        1504574229.1600988     
   835180999.32902050        54159314.179104567        1500553270.6906397     
   775500123.20396185        49129006.242072642        1502088721.5937681     
   751035394.36866403        25654494.662225187        1565284846.8572378     
   710051453.43939614        34711521.509683400        1548858858.5644233     
   667782156.14200830        39484027.130072474        1538007795.3301344     
   624227502.47649491        39972011.523377895        1532731657.1543694     
   579387492.44286120        36175474.689614505        1533030444.0371308     
   499410137.44435889        16718958.790386289        1598296926.3848712     
   472034608.19827449        22741106.102171063        1581078587.8236718     
   443802174.70675719        25906905.929179892        1569453690.0069404     
   414712836.96980119        26216358.271394044        1563422232.9346716     
   384766594.98741305        23669463.128832206        1562984216.6068642     
   249065005.98642200        8167460.5584620386        1628321612.7996542     
   235350790.38334525        11170598.922528997        1610810784.7798851     
   221208122.65751776        12745563.544091098        1598911913.1905143     
   206637002.80894664        12892354.423175283        1592624998.0315447     
   191637430.83762637        11610971.559761658        1591950039.3029776     
  -5.1493607912476910E-003  -3.3545876699169822E-002   1655358906.1016126     
  -5.4008080059457621E-003  -2.9271457053097878E-002   1638055449.4330654     
  -5.7081171291493548E-003  -2.5185325436882178E-002   1626382464.8808575     
  -6.0817422526631450E-003  -2.1318512431557832E-002   1620339952.4449914     
  -6.5073404540330155E-003  -1.7626330797867865E-002   1619927912.1254644     
   775500123.20396185        49129006.242072642        1502088721.5937681     
   710671246.69496000        40485923.910884410        1494195153.4102066     
   646192415.41592550        33009659.012912720        1492212301.5099196     
   582063629.36683333        26700211.548083365        1496140165.8929052     
   518284888.54770368        21557581.516462415        1505978746.5591643     
   579387492.44286120        36175474.689614505        1533030444.0371308     
   530608313.94934928        29645906.608566999        1526034697.8124886     
   482091669.37826467        23991451.602275863        1524986422.7972198     
   433837558.72961223        19212109.670758381        1529885618.9913292     
   385845982.00338423        15307880.813991338        1540732286.3948114     
   384766594.98741305        23669463.128832206        1562984216.6068642     
   352142128.58396292        19284913.520298600        1556784195.8156936     
   319692684.79541671        15483772.628109545        1556568401.1599956     
   287418263.62176514        12266040.452235565        1562336832.6397779     
   255318865.06301486        9631716.9927019477        1574089490.2550352     
   191637430.83762637        11610971.559761658        1591950039.3029776     
   175272690.59880921        9402944.6461058483        1586443647.4198253     
   158995461.66736534        7486622.0903622061        1586958236.5982575     
   142805744.04329589        5862003.8925310746        1593493806.8382578     
   126703537.72659519        4529090.0525991246        1606050358.1398444     
  -6.5073404540330155E-003  -1.7626330797867865E-002   1619927912.1254644     
  -6.1131502790259962E-003  -1.4014201886870392E-002   1615013052.6248848     
  -5.8776243945162301E-003  -1.0930953944197099E-002   1616155929.1119869     
  -5.7964164603661076E-003  -8.3607113906085002E-003   1623356541.5867693     
  -5.8704872465007831E-003  -6.3108401288641258E-003   1636614890.0492270     
   518284888.54770368        21557581.516462415        1505978746.5591643     
   456096557.68380094        14600227.636727303        1501192086.4088125     
   392047073.78688294        1439030.3136135638        1502559415.5586138     
   326136436.85694021       -17926010.452917546        1510080734.0085709     
   258364646.89397553       -43494894.662857622        1523756041.7586837     
   385845982.00338423        15307880.813991338        1540732286.3948114     
   340008380.28863311        10330959.334575757        1534621066.8007698     
   292774913.79910588        701155.27257767320        1534476319.0058503     
   244145582.53479558       -13581531.372034192        1540298043.0100451     
   194120386.49570042       -32517100.599259526        1552086238.8133621     
   255318865.06301486        9631716.9927019477        1574089490.2550352     
   225296228.20874280        6474498.6270041615        1567196547.5185833     
   194343014.83793634        215358.53952240944        1566082559.0802209     
   162459224.95058179       -9145703.2697852999        1570747524.9399428     
   129644858.54668927       -21608686.800885536        1581191445.0977449     
   126703537.72659519        4529090.0525991246        1606050358.1398444     
   111960101.44413808        3030845.5140331984        1598918528.5622616     
   96751376.903377146       -18359.885542262346        1597378135.7817323     
   81077364.104307711       -4618526.1461476348        1601429179.7982543     
   64938063.046949685       -10769653.267715104        1611071660.6118197     
  -5.8704872465007831E-003  -6.3108401288641258E-003   1636614890.0492270     
  -5.1986803140723851E-003  -4.3906728070158647E-003   1629787009.9317968     
  -4.5761014025710468E-003  -2.6318233306962414E-003   1628363049.1103868     
  -4.0274102734091169E-003  -1.1199603515650353E-003   1632343007.5849879     
  -3.5320647505677752E-003   2.1269616105009694E-004   1641726885.3556116     
   258364646.89397553       -43494894.662857622        1523756041.7586837     
   214220613.03248689       -71929608.874940798        1499866761.0106931     
   165374551.87486395       -116037747.40746865        1479020874.7987826     
   111826463.42108707       -175819310.26051244        1461218383.1229546     
   53576347.671171829       -251274297.43401462        1446459285.9832079     
   194120386.49570042       -32517100.599259526        1552086238.8133621     
   160195949.74886963       -54088059.663280547        1523411276.2154040     
   122744992.52993762       -87414086.967638984        1497970204.1353991     
   81767514.838897675       -132495182.51235726        1475763022.5733411     
   37263516.675740309       -189331346.29746693        1456789731.5292408     
   129644858.54668927       -21608686.800885536        1581191445.0977449     
   106484293.14844686       -36152608.446636975        1549102225.2778575     
   80972714.102127045       -58533242.252647147        1520437391.9577925     
   53110121.407729566       -88750588.218915492        1495196945.1375535     
   22896515.065253906       -126804646.34544238        1473380884.8171334     
   64938063.046949685       -10769653.267715104        1611071660.6118197     
   53085643.231208481       -18123255.225043915        1576939608.1980443     
   40057716.591421627       -29395213.262527488        1546422438.2659619     
   25854283.127591494       -44585527.380154818        1519520150.8155725     
   10475342.839718800       -63694197.577922441        1496232745.8468890     
  -3.5320647505677752E-003   2.1269616105009694E-004   1641726885.3556116     
  -2.8477220581635265E-003   1.4904744105592724E-003   1606923424.9759760     
  -2.1788889374082313E-003   2.7186357560764433E-003   1575925343.0599120     
  -1.5160491909479590E-003   3.9254314084960886E-003   1548732639.6074162     
  -8.7292810342780172E-004   5.0671920871724115E-003   1525345314.6184878     
   53576347.671171829       -251274297.43401462        1446459285.9832079     
   43514332.424092829       -331807471.13666344        1351814021.9749174     
   25274377.431401670       -439600443.99134707        1257100138.0117626     
  -1143517.3069110513       -574653215.99811518        1162317634.0937343     
  -35739351.790831715       -736965787.15689039        1067466510.2208338     
   37263516.675740309       -189331346.29746693        1456789731.5292408     
   32474757.163533017       -248903900.99723482        1354155456.5910339     
   21552542.842146516       -328921305.06093335        1250809086.2492437     
   4496873.7115613818       -429383558.48862332        1146750620.5038533     
  -18692250.228191286       -550290661.28021038        1041980059.3548915     
   22896515.065253906       -126804646.34544238        1473380884.8171334     
   21542510.005870193       -165968132.42696047        1365142831.3748398     
   16099535.073743284       -218761518.08429068        1255549207.0802524     
   6567590.2688549757       -285184803.31748837        1144600011.9333599     
  -7053324.4087714851       -365237988.12648332        1032295245.9341620     
   10475342.839718800       -63694197.577922441        1496232745.8468890     
   10717590.951119147       -83000165.425794274        1384776146.3263490     
   8915354.1261993423       -109121083.06139684        1271320500.5047910     
   5068632.3649654910       -142056950.48471335        1155865808.3822162     
  -822574.33257797360       -181807767.69573078        1038412069.9586307     
  -8.7292810342780172E-004   5.0671920871724115E-003   1525345314.6184878     
  -7.2789759567800424E-004   6.2431287246150092E-003   1413055401.4455390     
  -4.6867271968104854E-004   7.7997132562148052E-003   1298122966.5228615     
  -1.0547881249752629E-004   9.7039020591887393E-003   1180548009.8504593     
   3.9236013705434098E-004   1.2054826001885986E-002   1060330531.4283158     
   5.6861109227683906E-003 -0.10295711170063225        1083481733.5983114     
   4.1542776544785734E-003  -9.7814476298860642E-002   1242347577.7544611     
   2.8012848451143026E-003  -9.2073624365832746E-002   1395916964.2790806     
   1.6239985546816008E-003  -8.5746737091671063E-002   1544189893.1721816     
   6.2994481426087087E-004  -7.8811156318973993E-002   1687166364.4337564     
  -239111047.04062524        235933112.67811084        1041560199.6564498     
  -266758713.40790558        191379022.01162505        1204350957.6331246     
  -293648872.96258557        149349954.05381125        1361452450.8072672     
  -319781525.70466661        109845908.80465864        1512864679.1788886     
  -345156671.63414443        72866886.264184684        1658587642.7479880     
  -467709412.85293353        475020029.82937980        985250713.37071836     
  -524127051.78882009        385575156.63040817        1152850143.1157353     
  -579029677.09968352        301180328.84818023        1314367500.8872292     
  -632417288.78552556        221835546.48268995        1469802786.6852009     
  -684289886.84634161        147540809.53395203        1619156000.5096488     
  -685795097.43124080        717260751.35084724        914553274.74110627     
  -772105015.13858843        582588403.75853515        1087845134.2022963     
  -856142412.40849245        455491124.29103404        1254662114.5189641     
  -937907289.24094868        335968912.94835711        1415004215.6911120     
  -1017399645.6359609        224021769.73049694        1568871437.7187335     
  -893368100.77554572        962655277.24251878        829467883.76761889     
  -1010692603.4572104        782418763.39600611        1009335930.8928108     
  -1124987078.8890095        612282340.38238358        1182336291.7024784     
  -1236251527.0709424        452246008.20164353        1348468966.1966252     
  -1344485948.0030036        302309766.85381126        1507733954.3752489     
   6.2994481426087087E-004  -7.8811156318973993E-002   1687166364.4337564     
  -1.6250737019788200E-004  -7.1759722706135162E-002   1661831900.8649769     
  -1.1038560175814609E-003  -6.5204263691683903E-002   1644037851.6888807     
  -2.1798382695961821E-003  -5.9098450721074426E-002   1633784216.9054635     
  -3.4009425312583365E-003  -5.3474990003842274E-002   1631070996.5147262     
  -345156671.63414443        72866886.264184684        1658587642.7479880     
  -333405596.34833270        50517682.863650993        1635820552.9004233     
  -320109641.42982674        33318078.238765851        1619709845.8208532     
  -305268806.87862718        21268072.389526024        1610255521.5092797     
  -288883092.69473475        14367665.315927878        1607457579.9657042     
  -684289886.84634161        147540809.53395203        1619156000.5096488     
  -663313540.91587901        102084661.33326474        1600758643.9549375     
  -639247435.71988857        66927710.684334248        1588133638.5435398     
  -612091571.25837028        42069957.587165117        1581280984.2754474     
  -581845947.53132486        27511402.041752219        1580200681.1506681     
  -1017399645.6359609        224021769.73049694        1568871437.7187335     
  -989723833.70280600        154700935.33706462        1556646174.0285199     
  -957413382.87129211        100828897.27149689        1549309229.8569295     
  -920468293.14141369        62405655.533807397        1546860605.2039649     
  -878888564.51317120        39431210.124003828        1549300300.0696220     
  -1344485948.0030036        302309766.85381126        1507733954.3752489     
  -1312636474.7091181        208366504.87503570        1503483143.1211712     
  -1274607482.8840313        135021638.00026619        1503236619.7610309     
  -1230398972.5277517        82275166.229473233        1506994384.2948332     
  -1180010943.6402736        50127089.562671900        1514756436.7225709     
  -3.4009425312583365E-003  -5.3474990003842274E-002   1631070996.5147262     
  -3.6744874542350061E-003  -4.7948206760328980E-002   1630608629.2288587     
  -4.0541745784670440E-003  -4.2773843075552813E-002   1634502491.7313819     
  -4.5510298826193472E-003  -3.7990386935206052E-002   1642752584.0223010     
  -5.1493607912476910E-003  -3.3545876699169822E-002   1655358906.1016126     
  -288883092.69473475        14367665.315927878        1607457579.9657042     
  -279139456.81919122        8030931.1673523784        1605771791.1777108     
  -269255230.41094565        2162832.1277849972        1608687200.3875144     
  -259230413.46999654       -3236631.8027713448        1616203807.5951185     
  -249065005.99634176       -8167460.6243101805        1628321612.8005190     
  -581845947.53132486        27511402.041752219        1580200681.1506681     
  -561658766.61024415        15047906.489973783        1577455493.1488364     
  -541190404.62364268        3521681.1565992236        1579556471.3542051     
  -520440861.57152319       -7067273.9583832324        1586503615.7667749     
  -499410137.45388389       -16718958.854966074        1598296926.3865464     
  -878888564.51317120        39431210.124003828        1549300300.0696220     
  -847557929.37682557        21050925.919944167        1545659735.1422353     
  -815805522.64214301        4076547.0436772704        1547110304.6314549     
  -783631344.30912769       -11491926.504815161        1553652008.5372770     
  -751035394.37777662       -25654494.725523859        1565284846.8597057     
  -1180010943.6402736        50127089.562671900        1514756436.7225709     
  -1136836945.1189363        26039989.457259059        1510384517.1579094     
  -1093100584.4664512        3827429.7890030742        1511348700.2192600     
  -1048801861.6828122       -16510589.442070305        1517648985.9066181     
  -1003940776.7680302       -34974068.236003101        1529285374.2199874     
  -5.1493607912476910E-003  -3.3545876699169822E-002   1655358906.1016126     
  -5.4008080059457621E-003  -2.9271457053097878E-002   1638055449.4330654     
  -5.7081171291493548E-003  -2.5185325436882178E-002   1626382464.8808575     
  -6.0817422526631450E-003  -2.1318512431557832E-002   1620339952.4449914     
  -6.5073404540330155E-003  -1.7626330797867865E-002   1619927912.1254644     
  -249065005.99634176       -8167460.6243101805        1628321612.8005190     
  -235350790.39378282       -11170598.979921035        1610810784.7806146     
  -221208122.66859761       -12745563.593444698        1598911913.1911199     
  -206637002.82079154       -12892354.464899845        1592624998.0320365     
  -191637430.85035613       -11610971.594256043        1591950039.3033671     
  -499410137.45388389       -16718958.854966074        1598296926.3865464     
  -472034608.20831001       -22741106.158404171        1581078587.8250849     
  -443802174.71742725       -25906905.977480248        1569453690.0081027     
  -414712836.98123586       -26216358.312195048        1563422232.9356027     
  -384766594.99973685       -23669463.162548661        1562984216.6075912     
  -751035394.37777662       -25654494.725523859        1565284846.8597057     
  -710051453.44898486       -34711521.564733297        1548858858.5664794     
  -667782156.15219724       -39484027.177294225        1538007795.3318074     
  -624227502.48741937       -39972011.563218623        1532731657.1556928     
  -579387492.45464671       -36175474.722495019        1533030444.0381324     
  -1003940776.7680302       -34974068.236003101        1529285374.2199874     
  -949401326.11581230       -47081845.198921442        1514151597.0047977     
  -893148066.97291303       -53476927.192900211        1504574229.1622374     
  -835180999.33933997       -54159314.217967033        1500553270.6923068     
  -775500123.21508920       -49129006.274107844        1502088721.5949979     
  -6.5073404540330155E-003  -1.7626330797867865E-002   1619927912.1254644     
  -6.1131502790259962E-003  -1.4014201886870392E-002   1615013052.6248848     
  -5.8776243945162301E-003  -1.0930953944197099E-002   1616155929.1119869     
  -5.7964164603661076E-003  -8.3607113906085002E-003   1623356541.5867693     
  -5.8704872465007831E-003  -6.3108401288641258E-003   1636614890.0492270     
  -191637430.85035613       -11610971.594256043        1591950039.3033671     
  -175272690.61079729       -9402944.6735506803        1586443647.4199009     
  -158995461.67890954       -7486622.1117494702        1586958236.5980203     
  -142805744.05470666       -5862003.9088952094        1593493806.8377228     
  -126703537.73817764       -4529090.0649584085        1606050358.1390038     
  -384766594.99973685       -23669463.162548661        1562984216.6075912     
  -352142128.59556633       -19284913.547091007        1556784195.8158004     
  -319692684.80659962       -15483772.648977906        1556568401.1594932     
  -287418263.63282931       -12266040.468186557        1562336832.6386709     
  -255318865.07425874       -9631717.0047281832        1574089490.2533345     
  -579387492.45464671       -36175474.722495019        1533030444.0381324     
  -530608313.96043301       -29645906.634678066        1526034697.8125718     
  -482091669.38894182       -23991451.622602403        1524986422.7963977     
  -433837558.74016559       -19212109.686242133        1529885618.9896133     
  -385845982.01411021       -15307880.825620726        1540732286.3922153     
  -775500123.21508920       -49129006.274107844        1502088721.5949979     
  -710671246.70538557       -40485923.936274260        1494195153.4102232     
  -646192415.42593443       -33009659.032612026        1492212301.5087397     
  -582063629.37671590       -26700211.563059360        1496140165.8905475     
  -518284888.55774552       -21557581.527668417        1505978746.5556517     
  -5.8704872465007831E-003  -6.3108401288641258E-003   1636614890.0492270     
  -5.1986803140723851E-003  -4.3906728070158647E-003   1629787009.9317968     
  -4.5761014025710468E-003  -2.6318233306962414E-003   1628363049.1103868     
  -4.0274102734091169E-003  -1.1199603515650353E-003   1632343007.5849879     
  -3.5320647505677752E-003   2.1269616105009694E-004   1641726885.3556116     
  -126703537.73817764       -4529090.0649584085        1606050358.1390038     
  -111960101.45438741       -3030845.5225886181        1598918528.5613408     
  -96751376.912413508        18359.880392480642        1597378135.7807274     
  -81077364.112271696        4618526.1439347602        1601429179.7971659     
  -64938063.053949967        10769653.268074717        1611071660.6106541     
  -255318865.07425874       -9631717.0047281832        1574089490.2533345     
  -225296228.21868190       -6474498.6353282779        1567196547.5167160     
  -194343014.84668642       -215358.54453385621        1566082559.0781772     
  -162459224.95827693        9145703.2676412091        1570747524.9377279     
  -129644858.55345270        21608686.801201299        1581191445.0953648     
  -385845982.01411021       -15307880.825620726        1540732286.3922153     
  -340008380.29807621       -10330959.342592895        1534621066.7979176     
  -292774913.80738413       -701155.27737431228        1534476319.0027378     
  -244145582.54203579        13581531.370034888        1540298043.0066831     
  -194120386.50203508        32517100.599615648        1552086238.8097465     
  -518284888.55774552       -21557581.527668417        1505978746.5556517     
  -456096557.69257587       -14600227.644395769        1501192086.4049489     
  -392047073.79451418       -1439030.3181544393        1502559415.5544069     
  -326136436.86355042        17926010.451094359        1510080734.0040188     
  -258364646.89970338        43494894.663290888        1523756041.7537875     
  -3.5320647505677752E-003   2.1269616105009694E-004   1641726885.3556116     
  -2.8477220581635265E-003   1.4904744105592724E-003   1606923424.9759760     
  -2.1788889374082313E-003   2.7186357560764433E-003   1575925343.0599120     
  -1.5160491909479590E-003   3.9254314084960886E-003   1548732639.6074162     
  -8.7292810342780172E-004   5.0671920871724115E-003   1525345314.6184878     
  -64938063.053949967        10769653.268074717        1611071660.6106541     
  -53085643.236885153        18123255.227854803        1576939608.1969156     
  -40057716.595794216        29395213.267725088        1546422438.2648640     
  -25854283.130659394        44585527.387740448        1519520150.8144937     
  -10475342.841509905        63694197.587806776        1496232745.8458123     
  -129644858.55345270        21608686.801201299        1581191445.0953648     
  -106484293.15395430        36152608.449309617        1549102225.2755682     
  -80972714.106382072        58533242.257665597        1520437391.9555757     
  -53110121.410733946        88750588.226275906        1495196945.1353853     
  -22896515.067017697        126804646.35511176        1473380884.8149979     
  -194120386.50203508        32517100.599615648        1552086238.8097465     
  -160195949.75405347        54088059.665862076        1523411276.2119396     
  -122744992.53395662        87414086.972497180        1497970204.1320562     
  -81767514.841736212        132495182.51953979        1475763022.5700932     
  -37263516.677406006        189331346.30695260        1456789731.5260541     
  -258364646.89970338        43494894.663290888        1523756041.7537875     
  -214220613.03718713        71929608.877497539        1499866761.0060225     
  -165374551.87850964        116037747.41224022        1479020874.7943017     
  -111826463.42366616        175819310.26753664        1461218383.1186156     
  -53576347.672680512        251274297.44330758        1446459285.9789677     
  -8.7292810342780172E-004   5.0671920871724115E-003   1525345314.6184878     
  -7.2789759567800424E-004   6.2431287246150092E-003   1413055401.4455390     
  -4.6867271968104854E-004   7.7997132562148052E-003   1298122966.5228615     
  -1.0547881249752629E-004   9.7039020591887393E-003   1180548009.8504593     
   3.9236013705434098E-004   1.2054826001885986E-002   1060330531.4283158     
  -10475342.841509905        63694197.587806776        1496232745.8458123     
  -10717590.952618342        83000165.438012704        1384776146.3255465     
  -8915354.1272188276        109121083.07658194        1271320500.5042796     
  -5068632.3653117195        142056950.50351018        1155865808.3819809     
   822574.33312086016        181807767.71885526        1038412069.9586941     
  -22896515.067017697        126804646.35511176        1473380884.8149979     
  -21542510.007337779        165968132.43892694        1365142831.3732200     
  -16099535.074746951        218761518.09911078        1255549207.0791533     
  -6567590.2692371756        285184803.33569074        1144600011.9327998     
   7053324.4091827273        365237988.14864242        1032295245.9341441     
  -37263516.677406006        189331346.30695260        1456789731.5260541     
  -32474757.164873213        248903901.00901967        1354155456.5885615     
  -21552542.843039185        328921305.07542706        1250809086.2474949     
  -4496873.7118876576        429383558.50622541        1146750620.5028665     
   18692250.228586823        550290661.30143213        1041980059.3546475     
  -53576347.672680512        251274297.44330758        1446459285.9789677     
  -43514332.425244272        331807471.14823508        1351814021.9715638     
  -25274377.432098091        439600444.00552499        1257100138.0093043     
   1143517.3067631125        574653216.01520014        1162317634.0921924     
   35739351.791332960        736965787.17723799        1067466510.2202291     
  -893368100.77554572        962655277.24251878        829467883.76761889     
  -1010692603.4572104        782418763.39600611        1009335930.8928108     
  -1124987078.8890095        612282340.38238358        1182336291.7024784     
  -1236251527.0709424        452246008.20164353        1348468966.1966252     
  -1344485948.0030036        302309766.85381126        1507733954.3752489     
  -1211487215.1173704        732836126.09148562        680591454.26303446     
  -1343026059.1926923        591666542.18877459        881288636.95493448     
  -1472475319.0087109        457462239.15041018        1068903951.8263578     
  -1599834994.5654335        330223216.97636986        1243437398.8773017     
  -1725105085.8628502        209949475.66667438        1404888978.1077726     
  -1469749797.2529962        520973934.60230863        548929475.10368299     
  -1633257787.0218439        413544839.35344565        769358609.87329495     
  -1795616635.5219550        309946215.00036657        970491695.31747711     
  -1956826342.7533324        210178061.54306710        1152328731.4362276     
  -2116886908.7159748        114240378.98155570        1314869718.2295489     
  -1668155847.1824248        327068702.77499247        434481946.28955883     
  -1881387786.9446647        248053654.89001739        673545849.64788949     
  -2094411028.4287374        169734267.93226683        887099522.17583680     
  -2307225571.6346412        92110541.901743054        1075142963.8733978     
  -2519831416.5623765        15182476.798451424        1237676174.7405746     
  -1806705364.9056535        151120430.60953641        337248867.82066089     
  -2087416058.9611568        95192988.798481107        593850356.27871978     
  -2368858497.7290564        36826397.946107864        818727432.40143716     
  -2651032681.2093592       -23979341.947606683        1011880096.1888174     
  -2933938609.4020538       -87224230.882632136        1173308347.6408575     
  -1344485948.0030036        302309766.85381126        1507733954.3752489     
  -1312636474.7091181        208366504.87503570        1503483143.1211712     
  -1274607482.8840313        135021638.00026619        1503236619.7610309     
  -1230398972.5277517        82275166.229473233        1506994384.2948332     
  -1180010943.6402736        50127089.562671900        1514756436.7225709     
  -1725105085.8628502        209949475.66667438        1404888978.1077726     
  -1671265896.2513571        151515548.26546562        1402591174.8117988     
  -1614170996.6337914        103933987.55116689        1405009788.1944506     
  -1553820387.0101545        67204793.523769259        1412144818.2557318     
  -1490214067.3804486        41327966.183272719        1423996264.9956408     
  -2116886908.7159748        114240378.98155570        1314869718.2295489     
  -2039023349.1163337        91926182.259074211        1311113812.9456990     
  -1960827888.0357478        70718323.806414723        1312786453.1251640     
  -1882300525.4742174        50616803.623566985        1319887638.7679462     
  -1803441261.4317408        31621621.710541368        1332417369.8740475     
  -2519831416.5623765        15182476.798451424        1237676174.7405746     
  -2415908833.3040495        29598406.855857849        1229051057.5228693     
  -2314578157.0899038        35374646.765996456        1226566614.5531666     
  -2215839387.9199371        32511196.528871059        1230222845.8314700     
  -2119692525.7941506        21008056.144473314        1240019751.3577809     
  -2933938609.4020538       -87224230.882632136        1173308347.6408575     
  -2801922348.8145003       -35467777.944172382        1156402908.5433133     
  -2675421803.7962551       -2097043.5700705051        1146350272.4784634     
  -2554436974.3473182        12887972.239669323        1143150439.4463091     
  -2438967860.4676828        9487269.4850685596        1146803409.4468479     
  -1180010943.6402736        50127089.562671900        1514756436.7225709     
  -1136836945.1189363        26039989.457259059        1510384517.1579094     
  -1093100584.4664512        3827429.7890030742        1511348700.2192600     
  -1048801861.6828122       -16510589.442070305        1517648985.9066181     
  -1003940776.7680302       -34974068.236003101        1529285374.2199874     
  -1490214067.3804486        41327966.183272719        1423996264.9956408     
  -1432294926.9996119        19153487.813511610        1419189413.2501459     
  -1374065450.8586495       -1986538.0224969983        1419947501.4469495     
  -1315525638.9575696       -22092111.324777484        1426270529.5860541     
  -1256675491.2963636       -41163232.093309999        1438158497.6674585     
  -1803441261.4317408        31621621.710541368        1332417369.8740475     
  -1730123158.2877154        11555911.347542524        1326881555.1815155     
  -1656746745.7545948       -8315434.3851410151        1327139517.7475753     
  -1583312023.8323727       -27992415.487485111        1333191257.5722280     
  -1509818992.5210600       -47475031.959522545        1345036774.6554744     
  -2119692525.7941506        21008056.144473314        1240019751.3577809     
  -2030321638.9832492        3247260.0593374968        1233460942.9520192     
  -1941144469.1542757       -15159259.298895717        1232924749.1211402     
  -1852161016.3072293       -34211501.930218697        1238411169.8651428     
  -1763371280.4421132       -53909467.834647059        1249920205.1840312     
  -2438967860.4676828        9487269.4850685596        1146803409.4468479     
  -2332890369.0862117       -5772466.0510874987        1138927576.5616546     
  -2227258621.0576968       -22518012.763774395        1137303195.5676367     
  -2122072616.3821332       -40749370.652962089        1141930266.4647932     
  -2017332355.0595298       -60466539.718680620        1152808789.2531261     
  -1003940776.7680302       -34974068.236003101        1529285374.2199874     
  -949401326.11581230       -47081845.198921442        1514151597.0047977     
  -893148066.97291303       -53476927.192900211        1504574229.1622374     
  -835180999.33933997       -54159314.217967033        1500553270.6923068     
  -775500123.21508920       -49129006.274107844        1502088721.5949979     
  -1256675491.2963636       -41163232.093309999        1438158497.6674585     
  -1188074329.7943103       -53793840.478485405        1424964608.3573129     
  -1117465784.3395672       -59733169.021362841        1417151663.7333932     
  -1044849854.9321316       -58981217.721934617        1414719663.7957034     
  -970226541.57200980       -51537986.580213577        1417668608.5442460     
  -1509818992.5210600       -47475031.959522545        1345036774.6554744     
  -1427657447.8445916       -60778870.069584250        1334125277.9560463     
  -1343194943.7534208       -66412843.463974535        1328419261.2564507     
  -1256431480.2475443       -64376952.142678201        1327918724.5566854     
  -1167367057.3269730       -54671196.105725408        1332623667.8567543     
  -1763371280.4421132       -53909467.834647059        1249920205.1840312     
  -1668150680.2666540       -68036933.972224355        1241633605.8010046     
  -1570335545.2144759       -73515950.520735443        1238377021.7314103     
  -1469925875.2855904       -70346517.480223656        1240150452.9752519     
  -1366921670.4799864       -58528634.850655675        1246953899.5325258     
  -2017332355.0595298       -60466539.718680620        1152808789.2531261     
  -1909554027.0605009       -75568032.186399579        1147489591.8921812     
  -1798887588.7227437       -81042490.191688418        1147024945.1582720     
  -1685333040.0462527       -76889913.734536052        1151414849.0513985     
  -1568890381.0310485       -63110302.815000534        1160659303.5715609     
  -775500123.21508920       -49129006.274107844        1502088721.5949979     
  -710671246.70538557       -40485923.936274260        1494195153.4102232     
  -646192415.42593443       -33009659.032612026        1492212301.5087397     
  -582063629.37671590       -26700211.563059360        1496140165.8905475     
  -518284888.55774552       -21557581.527668417        1505978746.5556517     
  -970226541.57200980       -51537986.580213577        1417668608.5442460     
  -889594404.44413328       -40357180.552612185        1408173788.8353271     
  -809693874.72681499       -31615065.893529564        1404338978.6209993     
  -730524952.42006683       -25311642.603023142        1406164177.9012568     
  -652087637.52388382       -21446910.681057960        1413649386.6761019     
  -1167367057.3269730       -54671196.105725408        1332623667.8567543     
  -1071647964.6915069       -41167557.921506226        1321082440.7466586     
  -977042041.64692974       -31374485.040250659        1314950516.3424406     
  -883549288.19323301       -25291977.461934894        1314227894.6441021     
  -791169704.33042097       -22920035.186557204        1318914575.6516478     
  -1366921670.4799864       -58528634.850655675        1246953899.5325258     
  -1256831927.4475257       -42917056.043016255        1232921109.1442103     
  -1148236916.1862638       -32287916.472714186        1224046914.6730645     
  -1041136636.6962129       -26641216.139782250        1220331316.1190944     
  -935531088.97736263       -25976955.044176161        1221774313.4822991     
  -1568890381.0310485       -63110302.815000534        1160659303.5715609     
  -1445146292.7121720       -45605674.917094707        1143689794.0279782     
  -1323278498.3448265       -34355360.190959573        1131628173.6128638     
  -1203286997.9290023       -29359358.636566043        1124474442.3262184     
  -1085171791.4647052       -30617670.253922045        1122228600.1680439     
  -518284888.55774552       -21557581.527668417        1505978746.5556517     
  -456096557.69257587       -14600227.644395769        1501192086.4049489     
  -392047073.79451418       -1439030.3181544393        1502559415.5544069     
  -326136436.86355042        17926010.451094359        1510080734.0040188     
  -258364646.89970338        43494894.663290888        1523756041.7537875     
  -652087637.52388382       -21446910.681057960        1413649386.6761019     
  -574382938.04278481       -15993856.273108065        1409210252.4842827     
  -494754472.61672139       -4128248.7152740657        1410899943.1911743     
  -413202241.24569654        14149911.992432535        1418718458.7967713     
  -329726243.92970914        38840625.850004390        1432665799.3010831     
  -791169704.33042097       -22920035.186557204        1318914575.6516478     
  -698020534.52324688       -18992849.740879744        1314896015.8161314     
  -602884985.85904098       -8444401.4384322762        1316981116.4778740     
  -505763058.33780295        8725309.7207897007        1325169877.6368778     
  -406654751.95953244        32516283.736792594        1339462299.2931342     
  -935531088.97736263       -25976955.044176161        1221774313.4822991     
  -827009347.13397336       -23597208.047752351        1218249376.4004931     
  -716438613.52147448       -14387488.487628937        1220802935.4145017     
  -603818888.13987589        1652203.6361600161        1229434990.5243177     
  -489150170.98917329        24521868.323628873        1244145541.7299445     
  -1085171791.4647052       -30617670.253922045        1122228600.1680439     
  -961349375.87494588       -29806931.193672061        1119270334.2373707     
  -835415355.60401511       -21957509.862847686        1122365400.0010579     
  -707369730.65191758       -7069406.2614678144        1131513797.4591131     
  -577212501.01863980        14857379.610510826        1146715526.6115184     
  -258364646.89970338        43494894.663290888        1523756041.7537875     
  -214220613.03718713        71929608.877497539        1499866761.0060225     
  -165374551.87850964        116037747.41224022        1479020874.7943017     
  -111826463.42366616        175819310.26753664        1461218383.1186156     
  -53576347.672680512        251274297.44330758        1446459285.9789677     
  -329726243.92970914        38840625.850004390        1432665799.3010831     
  -276222621.35302079        67457769.784470305        1413952666.1978841     
  -216125308.12877971        118053882.54410648        1399353723.0187135     
  -149434304.25698376        190628964.12892520        1388868969.7635837     
  -76149609.737631410        285183014.53893185        1382498406.4324837     
  -406654751.95953244        32516283.736792594        1339462299.2931342     
  -340732125.27440232        62233682.009768724        1328132254.4111264     
  -266324144.59031773        120235593.61259316        1321987194.8411469     
  -183430809.90728337        206522018.54525265        1321027120.5832028     
  -92052121.225295544        321092956.80775219        1325252031.6372826     
  -489150170.98917329        24521868.323628873        1244145541.7299445     
  -407749124.80132651        56257345.553409338        1242405525.6457567     
  -315971061.26312292        122582880.61769927        1246921290.2615948     
  -213815980.37457561        223498473.51647884        1257692835.5774651     
  -101283882.13567786        359004124.24975204        1274720161.5933583     
  -577212501.01863980        14857379.610510826        1146715526.6115184     
  -477273619.93379414        49528760.415383577        1156772479.9017806     
  -365066058.14719868        125095743.55942257        1174156009.2800622     
  -240589815.65886396        241558329.04259253        1198866114.7463756     
  -103844892.46877906        398916516.86492962        1230902796.3007069     
  -53576347.672680512        251274297.44330758        1446459285.9789677     
  -43514332.425244272        331807471.14823508        1351814021.9715638     
  -25274377.432098091        439600444.00552499        1257100138.0093043     
   1143517.3067631125        574653216.01520014        1162317634.0921924     
   35739351.791332960        736965787.17723799        1067466510.2202291     
  -76149609.737631410        285183014.53893185        1382498406.4324837     
  -61124667.011401668        386466913.96384031        1300005856.6644909     
  -36732244.897889823        518975744.67969757        1216610934.3611834     
  -2972343.3970915973        682709506.68649554        1132313639.5225713     
   40155037.490973264        877668199.98420036        1047113972.1486756     
  -92052121.225295544        321092956.80775219        1325252031.6372826     
  -74446401.250125676        442412936.88370216        1256299992.3571820     
  -46283662.246106267        598922980.38915038        1185611827.9613333     
  -7563904.2132429481        790623087.32407904        1113187538.4497299     
   41712872.848474562        1017513257.6885210        1039027123.8223721     
  -101283882.13567786        359004124.24975204        1274720161.5933583     
  -83479535.141424000        499645539.90777838        1220696429.0496492     
  -53928629.476748943        679442151.13387811        1164102818.8097513     
  -12631165.141661406        898393957.92800713        1104939330.8736398     
   40412857.863840699        1156500960.2902012        1043205965.2413365     
  -103844892.46877906        398916516.86492962        1230902796.3007069     
  -88224068.685291916        558164723.03609049        1193195166.7418895     
  -59667146.589822441        760533256.91386163        1152083906.9064260     
  -18174126.182371378        1006022118.4982343        1107569016.7943056     
   36254992.537067950        1294631307.7892396        1059650496.4055406     
  -1806705364.9056535        151120430.60953641        337248867.82066089     
  -2087416058.9611568        95192988.798481107        593850356.27871978     
  -2368858497.7290564        36826397.946107864        818727432.40143716     
  -2651032681.2093592       -23979341.947606683        1011880096.1888174     
  -2933938609.4020538       -87224230.882632136        1173308347.6408575     
  -2086204796.2276254       -413458549.87672901        236230039.41929656     
  -2358076014.5549088       -218591830.70590150        445150769.03015381     
  -2653521307.5075631       -102305360.28631604        634719932.07915604     
  -2972540675.0855947       -64599138.617981553        804937528.56631434     
  -3315134117.2890005       -105473165.70089293        955803558.49162209     
  -2479100762.1788793       -1012056490.7517858        243975256.64540824     
  -2706781516.8536806       -555790314.22179019        378565842.51058912     
  -2980878676.0668359       -254245486.15296566        506177707.58740687     
  -3301392239.8183389       -107422006.54530787        626810851.87586892     
  -3668322208.1081929       -115319875.39882421        740465275.37597120     
  -2985393262.7594047       -1644673392.0156221        360484519.49899310     
  -3133532565.8574700       -916402461.74918389        394095576.72002494     
  -3350930603.4068651       -418993979.65384424        433100758.92618531     
  -3637587375.4075909       -152447945.72959566        477500066.11747968     
  -3993502881.8596430       -116764359.97643447        527293498.29390258     
  -3605082297.9692168       -2311309253.6682415        585757827.98005593     
  -3638329161.5662899       -1300428273.2880869        491739971.65846437     
  -3763677089.5276704       -596550840.78895569        415489086.09549403     
  -3981126081.8533497       -199676956.17082357        357005171.29114681     
  -4290676138.5433378       -109806619.43371820        316288227.24541694     
  -2933938609.4020538       -87224230.882632136        1173308347.6408575     
  -2801922348.8145003       -35467777.944172382        1156402908.5433133     
  -2675421803.7962551       -2097043.5700705051        1146350272.4784634     
  -2554436974.3473182        12887972.239669323        1143150439.4463091     
  -2438967860.4676828        9487269.4850685596        1146803409.4468479     
  -3315134117.2890005       -105473165.70089293        955803558.49162209     
  -3160970015.9893098       -43446575.581264853        941974321.92911005     
  -3013645013.1510863       -4216980.3331986666        935959051.22451067     
  -2873159108.7743402        12215620.043275595        937757746.37782013     
  -2739512302.8590670        5851225.5481824875        947370407.38904357     
  -3668322208.1081929       -115319875.39882421        740465275.37597120     
  -3489264086.5957441       -42199294.247833014        728168294.64096451     
  -3318368446.4369311        3713015.7243626118        724646442.58908546     
  -3155635287.6317582        22417054.517766118        729899719.22033525     
  -3001064610.1802211        13912822.132375240        743928124.53471029     
  -3993502881.8596430       -116764359.97643447        527293498.29390258     
  -3786804560.6338172       -31725933.943902016        514984826.67887467     
  -3589592103.6537905        21692944.602627754        512412446.57219267     
  -3401865510.9195724        43492275.663132906        519576357.97385216     
  -3223624782.4311595        33672059.237629294        536476560.88386005     
  -4290676138.5433378       -109806619.43371820        316288227.24541694     
  -4053591438.1035137       -12026494.669448137        302423918.04284257     
  -3827315984.8016639        49722806.301580191        299257063.17382771     
  -3611849778.6377783        75441283.479389191        306787662.63837272     
  -3407192819.6118655        65128936.863953352        325015716.43648177     
  -2438967860.4676828        9487269.4850685596        1146803409.4468479     
  -2332890369.0862117       -5772466.0510874987        1138927576.5616546     
  -2227258621.0576968       -22518012.763774395        1137303195.5676367     
  -2122072616.3821332       -40749370.652962089        1141930266.4647932     
  -2017332355.0595298       -60466539.718680620        1152808789.2531261     
  -2739512302.8590670        5851225.5481824875        947370407.38904357     
  -2621468922.6568031       -14586663.504323840        952207083.96934044     
  -2502779279.2745109       -32870341.956746817        961191797.02438533     
  -2383443372.7121873       -48999809.809060693        974324546.55417407     
  -2263461202.9698300       -62975067.061259508        991605332.55871189     
  -3001064610.1802211        13912822.132375240        743928124.53471029     
  -2877065099.4898229       -13506147.936299443        762751318.20231938     
  -2751327319.0864091       -35130885.628250480        783619132.92824495     
  -2623851268.9699745       -50961390.943469048        806531568.71248865     
  -2494636949.1405196       -60997663.881951809        831488625.55504906     
  -3223624782.4311595        33672059.237629294        536476560.88386005     
  -3099678899.5852785       -2530919.3469970226        570560279.26059449     
  -2972902740.4933896       -29299643.778265715        604585203.27921617     
  -2843296305.1554956       -46634114.056195855        638551332.93973053     
  -2710859593.5715985       -54534330.180769563        672458668.24213028     
  -3407192819.6118655        65128936.863953352        325015716.43648177     
  -3289310322.9431567        18339022.263573647        375633967.14416689     
  -3167505543.4954557       -15376616.406826735        424090008.07730401     
  -3041778481.2687635       -36017979.147258520        470383839.23590922     
  -2912129136.2630692       -43585065.957687974        514515460.61996907     
  -2017332355.0595298       -60466539.718680620        1152808789.2531261     
  -1909554027.0605009       -75568032.186399579        1147489591.8921812     
  -1798887588.7227437       -81042490.191688418        1147024945.1582720     
  -1685333040.0462527       -76889913.734536052        1151414849.0513985     
  -1568890381.0310485       -63110302.815000534        1160659303.5715609     
  -2263461202.9698300       -62975067.061259508        991605332.55871189     
  -2142387029.9536731       -72229189.574978590        994101825.04291129     
  -2019062284.6738031       -73981404.543001771        1000621946.9238660     
  -1893486967.1302114       -68231711.965274930        1011165698.2015777     
  -1765661077.3229191       -54980111.841872752        1025733078.8760463     
  -2494636949.1405196       -60997663.881951809        831488625.55504906     
  -2362640991.7651825       -65116634.639075398        841057013.46354628     
  -2229032000.2011414       -63858824.767184615        853818109.53852010     
  -2093809974.4483974       -57224234.266281724        869771913.77996957     
  -1956974914.5069544       -45212863.136387587        888918426.18789279     
  -2710859593.5715985       -54534330.180769563        672458668.24213028     
  -2570315912.4950275       -54230367.378664613        688355157.15408313     
  -2428796735.3047609       -50674750.864268899        706613433.00222588     
  -2286302062.0008030       -43867480.637554646        727233495.78656650     
  -2142831892.5831606       -33808556.698557138        750215345.50710070     
  -2912129136.2630692       -43585065.957687974        514515460.61996907     
  -2765411792.1432028       -39570387.793746114        535996256.11452287     
  -2618356489.9846625       -34429182.834236979        559007917.31499112     
  -2470963229.7874327       -28161451.079082847        583550444.22137344     
  -2323232011.5515332       -20767192.528376460        609623836.83367085     
  -1568890381.0310485       -63110302.815000534        1160659303.5715609     
  -1445146292.7121720       -45605674.917094707        1143689794.0279782     
  -1323278498.3448265       -34355360.190959573        1131628173.6128638     
  -1203286997.9290023       -29359358.636566043        1124474442.3262184     
  -1085171791.4647052       -30617670.253922045        1122228600.1680439     
  -1765661077.3229191       -54980111.841872752        1025733078.8760463     
  -1630113491.3430617       -38530500.060961306        1008358821.2284145     
  -1496235266.9857740       -27645427.021946788        995399753.29545105     
  -1364026404.2510662       -22324892.724872231        986855875.07715702     
  -1233486903.1389289       -22568897.169688046        982727186.57353127     
  -1956974914.5069544       -45212863.136387587        888918426.18789279     
  -1811031543.4769719       -30240581.255724072        871380841.48665297     
  -1666550601.7406111       -20143063.687127471        857765747.08628654     
  -1523532089.2978699       -14920310.430590391        848073142.98679185     
  -1381976006.1487439       -14572321.486121476        842303029.18815899     
  -2142831892.5831606       -33808556.698557138        750215345.50710070     
  -1987900449.1139026       -20735918.501384854        732755854.80270350     
  -1834224502.6093190       -11848270.186452746        718726154.98537624     
  -1681804053.0693994       -7145611.7537312508        708126246.05512083     
  -1530639100.4941483       -6627943.2032499909        700956128.01192772     
  -2323232011.5515332       -20767192.528376460        609623836.83367085     
  -2160720208.2538662       -10016511.797975183        592483861.17655838     
  -1999256969.5919139       -2761046.5199574232        578280976.99271345     
  -1838842295.5656686        999203.30570089817        567015184.28214407     
  -1679476186.1751413        1264237.6789714098        558686483.04483974     
  -1085171791.4647052       -30617670.253922045        1122228600.1680439     
  -961349375.87494588       -29806931.193672061        1119270334.2373707     
  -835415355.60401511       -21957509.862847686        1122365400.0010579     
  -707369730.65191758       -7069406.2614678144        1131513797.4591131     
  -577212501.01863980        14857379.610510826        1146715526.6115184     
  -1233486903.1389289       -22568897.169688046        982727186.57353127     
  -1096697834.0269055       -21272430.682121217        980662769.43764663     
  -958459886.45774126       -15146369.337435544        982407278.52591741     
  -818773060.43145287       -4190713.1356619596        987960713.83834815     
  -677637355.94802201        11594537.923255801        997323075.37492931     
  -1381976006.1487439       -14572321.486121476        842303029.18815899     
  -1238632870.5721831       -14713903.688565671        840359280.25234795     
  -1094503582.7625194       -12234978.447343946        839980052.07049346     
  -949588142.71975923       -7135545.7624803782        841165344.64258635     
  -803886550.44391036        584394.36603564024        843915157.96863008     
  -1530639100.4941483       -6627943.2032499909        700956128.01192772     
  -1387154485.5107689       -10131350.212985933        698359866.68148243     
  -1243546444.5183361       -13223337.192564726        695083720.63478076     
  -1099814977.5168438       -15903904.141929150        691127689.87182832     
  -955960084.50629783       -18173051.061124265        686491774.39261842     
  -1679476186.1751413        1264237.6789714098        558686483.04483974     
  -1542262678.8426812       -7524770.2554307580        554664528.72504365     
  -1405588471.7251987       -18111445.573085964        547718284.21878874     
  -1269453564.8227024       -30495788.274028361        537847749.52607608     
  -1133857958.1351876       -44677798.358248174        525052924.64690453     
  -577212501.01863980        14857379.610510826        1146715526.6115184     
  -477273619.93379414        49528760.415383577        1156772479.9017806     
  -365066058.14719868        125095743.55942257        1174156009.2800622     
  -240589815.65886396        241558329.04259253        1198866114.7463756     
  -103844892.46877906        398916516.86492962        1230902796.3007069     
  -677637355.94802201        11594537.923255801        997323075.37492931     
  -559723479.38589823        39412318.666984856        1012338082.5601043     
  -430731616.62516552        104156720.07274699        1035435033.2692729     
  -290661767.66581666        205827742.14056560        1066613927.5024382     
  -139513932.50785473        344425384.87041926        1105874765.2595837     
  -803886550.44391036        584394.36603564024        843915157.96863008     
  -665839485.73032081        22196032.850872308        862499075.46173394     
  -517905129.32124645        76765310.320651382        889920303.91479981     
  -360083481.21669412        164292226.77535477        926178843.32782054     
  -192374541.41665697        284776782.21500760        971274693.70080149     
  -955960084.50629783       -18173051.061124265        686491774.39261842     
  -795621638.96704555       -2120097.0329217613        707255458.60666609     
  -626586596.23544979        42921514.303115278        737611821.21663761     
  -448854956.31150377        116951782.94698083        777560862.22253442     
  -262426719.19520670        219970708.89868331        827102581.62435734     
  -1133857958.1351876       -44677798.358248174        525052924.64690453     
  -949069939.09608936       -33536070.984411538        546607231.99490511     
  -756776017.36777055        2625332.0201439857        578509585.17479289     
  -556976192.95024216        63806410.655403286        620759984.18657756     
  -349670465.84349281        150007164.92140484        673358429.03025055     
  -103844892.46877906        398916516.86492962        1230902796.3007069     
  -88224068.685291916        558164723.03609049        1193195166.7418895     
  -59667146.589822441        760533256.91386163        1152083906.9064260     
  -18174126.182371378        1006022118.4982343        1107569016.7943056     
   36254992.537067950        1294631307.7892396        1059650496.4055406     
  -139513932.50785473        344425384.87041926        1105874765.2595837     
  -129804019.15920365        492886037.24196970        1085722131.7171705     
  -96692276.942462265        719352785.84048772        1066915709.7629889     
  -40178705.857626796        1023825630.6659625        1049455499.3970284     
   39736694.095287323        1406304571.7184024        1033341500.6192994     
  -192374541.41665697        284776782.21500760        971274693.70080149     
  -175004561.74605349        426521173.81399089        980887075.15691507     
  -123767022.65124846        681157430.16028416        996595510.06612945     
  -38661924.132261455        1048685551.2538774        1018399998.4284328     
   80310733.810921252        1529105537.0947757        1046300540.2438625     
  -262426719.19520670        219970708.89868331        827102581.62435734     
  -223825696.44585255        359070132.75212896        878689997.06111753     
  -140891383.71620971        645947189.87321448        941123307.81586194     
  -13623781.006260395        1080601880.2619629        1014402513.8885748     
   157977111.68397480        1663034203.9183819        1098527615.2792797     
  -349670465.84349281        150007164.92140484        673358429.03025055     
  -276267423.25860643        290532914.05635393        779130897.42977977     
  -148065360.13731688        613722064.97931910        900499103.01216495     
   34935723.520368576        1119574617.6902680        1037463045.7774068     
   272735827.71445376        1808090572.1892157        1190022725.7255037     
  -3605082297.9692168       -2311309253.6682415        585757827.98005593     
  -3638329161.5662899       -1300428273.2880869        491739971.65846437     
  -3763677089.5276704       -596550840.78895569        415489086.09549403     
  -3981126081.8533497       -199676956.17082357        357005171.29114681     
  -4290676138.5433378       -109806619.43371820        316288227.24541694     
  -3820480661.7349286       -2490488711.0567894       -6836700.1470572324     
  -3836843507.7221608       -1426739593.2522695        9894056.4809394050     
  -3949796325.9936094       -684957049.72844172        9645208.7984170243     
  -4159339116.5492611       -265141080.48531818       -7583243.1946320627     
  -4465471879.3891277       -167291685.52288556       -41791299.498205930     
  -3355331391.6078715       -2465503878.2775097       -578426955.52291322     
  -3454086148.7542605       -1378669401.6793108       -456184645.18520927     
  -3653919786.1047654       -628764525.76149607       -385668514.22717965     
  -3954832303.6593857       -215789250.52406859       -366878562.64881831     
  -4356823701.4181185       -139743575.96701312       -399814790.45012623     
  -2209634487.5880747       -2236354755.3304086       -1129012938.1475060     
  -2490057084.6625948       -1156217698.5692260       -906496133.33999157     
  -2876047469.8611498       -427973268.88812256       -770452082.98129582     
  -3367605643.1837106       -51621466.287065148       -720880787.07140887     
  -3964731604.6302958       -27162290.766089678       -757782245.61034262     
  -383389949.67551529       -1803041342.2154753       -1658594648.0208409     
  -944756315.44717741       -759384483.92202520       -1341040407.9834054     
  -1616179377.2627504       -82583279.108300507       -1144705497.4639294     
  -2397659135.1222529        227362272.22564757       -1069589916.4624130     
  -3289195589.0256815        170452170.07986403       -1115693664.9788635     
  -4290676138.5433378       -109806619.43371820        316288227.24541694     
  -4053591438.1035137       -12026494.669448137        302423918.04284257     
  -3827315984.8016639        49722806.301580191        299257063.17382771     
  -3611849778.6377783        75441283.479389191        306787662.63837272     
  -3407192819.6118655        65128936.863953352        325015716.43648177     
  -4465471879.3891277       -167291685.52288556       -41791299.498205930     
  -4230948954.8118114       -67692344.728653669        19985564.477294002     
  -4005625130.7371025        1243327.7235577106        68674558.218079865     
  -3789500407.1650038        39515331.833733320        104275681.72415452     
  -3582574784.0955133        47123667.601877928        126788934.99552022     
  -4356823701.4181185       -139743575.96701312       -399814790.45012623     
  -4192820622.8983660       -58712440.201316357       -260518248.88863814     
  -4036406498.2458644       -2977817.3264622688       -158094902.13012648     
  -3887581327.4606094        27460292.657572985       -92544750.174599960     
  -3746345110.5426106        32601889.750766039       -63867793.022059806     
  -3964731604.6302958       -27162290.766089678       -757782245.61034262     
  -3939206442.3631778        14913218.912532091       -539087522.05494404     
  -3919660087.3279519        37059371.151518345       -381051317.87078816     
  -3906092539.5246072        39276165.950900316       -283673633.05789697     
  -3898503798.9531574        21563603.310629606       -246954467.61625540     
  -3289195589.0256815        170452170.07986403       -1115693664.9788635     
  -3470106413.2062593        153184632.61290646       -815722255.02161694     
  -3655385897.9833612        121354893.15750098       -600194689.00391221     
  -3845034043.3569865        74962951.713691950       -469110966.92572212     
  -4039050849.3271484        14008808.281447172       -422471088.78706950     
  -3407192819.6118655        65128936.863953352        325015716.43648177     
  -3289310322.9431567        18339022.263573647        375633967.14416689     
  -3167505543.4954557       -15376616.406826735        424090008.07730401     
  -3041778481.2687635       -36017979.147258520        470383839.23590922     
  -2912129136.2630692       -43585065.957687974        514515460.61996907     
  -3582574784.0955133        47123667.601877928        126788934.99552022     
  -3466650610.6851540        16840523.086950541        184556301.47301391     
  -3348510443.6196513       -6055975.9108393192        239170220.58352086     
  -3228154282.8990107       -21565829.391494632        290630692.32704258     
  -3105582128.5232339       -29689037.355040073        338937716.70357794     
  -3746345110.5426106        32601889.750766039       -63867793.022059806     
  -3635211367.7975879        17975883.099188805       -941981.41924760875     
  -3523567920.5212822        5048891.5519046783        57839145.224135943     
  -3411414768.7136846       -6179084.8910856247        112475586.90807715     
  -3298751912.3748112       -15708046.229817629        162967343.63259149     
  -3898503798.9531574        21563603.310629606       -246954467.61625540     
  -3794992594.2804642        21745102.300304413       -180860881.53262532     
  -3692677974.2003469        17937985.981404543       -119903218.00086661     
  -3591559938.7127862        10142254.353985310       -64081477.020992436     
  -3491638487.8177943       -1642092.5820095539       -13395658.592990873     
  -4039050849.3271484        14008808.281447172       -422471088.78706950     
  -3945994290.1337776        28148180.690282822       -355200398.86710769     
  -3855840604.6568236        32611307.377727747       -294056869.09146869     
  -3768589792.8962932        27398188.343762875       -239040499.46016467     
  -3684241854.8521891        12508823.588374853       -190151289.97317448     
  -2912129136.2630692       -43585065.957687974        514515460.61996907     
  -2765411792.1432028       -39570387.793746114        535996256.11452287     
  -2618356489.9846625       -34429182.834236979        559007917.31499112     
  -2470963229.7874327       -28161451.079082847        583550444.22137344     
  -2323232011.5515332       -20767192.528376460        609623836.83367085     
  -3105582128.5232339       -29689037.355040073        338937716.70357794     
  -2951838605.3168993       -25301429.121910572        361765750.81788135     
  -2798227951.2289014       -21356717.949912906        388381611.58450830     
  -2644750166.2592340       -17854903.839020848        418785299.00346029     
  -2491405250.4079080       -14795986.789250016        452976813.07474411     
  -3298751912.3748112       -15708046.229817629        162967343.63259149     
  -3131533750.2351117       -9012969.9734296799        186593318.01679406     
  -2964919284.3707685       -4330214.6348978281        216264079.99973282     
  -2798908514.7817659       -1659780.2141546011        251979629.58140886     
  -2633501441.4681139       -1001666.7112597227        293739966.76182479     
  -3491638487.8177943       -1642092.5820095539       -13395658.592990873     
  -3304497226.8978405        9294989.6517028809        10478957.711255796     
  -3118430489.4102607        16650327.110833168        42655322.560657591     
  -2933438275.3550196        20423919.795493245        83133435.955218270     
  -2749520584.7321587        20615767.705572486        131913297.89491969     
  -3684241854.8521891        12508823.588374853       -190151289.97317448     
  -3470729035.3050890        29622449.753486395       -166577330.09872380     
  -3258761566.3473687        41584907.287296295       -132444660.73270267     
  -3048339447.9790139        48396196.189899921       -87753281.875121996     
  -2839462680.2000370        50056316.461254358       -32503193.525979821     
  -2323232011.5515332       -20767192.528376460        609623836.83367085     
  -2160720208.2538662       -10016511.797975183        592483861.17655838     
  -1999256969.5919139       -2761046.5199574232        578280976.99271345     
  -1838842295.5656686        999203.30570089817        567015184.28214407     
  -1679476186.1751413        1264237.6789714098        558686483.04483974     
  -2491405250.4079080       -14795986.789250016        452976813.07474411     
  -2325985511.9448442       -8936916.4842793941        442859143.40250582     
  -2160975075.9205875       -4442187.6420094967        433170088.63624388     
  -1996373942.3351386       -1311800.2624260187        423909648.77596849     
  -1832182111.1884925        454245.65447866917        415077823.82166690     
  -2633501441.4681139       -1001666.7112597227        293739966.76182479     
  -2472340843.7462029       -2184329.6037076712        291390408.97085643     
  -2310950286.2661958       -2600459.9691618681        286960989.51857239     
  -2149329769.0280809       -2250057.8076013327        280451708.40497649     
  -1987479292.0318649       -1133123.1190203428        271862565.63007700     
  -2749520584.7321587        20615767.705572486        131913297.89491969     
  -2599786203.6579447        10241248.843744159        138077657.88160571     
  -2449182600.6287184        2764136.4986348152        139653679.63968873     
  -2297709775.6444855       -1815569.3297886848        136641363.16917375     
  -2145367728.7052455       -3497868.6415286064        129040708.47006181     
  -2839462680.2000370        50056316.461254358       -32503193.525979821     
  -2708321591.6800604        28339818.858103752       -17079109.865238033     
  -2575672019.0081716        11651601.761338949       -8751841.0003902726     
  -2441513962.1843681       -8334.8290559053421       -7521386.9314323775     
  -2305847421.2086368       -6639990.9130134583       -13387747.658371713     
  -1679476186.1751413        1264237.6789714098        558686483.04483974     
  -1542262678.8426812       -7524770.2554307580        554664528.72504365     
  -1405588471.7251987       -18111445.573085964        547718284.21878874     
  -1269453564.8227024       -30495788.274028361        537847749.52607608     
  -1133857958.1351876       -44677798.358248174        525052924.64690453     
  -1832182111.1884925        454245.65447866917        415077823.82166690     
  -1701370390.2408864       -8061025.5891845226        410400775.99905783     
  -1570325598.1297650       -15799392.954488814        403660397.29208356     
  -1439047734.8551114       -22760856.441341221        394856687.70074183     
  -1307536800.4169514       -28945416.049836576        383989647.22503936     
  -1987479292.0318649       -1133123.1190203428        271862565.63007700     
  -1860609473.7488434       -8636692.5558937788        267431524.24623534     
  -1732734212.9238083       -12788786.852708101        261798111.28012758     
  -1603853509.5567408       -13589406.009420156        254962326.73174846     
  -1473967363.6476607       -11038550.026091874        246924170.60109273     
  -2145367728.7052455       -3497868.6415286064        129040708.47006181     
  -2019979929.3665495       -9251771.1555126905        125756773.46658501     
  -1892814316.1073308       -9079627.2677711248        122131426.18292560     
  -1763870888.9275937       -2981436.9782863855        118164666.61909263     
  -1633149647.8273220        9042799.7129653692        113856494.77508378     
  -2305847421.2086368       -6639990.9130134583       -13387747.658371713     
  -2179481757.0940075       -9906261.3880705833       -14623476.339901643     
  -2050565907.6803479       -4671914.1996958256       -15339657.999515669     
  -1919099872.9676559        9063050.6521148682       -15536292.637222435     
  -1785083652.9559445        31298633.167334437       -15213380.253013937     
  -1133857958.1351876       -44677798.358248174        525052924.64690453     
  -949069939.09608936       -33536070.984411538        546607231.99490511     
  -756776017.36777055        2625332.0201439857        578509585.17479289     
  -556976192.95024216        63806410.655403286        620759984.18657756     
  -349670465.84349281        150007164.92140484        673358429.03025055     
  -1307536800.4169514       -28945416.049836576        383989647.22503936     
  -1109278373.2933645       -9277797.0410027504        408413972.77553296     
  -907410425.58935714        22421557.235912740        430884591.41258407     
  -701932957.30490553        66152646.780979812        451401503.13619190     
  -492845968.44001383        121915471.59415856        469964707.94635588     
  -1473967363.6476607       -11038550.026091874        246924170.60109273     
  -1297386393.4262724        6610601.1217028499        269672735.22717601     
  -1121092284.7332356        23303547.174993932        278165840.19448340     
  -945085037.56852818        39040288.133855283        272403485.50301397     
  -769364651.93217361        53820823.998203963        252385671.15276802     
  -1633149647.8273220        9042799.7129653692        113856494.77508378     
  -1513393999.4948018        14129123.503718793        130383519.34983855     
  -1397821594.7994022        5271301.8374020457        120353331.52050050     
  -1286432433.7411232       -17530665.285987675        83765931.287029564     
  -1179226516.3199680       -54276777.866445899        20621318.649461299     
  -1785083652.9559445        31298633.167334437       -15213380.253013937     
  -1757301191.4989431        13277770.105084419       -9453674.8564756960     
  -1737598355.7878661       -31675178.776902318       -42552934.609387934     
  -1725975145.8226571       -103560213.47845483       -114511159.51174696     
  -1722431561.6033671       -202377333.99973732       -225328349.56355232     
  -349670465.84349281        150007164.92140484        673358429.03025055     
  -276267423.25860643        290532914.05635393        779130897.42977977     
  -148065360.13731688        613722064.97931910        900499103.01216495     
   34935723.520368576        1119574617.6902680        1037463045.7774068     
   272735827.71445376        1808090572.1892157        1190022725.7255037     
  -492845968.44001383        121915471.59415856        469964707.94635588     
  -385077835.26466894        227211919.34738538        591356160.04896009     
  -228218598.72675496        496145378.30920088        731716398.81868982     
  -22268258.826236665        928715848.47968221        891045424.25554812     
   232773184.43686447        1524923329.8587565        1069343236.3595281     
  -769364651.93217361        53820823.998203963        252385671.15276802     
  -617594143.92559159        126779155.64195877        382736870.25565618     
  -422440449.73025453        344348107.91489834        535429905.50993878     
  -183903569.34613243        706527680.81710982        710464776.91562247     
   98016497.226755738        1213317874.3485413        907841484.47271299     
  -1179226516.3199680       -54276777.866445899        20621318.649461299     
  -973816349.24138319       -10765377.059975147        153273028.04985735     
  -730730913.14783418        158330253.79638800        311639623.08591759     
  -449970208.03934169        453010114.70256317        495721103.75765413     
  -131534233.91589844        873274205.65856266        705517470.06504703     
  -1722431561.6033671       -202377333.99973732       -225328349.56355232     
  -1453744451.2120061       -185421678.75829184       -97035366.568432882     
  -1153089988.9795125       -61908184.046415150        60345551.546611056     
  -820468174.90585625        168163150.13598573        246814404.78161281     
  -455879008.99108207        504792323.78882515        462371193.13653398     
 </DataArray>
 <DataArray  type="Float64" Name="VM" NumberOfComponents="1" format="ascii">
   3310511535.2977257     
   2479307187.6211090     
   2533068971.1772189     
   3126926274.8602319     
   3891378824.2264209     
   2960785573.1618118     
   2668966335.3206038     
   3000787891.0942707     
   3567716234.5647721     
   4163513551.0488086     
   3173028331.2763147     
   3113472474.5482559     
   3448947680.0190768     
   3903543632.5789685     
   4344209768.0352354     
   3359149113.8441777     
   3359028297.1869035     
   3655802980.0198441     
   4033331442.9362845     
   4384817993.3439283     
   3321994199.9509592     
   3304934382.3802419     
   3576843154.2145395     
   3934037964.4246492     
   4272110638.3187127     
   3891378824.2264209     
   3820062750.6622734     
   3860164897.1015668     
   3967157248.9939065     
   4111709591.1667676     
   4163513551.0488086     
   4055633380.5331964     
   3993240420.5114646     
   3956504779.9697680     
   3932660953.6540756     
   4344209768.0352354     
   4188153587.2811522     
   4044199376.8595672     
   3904675448.5996351     
   3764377742.2006288     
   4384817993.3439283     
   4197654907.8292661     
   4008012365.7154555     
   3813690917.8721032     
   3613047617.9120560     
   4272110638.3187127     
   4081345166.3255978     
   3887131238.6086969     
   3688629664.7657447     
   3485974351.9492555     
   4111709591.1667676     
   4007647413.1994495     
   3905601438.4633241     
   3804956412.6539826     
   3705179157.1530972     
   3932660953.6540756     
   3818782020.2248778     
   3707500767.8398881     
   3598353995.9868808     
   3490894837.0911412     
   3764377742.2006288     
   3644232925.8357768     
   3527517908.4606695     
   3413892464.1786170     
   3303009088.6974440     
   3613047617.9120560     
   3489772679.5396962     
   3371036569.1741004     
   3256566586.5769491     
   3146101775.1619115     
   3485974351.9492555     
   3362071398.3478842     
   3244099150.1032271     
   3131762727.0913763     
   3024838657.1081338     
   3705179157.1530972     
   3497555295.2633290     
   3287764637.7291079     
   3076580168.2261558     
   2865371941.3919458     
   3490894837.0911412     
   3309204286.9528065     
   3127661629.4279876     
   2947222941.1014333     
   2769327587.7087650     
   3303009088.6974440     
   3143693948.5210342     
   2986341714.1625180     
   2831912296.8951330     
   2681705140.2318864     
   3146101775.1619115     
   3005316781.0437508     
   2867628923.0101953     
   2733851469.9407101     
   2604999083.1932273     
   3024838657.1081338     
   2898536827.1762681     
   2775661679.2941461     
   2656776204.9322658     
   2542541035.3956885     
   2865371941.3919458     
   2722762828.5919971     
   2581562046.1804171     
   2441544550.4719639     
   2302651365.0455909     
   2769327587.7087650     
   2615877398.5620742     
   2462474848.0992131     
   2308963933.1272388     
   2155241338.0824075     
   2681705140.2318864     
   2522260637.4188247     
   2362525826.9235129     
   2202441119.5049200     
   2041947826.3014770     
   2604999083.1932273     
   2444969119.3847122     
   2285419552.7599015     
   2126497111.5973542     
   1968398474.7012069     
   2542541035.3956885     
   2387526051.5275049     
   2234892095.2581491     
   2085113431.2885520     
   1938854526.3545814     
   2302651365.0455909     
   2174693055.5446358     
   2048406262.4272106     
   1923835619.2512038     
   1801129720.9749670     
   2155241338.0824075     
   2027106414.7123733     
   1900102808.3409588     
   1774226365.8403037     
   1649520443.5952201     
   2041947826.3014770     
   1913225432.3042438     
   1784933217.3630197     
   1657031291.1204143     
   1529492011.8524675     
   1968398474.7012069     
   1840189605.8675933     
   1711778917.6288564     
   1583148095.5289714     
   1454299581.3890314     
   1938854526.3545814     
   1813831259.7129071     
   1688352952.9840763     
   1562552387.6842959     
   1436667469.7891393     
   1801129720.9749670     
   1764053551.9055870     
   1723555882.8142467     
   1688286404.6802385     
   1676742245.4413328     
   1649520443.5952201     
   1537186893.9561558     
   1415894102.7834656     
   1285968082.0859809     
   1153599690.5694423     
   1529492011.8524675     
   1382028151.0316093     
   1231115387.4097219     
   1074345028.9675512     
   909572465.10605228     
   1454299581.3890314     
   1311754110.6728826     
   1183734157.1752264     
   1074621199.9277074     
   990175014.65513659     
   1436667469.7891393     
   1329048057.3499870     
   1256472698.3055904     
   1227135389.0970278     
   1247982123.7947376     
   1676742245.4413328     
   1380741097.6907172     
   1128267785.3467903     
   1011024942.9149946     
   1155043958.4853137     
   1153599690.5694423     
   1004205426.4906449     
   982899136.05929172     
   1161357242.9851186     
   1545328200.8356490     
   909572465.10605228     
   956690169.58434117     
   1141294735.6893208     
   1475539035.9585762     
   1958405170.7094085     
   990175014.65513659     
   1156075600.3178544     
   1420457754.7868221     
   1807090404.9663696     
   2335615150.0763454     
   1247982123.7947376     
   1436012781.5765400     
   1709428268.7731955     
   2108208574.6234698     
   2664377513.3027415     
   3321994199.9509592     
   3304934382.3802419     
   3576843154.2145395     
   3934037964.4246492     
   4272110638.3187127     
   2664089694.8210411     
   2872834284.5953908     
   3250077063.2623482     
   3658518621.8992038     
   4040979544.0462561     
   2199950156.1470094     
   2561464892.4222975     
   2993501480.8285031     
   3425604116.3820744     
   3832978281.7722702     
   1956541108.4990644     
   2384811595.8409715     
   2826443072.0504537     
   3254523132.7418461     
   3659544021.0072479     
   1975161297.1470716     
   2371297033.0836716     
   2776873622.8944211     
   3168072482.4256477     
   3534069994.7250447     
   4272110638.3187127     
   4081345166.3255978     
   3887131238.6086969     
   3688629664.7657447     
   3485974351.9492555     
   4040979544.0462561     
   3875097872.2268233     
   3708262453.4315333     
   3540114995.3755512     
   3371180495.2289381     
   3832978281.7722702     
   3690553801.3572326     
   3549541024.9035091     
   3409917512.4450068     
   3272403215.1902905     
   3659544021.0072479     
   3538111444.5281758     
   3420149646.3352189     
   3305821936.9038782     
   3195860363.8517728     
   3534069994.7250447     
   3429934680.5993743     
   3330860638.2571588     
   3237068836.1979713     
   3149169344.1104131     
   3485974351.9492555     
   3362071398.3478842     
   3244099150.1032271     
   3131762727.0913763     
   3024838657.1081338     
   3371180495.2289381     
   3252197371.8925390     
   3138227841.7081938     
   3029382351.2096853     
   2925833351.1420226     
   3272403215.1902905     
   3159777944.1373763     
   3052303469.0344300     
   2950416402.6156149     
   2854625579.6936445     
   3195860363.8517728     
   3090981816.5961905     
   2992388073.3416429     
   2900748177.0149803     
   2816828759.8124433     
   3149169344.1104131     
   3052935036.8325267     
   2965031241.6444678     
   2886242154.9946580     
   2817482784.3312488     
   3024838657.1081338     
   2898536827.1762681     
   2775661679.2941461     
   2656776204.9322658     
   2542541035.3956885     
   2925833351.1420226     
   2809194566.7355814     
   2697489661.4259467     
   2591411359.7341542     
   2491765373.9425364     
   2854625579.6936445     
   2748562551.8766189     
   2649025167.1306748     
   2556757261.7737393     
   2472618548.2805271     
   2816828759.8124433     
   2721215110.7022195     
   2633713260.0109582     
   2555018749.7426114     
   2485938586.6262159     
   2817482784.3312488     
   2730934448.1524949     
   2654011451.8928471     
   2587265519.1345067     
   2531358696.0146546     
   2542541035.3956885     
   2387526051.5275049     
   2234892095.2581491     
   2085113431.2885520     
   1938854526.3545814     
   2491765373.9425364     
   2349840560.6510153     
   2211897234.8660436     
   2078659845.9048038     
   1951095455.5859308     
   2472618548.2805271     
   2346038535.5809021     
   2225199642.0368371     
   2111001003.9461694     
   2004583401.7212899     
   2485938586.6262159     
   2376196128.9380636     
   2273891419.4683051     
   2179969780.4635887     
   2095571288.6917574     
   2531358696.0146546     
   2438995663.7508268     
   2355532113.0216904     
   2281833068.2095389     
   2218896329.2114697     
   1938854526.3545814     
   1813831259.7129071     
   1688352952.9840763     
   1562552387.6842959     
   1436667469.7891393     
   1951095455.5859308     
   1836672527.4949160     
   1726141048.2592561     
   1620286091.4429443     
   1520075689.0666788     
   2004583401.7212899     
   1906518796.6604683     
   1816974414.5973613     
   1737144247.9782062     
   1668317144.8687899     
   2095571288.6917574     
   2016176487.5467839     
   1949289553.0837581     
   1896094607.3057923     
   1857725399.9399033     
   2218896329.2114697     
   2157481041.4686203     
   2111674591.6718388     
   2082400453.7828965     
   2070468636.6316161     
   1436667469.7891393     
   1329048057.3499870     
   1256472698.3055904     
   1227135389.0970278     
   1247982123.7947376     
   1520075689.0666788     
   1460124084.9153736     
   1433025003.6032972     
   1442721581.6559451     
   1492406489.1288338     
   1668317144.8687899     
   1640221889.0404289     
   1640045799.9127209     
   1670099612.5073650     
   1732920417.8677094     
   1857725399.9399033     
   1846994554.5732524     
   1859467414.2675807     
   1897279997.5358357     
   1963421022.6943009     
   2070468636.6316161     
   2065974270.8933976     
   2080989520.4673231     
   2118062851.4970396     
   2180988004.0439868     
   1247982123.7947376     
   1436012781.5765400     
   1709428268.7731955     
   2108208574.6234698     
   2664377513.3027415     
   1492406489.1288338     
   1604894625.1972463     
   1784725690.1422341     
   2066312003.2938628     
   2479557814.5368333     
   1732920417.8677094     
   1781462439.1478484     
   1882340665.1583040     
   2062327811.3337843     
   2346496203.1300750     
   1963421022.6943009     
   1964724397.8853569     
   2002823277.5091271     
   2096435015.6671395     
   2264237979.8520899     
   2180988004.0439868     
   2154000702.1905131     
   2146914492.5337403     
   2170442755.6553187     
   2235850022.4215007     
   1975161297.1470716     
   2371297033.0836716     
   2776873622.8944211     
   3168072482.4256477     
   3534069994.7250447     
   2000410738.1094122     
   2329984500.4769077     
   2670523785.2134914     
   3002014518.0441298     
   3314146209.5438070     
   2025154401.0703137     
   2299937754.4428730     
   2588901838.6315370     
   2875449640.8133888     
   3150038434.5442777     
   2069344302.1812534     
   2297481417.2496457     
   2545333788.8916368     
   2799148394.8552222     
   3050145958.8739762     
   2156123413.4794230     
   2341098157.1840262     
   2554026748.8688159     
   2783350457.0932369     
   3020806171.3192577     
   3534069994.7250447     
   3429934680.5993743     
   3330860638.2571588     
   3237068836.1979713     
   3149169344.1104131     
   3314146209.5438070     
   3231206913.0948057     
   3154963989.5817795     
   3085998300.7269788     
   3025064513.9029126     
   3150038434.5442777     
   3083920324.0145588     
   3026340754.7679138     
   2977784999.3025470     
   2938781412.4964986     
   3050145958.8739762     
   2995178698.6774268     
   2950639765.0804534     
   2916463169.8164864     
   2892633674.0436215     
   3020806171.3192577     
   2970071594.1814137     
   2931572218.6832395     
   2904303416.9175086     
   2887481645.7076344     
   3149169344.1104131     
   3052935036.8325267     
   2965031241.6444678     
   2886242154.9946580     
   2817482784.3312488     
   3025064513.9029126     
   2948404174.8406911     
   2880825515.7099905     
   2822993504.0644445     
   2775648330.4086599     
   2938781412.4964986     
   2880155693.0599246     
   2831077578.5740452     
   2792048817.6162930     
   2763602782.5039415     
   2892633674.0436215     
   2849835930.2812176     
   2816750414.3858085     
   2793702901.1675510     
   2781024715.8992538     
   2887481645.7076344     
   2857702523.3479705     
   2837532728.2178946     
   2827139356.4832444     
   2826685274.8220520     
   2817482784.3312488     
   2730934448.1524949     
   2654011451.8928471     
   2587265519.1345067     
   2531358696.0146546     
   2775648330.4086599     
   2701633189.7490349     
   2637545554.7101178     
   2583823907.1430697     
   2540979826.3034368     
   2763602782.5039415     
   2700888599.1029029     
   2648295891.3606915     
   2606143442.7779145     
   2574795322.6010489     
   2781024715.8992538     
   2728016809.8156977     
   2685238271.0196152     
   2652896279.1641474     
   2631225006.4372792     
   2826685274.8220520     
   2781518503.9923143     
   2746641816.8933372     
   2722169733.3844967     
   2708233027.7447839     
   2531358696.0146546     
   2438995663.7508268     
   2355532113.0216904     
   2281833068.2095389     
   2218896329.2114697     
   2540979826.3034368     
   2467349230.5328779     
   2403599154.5139632     
   2350439037.2497473     
   2308633446.6274195     
   2574795322.6010489     
   2518289785.5778089     
   2472291629.2051325     
   2437321726.2624445     
   2413907240.3952384     
   2631225006.4372792     
   2589587929.2141681     
   2558810086.4642854     
   2539234074.3832040     
   2531186827.7646551     
   2708233027.7447839     
   2678764270.7633295     
   2660341395.8310313     
   2653163382.8100395     
   2657409818.1401873     
   2218896329.2114697     
   2157481041.4686203     
   2111674591.6718388     
   2082400453.7828965     
   2070468636.6316161     
   2308633446.6274195     
   2262162860.2273650     
   2230305574.5475183     
   2213623454.6637068     
   2212590896.4288211     
   2413907240.3952384     
   2379325659.3185945     
   2358340177.9143896     
   2351278578.8524432     
   2358416004.6583362     
   2531186827.7646551     
   2505714583.0978756     
   2492924489.4747090     
   2493004068.0996170     
   2506118241.6901245     
   2657409818.1401873     
   2638619177.5057039     
   2631766175.6130781     
   2636961151.0494928     
   2654313294.2657533     
   2070468636.6316161     
   2065974270.8933976     
   2080989520.4673231     
   2118062851.4970396     
   2180988004.0439868     
   2212590896.4288211     
   2196150630.4514146     
   2195002284.6062217     
   2211069920.2843866     
   2247273501.0614419     
   2358416004.6583362     
   2330875861.7250228     
   2315244526.9551420     
   2312902649.7630997     
   2325942907.6893988     
   2506118241.6901245     
   2469264926.2560635     
   2441461411.9736676     
   2423639322.4719615     
   2417178152.6201158     
   2654313294.2657533     
   2610607984.1568356     
   2573424068.4311938     
   2543335669.7413545     
   2521151513.6385694     
   2180988004.0439868     
   2154000702.1905131     
   2146914492.5337403     
   2170442755.6553187     
   2235850022.4215007     
   2247273501.0614419     
   2183717928.5458016     
   2136959858.3326068     
   2116906182.8869240     
   2134766080.6333137     
   2325942907.6893988     
   2229142556.4127064     
   2146065582.0772469     
   2085349314.4859364     
   2057513519.8293307     
   2417178152.6201158     
   2290580983.9511080     
   2174896485.4349861     
   2077145369.7745538     
   2006492987.4792418     
   2521151513.6385694     
   2368254953.6847310     
   2223938003.4119573     
   2093446284.9489617     
   1984064375.0922835     
   2156123413.4794230     
   2341098157.1840262     
   2554026748.8688159     
   2783350457.0932369     
   3020806171.3192577     
   1996470607.1880467     
   2221620115.8720760     
   2460274035.4875398     
   2704508028.7452168     
   2949115159.8033252     
   1891751666.5032659     
   2147709965.4236269     
   2404800010.0517693     
   2659025379.1696076     
   2907916794.8239965     
   1850350153.0089955     
   2123728290.1765854     
   2390198703.5739188     
   2648722645.4948111     
   2898677648.3583584     
   1876645411.6650825     
   2151809125.3308525     
   2417799105.2786770     
   2674615351.5085754     
   2922257864.0205345     
   3020806171.3192577     
   2970071594.1814137     
   2931572218.6832395     
   2904303416.9175086     
   2887481645.7076344     
   2949115159.8033252     
   2902763990.1710854     
   2867824795.3941059     
   2843753148.1467476     
   2830132475.3883328     
   2907916794.8239965     
   2864507807.3680277     
   2832385095.9268203     
   2811320916.0646811     
   2801144687.4159551     
   2898677648.3583584     
   2856270444.1357541     
   2825707994.2768526     
   2806938258.6917419     
   2799923224.0939822     
   2922257864.0205345     
   2878377285.9369059     
   2847557088.6915278     
   2829797272.2843938     
   2825097836.7155046     
   2887481645.7076344     
   2857702523.3479705     
   2837532728.2178946     
   2827139356.4832444     
   2826685274.8220520     
   2830132475.3883328     
   2811375377.7930212     
   2801701594.1583467     
   2801197673.3624063     
   2809945700.2898746     
   2801144687.4159551     
   2790920331.5056419     
   2789229516.3624172     
   2796106526.4287610     
   2811583110.3013430     
   2799923224.0939822     
   2795663466.5149674     
   2799412248.4705029     
   2811176994.1985517     
   2830964443.4604797     
   2825097836.7155046     
   2824296993.0846248     
   2831041360.7766819     
   2845330939.7916861     
   2867165730.1296315     
   2826685274.8220520     
   2781518503.9923143     
   2746641816.8933372     
   2722169733.3844967     
   2708233027.7447839     
   2809945700.2898746     
   2770852266.2203298     
   2741811299.7029481     
   2722885437.5754786     
   2714145526.8341722     
   2811583110.3013430     
   2777053788.2364116     
   2752396892.1809187     
   2737639313.2730455     
   2732811252.4388275     
   2830964443.4604797     
   2799467792.3881264     
   2777739004.8677311     
   2765784550.4160686     
   2763611659.7144437     
   2867165730.1296315     
   2837195264.0331411     
   2816977061.7127504     
   2806511123.1684632     
   2805797448.4002757     
   2708233027.7447839     
   2678764270.7633295     
   2660341395.8310313     
   2653163382.8100395     
   2657409818.1401873     
   2714145526.8341722     
   2693146745.8853230     
   2682941046.2452841     
   2683635448.2966409     
   2695324266.9030113     
   2732811252.4388275     
   2718145701.2347741     
   2714076025.7504969     
   2720647600.4495897     
   2737899651.8813796     
   2763611659.7144437     
   2753102103.3274894     
   2753080928.9824209     
   2763558983.1030540     
   2784545511.5763793     
   2805797448.4002757     
   2797284662.0332098     
   2799264182.1756463     
   2811736008.8275838     
   2834700141.9890127     
   2657409818.1401873     
   2638619177.5057039     
   2631766175.6130781     
   2636961151.0494928     
   2654313294.2657533     
   2695324266.9030113     
   2679064252.8023276     
   2673829665.8283105     
   2679675647.9574032     
   2696658561.3610964     
   2737899651.8813796     
   2723537531.4322095     
   2719479940.3440204     
   2725748669.4190183     
   2742366740.2423429     
   2784545511.5763793     
   2771610777.0586805     
   2768431565.2792573     
   2775012717.3416286     
   2791359522.6638703     
   2834700141.9890127     
   2822873906.7176347     
   2820407534.2269650     
   2827301024.5169883     
   2843554377.5877247     
   2654313294.2657533     
   2610607984.1568356     
   2573424068.4311938     
   2543335669.7413545     
   2521151513.6385694     
   2696658561.3610964     
   2645675471.0475454     
   2600996231.1921487     
   2562948340.8875971     
   2531995072.2331519     
   2742366740.2423429     
   2686195955.9613595     
   2636268557.0628624     
   2592730726.6020660     
   2555789652.6251678     
   2791359522.6638703     
   2732091544.2696447     
   2679162794.0572424     
   2632609638.0321612     
   2592483595.2041817     
   2843554377.5877247     
   2783273015.9309855     
   2729582763.1151805     
   2682483619.1403041     
   2641975584.0063553     
   2521151513.6385694     
   2368254953.6847310     
   2223938003.4119573     
   2093446284.9489617     
   1984064375.0922835     
   2531995072.2331519     
   2360572358.0039287     
   2193014577.7618475     
   2032592507.7810833     
   1884157735.8734028     
   2555789652.6251678     
   2371166320.8291512     
   2186515307.4599934     
   2003390636.9397383     
   1824218413.3688734     
   2592483595.2041817     
   2400147575.1173668     
   2204932468.9017286     
   2007237704.8155470     
   1807706854.4781182     
   2641975584.0063553     
   2447483749.2133098     
   2248414932.4896288     
   2044769133.8353190     
   1836546353.2503512     
   1876645411.6650825     
   2151809125.3308525     
   2417799105.2786770     
   2674615351.5085754     
   2922257864.0205345     
   1850350152.9721377     
   2123728290.1505373     
   2390198703.5559053     
   2648722645.4829540     
   2898677648.3513427     
   1891751666.4318683     
   2147709965.3726587     
   2404800010.0163465     
   2659025379.1462193     
   2907916794.8100791     
   1996470607.0875199     
   2221620115.7989326     
   2460274035.4361587     
   2704508028.7110415     
   2949115159.7828202     
   2156123413.3564057     
   2341098157.0924149     
   2554026748.8034973     
   2783350457.0493388     
   3020806171.2926617     
   2922257864.0205345     
   2878377285.9369059     
   2847557088.6915278     
   2829797272.2843938     
   2825097836.7155046     
   2898677648.3513427     
   2856270444.1305857     
   2825707994.2731233     
   2806938258.6890993     
   2799923224.0921121     
   2907916794.8100791     
   2864507807.3577328     
   2832385095.9193544     
   2811320916.0593195     
   2801144687.4120822     
   2949115159.7828202     
   2902763990.1558719     
   2867824795.3829989     
   2843753148.1387014     
   2830132475.3824215     
   3020806171.2926617     
   2970071594.1616282     
   2931572218.6687384     
   2904303416.9069214     
   2887481645.6997614     
   2825097836.7155046     
   2824296993.0846248     
   2831041360.7766819     
   2845330939.7916861     
   2867165730.1296315     
   2799923224.0921121     
   2795663466.5135851     
   2799412248.4695296     
   2811176994.1979189     
   2830964443.4601240     
   2801144687.4120822     
   2790920331.5027485     
   2789229516.3603535     
   2796106526.4273820     
   2811583110.3005118     
   2830132475.3824215     
   2811375377.7885451     
   2801701594.1551061     
   2801197673.3601999     
   2809945700.2885118     
   2887481645.6997614     
   2857702523.3419247     
   2837532728.2134371     
   2827139356.4801316     
   2826685274.8200464     
   2867165730.1296315     
   2837195264.0331411     
   2816977061.7127504     
   2806511123.1684632     
   2805797448.4002757     
   2830964443.4601240     
   2799467792.3880587     
   2777739004.8678946     
   2765784550.4164114     
   2763611659.7149215     
   2811583110.3005118     
   2777053788.2361712     
   2752396892.1811380     
   2737639313.2736187     
   2732811252.4396749     
   2809945700.2885118     
   2770852266.2198110     
   2741811299.7031012     
   2722885437.5761557     
   2714145526.8352356     
   2826685274.8200464     
   2781518503.9913902     
   2746641816.8932910     
   2722169733.3851285     
   2708233027.7459102     
   2805797448.4002757     
   2797284662.0332098     
   2799264182.1756463     
   2811736008.8275838     
   2834700141.9890127     
   2763611659.7149215     
   2753102103.3275828     
   2753080928.9821024     
   2763558983.1023178     
   2784545511.5751810     
   2732811252.4396749     
   2718145701.2348742     
   2714076025.7498083     
   2720647600.4480557     
   2737899651.8789563     
   2714145526.8352356     
   2693146745.8853025     
   2682941046.2441087     
   2683635448.2942333     
   2695324266.8992977     
   2708233027.7459102     
   2678764270.7630606     
   2660341395.8292670     
   2653163382.8066773     
   2657409818.1351309     
   2834700141.9890127     
   2822873906.7176347     
   2820407534.2269650     
   2827301024.5169883     
   2843554377.5877247     
   2784545511.5751810     
   2771610777.0573320     
   2768431565.2777433     
   2775012717.3399472     
   2791359522.6620336     
   2737899651.8789563     
   2723537531.4294715     
   2719479940.3409362     
   2725748669.4155898     
   2742366740.2385826     
   2695324266.8992977     
   2679064252.7981286     
   2673829665.8235955     
   2679675647.9521828     
   2696658561.3553648     
   2657409818.1351309     
   2638619177.4999814     
   2631766175.6066718     
   2636961151.0423875     
   2654313294.2579541     
   2843554377.5877247     
   2783273015.9309855     
   2729582763.1151805     
   2682483619.1403041     
   2641975584.0063553     
   2791359522.6620336     
   2732091544.2678657     
   2679162794.0555267     
   2632609638.0305152     
   2592483595.2026091     
   2742366740.2385826     
   2686195955.9577432     
   2636268557.0593934     
   2592730726.5987554     
   2555789652.6220570     
   2696658561.3553648     
   2645675471.0420589     
   2600996231.1869082     
   2562948340.8826361     
   2531995072.2285171     
   2654313294.2579541     
   2610607984.1494112     
   2573424068.4241533     
   2543335669.7347183     
   2521151513.6324034     
   2641975584.0063553     
   2447483749.2133098     
   2248414932.4896288     
   2044769133.8353190     
   1836546353.2503512     
   2592483595.2026091     
   2400147575.1164603     
   2204932468.9016552     
   2007237704.8165076     
   1807706854.4805207     
   2555789652.6220570     
   2371166320.8273101     
   2186515307.4596949     
   2003390636.9414277     
   1824218413.3731973     
   2531995072.2285171     
   2360572358.0010862     
   2193014577.7611761     
   2032592507.7831862     
   1884157735.8790369     
   2521151513.6324034     
   2368254953.6808176     
   2223938003.4107480     
   2093446284.9510989     
   1984064375.0985982     
   2156123413.3564057     
   2341098157.0924149     
   2554026748.8034973     
   2783350457.0493388     
   3020806171.2926617     
   2069344302.0631464     
   2297481417.1622562     
   2545333788.8292303     
   2799148394.8128624     
   3050145958.8477902     
   2025154400.9603040     
   2299937754.3617516     
   2588901838.5733619     
   2875449640.7734156     
   3150038434.5189967     
   2000410738.0093203     
   2329984500.4032960     
   2670523785.1604757     
   3002014518.0072794     
   3314146209.5200086     
   1975161297.0576699     
   2371297033.0181880     
   2776873622.8471375     
   3168072482.3925028     
   3534069994.7033205     
   3020806171.2926617     
   2970071594.1616282     
   2931572218.6687384     
   2904303416.9069214     
   2887481645.6997614     
   3050145958.8477902     
   2995178698.6566863     
   2950639765.0642223     
   2916463169.8038878     
   2892633674.0338497     
   3150038434.5189967     
   3083920323.9932647     
   3026340754.7502522     
   2977784999.2881155     
   2938781412.4848604     
   3314146209.5200086     
   3231206913.0735011     
   3154963989.5631313     
   3085998300.7110133     
   3025064513.8895297     
   3534069994.7033205     
   3429934680.5786548     
   3330860638.2380524     
   3237068836.1808705     
   3149169344.0955205     
   2887481645.6997614     
   2857702523.3419247     
   2837532728.2134371     
   2827139356.4801316     
   2826685274.8200464     
   2892633674.0338497     
   2849835930.2734900     
   2816750414.3799238     
   2793702901.1632767     
   2781024715.8963695     
   2938781412.4848604     
   2880155693.0504270     
   2831077578.5665317     
   2792048817.6105728     
   2763602782.4998007     
   3025064513.8895297     
   2948404174.8294368     
   2880825515.7007475     
   2822993504.0570560     
   2775648330.4029369     
   3149169344.0955205     
   3052935036.8196282     
   2965031241.6334729     
   2886242154.9854631     
   2817482784.3236895     
   2826685274.8200464     
   2781518503.9913902     
   2746641816.8932910     
   2722169733.3851285     
   2708233027.7459102     
   2781024715.8963695     
   2728016809.8141947     
   2685238271.0192418     
   2652896279.1646905     
   2631225006.4385514     
   2763602782.4998007     
   2700888599.1004038     
   2648295891.3595796     
   2606143442.7779541     
   2574795322.6020408     
   2775648330.4029369     
   2701633189.7451644     
   2637545554.7078514     
   2583823907.1421766     
   2540979826.3037081     
   2817482784.3236895     
   2730934448.1469302     
   2654011451.8890448     
   2587265519.1322541     
   2531358696.0137439     
   2708233027.7459102     
   2678764270.7630606     
   2660341395.8292670     
   2653163382.8066773     
   2657409818.1351309     
   2631225006.4385514     
   2589587929.2138829     
   2558810086.4623218     
   2539234074.3794198     
   2531186827.7589073     
   2574795322.6020408     
   2518289785.5771508     
   2472291629.2026610     
   2437321726.2579880     
   2413907240.3886080     
   2540979826.3037081     
   2467349230.5314450     
   2403599154.5106530     
   2350439037.2443447     
   2308633446.6197038     
   2531358696.0137439     
   2438995663.7482119     
   2355532113.0171752     
   2281833068.2028880     
   2218896329.2024155     
   2657409818.1351309     
   2638619177.4999814     
   2631766175.6066718     
   2636961151.0423875     
   2654313294.2579541     
   2531186827.7589073     
   2505714583.0913806     
   2492924489.4674058     
   2493004068.0914702     
   2506118241.6811161     
   2413907240.3886080     
   2379325659.3111749     
   2358340177.9060702     
   2351278578.8431525     
   2358416004.6480141     
   2308633446.6197038     
   2262162860.2188272     
   2230305574.5380301     
   2213623454.6531363     
   2212590896.4170914     
   2218896329.2024155     
   2157481041.4587784     
   2111674591.6610150     
   2082400453.7709458     
   2070468636.6183977     
   2654313294.2579541     
   2610607984.1494112     
   2573424068.4241533     
   2543335669.7347183     
   2521151513.6324034     
   2506118241.6811161     
   2469264926.2475338     
   2441461411.9656172     
   2423639322.4644513     
   2417178152.6132321     
   2358416004.6480141     
   2330875861.7152662     
   2315244526.9459581     
   2312902649.7545748     
   2325942907.6816382     
   2212590896.4170914     
   2196150630.4403024     
   2195002284.5957732     
   2211069920.2746935     
   2247273501.0526271     
   2070468636.6183977     
   2065974270.8808408     
   2080989520.4554718     
   2118062851.4860094     
   2180988004.0339646     
   2521151513.6324034     
   2368254953.6808176     
   2223938003.4107480     
   2093446284.9510989     
   1984064375.0985982     
   2417178152.6132321     
   2290580983.9468422     
   2174896485.4338012     
   2077145369.7770588     
   2006492987.4862108     
   2325942907.6816382     
   2229142556.4078703     
   2146065582.0757992     
   2085349314.4884408     
   2057513519.8363471     
   2247273501.0526271     
   2183717928.5401874     
   2136959858.3306339     
   2116906182.8890071     
   2134766080.6398914     
   2180988004.0339646     
   2154000702.1839156     
   2146914492.5309007     
   2170442755.6565795     
   2235850022.4271107     
   1975161297.0576699     
   2371297033.0181880     
   2776873622.8471375     
   3168072482.3925028     
   3534069994.7033205     
   1956541108.4480929     
   2384811595.7890043     
   2826443072.0047569     
   3254523132.7053742     
   3659544020.9811282     
   2199950156.1361485     
   2561464892.3865585     
   2993501480.7871461     
   3425604116.3445368     
   3832978281.7429104     
   2664089694.8424201     
   2872834284.5763149     
   3250077063.2274051     
   3658518621.8626323     
   4040979544.0148735     
   3321994199.9966483     
   3304934382.3775616     
   3576843154.1876464     
   3934037964.3907557     
   4272110638.2864680     
   3534069994.7033205     
   3429934680.5786548     
   3330860638.2380524     
   3237068836.1808705     
   3149169344.0955205     
   3659544020.9811282     
   3538111444.5032430     
   3420149646.3121462     
   3305821936.8830938     
   3195860363.8335171     
   3832978281.7429104     
   3690553801.3290348     
   3549541024.8771491     
   3409917512.4209118     
   3272403215.1686697     
   4040979544.0148735     
   3875097872.1963873     
   3708262453.4026809     
   3540114995.3486509     
   3371180495.2041469     
   4272110638.2864680     
   4081345166.2939301     
   3887131238.5781808     
   3688629664.7366643     
   3485974351.9216628     
   3149169344.0955205     
   3052935036.8196282     
   2965031241.6334729     
   2886242154.9854631     
   2817482784.3236895     
   3195860363.8335171     
   3090981816.5802841     
   2992388073.3279037     
   2900748177.0032020     
   2816828759.8024192     
   3272403215.1686697     
   3159777944.1183071     
   3052303469.0176482     
   2950416402.6008644     
   2854625579.6806836     
   3371180495.2041469     
   3252197371.8703308     
   3138227841.6882463     
   3029382351.1917138     
   2925833351.1257672     
   3485974351.9216628     
   3362071398.3227143     
   3244099150.0801516     
   3131762727.0701051     
   3024838657.0884128     
   2817482784.3236895     
   2730934448.1469302     
   2654011451.8890448     
   2587265519.1322541     
   2531358696.0137439     
   2816828759.8024192     
   2721215110.6944523     
   2633713260.0052547     
   2555018749.7388153     
   2485938586.6241388     
   2854625579.6806836     
   2748562551.8660603     
   2649025167.1223984     
   2556757261.7676206     
   2472618548.2764268     
   2925833351.1257672     
   2809194566.7217865     
   2697489661.4145298     
   2591411359.7250509     
   2491765373.9356585     
   3024838657.0884128     
   2898536827.1589513     
   2775661679.2792082     
   2656776204.9196835     
   2542541035.3854141     
   2531358696.0137439     
   2438995663.7482119     
   2355532113.0171752     
   2281833068.2028880     
   2218896329.2024155     
   2485938586.6241388     
   2376196128.9345455     
   2273891419.4631267     
   2179969780.4564576     
   2095571288.6823504     
   2472618548.2764268     
   2346038535.5756702     
   2225199642.0302382     
   2111001003.9379125     
   2004583401.7110059     
   2491765373.9356585     
   2349840560.6433349     
   2211897234.8573246     
   2078659845.8947682     
   1951095455.5742047     
   2542541035.3854141     
   2387526051.5167542     
   2234892095.2467208     
   2085113431.2761972     
   1938854526.3409631     
   2218896329.2024155     
   2157481041.4587784     
   2111674591.6610150     
   2082400453.7709458     
   2070468636.6183977     
   2095571288.6823504     
   2016176487.5367944     
   1949289553.0729613     
   1896094607.2939854     
   1857725399.9268985     
   2004583401.7110059     
   1906518796.6498742     
   1816974414.5862386     
   1737144247.9663131     
   1668317144.8558722     
   1951095455.5742047     
   1836672527.4832458     
   1726141048.2474172     
   1620286091.4306941     
   1520075689.0537410     
   1938854526.3409631     
   1813831259.6997297     
   1688352952.9711614     
   1562552387.6714573     
   1436667469.7761421     
   2070468636.6183977     
   2065974270.8808408     
   2080989520.4554718     
   2118062851.4860094     
   2180988004.0339646     
   1857725399.9268985     
   1846994554.5609820     
   1859467414.2560742     
   1897279997.5251598     
   1963421022.6845298     
   1668317144.8558722     
   1640221889.0283263     
   1640045799.9014280     
   1670099612.4968798     
   1732920417.8580976     
   1520075689.0537410     
   1460124084.9033041     
   1433025003.5920637     
   1442721581.6455553     
   1492406489.1192696     
   1436667469.7761421     
   1329048057.3378921     
   1256472698.2943344     
   1227135389.0865903     
   1247982123.7850938     
   2180988004.0339646     
   2154000702.1839156     
   2146914492.5309007     
   2170442755.6565795     
   2235850022.4271107     
   1963421022.6845298     
   1964724397.8789663     
   2002823277.5064793     
   2096435015.6684980     
   2264237979.8574533     
   1732920417.8580976     
   1781462439.1415007     
   1882340665.1555233     
   2062327811.3346894     
   2346496203.1344781     
   1492406489.1192696     
   1604894625.1907172     
   1784725690.1390235     
   2066312003.2939408     
   2479557814.5397854     
   1247982123.7850938     
   1436012781.5696459     
   1709428268.7692966     
   2108208574.6223862     
   2664377513.3038783     
   3321994199.9966483     
   3304934382.3775616     
   3576843154.1876464     
   3934037964.3907557     
   4272110638.2864680     
   3359149113.8585906     
   3359028297.1693115     
   3655802979.9871302     
   4033331442.8996582     
   4384817993.3086557     
   3173028331.2667875     
   3113472474.5208945     
   3448947679.9832530     
   3903543632.5406041     
   4344209767.9965630     
   2960785573.1344805     
   2668966335.2896724     
   3000787891.0603242     
   3567716234.5277328     
   4163513551.0078831     
   3310511535.2654557     
   2479307187.6017728     
   2533068971.1590066     
   3126926274.8336411     
   3891378824.1880774     
   4272110638.2864680     
   4081345166.2939301     
   3887131238.5781808     
   3688629664.7366643     
   3485974351.9216628     
   4384817993.3086557     
   4197654907.7957792     
   4008012365.6833978     
   3813690917.8411355     
   3613047617.8818555     
   4344209767.9965630     
   4188153587.2447987     
   4044199376.8246579     
   3904675448.5654826     
   3764377742.1667724     
   4163513551.0078831     
   4055633380.4939194     
   3993240420.4729757     
   3956504779.9314404     
   3932660953.6155581     
   3891378824.1880774     
   3820062750.6222081     
   3860164897.0599184     
   3967157248.9508700     
   4111709591.1226344     
   3485974351.9216628     
   3362071398.3227143     
   3244099150.0801516     
   3131762727.0701051     
   3024838657.0884128     
   3613047617.8818555     
   3489772679.5115781     
   3371036569.1478734     
   3256566586.5524130     
   3146101775.1388469     
   3764377742.1667724     
   3644232925.8039145     
   3527517908.4307756     
   3413892464.1506062     
   3303009088.6711988     
   3932660953.6155581     
   3818782020.1885600     
   3707500767.8059063     
   3598353995.9553118     
   3490894837.0619955     
   4111709591.1226344     
   4007647413.1580133     
   3905601438.4249196     
   3804956412.6188483     
   3705179157.1214080     
   3024838657.0884128     
   2898536827.1589513     
   2775661679.2792082     
   2656776204.9196835     
   2542541035.3854141     
   3146101775.1388469     
   3005316781.0228524     
   2867628922.9914789     
   2733851469.9242177     
   2604999083.1790152     
   3303009088.6711988     
   3143693948.4964538     
   2986341714.1396217     
   2831912296.8739901     
   2681705140.2125802     
   3490894837.0619955     
   3309204286.9246354     
   3127661629.4007497     
   2947222941.0751548     
   2769327587.6835213     
   3705179157.1214080     
   3497555295.2317910     
   3287764637.6975670     
   3076580168.1945524     
   2865371941.3602524     
   2542541035.3854141     
   2387526051.5167542     
   2234892095.2467208     
   2085113431.2761972     
   1938854526.3409631     
   2604999083.1790152     
   2444969119.3704829     
   2285419552.7455096     
   2126497111.5826399     
   1968398474.6859691     
   2681705140.2125802     
   2522260637.3998432     
   2362525826.9047852     
   2202441119.4863620     
   2041947826.2830358     
   2769327587.6835213     
   2615877398.5373378     
   2462474848.0749946     
   2308963933.1035461     
   2155241338.0592713     
   2865371941.3602524     
   2722762828.5607977     
   2581562046.1498170     
   2441544550.4420533     
   2302651365.0164928     
   1938854526.3409631     
   1813831259.6997297     
   1688352952.9711614     
   1562552387.6714573     
   1436667469.7761421     
   1968398474.6859691     
   1840189605.8535516     
   1711778917.6158228     
   1583148095.5167460     
   1454299581.3773675     
   2041947826.2830358     
   1913225432.2878146     
   1784933217.3484538     
   1657031291.1075530     
   1529492011.8411131     
   2155241338.0592713     
   2027106414.6921725     
   1900102808.3236060     
   1774226365.8257103     
   1649520443.5832746     
   2302651365.0164928     
   2174693055.5195045     
   2048406262.4060543     
   1923835619.2340076     
   1801129720.9617424     
   1436667469.7761421     
   1329048057.3378921     
   1256472698.2943344     
   1227135389.0865903     
   1247982123.7850938     
   1454299581.3773675     
   1311754110.6624362     
   1183734157.1659262     
   1074621199.9194412     
   990175014.64769149     
   1529492011.8411131     
   1382028151.0219703     
   1231115387.4017799     
   1074345028.9612384     
   909572465.10123682     
   1649520443.5832746     
   1537186893.9464238     
   1415894102.7760098     
   1285968082.0808401     
   1153599690.5667484     
   1801129720.9617424     
   1764053551.8950548     
   1723555882.8064799     
   1688286404.6753201     
   1676742245.4393713     
   1247982123.7850938     
   1436012781.5696459     
   1709428268.7692966     
   2108208574.6223862     
   2664377513.3038783     
   990175014.64769149     
   1156075600.3124630     
   1420457754.7838025     
   1807090404.9655931     
   2335615150.0773230     
   909572465.10123682     
   956690169.58055031     
   1141294735.6872141     
   1475539035.9582014     
   1958405170.7103069     
   1153599690.5667484     
   1004205426.4885368     
   982899136.05825174     
   1161357242.9853601     
   1545328200.8367035     
   1676742245.4393713     
   1380741097.6896315     
   1128267785.3467541     
   1011024942.9161488     
   1155043958.4870675     
 </DataArray>
 <DataArray  type="Float64" Name="strain" NumberOfComponents="3" format="ascii">
  -2.6253742164685789E-003   2.8133739288969339E-002  -7.1872434748147418E-002
   1.1949016171365345E-002   7.9326264883986530E-003  -5.8111751012956403E-002
   2.6523406559199381E-002  -6.7045089010301928E-003  -4.9603904890307859E-002
   4.1097796947033360E-002  -1.5777666879317490E-002  -4.6348896380202370E-002
   5.5672187334867340E-002  -1.9286847446462918E-002  -4.8346725482639741E-002
   2.5645467683366285E-002   2.6224406817291990E-002  -4.8923893987502964E-002
   3.5719862918499157E-002   6.8200095525452475E-003  -3.9281499112267360E-002
   4.5794258153631973E-002  -7.2473495348108208E-003  -3.3386256929891195E-002
   5.5868653388764816E-002  -1.5977670444776673E-002  -3.1238167440374554E-002
   6.5943048623897604E-002  -1.9370953177351935E-002  -3.2837230643717630E-002
   4.3594670469138341E-002   2.4315074345614751E-002  -2.5065168074159205E-002
   5.0674755471253191E-002   5.7073926166921196E-003  -1.9768001292630011E-002
   5.7754840473368013E-002  -7.7901901685913655E-003  -1.6712302284277142E-002
   6.4834925475482835E-002  -1.6177674010235850E-002  -1.5898071049101042E-002
   7.1915010477597741E-002  -1.9455058908241174E-002  -1.7325307587100935E-002
   5.1222234140847200E-002   2.2405741873937401E-002  -2.9625700811548861E-004
   5.6813693829627317E-002   4.5947756808387974E-003   4.2874244595557387E-004
   6.2405153518407461E-002  -8.3330308023720073E-003   4.1795904653341848E-004
   6.7996613207187528E-002  -1.6377677575695141E-002  -3.2860720638168764E-004
   7.3588072895967652E-002  -1.9539164639130302E-002  -1.8109563127900186E-003
   4.8528158698493029E-002   2.0496409402260107E-002   2.5382839210627783E-002
   5.4136677993621596E-002   3.4821587449854752E-003   2.1308732103489603E-002
   5.9745197288750218E-002  -8.8758714361526492E-003   1.8004527062541548E-002
   6.5353716583878729E-002  -1.6577681141154196E-002   1.5470224087783369E-002
   7.0962235879007296E-002  -1.9623270370019485E-002   1.3705823179215426E-002
   5.5672187334867340E-002  -1.9286847446462918E-002  -4.8346725482639741E-002
   5.8601030050563219E-002  -1.9903609276287093E-002  -3.5347964384409125E-002
   6.1529872766259042E-002  -2.0299511042611296E-002  -2.6008436523559164E-002
   6.4458715481954865E-002  -2.0474552745434943E-002  -2.0328141900089816E-002
   6.7387558197650743E-002  -2.0428734384758784E-002  -1.8307080514000651E-002
   6.5943048623897604E-002  -1.9370953177351935E-002  -3.2837230643717630E-002
   6.5728006801189842E-002  -1.9944585860648067E-002  -2.3360459289505919E-002
   6.5512964978482108E-002  -2.0215956622775783E-002  -1.6512223774721169E-002
   6.5297923155774318E-002  -2.0185065463735281E-002  -1.2292524099362892E-002
   6.5082881333066611E-002  -1.9851912383526460E-002  -1.0701360263431381E-002
   7.1915010477597741E-002  -1.9455058908241174E-002  -1.7325307587100935E-002
   6.9586781514440213E-002  -1.9985562445008653E-002  -1.1289124119240462E-002
   6.7258552551282685E-002  -2.0132402202940047E-002  -6.8507790928526713E-003
   6.4930323588125158E-002  -1.9895578182035398E-002  -4.0102725079379856E-003
   6.2602094624967658E-002  -1.9275090382294080E-002  -2.7676043644958570E-003
   7.3588072895967652E-002  -1.9539164639130302E-002  -1.8109563127900186E-003
   7.0177354190314165E-002  -2.0026539029369433E-002   8.6604112638732217E-004
   6.6766635484660802E-002  -2.0048847783104590E-002   2.9758975220460782E-003
   6.3355916779007371E-002  -1.9606090900335181E-002   4.5186128741855382E-003
   5.9945198073353967E-002  -1.8698268381061783E-002   5.4941871828061151E-003
   7.0962235879007296E-002  -1.9623270370019485E-002   1.3705823179215426E-002
   6.7499724828811863E-002  -2.0067515613730352E-002   1.3105036447377816E-002
   6.4037213778616431E-002  -1.9965293363268771E-002   1.2967806069975080E-002
   6.0574702728420943E-002  -1.9316603618635374E-002   1.3294132047007440E-002
   5.7112191678225566E-002  -1.8121446379829376E-002   1.4084014378474452E-002
   6.7387558197650743E-002  -2.0428734384758784E-002  -1.8307080514000651E-002
   6.5907312406410790E-002  -2.0199107795610516E-002  -1.5392017284194703E-002
   6.4427066615170836E-002  -1.9822724813018500E-002  -1.2742464327281655E-002
   6.2946820823930938E-002  -1.9299585436983069E-002  -1.0358421643261922E-002
   6.1466575032690929E-002  -1.8629689667503446E-002  -8.2398892321355888E-003
   6.5082881333066611E-002  -1.9851912383526460E-002  -1.0701360263431381E-002
   6.3358602083432192E-002  -1.9337381343309923E-002  -7.8373048664960310E-003
   6.1634322833797883E-002  -1.8762356304245831E-002  -5.1958061134556865E-003
   5.9910043584163547E-002  -1.8126837266334739E-002  -2.7768640043107640E-003
   5.8185764334529211E-002  -1.7430824229575426E-002  -5.8047853906184610E-004
   6.2602094624967658E-002  -1.9275090382294080E-002  -2.7676043644958570E-003
   6.0676735545936583E-002  -1.8475654891009330E-002  -4.0819195026797761E-005
   5.8751376466905481E-002  -1.7701987795473273E-002   2.5063629595444836E-003
   5.6826017387874392E-002  -1.6954089095686298E-002   4.8739420992176818E-003
   5.4900658308843303E-002  -1.6231958791647794E-002   7.0619182239930745E-003
   5.9945198073353967E-002  -1.8698268381061783E-002   5.4941871828061151E-003
   5.7861712793923804E-002  -1.7613928438708737E-002   7.9974397302123301E-003
   5.5778227514493614E-002  -1.6641619286700660E-002   1.0364042891718300E-002
   5.3694742235063438E-002  -1.5781340925037801E-002   1.2593996667323908E-002
   5.1611256955633282E-002  -1.5033093353720078E-002   1.4687301057029610E-002
   5.7112191678225566E-002  -1.8121446379829376E-002   1.4084014378474452E-002
   5.4913533827393946E-002  -1.6752201986408172E-002   1.6277471909221575E-002
   5.2714875976562325E-002  -1.5581250777928199E-002   1.8377233683066235E-002
   5.0516218125730733E-002  -1.4608592754389593E-002   2.0383299700007865E-002
   4.8317560274899141E-002  -1.3834227915792086E-002   2.2295669960047115E-002
   6.1466575032690929E-002  -1.8629689667503446E-002  -8.2398892321355888E-003
   5.7993596171062256E-002  -1.7847352672517469E-002  -7.2183509709130567E-003
   5.4520617309433528E-002  -1.6986889619963447E-002  -5.7392686317351838E-003
   5.1047638447804827E-002  -1.6048300509839138E-002  -3.8026422146016925E-003
   4.7574659586176127E-002  -1.5031585342146769E-002  -1.4084717195121943E-003
   5.8185764334529211E-002  -1.7430824229575426E-002  -5.8047853906184610E-004
   5.5121428730351807E-002  -1.6677402628854698E-002   4.5408816745473590E-004
   5.2057093126174458E-002  -1.5869657899057782E-002   1.8483973109190699E-003
   4.8992757521997082E-002  -1.5007590040184475E-002   3.6024488913300734E-003
   4.5928421917819706E-002  -1.4091199052234549E-002   5.7162429086883293E-003
   5.4900658308843303E-002  -1.6231958791647794E-002   7.0619182239930745E-003
   5.2147164321108885E-002  -1.5507452585191872E-002   8.0857104473116836E-003
   4.9393670333374426E-002  -1.4752426178152547E-002   9.3714434665687490E-003
   4.6640176345639946E-002  -1.3966879570529143E-002   1.0919117281764985E-002
   4.3886682357905493E-002  -1.3150812762322328E-002   1.2728731892899581E-002
   5.1611256955633282E-002  -1.5033093353720078E-002   1.4687301057029610E-002
   4.9070802943333366E-002  -1.4337502541529074E-002   1.5676515868656961E-002
   4.6530348931033388E-002  -1.3635194457247209E-002   1.6829869835215120E-002
   4.3989894918733452E-002  -1.2926169100874145E-002   1.8147362956702988E-002
   4.1449440906433502E-002  -1.2210426472410107E-002   1.9628995233121560E-002
   4.8317560274899141E-002  -1.3834227915792086E-002   2.2295669960047115E-002
   4.5892344597025292E-002  -1.3167552497866275E-002   2.3226504431491379E-002
   4.3467128919151388E-002  -1.2517962736341662E-002   2.4223676416857270E-002
   4.1041913241277525E-002  -1.1885458631219096E-002   2.5287185916144803E-002
   3.8616697563403635E-002  -1.1270040182497887E-002   2.6417032929354600E-002
   4.7574659586176127E-002  -1.5031585342146769E-002  -1.4084717195121943E-003
   4.5280392289482663E-002  -1.4013938272839477E-002  -7.4009476084224701E-004
   4.2986124992789254E-002  -1.3072553457870617E-002  -3.7924644332720803E-004
   4.0691857696095790E-002  -1.2207430897241689E-002  -3.2592676696746592E-004
   3.8397590399402382E-002  -1.1418570590952637E-002  -5.8013573176296518E-004
   4.5928421917819706E-002  -1.4091199052234549E-002   5.7162429086883293E-003
   4.3380976305595731E-002  -1.3169618499162983E-002   5.9833651748385508E-003
   4.0833530693371672E-002  -1.2291981944924590E-002   6.0516594510831023E-003
   3.8286085081147656E-002  -1.1458289389519552E-002   5.9211257374209569E-003
   3.5738639468923639E-002  -1.0668540832947437E-002   5.5917640338534191E-003
   4.3886682357905493E-002  -1.3150812762322328E-002   1.2728731892899581E-002
   4.1194759081399912E-002  -1.2325298725487044E-002   1.2626917722036751E-002
   3.8502835804894359E-002  -1.1511410431978120E-002   1.2434976212516741E-002
   3.5810912528388791E-002  -1.0709147881796527E-002   1.2152907364340132E-002
   3.3118989251883141E-002  -9.9185110749417937E-003   1.1780711177506120E-002
   4.1449440906433502E-002  -1.2210426472410107E-002   1.9628995233121560E-002
   3.8721740616895373E-002  -1.1480978951810716E-002   1.9190562880752021E-002
   3.5994040327357250E-002  -1.0730838919032093E-002   1.8770703840974026E-002
   3.3266340037819142E-002  -9.9600063740741679E-003   1.8369418113787811E-002
   3.0538639748281055E-002  -9.1684813169362611E-003   1.7986705699194139E-002
   3.8616697563403635E-002  -1.1270040182497887E-002   2.6417032929354600E-002
   3.5961920912082057E-002  -1.0636659178134666E-002   2.5674300650984083E-002
   3.3307144260760452E-002  -9.9502674060857055E-003   2.5058842336454445E-002
   3.0652367609438888E-002  -9.2108648663510526E-003   2.4570657985765548E-002
   2.7997590958117269E-002  -8.4184515589307285E-003   2.4209747598918141E-002
   3.8397590399402382E-002  -1.1418570590952637E-002  -5.8013573176296518E-004
   3.6275164645048874E-002  -1.0732304429114436E-002  -6.3368397467455928E-004
   3.4152738890695422E-002  -1.0174964301838063E-002  -6.6471851327987164E-004
   3.2030313136341915E-002  -9.7465502091257372E-003  -6.7323934757945736E-004
   2.9907887381988463E-002  -9.4470621509747943E-003  -6.5924647757231725E-004
   3.5738639468923639E-002  -1.0668540832947437E-002   5.5917640338534191E-003
   3.3620073300661857E-002  -9.9457034610056505E-003   5.4494601836712064E-003
   3.1501507132400075E-002  -9.3127444594908182E-003   5.2923618013658857E-003
   2.9382940964138293E-002  -8.7696638284032458E-003   5.1204688869379567E-003
   2.7264374795876511E-002  -8.3164615677435716E-003   4.9337814403874747E-003
   3.3118989251883141E-002  -9.9185110749417937E-003   1.1780711177506120E-002
   3.0966974433284306E-002  -9.1591024928963649E-003   1.1588699384187606E-002
   2.8814959614685554E-002  -8.4505246171429071E-003   1.1344584822317982E-002
   2.6662944796086704E-002  -7.7927774476820866E-003   1.1048367491896402E-002
   2.4510929977487883E-002  -7.1858609845127930E-003   1.0700047392924017E-002
   3.0538639748281055E-002  -9.1684813169362611E-003   1.7986705699194139E-002
   2.8315868042916380E-002  -8.3725015247873291E-003   1.7784033626875362E-002
   2.6093096337551747E-002  -7.5883047747951071E-003   1.7491950549576168E-002
   2.3870324632187141E-002  -6.8158910669601502E-003   1.7110456467296746E-002
   2.1647552926822557E-002  -6.0552604012817923E-003   1.6639551380037504E-002
   2.7997590958117269E-002  -8.4184515589307285E-003   2.4209747598918141E-002
   2.5666754129557989E-002  -7.5859005566782378E-003   2.4035462911733974E-002
   2.3335917300998793E-002  -6.7260849324475569E-003   2.3734458983141193E-002
   2.1005080472439555E-002  -5.8390046862381098E-003   2.3306735813139107E-002
   1.8674243643880317E-002  -4.9246598180505696E-003   2.2752293401728019E-002
   2.9907887381988463E-002  -9.4470621509747943E-003  -6.5924647757231725E-004
   2.9354742042348447E-002  -9.0078021259729635E-003  -4.0965924374436469E-004
   2.8801596702708265E-002  -8.1600721327055314E-003  -1.8439604997160242E-003
   2.8248451363068167E-002  -6.9038721711727757E-003  -4.9621502454880173E-003
   2.7695306023428068E-002  -5.2392022413751960E-003  -9.7642284810586233E-003
   2.7264374795876511E-002  -8.3164615677435716E-003   4.9337814403874747E-003
   2.5293878942585224E-002  -7.8024553892482862E-003   5.6499525052687849E-003
   2.3323383089293936E-002  -7.0769630046533805E-003   5.2153110326478291E-003
   2.1352887236002704E-002  -6.1399844139593401E-003   3.6298570225235249E-003
   1.9382391382711361E-002  -4.9915196171670395E-003   8.9359047489656618E-004
   2.4510929977487883E-002  -7.1858609845127930E-003   1.0700047392924017E-002
   2.1656159562842142E-002  -6.5971086525232758E-003   1.1685818526692870E-002
   1.8801389148196415E-002  -5.9938538766010074E-003   1.2053853075256082E-002
   1.5946618733550653E-002  -5.3760966567461266E-003   1.1804151038613181E-002
   1.3091848318904892E-002  -4.7438369929579949E-003   1.0936712416764194E-002
   2.1647552926822557E-002  -6.0552604012817923E-003   1.6639551380037504E-002
   1.8441583903119028E-002  -5.3917619157984320E-003   1.7697938820527961E-002
   1.5235614879415552E-002  -4.9107447485485234E-003   1.8671665628109041E-002
   1.2029645855712081E-002  -4.6122088995321359E-003   1.9560731802780576E-002
   8.8236768320086659E-003  -4.4961543687493943E-003   2.0365137344543038E-002
   1.8674243643880317E-002  -4.9246598180505696E-003   2.2752293401728019E-002
   1.5650151963415848E-002  -4.1864151790733661E-003   2.3686313386773516E-002
   1.2626060282951407E-002  -3.8276356204961781E-003   2.5068748691206011E-002
   9.6019686024869794E-003  -3.8483211423182909E-003   2.6899599315026279E-002
   6.5778769220224964E-003  -4.2484717445406828E-003   2.9178865258233988E-002
   2.7695306023428068E-002  -5.2392022413751960E-003  -9.7642284810586233E-003
   2.3301965793094181E-002  -4.1783609434307145E-003  -4.2048658846216558E-003
   1.8908625562760351E-002  -4.7336468774591411E-003   2.6149739003493710E-003
   1.4515285332426547E-002  -6.9050600434607257E-003   1.0695290873853347E-002
   1.0121945102092633E-002  -1.0692600441435829E-002   2.0036085035889606E-002
   1.9382391382711361E-002  -4.9915196171670395E-003   8.9359047489656618E-004
   1.6176445602084866E-002  -4.6896587952037772E-003   6.6418312155519521E-003
   1.2970499821458370E-002  -6.2924921290021807E-003   1.3504383667087505E-002
   9.7645540408318188E-003  -9.8000196185599187E-003   2.1481247829504946E-002
   6.5586082602053786E-003  -1.5212241263878212E-002   3.0572423702803775E-002
   1.3091848318904892E-002  -4.7438369929579949E-003   1.0936712416764194E-002
   1.0927131510333643E-002  -5.2009566469772839E-003   1.6585264377849573E-002
   8.7624147017624360E-003  -7.8513373805444986E-003   2.3201962572163837E-002
   6.5976978931911248E-003  -1.2694979193658432E-002   3.0786806999707428E-002
   4.4329810846199247E-003  -1.9731882086320596E-002   3.9339797660480569E-002
   8.8236768320086659E-003  -4.4961543687493943E-003   2.0365137344543038E-002
   7.5540235178405551E-003  -5.7122544987503465E-003   2.5625433602271153E-002
   6.2843702036725520E-003  -9.4101826320865112E-003   3.1707710615576548E-002
   5.0147168895045644E-003  -1.5589938768757285E-002   3.8611968384459273E-002
   3.7450635753364520E-003  -2.4251522908762979E-002   4.6338206908918544E-002
   6.5778769220224964E-003  -4.2484717445406828E-003   2.9178865258233988E-002
   6.0571216246056436E-003  -6.2235523505237422E-003   3.3762338888817855E-002
   5.5363663271888186E-003  -1.0969027883628663E-002   3.9021627797326930E-002
   5.0156110297719797E-003  -1.8484898343855895E-002   4.4956731983761128E-002
   4.4948557323550853E-003  -2.8771163731205363E-002   5.1567651448120699E-002
   4.8528158698493029E-002   2.0496409402260107E-002   2.5382839210627783E-002
   5.4136677993621596E-002   3.4821587449854752E-003   2.1308732103489603E-002
   5.9745197288750218E-002  -8.8758714361526492E-003   1.8004527062541548E-002
   6.5353716583878729E-002  -1.6577681141154196E-002   1.5470224087783369E-002
   7.0962235879007296E-002  -1.9623270370019485E-002   1.3705823179215426E-002
   4.1533187420036421E-002   1.2484256883942557E-002   1.5620995843391661E-002
   4.7643530456264849E-002  -3.9428846898156844E-004   1.7077474989698804E-002
   5.3753873492493220E-002  -9.7714200246870747E-003   1.8767699552015599E-002
   5.9864216528721634E-002  -1.5647137783173896E-002   2.0691669530342155E-002
   6.5974559564950019E-002  -1.8021441744442118E-002   2.2849384924678140E-002
   3.6258063583437833E-002   4.4721043656249793E-003   1.0572261119964954E-002
   4.2334073710585701E-002  -4.2707356829486121E-003   1.6404519840799617E-002
   4.8410083837733459E-002  -1.0666968613221472E-002   2.1934367327463636E-002
   5.4486093964881320E-002  -1.4716594425193512E-002   2.7161803579956567E-002
   6.0562104092029140E-002  -1.6419613118864890E-002   3.2086828598278966E-002
   3.2702787188697326E-002  -3.5400481526925709E-003   1.0236635040347761E-002
   3.8208307756584202E-002  -8.1471828969156834E-003   1.9289866656792051E-002
   4.3713828324470946E-002  -1.1562517201755829E-002   2.7504530388885159E-002
   4.9219348892357774E-002  -1.3786051067213197E-002   3.4880626236626980E-002
   5.4724869460244567E-002  -1.4817784493287564E-002   4.1418154200017619E-002
   3.0867358235814879E-002  -1.1552200671010149E-002   1.4614117604539956E-002
   3.5266232594260233E-002  -1.2023630110882699E-002   2.5733515437676102E-002
   3.9665106952705614E-002  -1.2458065790290282E-002   3.5478188736280530E-002
   4.4063981311150968E-002  -1.2855507709232810E-002   4.3848137500353254E-002
   4.8462855669596322E-002  -1.3215955867710349E-002   5.0843361729894287E-002
   7.0962235879007296E-002  -1.9623270370019485E-002   1.3705823179215426E-002
   6.7499724828811863E-002  -2.0067515613730352E-002   1.3105036447377816E-002
   6.4037213778616431E-002  -1.9965293363268771E-002   1.2967806069975080E-002
   6.0574702728420943E-002  -1.9316603618635374E-002   1.3294132047007440E-002
   5.7112191678225566E-002  -1.8121446379829376E-002   1.4084014378474452E-002
   6.5974559564950019E-002  -1.8021441744442118E-002   2.2849384924678140E-002
   6.2954779674644676E-002  -1.8405257238677628E-002   2.2316009154941654E-002
   5.9934999784339318E-002  -1.8309509596065927E-002   2.2204539350550598E-002
   5.6915219894033968E-002  -1.7734198816607288E-002   2.2514975511504644E-002
   5.3895440003728590E-002  -1.6679324900301606E-002   2.3247317637803994E-002
   6.0562104092029140E-002  -1.6419613118864890E-002   3.2086828598278966E-002
   5.7943404972524211E-002  -1.6742998863624972E-002   3.1553959433318519E-002
   5.5324705853019254E-002  -1.6653725828863028E-002   3.1401345844613682E-002
   5.2706006733514298E-002  -1.6151794014579317E-002   3.1628987832164356E-002
   5.0087307614009355E-002  -1.5237203420773615E-002   3.2236885395970707E-002
   5.4724869460244567E-002  -1.4817784493287564E-002   4.1418154200017619E-002
   5.2465600722450378E-002  -1.5080740488572227E-002   4.0818887282508091E-002
   5.0206331984656197E-002  -1.4997942061660184E-002   4.0558225552164415E-002
   4.7947063246862050E-002  -1.4569389212551345E-002   4.0636169008986762E-002
   4.5687794509067819E-002  -1.3795081941245679E-002   4.1052717652975038E-002
   4.8462855669596322E-002  -1.3215955867710349E-002   5.0843361729894287E-002
   4.6521366924423269E-002  -1.3418482113519620E-002   5.0110792702510398E-002
   4.4579878179250201E-002  -1.3342158294457271E-002   4.9675178473202825E-002
   4.2638389434077127E-002  -1.2986984410523313E-002   4.9536519041971649E-002
   4.0696900688904053E-002  -1.2352960461717799E-002   4.9694814408816623E-002
   5.7112191678225566E-002  -1.8121446379829376E-002   1.4084014378474452E-002
   5.4913533827393946E-002  -1.6752201986408172E-002   1.6277471909221575E-002
   5.2714875976562325E-002  -1.5581250777928199E-002   1.8377233683066235E-002
   5.0516218125730733E-002  -1.4608592754389593E-002   2.0383299700007865E-002
   4.8317560274899141E-002  -1.3834227915792086E-002   2.2295669960047115E-002
   5.3895440003728590E-002  -1.6679324900301606E-002   2.3247317637803994E-002
   5.1648660396683699E-002  -1.5456212509570855E-002   2.4724278767548569E-002
   4.9401880789638822E-002  -1.4376186306838318E-002   2.6198692141769356E-002
   4.7155101182593938E-002  -1.3439246292103184E-002   2.7670557760465862E-002
   4.4908321575549026E-002  -1.2645392465365835E-002   2.9139875623638567E-002
   5.0087307614009355E-002  -1.5237203420773615E-002   3.2236885395970707E-002
   4.7883554252129812E-002  -1.4160223032733912E-002   3.3052557121656514E-002
   4.5679800890250227E-002  -1.3171121835748444E-002   3.3956829093196896E-002
   4.3476047528370677E-002  -1.2269899829816777E-002   3.4949701310592080E-002
   4.1272294166491086E-002  -1.1456557014939389E-002   3.6031173773841699E-002
   4.5687794509067819E-002  -1.3795081941245679E-002   4.1052717652975038E-002
   4.3618215393732208E-002  -1.2864233555896783E-002   4.1262306971545731E-002
   4.1548636278396597E-002  -1.1966057364658455E-002   4.1651644537349340E-002
   3.9479057163061000E-002  -1.1100553367530647E-002   4.2220730350386461E-002
   3.7409478047725375E-002  -1.0267721564513152E-002   4.2969564410656899E-002
   4.0696900688904053E-002  -1.2352960461717799E-002   4.9694814408816623E-002
   3.8852643821491006E-002  -1.1568244079059653E-002   4.9353528317215400E-002
   3.7008386954077946E-002  -1.0760992893568716E-002   4.9283138474226440E-002
   3.5164130086664892E-002  -9.9312069052441346E-003   4.9483644879849076E-002
   3.3319873219251839E-002  -9.0788861140866373E-003   4.9955047534083696E-002
   4.8317560274899141E-002  -1.3834227915792086E-002   2.2295669960047115E-002
   4.5892344597025292E-002  -1.3167552497866275E-002   2.3226504431491379E-002
   4.3467128919151388E-002  -1.2517962736341662E-002   2.4223676416857270E-002
   4.1041913241277525E-002  -1.1885458631219096E-002   2.5287185916144803E-002
   3.8616697563403635E-002  -1.1270040182497887E-002   2.6417032929354600E-002
   4.4908321575549026E-002  -1.2645392465365835E-002   2.9139875623638567E-002
   4.2567446704919465E-002  -1.1947740106613453E-002   2.9828723476510416E-002
   4.0226571834289945E-002  -1.1299404495833401E-002   3.0619915429948907E-002
   3.7885696963660433E-002  -1.0700385633025961E-002   3.1513451483954083E-002
   3.5544822093030892E-002  -1.0150683518190706E-002   3.2509331638526540E-002
   4.1272294166491086E-002  -1.1456557014939389E-002   3.6031173773841699E-002
   3.9051766689750814E-002  -1.0727927715360686E-002   3.6445803916570360E-002
   3.6831239213010604E-002  -1.0080846255325022E-002   3.6998784746510742E-002
   3.4610711736270380E-002  -9.5153126348327139E-003   3.7690116263662934E-002
   3.2390184259530191E-002  -9.0313268538836367E-003   3.8519798468027056E-002
   3.7409478047725375E-002  -1.0267721564513152E-002   4.2969564410656899E-002
   3.5345304551519352E-002  -9.5081153241078353E-003   4.3077745751671490E-002
   3.3281131055313433E-002  -8.8622880148167028E-003   4.3360284366542878E-002
   3.1216957559107437E-002  -8.3302396366395220E-003   4.3817180255270760E-002
   2.9152784062901494E-002  -7.9119701895765115E-003   4.4448433417855808E-002
   3.3319873219251839E-002  -9.0788861140866373E-003   4.9955047534083696E-002
   3.1448060290225066E-002  -8.2883029328549851E-003   4.9724548981813554E-002
   2.9576247361198321E-002  -7.6437297743082860E-003   4.9704414290045101E-002
   2.7704434432171562E-002  -7.1451666384464187E-003   4.9894643458778240E-002
   2.5832621503144831E-002  -6.7926135252693864E-003   5.0295236488013262E-002
   3.8616697563403635E-002  -1.1270040182497887E-002   2.6417032929354600E-002
   3.5961920912082057E-002  -1.0636659178134666E-002   2.5674300650984083E-002
   3.3307144260760452E-002  -9.9502674060857055E-003   2.5058842336454445E-002
   3.0652367609438888E-002  -9.2108648663510526E-003   2.4570657985765548E-002
   2.7997590958117269E-002  -8.4184515589307285E-003   2.4209747598918141E-002
   3.5544822093030892E-002  -1.0150683518190706E-002   3.2509331638526540E-002
   3.3027994559515911E-002  -9.5939036040731396E-003   3.1752753708104764E-002
   3.0511167026000888E-002  -8.9736513434180432E-003   3.1144800049455718E-002
   2.7994339492485844E-002  -8.2899267362259027E-003   3.0685470662578290E-002
   2.5477511958970883E-002  -7.5427297824960382E-003   3.0374765547473037E-002
   3.2390184259530191E-002  -9.0313268538836367E-003   3.8519798468027056E-002
   3.0032656151752837E-002  -8.5511480300116960E-003   3.7759836464406060E-002
   2.7675128043975490E-002  -7.9970352807507278E-003   3.7169849040488548E-002
   2.5317599936198126E-002  -7.3689886061005343E-003   3.6749836196274248E-002
   2.2960071828420803E-002  -6.6670080060612369E-003   3.6499797931763001E-002
   2.9152784062901494E-002  -7.9119701895765115E-003   4.4448433417855808E-002
   2.6975905688792951E-002  -7.5083924559501553E-003   4.3695548919887403E-002
   2.4799027314684342E-002  -7.0204192180830724E-003   4.3133989309553408E-002
   2.2622148940575799E-002  -6.4480504759753306E-003   4.2763754586853865E-002
   2.0445270566467191E-002  -5.7912862296265466E-003   4.2584844751788704E-002
   2.5832621503144831E-002  -6.7926135252693864E-003   5.0295236488013262E-002
   2.3857743170636103E-002  -6.4656368818886700E-003   4.9559891074549056E-002
   2.1882864838127389E-002  -6.0438031554157223E-003   4.9037220856650410E-002
   1.9907986505618695E-002  -5.5271123458500090E-003   4.8727225834317156E-002
   1.7933108173110002E-002  -4.9155644531917453E-003   4.8629906007549240E-002
   2.7997590958117269E-002  -8.4184515589307285E-003   2.4209747598918141E-002
   2.5666754129557989E-002  -7.5859005566782378E-003   2.4035462911733974E-002
   2.3335917300998793E-002  -6.7260849324475569E-003   2.3734458983141193E-002
   2.1005080472439555E-002  -5.8390046862381098E-003   2.3306735813139107E-002
   1.8674243643880317E-002  -4.9246598180505696E-003   2.2752293401728019E-002
   2.5477511958970883E-002  -7.5427297824960382E-003   3.0374765547473037E-002
   2.3068584674190179E-002  -6.7669165907277007E-003   3.0262260889831971E-002
   2.0659657389409405E-002  -5.9973432694190587E-003   3.0120294561156946E-002
   1.8250730104628667E-002  -5.2340098185706743E-003   2.9948866561448170E-002
   1.5841802819847928E-002  -4.4769162381821381E-003   2.9747976890705408E-002
   2.2960071828420803E-002  -6.6670080060612369E-003   3.6499797931763001E-002
   2.0570311657793633E-002  -5.9479326247766362E-003   3.6415568811226900E-002
   1.8180551487166456E-002  -5.2686016063906577E-003   3.6399135590031620E-002
   1.5790791316539241E-002  -4.6290149509027913E-003   3.6450498268177318E-002
   1.3401031145912068E-002  -4.0291726583135956E-003   3.6569656845664461E-002
   2.0445270566467191E-002  -5.7912862296265466E-003   4.2584844751788704E-002
   1.8171935080368566E-002  -5.1289486588259464E-003   4.2495386675918588E-002
   1.5898599594269862E-002  -4.5398599433622081E-003   4.2570982069764715E-002
   1.3625264108171189E-002  -4.0240200832351320E-003   4.2811630933326933E-002
   1.1351928622072526E-002  -3.5814290784450531E-003   4.3217333266605019E-002
   1.7933108173110002E-002  -4.9155644531917453E-003   4.8629906007549240E-002
   1.5873454941914861E-002  -4.3099646928749791E-003   4.8501714483907166E-002
   1.3813801710719692E-002  -3.8111182803336752E-003   4.8635834000356259E-002
   1.1754148479524551E-002  -3.4190252155673409E-003   4.9032264556896243E-002
   9.6944952483294378E-003  -3.1336854985766216E-003   4.9691006153527062E-002
   1.8674243643880317E-002  -4.9246598180505696E-003   2.2752293401728019E-002
   1.5650151963415848E-002  -4.1864151790733661E-003   2.3686313386773516E-002
   1.2626060282951407E-002  -3.8276356204961781E-003   2.5068748691206011E-002
   9.6019686024869794E-003  -3.8483211423182909E-003   2.6899599315026279E-002
   6.5778769220224964E-003  -4.2484717445406828E-003   2.9178865258233988E-002
   1.5841802819847928E-002  -4.4769162381821381E-003   2.9747976890705408E-002
   1.3249760164324526E-002  -3.9427732442745556E-003   3.0647736539949733E-002
   1.0657717508801026E-002  -3.8482915528699202E-003   3.1963178919688751E-002
   8.0656748532775685E-003  -4.1934711639675659E-003   3.3694304029922073E-002
   5.4736321977541247E-003  -4.9783120775679368E-003   3.5841111870650422E-002
   1.3401031145912068E-002  -4.0291726583135956E-003   3.6569656845664461E-002
   1.1208304926436860E-002  -3.6991313094759670E-003   3.7374959937004931E-002
   9.0155787069615481E-003  -3.8689474852438704E-003   3.8563213169947111E-002
   6.8228524874862674E-003  -4.5386211856167265E-003   4.0134416544491562E-002
   4.6301262680110283E-003  -5.7081524105952464E-003   4.2088570060637237E-002
   1.1351928622072526E-002  -3.5814290784450531E-003   4.3217333266605019E-002
   9.5257862497526956E-003  -3.4554893746771564E-003   4.3867983577939043E-002
   7.6996438774328910E-003  -3.8896034176173280E-003   4.4868851441981716E-002
   5.8735015051130596E-003  -4.8837712072657222E-003   4.6219936858733601E-002
   4.0473591327932525E-003  -6.4379927436223061E-003   4.7921239828194635E-002
   9.6944952483294378E-003  -3.1336854985766216E-003   4.9691006153527062E-002
   8.2022041342722507E-003  -3.2118474398785124E-003   5.0126807462751555E-002
   6.7099130202151192E-003  -3.9102593499915350E-003   5.0880093735792276E-002
   5.2176219061579598E-003  -5.2289212289151552E-003   5.1950864972649585E-002
   3.7253307921008005E-003  -7.1678330766499210E-003   5.3339121173322401E-002
   6.5778769220224964E-003  -4.2484717445406828E-003   2.9178865258233988E-002
   6.0571216246056436E-003  -6.2235523505237422E-003   3.3762338888817855E-002
   5.5363663271888186E-003  -1.0969027883628663E-002   3.9021627797326930E-002
   5.0156110297719797E-003  -1.8484898343855895E-002   4.4956731983761128E-002
   4.4948557323550853E-003  -2.8771163731205363E-002   5.1567651448120699E-002
   5.4736321977541247E-003  -4.9783120775679368E-003   3.5841111870650422E-002
   5.5257789378566624E-003  -7.1036306947001027E-003   3.8076566539512302E-002
   5.5779256779592418E-003  -1.1470243416394299E-002   4.0782010005487590E-002
   5.6300724180618766E-003  -1.8078150242650484E-002   4.3957442268576036E-002
   5.6822191581644144E-003  -2.6927351173468450E-002   4.7602863328778833E-002
   4.6301262680110283E-003  -5.7081524105952464E-003   4.2088570060637237E-002
   5.0493485648215458E-003  -7.9837090388769627E-003   4.2505106590336517E-002
   5.4685708616320980E-003  -1.1971458949160255E-002   4.3185805436338334E-002
   5.8877931584427022E-003  -1.7671402141444904E-002   4.4130666598642156E-002
   6.3070154552532787E-003  -2.5083538615731316E-002   4.5339690077248140E-002
   4.0473591327932525E-003  -6.4379927436223061E-003   4.7921239828194635E-002
   4.6278305055002834E-003  -8.8637873830534619E-003   4.7047959041292289E-002
   5.2083018782073439E-003  -1.2472674481926051E-002   4.6233014089880523E-002
   5.7887732509144451E-003  -1.7264654040239406E-002   4.5476404973959286E-002
   6.3692446236214353E-003  -2.3239726057994181E-002   4.4778131693529843E-002
   3.7253307921008005E-003  -7.1678330766499210E-003   5.3339121173322401E-002
   4.2612247598928787E-003  -9.7438657272302942E-003   5.1705123892378357E-002
   4.7971187276849847E-003  -1.2973890014691764E-002   4.9923635966113988E-002
   5.3330126954770768E-003  -1.6857905939033781E-002   4.7994657394528600E-002
   5.8689066632691134E-003  -2.1395913500257269E-002   4.5918188177622277E-002
   3.0867358235814879E-002  -1.1552200671010149E-002   1.4614117604539956E-002
   3.5266232594260233E-002  -1.2023630110882699E-002   2.5733515437676102E-002
   3.9665106952705614E-002  -1.2458065790290282E-002   3.5478188736280530E-002
   4.4063981311150968E-002  -1.2855507709232810E-002   4.3848137500353254E-002
   4.8462855669596322E-002  -1.3215955867710349E-002   5.0843361729894287E-002
   2.9437940967963067E-002  -1.3791924285249113E-002   1.8827551004991949E-002
   3.2596731391150477E-002  -1.3541166519093012E-002   2.9186986817142546E-002
   3.5755521814337901E-002  -1.3300959610326901E-002   3.8440979293308780E-002
   3.8914312237525304E-002  -1.3071303558950573E-002   4.6589528433490804E-002
   4.2073102660712708E-002  -1.2852198364964318E-002   5.3632634237688659E-002
   2.7100699628314531E-002  -1.6031647899488105E-002   2.3786943920399942E-002
   2.9288687314791402E-002  -1.5058702927303325E-002   3.3338873093710045E-002
   3.1476675001268287E-002  -1.4143853430363444E-002   4.2054640129583369E-002
   3.3664662687745150E-002  -1.3287099408668448E-002   4.9934245028019783E-002
   3.5852650374222035E-002  -1.2488440862218259E-002   5.6977687789019474E-002
   2.3855634216869197E-002  -1.8271371513727111E-002   2.9492296350764103E-002
   2.5342100365182960E-002  -1.6576239335513637E-002   3.8189174267378702E-002
   2.6828566513496733E-002  -1.4986747250400025E-002   4.6319171245104068E-002
   2.8315032661810520E-002  -1.3502895258386240E-002   5.3882287283939970E-002
   2.9801498810124283E-002  -1.2124683359472269E-002   6.0878522383886580E-002
   1.9702744733627153E-002  -2.0511095127966061E-002   3.5943608296084284E-002
   2.0756970542325226E-002  -1.8093775743724033E-002   4.3737890338148677E-002
   2.1811196351023299E-002  -1.5829641070436620E-002   5.1234572639871162E-002
   2.2865422159721399E-002  -1.3718691108104145E-002   5.8433655201251669E-002
   2.3919647968419472E-002  -1.1760925856726168E-002   6.5335138022290074E-002
   4.8462855669596322E-002  -1.3215955867710349E-002   5.0843361729894287E-002
   4.6521366924423269E-002  -1.3418482113519620E-002   5.0110792702510398E-002
   4.4579878179250201E-002  -1.3342158294457271E-002   4.9675178473202825E-002
   4.2638389434077127E-002  -1.2986984410523313E-002   4.9536519041971649E-002
   4.0696900688904053E-002  -1.2352960461717799E-002   4.9694814408816623E-002
   4.2073102660712708E-002  -1.2852198364964318E-002   5.3632634237688659E-002
   4.0413139256614938E-002  -1.2572850949399625E-002   5.3258879158406006E-002
   3.8753175852517141E-002  -1.2162468233287912E-002   5.3151219963197535E-002
   3.7093212448419351E-002  -1.1621050216629469E-002   5.3309656652063366E-002
   3.5433249044321560E-002  -1.0948596899424345E-002   5.3734189225003504E-002
   3.5852650374222035E-002  -1.2488440862218259E-002   5.6977687789019474E-002
   3.4443353397197542E-002  -1.1727219785279588E-002   5.6814931893513179E-002
   3.3034056420173000E-002  -1.0982778172118672E-002   5.6887412968079039E-002
   3.1624759443148479E-002  -1.0255116022735737E-002   5.7195131012717185E-002
   3.0215462466123978E-002  -9.5442333371306975E-003   5.7738086027427665E-002
   2.9801498810124283E-002  -1.2124683359472269E-002   6.0878522383886580E-002
   2.8612009346171030E-002  -1.0881588621159517E-002   6.0778950907831919E-002
   2.7422519882217784E-002  -9.8030881109494560E-003   6.0883757487847440E-002
   2.6233030418264528E-002  -8.8891818288420604E-003   6.1192942123933336E-002
   2.5043540954311286E-002  -8.1398697748372578E-003   6.1706504816089379E-002
   2.3919647968419472E-002  -1.1760925856726168E-002   6.5335138022290074E-002
   2.2919107103535480E-002  -1.0035957457039613E-002   6.5150936201362336E-002
   2.1918566238651474E-002  -8.6233980497801010E-003   6.5140253522502745E-002
   2.0918025373767496E-002  -7.5232476349482783E-003   6.5303089985711438E-002
   1.9917484508883490E-002  -6.7355062125436516E-003   6.5639445590988388E-002
   4.0696900688904053E-002  -1.2352960461717799E-002   4.9694814408816623E-002
   3.8852643821491006E-002  -1.1568244079059653E-002   4.9353528317215400E-002
   3.7008386954077946E-002  -1.0760992893568716E-002   4.9283138474226440E-002
   3.5164130086664892E-002  -9.9312069052441346E-003   4.9483644879849076E-002
   3.3319873219251839E-002  -9.0788861140866373E-003   4.9955047534083696E-002
   3.5433249044321560E-002  -1.0948596899424345E-002   5.3734189225003504E-002
   3.3854930283667747E-002  -1.0205729197129559E-002   5.3449974194167166E-002
   3.2276611523013941E-002  -9.4530680252034871E-003   5.3426739128237338E-002
   3.0698292762360146E-002  -8.6906133836455665E-003   5.3664484027214243E-002
   2.9119974001706309E-002  -7.9183652724559850E-003   5.4163208891097769E-002
   3.0215462466123978E-002  -9.5442333371306975E-003   5.7738086027427665E-002
   2.8893165528524119E-002  -8.8432143151995213E-003   5.7498200724154541E-002
   2.7570868590924270E-002  -8.1451431568383553E-003   5.7509379102082633E-002
   2.6248571653324421E-002  -7.4500198620469395E-003   5.7771621161212143E-002
   2.4926274715724561E-002  -6.7578444308253605E-003   5.8284926901542952E-002
   2.5043540954311286E-002  -8.1398697748372578E-003   6.1706504816089379E-002
   2.3967349556060100E-002  -7.4806994332695664E-003   6.1498207907177797E-002
   2.2891158157808927E-002  -6.8372182884732027E-003   6.1531058395762200E-002
   2.1814966759557769E-002  -6.2094263404483419E-003   6.1805056281842935E-002
   2.0738775361306569E-002  -5.5973235891947221E-003   6.2320201565419259E-002
   1.9917484508883490E-002  -6.7355062125436516E-003   6.5639445590988388E-002
   1.9077482366275711E-002  -6.1181845513393618E-003   6.5449995743236844E-002
   1.8237480223667911E-002  -5.5292934201080224E-003   6.5491777009276192E-002
   1.7397478081060128E-002  -4.9688328188496680E-003   6.5764789389106293E-002
   1.6557475938452346E-002  -4.4368027475640281E-003   6.6269032882727064E-002
   3.3319873219251839E-002  -9.0788861140866373E-003   4.9955047534083696E-002
   3.1448060290225066E-002  -8.2883029328549851E-003   4.9724548981813554E-002
   2.9576247361198321E-002  -7.6437297743082860E-003   4.9704414290045101E-002
   2.7704434432171562E-002  -7.1451666384464187E-003   4.9894643458778240E-002
   2.5832621503144831E-002  -6.7926135252693864E-003   5.0295236488013262E-002
   2.9119974001706309E-002  -7.9183652724559850E-003   5.4163208891097769E-002
   2.7462326668053400E-002  -7.2068045025035499E-003   5.3804122917868014E-002
   2.5804679334400456E-002  -6.6264118846571102E-003   5.3663004274884352E-002
   2.4147032000747543E-002  -6.1771874189163016E-003   5.3739852962146673E-002
   2.2489384667094603E-002  -5.8591311052816897E-003   5.4034668979654754E-002
   2.4926274715724561E-002  -6.7578444308253605E-003   5.8284926901542952E-002
   2.3490396447189726E-002  -6.1253060721521702E-003   5.7812095377932679E-002
   2.2054518178654878E-002  -5.6090939950059274E-003   5.7564834654312828E-002
   2.0618639910120043E-002  -5.2092081993865714E-003   5.7543144730683254E-002
   1.9182761641585187E-002  -4.9256486852939929E-003   5.7747025607043728E-002
   2.0738775361306569E-002  -5.5973235891947221E-003   6.2320201565419259E-002
   1.9532269627634092E-002  -5.0438076418007627E-003   6.1748466362007648E-002
   1.8325763893961632E-002  -4.5917761053548591E-003   6.1409905428330677E-002
   1.7119258160289159E-002  -4.2412289798567588E-003   6.1304518764388020E-002
   1.5912752426616696E-002  -3.9921662653061851E-003   6.1432306370179775E-002
   1.6557475938452346E-002  -4.4368027475640281E-003   6.6269032882727064E-002
   1.5587946209386500E-002  -3.9623092114494107E-003   6.5613235870093101E-002
   1.4618416480320660E-002  -3.5744582157036658E-003   6.5198216596937614E-002
   1.3648886751254818E-002  -3.2732497603266929E-003   6.5023975063261061E-002
   1.2679357022189003E-002  -3.0586838453185994E-003   6.5090511269063289E-002
   2.5832621503144831E-002  -6.7926135252693864E-003   5.0295236488013262E-002
   2.3857743170636103E-002  -6.4656368818886700E-003   4.9559891074549056E-002
   2.1882864838127389E-002  -6.0438031554157223E-003   4.9037220856650410E-002
   1.9907986505618695E-002  -5.5271123458500090E-003   4.8727225834317156E-002
   1.7933108173110002E-002  -4.9155644531917453E-003   4.8629906007549240E-002
   2.2489384667094603E-002  -5.8591311052816897E-003   5.4034668979654754E-002
   2.0732613510573344E-002  -5.5688753701564897E-003   5.3426581396243344E-002
   1.8975842354052114E-002  -5.2030526399443333E-003   5.3042032969241260E-002
   1.7219071197530883E-002  -4.7616629146457964E-003   5.2881023698648819E-002
   1.5462300041009625E-002  -4.2447061942599840E-003   5.2943553584465730E-002
   1.9182761641585187E-002  -4.9256486852939929E-003   5.7747025607043728E-002
   1.7654961621895580E-002  -4.6721138584243371E-003   5.7246905765678924E-002
   1.6127161602205922E-002  -4.3623021244734023E-003   5.6981189041568056E-002
   1.4599361582516275E-002  -3.9962134834413653E-003   5.6949875434710674E-002
   1.3071561562826656E-002  -3.5738479353280006E-003   5.7152964945107160E-002
   1.5912752426616696E-002  -3.9921662653061851E-003   6.1432306370179775E-002
   1.4624787504602761E-002  -3.7753523466920041E-003   6.1020864182856356E-002
   1.3336822582588857E-002  -3.5215516090021312E-003   6.0854689073630883E-002
   1.2048857660574945E-002  -3.2307640522369879E-003   6.0933781042503132E-002
   1.0760892738561019E-002  -2.9029896763961283E-003   6.1258140089473216E-002
   1.2679357022189003E-002  -3.0586838453185994E-003   6.5090511269063289E-002
   1.1642091158694912E-002  -2.8785908349600597E-003   6.4748456647775621E-002
   1.0604825295200862E-002  -2.6808010935310822E-003   6.4662533065429850E-002
   9.5675594317068055E-003  -2.4653146210327770E-003   6.4832740522025895E-002
   8.5302935682127490E-003  -2.2321314174641449E-003   6.5259079017563781E-002
   1.7933108173110002E-002  -4.9155644531917453E-003   4.8629906007549240E-002
   1.5873454941914861E-002  -4.3099646928749791E-003   4.8501714483907166E-002
   1.3813801710719692E-002  -3.8111182803336752E-003   4.8635834000356259E-002
   1.1754148479524551E-002  -3.4190252155673409E-003   4.9032264556896243E-002
   9.6944952483294378E-003  -3.1336854985766216E-003   4.9691006153527062E-002
   1.5462300041009625E-002  -4.2447061942599840E-003   5.2943553584465730E-002
   1.3665503078603300E-002  -3.7417599349415798E-003   5.2790806310940741E-002
   1.1868706116196989E-002  -3.3424015928437689E-003   5.2901460534902217E-002
   1.0071909153790644E-002  -3.0466311679673980E-003   5.3275516256350589E-002
   8.2751121913843539E-003  -2.8544486603118147E-003   5.3912973475285286E-002
   1.3071561562826656E-002  -3.5738479353280006E-003   5.7152964945107160E-002
   1.1538711326604716E-002  -3.1735551770075421E-003   5.6978827352253236E-002
   1.0005861090382796E-002  -2.8736849053539598E-003   5.7069181714281700E-002
   8.4730108541608770E-003  -2.6742371203671185E-003   5.7424028031192308E-002
   6.9401606179389369E-003  -2.5752118220470077E-003   5.8043366302985039E-002
   1.0760892738561019E-002  -2.9029896763961283E-003   6.1258140089473216E-002
   9.4930796859190852E-003  -2.6053504190739901E-003   6.1065777607844859E-002
   8.2252666332771236E-003  -2.4049682178642132E-003   6.1138997538494375E-002
   6.9574535806351864E-003  -2.3018430727668963E-003   6.1477799881421401E-002
   5.6896405279932318E-003  -2.2959749837822563E-003   6.2082184636626382E-002
   8.5302935682127490E-003  -2.2321314174641449E-003   6.5259079017563781E-002
   7.5286081565463792E-003  -2.0371456611402161E-003   6.5051657077715208E-002
   6.5269227448799816E-003  -1.9362515303741890E-003   6.5110908007539936E-002
   5.5252373332135910E-003  -1.9294490251666602E-003   6.5436831807038076E-002
   4.5235519215472142E-003  -2.0167381455175049E-003   6.6029428476209628E-002
   9.6944952483294378E-003  -3.1336854985766216E-003   4.9691006153527062E-002
   8.2022041342722507E-003  -3.2118474398785124E-003   5.0126807462751555E-002
   6.7099130202151192E-003  -3.9102593499915350E-003   5.0880093735792276E-002
   5.2176219061579598E-003  -5.2289212289151552E-003   5.1950864972649585E-002
   3.7253307921008005E-003  -7.1678330766499210E-003   5.3339121173322401E-002
   8.2751121913843539E-003  -2.8544486603118147E-003   5.3912973475285286E-002
   7.0771054744035167E-003  -2.9763680498450795E-003   5.3837572778285991E-002
   5.8790987574227072E-003  -3.6229033165348923E-003   5.4033255911622585E-002
   4.6810920404419115E-003  -4.7940544603812738E-003   5.4500022875295775E-002
   3.4830853234610326E-003  -6.4898214813846611E-003   5.5237873669305659E-002
   6.9401606179389369E-003  -2.5752118220470077E-003   5.8043366302985039E-002
   5.9900371645545958E-003  -2.7408886598116744E-003   5.7552397691415680E-002
   5.0399137111702408E-003  -3.3355472830784855E-003   5.7286111776702994E-002
   4.0897902577858650E-003  -4.3591876918478399E-003   5.7244508558846587E-002
   3.1396668044015447E-003  -5.8118098861195677E-003   5.7427588037846838E-002
   5.6896405279932318E-003  -2.2959749837822563E-003   6.2082184636626382E-002
   4.9409992047254533E-003  -2.5054092697781444E-003   6.1271282202141612E-002
   4.1923578814576888E-003  -3.0481912496219052E-003   6.0638661331033336E-002
   3.4437165581899330E-003  -3.9243209233146264E-003   6.0184322023301637E-002
   2.6950752349221181E-003  -5.1337982908542801E-003   5.9908264278946889E-002
   4.5235519215472142E-003  -2.0167381455175049E-003   6.6029428476209628E-002
   3.9299915949161518E-003  -2.2699298797447809E-003   6.4994226310463366E-002
   3.3364312682850755E-003  -2.7608352161654637E-003   6.4090904574613916E-002
   2.7428709416540131E-003  -3.4894541547806426E-003   6.3319463268661363E-002
   2.1493106150229369E-003  -4.4557866955894365E-003   6.2679902392605680E-002
   3.7253307921008005E-003  -7.1678330766499210E-003   5.3339121173322401E-002
   4.2612247598928787E-003  -9.7438657272302942E-003   5.1705123892378357E-002
   4.7971187276849847E-003  -1.2973890014691764E-002   4.9923635966113988E-002
   5.3330126954770768E-003  -1.6857905939033781E-002   4.7994657394528600E-002
   5.8689066632691134E-003  -2.1395913500257269E-002   4.5918188177622277E-002
   3.4830853234610326E-003  -6.4898214813846611E-003   5.5237873669305659E-002
   3.8895532851753317E-003  -8.7448233406890452E-003   5.2896845259021275E-002
   4.2960212468896170E-003  -1.1593678999438695E-002   5.0444455481901851E-002
   4.7024892086038050E-003  -1.5036388457633901E-002   4.7880704337947833E-002
   5.1089571703181180E-003  -1.9072951715274788E-002   4.5205591827158553E-002
   3.1396668044015447E-003  -5.8118098861195677E-003   5.7427588037846838E-002
   3.4528380385237187E-003  -7.7457809541475187E-003   5.4439666335657999E-002
   3.7660092726458719E-003  -1.0213467984185612E-002   5.1376512545119893E-002
   4.0791805067680841E-003  -1.3214870976234017E-002   4.8238126666232041E-002
   4.3923517408901991E-003  -1.6749989930292308E-002   4.5024508698995880E-002
   2.6950752349221181E-003  -5.1337982908542801E-003   5.9908264278946889E-002
   2.9510790199379824E-003  -6.7467385676061309E-003   5.6333587122288573E-002
   3.2070828049538345E-003  -8.8332569689327581E-003   5.2719807155766574E-002
   3.4630865899696250E-003  -1.1393353494833692E-002   4.9066924379381573E-002
   3.7190903749854953E-003  -1.4427028145309828E-002   4.5374938793132369E-002
   2.1493106150229369E-003  -4.4557866955894365E-003   6.2679902392605680E-002
   2.3842762294181974E-003  -5.7476961810648541E-003   5.8578607618913092E-002
   2.6192418438134302E-003  -7.4530459536794602E-003   5.4474339313843045E-002
   2.8542074582087254E-003  -9.5718360134340319E-003   5.0367097477395151E-002
   3.0891730726039235E-003  -1.2104066360327348E-002   4.6256882109569464E-002
   1.9702744733627153E-002  -2.0511095127966061E-002   3.5943608296084284E-002
   2.0756970542325226E-002  -1.8093775743724033E-002   4.3737890338148677E-002
   2.1811196351023299E-002  -1.5829641070436620E-002   5.1234572639871162E-002
   2.2865422159721399E-002  -1.3718691108104145E-002   5.8433655201251669E-002
   2.3919647968419472E-002  -1.1760925856726168E-002   6.5335138022290074E-002
   1.5016222048458219E-002  -1.5383321346410683E-002   3.9630641905072983E-002
   1.5781358938852977E-002  -1.3570331808205743E-002   4.7139955815035051E-002
   1.6546495829247748E-002  -1.1872230803214659E-002   5.4368691628731980E-002
   1.7311632719642506E-002  -1.0289018331437392E-002   6.1316849346164562E-002
   1.8076769610037277E-002  -8.8206943928738346E-003   6.7984428967332505E-002
   1.0170257031232310E-002  -1.0255547564855222E-002   4.2694197579154200E-002
   1.0663326647401078E-002  -9.0468878726875229E-003   4.9956839534754341E-002
   1.1156396263569845E-002  -7.9148205359925797E-003   5.6955925038167286E-002
   1.1649465879738613E-002  -6.8593455547706645E-003   6.3691454089392752E-002
   1.2142535495907374E-002  -5.8804629290214461E-003   7.0163426688430924E-002
   5.1648496819494301E-003  -5.1277737832998299E-003   4.5134275318327602E-002
   5.4028736679695294E-003  -4.5234439371692678E-003   5.2188541497307131E-002
   5.6408976539896218E-003  -3.9574102687706149E-003   5.8996272868176547E-002
   5.8789216400097176E-003  -3.4296727781039519E-003   6.5557469430936072E-002
   6.1169456260298117E-003  -2.9402314651690853E-003   7.1872131185585469E-002
   6.0955407388263438E-013  -1.7443824162910460E-012   4.6950875122593494E-002
   5.5831034240227950E-013  -1.6510126599200703E-012   5.3835061702693310E-002
   5.0705620258106876E-013  -1.5485668303227840E-012   6.0489735118760157E-002
   4.5580032803638204E-013  -1.4372322776345925E-012   6.6914895370794536E-002
   4.0455486183255118E-013  -1.3166689960542044E-012   7.3110542458796113E-002
   2.3919647968419472E-002  -1.1760925856726168E-002   6.5335138022290074E-002
   2.2919107103535480E-002  -1.0035957457039613E-002   6.5150936201362336E-002
   2.1918566238651474E-002  -8.6233980497801010E-003   6.5140253522502745E-002
   2.0918025373767496E-002  -7.5232476349482783E-003   6.5303089985711438E-002
   1.9917484508883490E-002  -6.7355062125436516E-003   6.5639445590988388E-002
   1.8076769610037277E-002  -8.8206943928738346E-003   6.7984428967332505E-002
   1.7268901905756674E-002  -7.5269680930784705E-003   6.7454667540817206E-002
   1.6461034201476092E-002  -6.4675485376054151E-003   6.7136733293440609E-002
   1.5653166497195514E-002  -5.6424357264547639E-003   6.7030626225202450E-002
   1.4845298792914921E-002  -5.0516296596264110E-003   6.7136346336102964E-002
   1.2142535495907374E-002  -5.8804629290214461E-003   7.0163426688430924E-002
   1.1565648989300514E-002  -5.0179787291173839E-003   6.9366207904433264E-002
   1.0988762482693665E-002  -4.3116990254306736E-003   6.8819124336644541E-002
   1.0411875976086801E-002  -3.7616238179611940E-003   6.8522175985064798E-002
   9.8349894694799399E-003  -3.3677531067089761E-003   6.8475362849693799E-002
   6.1169456260298117E-003  -2.9402314651690853E-003   7.1872131185585469E-002
   5.8093483541669880E-003  -2.5089893651563250E-003   7.0885557292210521E-002
   5.5017510823041687E-003  -2.1558495132559044E-003   7.0187426652114943E-002
   5.1941538104413511E-003  -1.8808119094675963E-003   6.9777739265298427E-002
   4.8865565385785249E-003  -1.6838765537915273E-003   6.9656495131761142E-002
   4.0455486183255118E-013  -1.3166689960542044E-012   7.3110542458796113E-002
   3.5609015736071115E-013  -1.1951828415845966E-012   7.2012715704148994E-002
   3.0762371816539513E-013  -1.0812184481068243E-012   7.1241640239851495E-002
   2.5916161577876906E-013  -9.7407498733659281E-013   7.0797316065903421E-002
   2.1069257449823908E-013  -8.7424512074107952E-013   7.0679743182304799E-002
   1.9917484508883490E-002  -6.7355062125436516E-003   6.5639445590988388E-002
   1.9077482366275711E-002  -6.1181845513393618E-003   6.5449995743236844E-002
   1.8237480223667911E-002  -5.5292934201080224E-003   6.5491777009276192E-002
   1.7397478081060128E-002  -4.9688328188496680E-003   6.5764789389106293E-002
   1.6557475938452346E-002  -4.4368027475640281E-003   6.6269032882727064E-002
   1.4845298792914921E-002  -5.0516296596264110E-003   6.7136346336102964E-002
   1.4231220119561176E-002  -4.5886384136996361E-003   6.6978588522621285E-002
   1.3617141446207431E-002  -4.1469700652542185E-003   6.7041446533857033E-002
   1.3003062772853680E-002  -3.7266246142897974E-003   6.7324920369810026E-002
   1.2388984099499942E-002  -3.3276020608062340E-003   6.7829010030480308E-002
   9.8349894694799399E-003  -3.3677531067089761E-003   6.8475362849693799E-002
   9.4362189763067990E-003  -3.0590922760600353E-003   6.8356404702973828E-002
   9.0374484831336633E-003  -2.7646467104003453E-003   6.8447447091897873E-002
   8.6386779899605241E-003  -2.4844164097300343E-003   6.8748490016465852E-002
   8.2399074967873832E-003  -2.2184013740486896E-003   6.9259533476677751E-002
   4.8865565385785249E-003  -1.6838765537915273E-003   6.9656495131761142E-002
   4.6924789365125723E-003  -1.5295461384204276E-003   6.9583444284294749E-002
   4.4984013344466205E-003  -1.3823233555464789E-003   6.9709778683398893E-002
   4.3043237323806697E-003  -1.2422082051701065E-003   7.0035498329073478E-002
   4.1102461303147231E-003  -1.1092006872910759E-003   7.0560603221318352E-002
   2.1069257449823908E-013  -8.7424512074107952E-013   7.0679743182304799E-002
   1.7849957623106150E-013  -7.8076434206764134E-013   7.0659707266583882E-002
   1.4629963906998000E-013  -6.9262651170021172E-013   7.0828441308359885E-002
   1.1410143663237449E-013  -6.1041796617367083E-013   7.1185945307633045E-002
   8.1906703641720924E-014  -5.3335114102992520E-013   7.1732219264403208E-002
   1.6557475938452346E-002  -4.4368027475640281E-003   6.6269032882727064E-002
   1.5587946209386500E-002  -3.9623092114494107E-003   6.5613235870093101E-002
   1.4618416480320660E-002  -3.5744582157036658E-003   6.5198216596937614E-002
   1.3648886751254818E-002  -3.2732497603266929E-003   6.5023975063261061E-002
   1.2679357022189003E-002  -3.0586838453185994E-003   6.5090511269063289E-002
   1.2388984099499942E-002  -3.3276020608062340E-003   6.7829010030480308E-002
   1.1660633283108186E-002  -2.9717319087022576E-003   6.7117217204458346E-002
   1.0932282466716445E-002  -2.6808436618755010E-003   6.6647004464305826E-002
   1.0203931650324693E-002  -2.4549373203261761E-003   6.6418371810022678E-002
   9.4755808339329478E-003  -2.2940128840540641E-003   6.6431319241608999E-002
   8.2399074967873832E-003  -2.2184013740486896E-003   6.9259533476677751E-002
   7.7535379394603858E-003  -1.9811546059551877E-003   6.8513405472359110E-002
   7.2671683821333866E-003  -1.7872291080474542E-003   6.8009659900300751E-002
   6.7807988248063831E-003  -1.6366248803257721E-003   6.7748296760502438E-002
   6.2944292674793900E-003  -1.5293419227898619E-003   6.7729316052964117E-002
   4.1102461303147231E-003  -1.1092006872910759E-003   7.0560603221318352E-002
   3.8666601784431093E-003  -9.9057730320790960E-004   6.9801800673795017E-002
   3.6230742265715072E-003  -8.9361455421940392E-004   6.9286182904922292E-002
   3.3794882746999008E-003  -8.1831244032514513E-004   6.9013749914700273E-002
   3.1359023228282983E-003  -7.6467096152543768E-004   6.8984501703129031E-002
   8.1906703641720924E-014  -5.3335114102992520E-013   7.1732219264403208E-002
   5.6343818499726694E-014  -4.6085357752190248E-013   7.0982402808766165E-002
   3.0791341698588326E-014  -3.9121483830228954E-013   7.0476573478170490E-002
   5.2301912800700734E-015  -3.2489982926264815E-013   7.0214731272616293E-002
  -2.0324020244544272E-014  -2.6123547769429933E-013   7.0196876192103463E-002
   1.2679357022189003E-002  -3.0586838453185994E-003   6.5090511269063289E-002
   1.1642091158694912E-002  -2.8785908349600597E-003   6.4748456647775621E-002
   1.0604825295200862E-002  -2.6808010935310822E-003   6.4662533065429850E-002
   9.5675594317068055E-003  -2.4653146210327770E-003   6.4832740522025895E-002
   8.5302935682127490E-003  -2.2321314174641449E-003   6.5259079017563781E-002
   9.4755808339329478E-003  -2.2940128840540641E-003   6.6431319241608999E-002
   8.6952423661129860E-003  -2.1589431262706293E-003   6.6128170238541173E-002
   7.9149038982930311E-003  -2.0106008201867254E-003   6.6082744987879527E-002
   7.1345654304730798E-003  -1.8489859658020885E-003   6.6295043489624270E-002
   6.3542269626531145E-003  -1.6740985631170657E-003   6.6765065743775165E-002
   6.2944292674793900E-003  -1.5293419227898619E-003   6.7729316052964117E-002
   5.7726109087978886E-003  -1.4392954175815043E-003   6.7460648485346719E-002
   5.2507925501163975E-003  -1.3404005468419244E-003   6.7451297383599812E-002
   4.7289741914349082E-003  -1.2326573105715666E-003   6.7701262747723714E-002
   4.2071558327534050E-003  -1.1160657087700421E-003   6.8210544577718191E-002
   3.1359023228282983E-003  -7.6467096152543768E-004   6.8984501703129031E-002
   2.8741967867496245E-003  -7.1964770889228202E-004   6.8745891388192426E-002
   2.6124912506709447E-003  -6.7020027349745659E-004   6.8768190252591163E-002
   2.3507857145922757E-003  -6.1632865534096137E-004   6.9051398296324507E-002
   2.0890801785135912E-003  -5.5803285442299067E-004   6.9595515519393261E-002
  -2.0324020244544272E-014  -2.6123547769429933E-013   7.0196876192103463E-002
  -3.1814828549414642E-014  -2.0300428005270987E-013   6.9983898947078349E-002
  -4.3305636854285012E-014  -1.5279444376403717E-013   7.0033423594852762E-002
  -5.4803384053059290E-014  -1.1036310754164447E-013   7.0345450135426674E-002
  -6.6287253464025753E-014  -7.5828232581898192E-014   7.0919978568799835E-002
   8.5302935682127490E-003  -2.2321314174641449E-003   6.5259079017563781E-002
   7.5286081565463792E-003  -2.0371456611402161E-003   6.5051657077715208E-002
   6.5269227448799816E-003  -1.9362515303741890E-003   6.5110908007539936E-002
   5.5252373332135910E-003  -1.9294490251666602E-003   6.5436831807038076E-002
   4.5235519215472142E-003  -2.0167381455175049E-003   6.6029428476209628E-002
   6.3542269626531145E-003  -1.6740985631170657E-003   6.6765065743775165E-002
   5.6151515414710057E-003  -1.5278592458669027E-003   6.6500246228033355E-002
   4.8760761202888761E-003  -1.4521886477859014E-003   6.6493973823586849E-002
   4.1370006991067639E-003  -1.4470867688745476E-003   6.6746248530435287E-002
   3.3979252779246377E-003  -1.5125536091328273E-003   6.7257070348579029E-002
   4.2071558327534050E-003  -1.1160657087700421E-003   6.8210544577718191E-002
   3.7225646436773591E-003  -1.0185728305936448E-003   6.7911850392471940E-002
   3.2379734546013270E-003  -9.6812576519764160E-004   6.7863577560142913E-002
   2.7533822655252897E-003  -9.6472451258266395E-004   6.8065726080730860E-002
   2.2687910764492489E-003  -1.0083690727482053E-003   6.8518295954235614E-002
   2.0890801785135912E-003  -5.5803285442299067E-004   6.9595515519393261E-002
   1.8508474631654687E-003  -5.0928641532013708E-004   6.9286469571031337E-002
   1.6126147478173307E-003  -4.8406288260925689E-004   6.9219719217208403E-002
   1.3743820324692000E-003  -4.8236225629066584E-004   6.9395264457924349E-002
   1.1361493171210702E-003  -5.0418453636333349E-004   6.9813105293178856E-002
  -6.6287253464025753E-014  -7.5828232581898192E-014   7.0919978568799835E-002
  -6.4691307866127090E-014  -4.7184478546569153E-014   7.0624103763711199E-002
  -6.3109240056036242E-014  -2.0983215165415459E-014   7.0562398794783432E-002
  -6.1523702798993440E-014   1.4710455076283324E-015   7.0734863662016145E-002
  -5.9931226648046731E-014   2.1205259770340490E-014   7.1141498365409839E-002
   4.5235519215472142E-003  -2.0167381455175049E-003   6.6029428476209628E-002
   3.9299915949161518E-003  -2.2699298797447809E-003   6.4994226310463366E-002
   3.3364312682850755E-003  -2.7608352161654637E-003   6.4090904574613916E-002
   2.7428709416540131E-003  -3.4894541547806426E-003   6.3319463268661363E-002
   2.1493106150229369E-003  -4.4557866955894365E-003   6.2679902392605680E-002
   3.3979252779246377E-003  -1.5125536091328273E-003   6.7257070348579029E-002
   2.9403727941308966E-003  -1.7024474097990239E-003   6.6014488636000845E-002
   2.4828203103371554E-003  -2.0706264121103379E-003   6.4912042179200630E-002
   2.0252678265434143E-003  -2.6170906160671095E-003   6.3949730978178118E-002
   1.5677153427496732E-003  -3.3418400216698174E-003   6.3127555032933769E-002
   2.2687910764492489E-003  -1.0083690727482053E-003   6.8518295954235614E-002
   1.9555012613739660E-003  -1.1349649398528505E-003   6.7127763095373827E-002
   1.6422114462986866E-003  -1.3804176080547542E-003   6.5885620318171009E-002
   1.3289216312234037E-003  -1.7447270773539060E-003   6.4791867622627314E-002
   1.0156318161481104E-003  -2.2278933477503093E-003   6.3846505008742449E-002
   1.1361493171210702E-003  -5.0418453636333349E-004   6.9813105293178856E-002
   9.7537699664536088E-004  -5.6748246990677431E-004   6.8334049688581922E-002
   8.1460467616966455E-004  -6.9020880399923296E-004   6.7011638991525013E-002
   6.5383235569396563E-004  -8.7236353864053769E-004   6.5845873202008146E-002
   4.9306003521825889E-004  -1.1139466738306347E-003   6.4836752320031860E-002
  -5.9931226648046731E-014   2.1205259770340490E-014   7.1141498365409839E-002
  -5.4914406355521805E-014   3.9079850466805510E-014   6.9633348415625629E-002
  -4.9907994403852740E-014   5.6205040621648550E-014   6.8290098199262850E-002
  -4.4894643558279768E-014   7.3004102763007950E-014   6.7111747716321363E-002
  -3.9884762159658749E-014   8.8817841970012523E-014   6.6098296966801140E-002
   2.1493106150229369E-003  -4.4557866955894365E-003   6.2679902392605680E-002
   2.3842762294181974E-003  -5.7476961810648541E-003   5.8578607618913092E-002
   2.6192418438134302E-003  -7.4530459536794602E-003   5.4474339313843045E-002
   2.8542074582087254E-003  -9.5718360134340319E-003   5.0367097477395151E-002
   3.0891730726039235E-003  -1.2104066360327348E-002   4.6256882109569464E-002
   1.5677153427496732E-003  -3.3418400216698174E-003   6.3127555032933769E-002
   1.7857654577117243E-003  -4.3107721357715789E-003   5.8680069785611466E-002
   2.0038155726737755E-003  -5.5897844652262885E-003   5.4201727070800565E-002
   2.2218656876358059E-003  -7.1788770100348620E-003   4.9692526888500316E-002
   2.4399158025978640E-003  -9.0780497701958840E-003   4.5152469238711967E-002
   1.0156318161481104E-003  -2.2278933477503093E-003   6.3846505008742449E-002
   1.1888824955659724E-003  -2.8738480904786923E-003   5.9156189359576394E-002
   1.3621331749838414E-003  -3.7265229767735608E-003   5.4407132306810935E-002
   1.5353838544016913E-003  -4.7859180066357476E-003   4.9599333850445598E-002
   1.7086345338195585E-003  -6.0520331800641980E-003   4.4732793990480357E-002
   4.9306003521825889E-004  -1.1139466738306347E-003   6.4836752320031860E-002
   5.9362734298095722E-004  -1.4369240451855003E-003   6.0006966340808460E-002
   6.9419465074363994E-004  -1.8632614883209442E-003   5.5090555021874280E-002
   7.9476195850632482E-004  -2.3929590032367165E-003   5.0087518363229375E-002
   8.9532926626902098E-004  -3.0260165899326230E-003   4.4997856364873995E-002
  -3.9884762159658749E-014   8.8817841970012523E-014   6.6098296966801140E-002
  -4.3347270217708456E-014   1.0769163338864018E-013   6.1232400729306691E-002
  -4.6809778275758163E-014   1.3233858453531866E-013   5.6251995215990669E-002
  -5.0277490504235800E-014   1.6225909504896663E-013   5.1157080426853241E-002
  -5.3734794391857577E-014   1.9895196601282805E-013   4.5947656361893685E-002
   6.0955407388263438E-013  -1.7443824162910460E-012   4.6950875122593494E-002
   5.5831034240227950E-013  -1.6510126599200703E-012   5.3835061702693310E-002
   5.0705620258106876E-013  -1.5485668303227840E-012   6.0489735118760157E-002
   4.5580032803638204E-013  -1.4372322776345925E-012   6.6914895370794536E-002
   4.0455486183255118E-013  -1.3166689960542044E-012   7.3110542458796113E-002
  -5.1648496807343083E-003   5.1277737798383072E-003   4.5134275318446160E-002
  -5.4028736668565516E-003   4.5234439338999455E-003   5.2188541497435403E-002
  -5.6408976529788157E-003   3.9574102657097820E-003   5.8996272868314908E-002
  -5.8789216391010694E-003   3.4296727752676434E-003   6.5557469431085175E-002
  -6.1169456252233301E-003   2.9402314625738002E-003   7.1872131185746146E-002
  -1.0170257030029124E-002   1.0255547561420997E-002   4.2694197579397797E-002
  -1.0663326646299043E-002   9.0468878694509036E-003   4.9956839535015202E-002
  -1.1156396262568962E-002   7.9148205329680893E-003   5.6955925038446598E-002
  -1.1649465878838874E-002   6.8593455519724601E-003   6.3691454089692040E-002
  -1.2142535495108787E-002   5.8804629264642416E-003   7.0163426688751446E-002
  -1.5016222047274916E-002   1.5383321343003659E-002   3.9630641905447940E-002
  -1.5781358937769149E-002   1.3570331805001862E-002   4.7139955815432837E-002
  -1.6546495828263376E-002   1.1872230800226362E-002   5.4368691629155114E-002
  -1.7311632718757599E-002   1.0289018328677362E-002   6.1316849346614855E-002
  -1.8076769609251832E-002   8.8206943903547524E-003   6.7984428967811789E-002
  -1.9702744732471689E-002   2.0511095124586376E-002   3.5943608296596818E-002
  -2.0756970541266871E-002   1.8093775740552820E-002   4.3737890338688468E-002
  -2.1811196350062075E-002   1.5829641067484773E-002   5.1234572640440734E-002
  -2.2865422158857261E-002   1.3718691105382104E-002   5.8433655201853757E-002
  -2.3919647967652453E-002   1.1760925854245208E-002   6.5335138022927453E-002
   4.0455486183255118E-013  -1.3166689960542044E-012   7.3110542458796113E-002
   3.5609015736071115E-013  -1.1951828415845966E-012   7.2012715704148994E-002
   3.0762371816539513E-013  -1.0812184481068243E-012   7.1241640239851495E-002
   2.5916161577876906E-013  -9.7407498733659281E-013   7.0797316065903421E-002
   2.1069257449823908E-013  -8.7424512074107952E-013   7.0679743182304799E-002
  -6.1169456252233301E-003   2.9402314625738002E-003   7.1872131185746146E-002
  -5.8093483534571340E-003   2.5089893628025134E-003   7.0885557292351672E-002
  -5.5017510816909414E-003   2.1558495111285644E-003   7.0187426652236970E-002
  -5.1941538099247505E-003   1.8808119075519030E-003   6.9777739265402122E-002
  -4.8865565381585527E-003   1.6838765520724719E-003   6.9656495131847185E-002
  -1.2142535495108787E-002   5.8804629264642416E-003   7.0163426688751446E-002
  -1.1565648988597639E-002   5.0179787268004733E-003   6.9366207904713956E-002
  -1.0988762482086481E-002   4.3116990233383473E-003   6.8819124336886722E-002
  -1.0411875975575330E-002   3.7616238160779365E-003   6.8522175985269385E-002
  -9.8349894690641752E-003   3.3677531050191611E-003   6.8475362849862290E-002
  -1.8076769609251832E-002   8.8206943903547524E-003   6.7984428967811789E-002
  -1.7268901905065422E-002   7.5269680907984401E-003   6.7454667541235858E-002
  -1.6461034200879018E-002   6.4675485355480747E-003   6.7136733293800280E-002
  -1.5653166496692600E-002   5.6424357246038590E-003   6.7030626225505152E-002
  -1.4845298792506206E-002   5.0516296579659198E-003   6.7136346336350294E-002
  -2.3919647967652453E-002   1.1760925854245208E-002   6.5335138022927453E-002
  -2.2919107102860478E-002   1.0035957454796185E-002   6.5150936201917420E-002
  -2.1918566238068520E-002   8.6233980477579270E-003   6.5140253522978003E-002
  -2.0918025373276562E-002   7.5232476331299793E-003   6.5303089986109439E-002
  -1.9917484508484587E-002   6.7355062109125674E-003   6.5639445591311407E-002
   2.1069257449823908E-013  -8.7424512074107952E-013   7.0679743182304799E-002
   1.7849957623106150E-013  -7.8076434206764134E-013   7.0659707266583882E-002
   1.4629963906998000E-013  -6.9262651170021172E-013   7.0828441308359885E-002
   1.1410143663237449E-013  -6.1041796617367083E-013   7.1185945307633045E-002
   8.1906703641720924E-014  -5.3335114102992520E-013   7.1732219264403208E-002
  -4.8865565381585527E-003   1.6838765520724719E-003   6.9656495131847185E-002
  -4.6924789361566157E-003   1.5295461368851626E-003   6.9583444284367468E-002
  -4.4984013341546857E-003   1.3823233541844782E-003   6.9709778683458956E-002
  -4.3043237321527521E-003   1.2422082039704602E-003   7.0035498329121801E-002
  -4.1102461301508117E-003   1.1092006862432058E-003   7.0560603221355822E-002
  -9.8349894690641752E-003   3.3677531050191611E-003   6.8475362849862290E-002
  -9.4362189759539389E-003   3.0590922745507843E-003   6.8356404703116241E-002
  -9.0374484828437095E-003   2.7646467090615343E-003   6.8447447092015556E-002
  -8.6386779897334714E-003   2.4844164085512290E-003   6.8748490016560249E-002
  -8.2399074966232350E-003   2.2184013730199847E-003   6.9259533476750346E-002
  -1.4845298792506206E-002   5.0516296579659198E-003   6.7136346336350294E-002
  -1.4231220119213480E-002   4.5886384122165308E-003   6.6978588522830201E-002
  -1.3617141445920770E-002   4.1469700639386702E-003   6.7041446534029714E-002
  -1.3003062772628053E-002   3.7266246131320525E-003   6.7324920369948665E-002
  -1.2388984099335325E-002   3.3276020597968192E-003   6.7829010030587250E-002
  -1.9917484508484587E-002   6.7355062109125674E-003   6.5639445591311407E-002
  -1.9077482365935233E-002   6.1181845498823328E-003   6.5449995743509404E-002
  -1.8237480223385866E-002   5.5292934188156395E-003   6.5491777009501262E-002
  -1.7397478080836519E-002   4.9688328177128899E-003   6.5764789389286787E-002
  -1.6557475938287151E-002   4.4368027465734317E-003   6.6269032882866119E-002
   8.1906703641720924E-014  -5.3335114102992520E-013   7.1732219264403208E-002
   5.6343818499726694E-014  -4.6085357752190248E-013   7.0982402808766165E-002
   3.0791341698588326E-014  -3.9121483830228954E-013   7.0476573478170490E-002
   5.2301912800700734E-015  -3.2489982926264815E-013   7.0214731272616293E-002
  -2.0324020244544272E-014  -2.6123547769429933E-013   7.0196876192103463E-002
  -4.1102461301508117E-003   1.1092006862432058E-003   7.0560603221355822E-002
  -3.8666601783301086E-003   9.9057730230356356E-004   6.9801800673826631E-002
  -3.6230742265094037E-003   8.9361455345224328E-004   6.9286182904948534E-002
  -3.3794882746886936E-003   8.1831243968896045E-004   6.9013749914721589E-002
  -3.1359023228679887E-003   7.6467096101417997E-004   6.8984501703145906E-002
  -8.2399074966232350E-003   2.2184013730199847E-003   6.9259533476750346E-002
  -7.7535379393464795E-003   1.9811546050681472E-003   6.8513405472420352E-002
  -7.2671683820697197E-003   1.7872291072957985E-003   6.8009659900351113E-002
  -6.7807988247929555E-003   1.6366248797029283E-003   6.7748296760542781E-002
  -6.2944292675162043E-003   1.5293419222895399E-003   6.7729316052995620E-002
  -1.2388984099335325E-002   3.3276020597968192E-003   6.7829010030587250E-002
  -1.1660633282992749E-002   2.9717319078327031E-003   6.7117217204547441E-002
  -1.0932282466650151E-002   2.6808436611394162E-003   6.6647004464378323E-002
  -1.0203931650307564E-002   2.4549373197167868E-003   6.6418371810080021E-002
  -9.4755808339649708E-003   2.2940128835649831E-003   6.6431319241652409E-002
  -1.6557475938287151E-002   4.4368027465734317E-003   6.6269032882866119E-002
  -1.5587946209268930E-002   3.9623092105970370E-003   6.5613235870207898E-002
  -1.4618416480250716E-002   3.5744582149828952E-003   6.5198216597030290E-002
  -1.3648886751232499E-002   3.2732497597305829E-003   6.5023975063333295E-002
  -1.2679357022214281E-002   3.0586838448403153E-003   6.5090511269116580E-002
  -2.0324020244544272E-014  -2.6123547769429933E-013   7.0196876192103463E-002
  -3.1814828549414642E-014  -2.0300428005270987E-013   6.9983898947078349E-002
  -4.3305636854285012E-014  -1.5279444376403717E-013   7.0033423594852762E-002
  -5.4803384053059290E-014  -1.1036310754164447E-013   7.0345450135426674E-002
  -6.6287253464025753E-014  -7.5828232581898192E-014   7.0919978568799835E-002
  -3.1359023228679887E-003   7.6467096101417997E-004   6.8984501703145906E-002
  -2.8741967868122012E-003   7.1964770849480830E-004   6.8745891388195701E-002
  -2.6124912507564119E-003   6.7020027319872333E-004   6.8768190252580880E-002
  -2.3507857147006348E-003   6.1632865512527973E-004   6.9051398296301317E-002
  -2.0890801786448351E-003   5.5803285427491467E-004   6.9595515519356832E-002
  -6.2944292675162043E-003   1.5293419222895399E-003   6.7729316052995620E-002
  -5.7726109088573176E-003   1.4392954171929817E-003   6.7460648485351354E-002
  -5.2507925501984378E-003   1.3404005465500329E-003   6.7451297383578038E-002
  -4.7289741915395554E-003   1.2326573103610371E-003   6.7701262747675739E-002
  -4.2071558328806713E-003   1.1160657086258241E-003   6.8210544577644500E-002
  -9.4755808339649708E-003   2.2940128835649831E-003   6.6431319241652409E-002
  -8.6952423661671597E-003   2.1589431258908637E-003   6.6128170238544781E-002
  -7.9149038983693520E-003   2.0106008199013356E-003   6.6082744987843903E-002
  -7.1345654305715496E-003   1.8489859655967927E-003   6.6295043489549912E-002
  -6.3542269627737333E-003   1.6740985629768723E-003   6.6765065743662658E-002
  -1.2679357022214281E-002   3.0586838448403153E-003   6.5090511269116580E-002
  -1.1642091158741721E-002   2.8785908345890232E-003   6.4748456647776342E-002
  -1.0604825295269179E-002   2.6808010932528048E-003   6.4662533065378724E-002
  -9.5675594317966347E-003   2.4653146208325899E-003   6.4832740521923726E-002
  -8.5302935683240835E-003   2.2321314173275875E-003   6.5259079017411570E-002
  -6.6287253464025753E-014  -7.5828232581898192E-014   7.0919978568799835E-002
  -6.4691307866127090E-014  -4.7184478546569153E-014   7.0624103763711199E-002
  -6.3109240056036242E-014  -2.0983215165415459E-014   7.0562398794783432E-002
  -6.1523702798993440E-014   1.4710455076283324E-015   7.0734863662016145E-002
  -5.9931226648046731E-014   2.1205259770340490E-014   7.1141498365409839E-002
  -2.0890801786448351E-003   5.5803285427491467E-004   6.9595515519356832E-002
  -1.8508474632935139E-003   5.0928641522879348E-004   6.9286469570991438E-002
  -1.6126147479421874E-003   4.8406288256860885E-004   6.9219719217164855E-002
  -1.3743820325908688E-003   4.8236225629360446E-004   6.9395264457877193E-002
  -1.1361493172395397E-003   5.0418453640432848E-004   6.9813105293128341E-002
  -4.2071558328806713E-003   1.1160657086258241E-003   6.8210544577644500E-002
  -3.7225646438013901E-003   1.0185728305046049E-003   6.7911850392391032E-002
  -3.2379734547221045E-003   9.6812576515786786E-004   6.7863577560054344E-002
  -2.7533822656428215E-003   9.6472451258540481E-004   6.8065726080634881E-002
  -2.2687910765635515E-003   1.0083690727872852E-003   6.8518295954132474E-002
  -6.3542269627737333E-003   1.6740985629768723E-003   6.6765065743662658E-002
  -5.6151515415883060E-003   1.5278592457804996E-003   6.6500246227909759E-002
  -4.8760761204028648E-003   1.4521886477473489E-003   6.6493973823451971E-002
  -4.1370006992174375E-003   1.4470867688774272E-003   6.6746248530289598E-002
  -3.3979252780319959E-003   1.5125536091704361E-003   6.7257070348422349E-002
  -8.5302935683240835E-003   2.2321314173275875E-003   6.5259079017411570E-002
  -7.5286081566542859E-003   2.0371456610562833E-003   6.5051657077547786E-002
  -6.5269227449844640E-003   1.9362515303366634E-003   6.5110908007357637E-002
  -5.5252373333146455E-003   1.9294490251693247E-003   6.5436831806840817E-002
  -4.5235519216448444E-003   2.0167381455533651E-003   6.6029428475997465E-002
  -5.9931226648046731E-014   2.1205259770340490E-014   7.1141498365409839E-002
  -5.4914406355521805E-014   3.9079850466805510E-014   6.9633348415625629E-002
  -4.9907994403852740E-014   5.6205040621648550E-014   6.8290098199262850E-002
  -4.4894643558279768E-014   7.3004102763007950E-014   6.7111747716321363E-002
  -3.9884762159658749E-014   8.8817841970012523E-014   6.6098296966801140E-002
  -1.1361493172395397E-003   5.0418453640432848E-004   6.9813105293128341E-002
  -9.7537699675402656E-004   5.6748246998200580E-004   6.8334049688533016E-002
  -8.1460467626852905E-004   6.9020880410772256E-004   6.7011638991477440E-002
  -6.5383235578302546E-004   8.7236353878230449E-004   6.5845873201961391E-002
  -4.9306003529753228E-004   1.1139466740043291E-003   6.4836752319985202E-002
  -2.2687910765635515E-003   1.0083690727872852E-003   6.8518295954132474E-002
  -1.9555012614791197E-003   1.1349649399249317E-003   6.7127763095274628E-002
  -1.6422114463946957E-003   1.3804176081596703E-003   6.5885620318074947E-002
  -1.3289216313102786E-003   1.7447270774916014E-003   6.4791867622533361E-002
  -1.0156318162258537E-003   2.2278933479202845E-003   6.3846505008649912E-002
  -3.3979252780319959E-003   1.5125536091704361E-003   6.7257070348422349E-002
  -2.9403727942302017E-003   1.7024474098679687E-003   6.6014488635850715E-002
  -2.4828203104284297E-003   2.0706264122114029E-003   6.4912042179055773E-002
  -2.0252678266266359E-003   2.6170906162010111E-003   6.3949730978037370E-002
  -1.5677153428248630E-003   3.3418400218362398E-003   6.3127555032795685E-002
  -4.5235519216448444E-003   2.0167381455533651E-003   6.6029428475997465E-002
  -3.9299915950072734E-003   2.2699298798108947E-003   6.4994226310260972E-002
  -3.3364312683696953E-003   2.7608352162632188E-003   6.4090904574419738E-002
  -2.7428709417321191E-003   3.4894541549106081E-003   6.3319463268473347E-002
  -2.1493106150945462E-003   4.4557866957518621E-003   6.2679902392421938E-002
  -3.9884762159658749E-014   8.8817841970012523E-014   6.6098296966801140E-002
  -4.3347270217708456E-014   1.0769163338864018E-013   6.1232400729306691E-002
  -4.6809778275758163E-014   1.3233858453531866E-013   5.6251995215990669E-002
  -5.0277490504235800E-014   1.6225909504896663E-013   5.1157080426853241E-002
  -5.3734794391857577E-014   1.9895196601282805E-013   4.5947656361893685E-002
  -4.9306003529753228E-004   1.1139466740043291E-003   6.4836752319985202E-002
  -5.9362734306703593E-004   1.4369240453966370E-003   6.0006966340773682E-002
  -6.9419465083655693E-004   1.8632614885791265E-003   5.5090555021852117E-002
  -7.9476195860607966E-004   2.3929590035517284E-003   5.0087518363219174E-002
  -8.9532926637559546E-004   3.0260165903153169E-003   4.4997856364876743E-002
  -1.0156318162258537E-003   2.2278933479202845E-003   6.3846505008649912E-002
  -1.1888824956502644E-003   2.8738480906854713E-003   5.9156189359506200E-002
  -1.3621331750746698E-003   3.7265229770255814E-003   5.4407132306763306E-002
  -1.5353838544990730E-003   4.7859180069410312E-003   4.9599333850421326E-002
  -1.7086345339234997E-003   6.0520331804314598E-003   4.4732793990479580E-002
  -1.5677153428248630E-003   3.3418400218362398E-003   6.3127555032795685E-002
  -1.7857654577929853E-003   4.3107721359746942E-003   5.8680069785504330E-002
  -2.0038155727611219E-003   5.5897844654723139E-003   5.4201727070724778E-002
  -2.2218656877292546E-003   7.1788770103298621E-003   4.9692526888457544E-002
  -2.4399158026973808E-003   9.0780497705476026E-003   4.5152469238701393E-002
  -2.1493106150945462E-003   4.4557866957518621E-003   6.2679902392421938E-002
  -2.3842762294952469E-003   5.7476961812634730E-003   5.8578607618767764E-002
  -2.6192418438959267E-003   7.4530459539192406E-003   5.4474339313736519E-002
  -2.8542074582966152E-003   9.5718360137195188E-003   5.0367097477328343E-002
  -3.0891730726973071E-003   1.2104066360663968E-002   4.6256882109543263E-002
  -1.9702744732471689E-002   2.0511095124586376E-002   3.5943608296596818E-002
  -2.0756970541266871E-002   1.8093775740552820E-002   4.3737890338688468E-002
  -2.1811196350062075E-002   1.5829641067484773E-002   5.1234572640440734E-002
  -2.2865422158857261E-002   1.3718691105382104E-002   5.8433655201853757E-002
  -2.3919647967652453E-002   1.1760925854245208E-002   6.5335138022927453E-002
  -2.3855634215746935E-002   1.8271371510444945E-002   2.9492296351398162E-002
  -2.5342100364155410E-002   1.6576239332443038E-002   3.8189174268047160E-002
  -2.6828566512563899E-002   1.4986747247550392E-002   4.6319171245808838E-002
  -2.8315032660972409E-002   1.3502895255766666E-002   5.3882287284683070E-002
  -2.9801498809380877E-002   1.2124683357092159E-002   6.0878522384670147E-002
  -2.7100699627228147E-002   1.6031647896303458E-002   2.3786943921159598E-002
  -2.9288687313797957E-002   1.5058702924333311E-002   3.3338873094509447E-002
  -3.1476675000367750E-002   1.4143853427615885E-002   4.2054640130424009E-002
  -3.3664662686937540E-002   1.3287099406151113E-002   4.9934245028903194E-002
  -3.5852650373507364E-002   1.2488440859939137E-002   5.6977687789947121E-002
  -2.9437940966915377E-002   1.3791924282161999E-002   1.8827551005880884E-002
  -3.2596731390194499E-002   1.3541166516223613E-002   2.9186986818075210E-002
  -3.5755521813473627E-002   1.3300959607681469E-002   3.8440979294286262E-002
  -3.8914312236752735E-002   1.3071303556535590E-002   4.6589528434513909E-002
  -4.2073102660031871E-002   1.2852198362786074E-002   5.3632634238758234E-002
  -3.0867358234808573E-002   1.1552200668020540E-002   1.4614117605561971E-002
  -3.5266232593345020E-002   1.2023630108113803E-002   2.5733515438744525E-002
  -3.9665106951881482E-002   1.2458065787747080E-002   3.5478188737395611E-002
  -4.4063981310417950E-002   1.2855507706920018E-002   4.3848137501515422E-002
  -4.8462855668954405E-002   1.3215955865633067E-002   5.0843361731103820E-002
  -2.3919647967652453E-002   1.1760925854245208E-002   6.5335138022927453E-002
  -2.2919107102860478E-002   1.0035957454796185E-002   6.5150936201917420E-002
  -2.1918566238068520E-002   8.6233980477579270E-003   6.5140253522978003E-002
  -2.0918025373276562E-002   7.5232476331299793E-003   6.5303089986109439E-002
  -1.9917484508484587E-002   6.7355062109125674E-003   6.5639445591311407E-002
  -2.9801498809380877E-002   1.2124683357092159E-002   6.0878522384670147E-002
  -2.8612009345516613E-002   1.0881588619014546E-002   6.0778950908511278E-002
  -2.7422519881652358E-002   9.8030881090217376E-003   6.0883757488426199E-002
  -2.6233030417788086E-002   8.8891818271135924E-003   6.1192942124415048E-002
  -2.5043540953923839E-002   8.1398697732901204E-003   6.1706504816477770E-002
  -3.5852650373507364E-002   1.2488440859939137E-002   5.6977687789947121E-002
  -3.4443353396567601E-002   1.1727219783232906E-002   5.6814931894313622E-002
  -3.3034056419627873E-002   1.0982778170285652E-002   5.6887412968757108E-002
  -3.1624759442688125E-002   1.0255116021097204E-002   5.7195131013277667E-002
  -3.0215462465748390E-002   9.5442333356677289E-003   5.7738086027875390E-002
  -4.2073102660031871E-002   1.2852198362786074E-002   5.3632634238758234E-002
  -4.0413139256013447E-002   1.2572850947451211E-002   5.3258879159324340E-002
  -3.8753175851995045E-002   1.2162468231549459E-002   5.3151219963970556E-002
  -3.7093212447976642E-002   1.1621050215080871E-002   5.3309656652697039E-002
  -3.5433249043958212E-002   1.0948596898045310E-002   5.3734189225503839E-002
  -4.8462855668954405E-002   1.3215955865633067E-002   5.0843361731103820E-002
  -4.6521366923854141E-002   1.3418482111669627E-002   5.0110792703543572E-002
  -4.4579878178753897E-002   1.3342158292813433E-002   4.9675178474066745E-002
  -4.2638389433653653E-002   1.2986984409064414E-002   4.9536519042673394E-002
  -4.0696900688553389E-002   1.2352960460422890E-002   4.9694814409363408E-002
  -1.9917484508484587E-002   6.7355062109125674E-003   6.5639445591311407E-002
  -1.9077482365935233E-002   6.1181845498823328E-003   6.5449995743509404E-002
  -1.8237480223385866E-002   5.5292934188156395E-003   6.5491777009501262E-002
  -1.7397478080836519E-002   4.9688328177128899E-003   6.5764789389286787E-002
  -1.6557475938287151E-002   4.4368027465734317E-003   6.6269032882866119E-002
  -2.5043540953923839E-002   8.1398697732901204E-003   6.1706504816477770E-002
  -2.3967349555727758E-002   7.4806994318899200E-003   6.1498207907506319E-002
  -2.2891158157531673E-002   6.8372182872516313E-003   6.1531058396034483E-002
  -2.1814966759335606E-002   6.2094263393748898E-003   6.1805056282062343E-002
  -2.0738775361139508E-002   5.5973235882599837E-003   6.2320201565589872E-002
  -3.0215462465748390E-002   9.5442333356677289E-003   5.7738086027875390E-002
  -2.8893165528199635E-002   8.8432143138976183E-003   5.7498200724532336E-002
  -2.7570868590650877E-002   8.1451431556872900E-003   5.7509379102394925E-002
  -2.6248571653102119E-002   7.4500198610371118E-003   5.7771621161463213E-002
  -2.4926274715553389E-002   6.7578444299465912E-003   5.8284926901737227E-002
  -3.5433249043958212E-002   1.0948596898045310E-002   5.3734189225503839E-002
  -3.3854930283350841E-002   1.0205729195905205E-002   5.3449974194587496E-002
  -3.2276611522743449E-002   9.4530680241231152E-003   5.3426739128582749E-002
  -3.0698292762136061E-002   8.6906133826991673E-003   5.3664484027489523E-002
  -2.9119974001528652E-002   7.9183652716331154E-003   5.4163208891308025E-002
  -4.0696900688553389E-002   1.2352960460422890E-002   4.9694814409363408E-002
  -3.8852643821181421E-002   1.1568244077912931E-002   4.9353528317671702E-002
  -3.7008386953809411E-002   1.0760992892558913E-002   4.9283138474597588E-002
  -3.5164130086437415E-002   9.9312069043612991E-003   4.9483644880141037E-002
  -3.3319873219065432E-002   9.0788861133196397E-003   4.9955047534302133E-002
  -1.6557475938287151E-002   4.4368027465734317E-003   6.6269032882866119E-002
  -1.5587946209268930E-002   3.9623092105970370E-003   6.5613235870207898E-002
  -1.4618416480250716E-002   3.5744582149828952E-003   6.5198216597030290E-002
  -1.3648886751232499E-002   3.2732497597305829E-003   6.5023975063333295E-002
  -1.2679357022214281E-002   3.0586838448403153E-003   6.5090511269116580E-002
  -2.0738775361139508E-002   5.5973235882599837E-003   6.2320201565589872E-002
  -1.9532269627512745E-002   5.0438076409967947E-003   6.1748466362150228E-002
  -1.8325763893885971E-002   4.5917761046751215E-003   6.1409905428447042E-002
  -1.7119258160259190E-002   4.2412289792950822E-003   6.1304518764480481E-002
  -1.5912752426632430E-002   3.9921662648564893E-003   6.1432306370250656E-002
  -2.4926274715553389E-002   6.7578444299465912E-003   5.8284926901737227E-002
  -2.3490396447061936E-002   6.1253060713965524E-003   5.7812095378095341E-002
  -2.2054518178570473E-002   5.6090939943675283E-003   5.7564834654446201E-002
  -2.0618639910079013E-002   5.2092081988597515E-003   5.7543144730789704E-002
  -1.9182761641587588E-002   4.9256486848727743E-003   5.7747025607126024E-002
  -2.9119974001528652E-002   7.9183652716331154E-003   5.4163208891308025E-002
  -2.7462326667916447E-002   7.2068045017961990E-003   5.3804122918043533E-002
  -2.5804679334304255E-002   6.6264118840601224E-003   5.3663004275027779E-002
  -2.4147032000692056E-002   6.1771874184242247E-003   5.3739852962260914E-002
  -2.2489384667079830E-002   5.8591311048890038E-003   5.4034668979742781E-002
  -3.3319873219065432E-002   9.0788861133196397E-003   4.9955047534302133E-002
  -3.1448060290076352E-002   8.2883029321958457E-003   4.9724548981994521E-002
  -2.9576247361087285E-002   7.6437297737522447E-003   4.9704414290191790E-002
  -2.7704434432098198E-002   7.1451666379889964E-003   4.9894643458893939E-002
  -2.5832621503109138E-002   6.7926135249052333E-003   5.0295236488100969E-002
  -1.2679357022214281E-002   3.0586838448403153E-003   6.5090511269116580E-002
  -1.1642091158741721E-002   2.8785908345890232E-003   6.4748456647776342E-002
  -1.0604825295269179E-002   2.6808010932528048E-003   6.4662533065378724E-002
  -9.5675594317966347E-003   2.4653146208325899E-003   6.4832740521923726E-002
  -8.5302935683240835E-003   2.2321314173275875E-003   6.5259079017411570E-002
  -1.5912752426632430E-002   3.9921662648564893E-003   6.1432306370250656E-002
  -1.4624787504639161E-002   3.7753523463437966E-003   6.1020864182864176E-002
  -1.3336822582645935E-002   3.5215516087419158E-003   6.0854689073576634E-002
  -1.2048857660652664E-002   3.2307640520499482E-003   6.0933781042387794E-002
  -1.0760892738659440E-002   2.9029896762684526E-003   6.1258140089297752E-002
  -1.9182761641587588E-002   4.9256486848727743E-003   5.7747025607126024E-002
  -1.7654961621917584E-002   4.6721138580990973E-003   5.7246905765688541E-002
  -1.6127161602247576E-002   4.3623021242304716E-003   5.6981189041505759E-002
  -1.4599361582577543E-002   3.9962134832672511E-003   5.6949875434577760E-002
  -1.3071561562907563E-002   3.5738479352094843E-003   5.7152964944904738E-002
  -2.2489384667079830E-002   5.8591311048890038E-003   5.4034668979742781E-002
  -2.0732613510577012E-002   5.5688753698540233E-003   5.3426581396249118E-002
  -1.8975842354074162E-002   5.2030526397194160E-003   5.3042032969166132E-002
  -1.7219071197571302E-002   4.7616629144846927E-003   5.2881023698494095E-002
  -1.5462300041068496E-002   4.2447061941505437E-003   5.2943553584232958E-002
  -2.5832621503109138E-002   6.7926135249052333E-003   5.0295236488100969E-002
  -2.3857743170617396E-002   6.4656368816092824E-003   4.9559891074545726E-002
  -2.1882864838125640E-002   6.0438031552081384E-003   4.9037220856557429E-002
  -1.9907986505633878E-002   5.5271123457022453E-003   4.8727225834136134E-002
  -1.7933108173142143E-002   4.9155644530914921E-003   4.8629906007281898E-002
  -8.5302935683240835E-003   2.2321314173275875E-003   6.5259079017411570E-002
  -7.5286081566542859E-003   2.0371456610562833E-003   6.5051657077547786E-002
  -6.5269227449844640E-003   1.9362515303366634E-003   6.5110908007357637E-002
  -5.5252373333146455E-003   1.9294490251693247E-003   6.5436831806840817E-002
  -4.5235519216448444E-003   2.0167381455533651E-003   6.6029428475997465E-002
  -1.0760892738659440E-002   2.9029896762684526E-003   6.1258140089297752E-002
  -9.4930796860142053E-003   2.6053504189954557E-003   6.1065777607652250E-002
  -8.2252666333689876E-003   2.4049682178290399E-003   6.1138997538284223E-002
  -6.9574535807237717E-003   2.3018430727690248E-003   6.1477799881193423E-002
  -5.6896405280785073E-003   2.2959749838152854E-003   6.2082184636380267E-002
  -1.3071561562907563E-002   3.5738479352094843E-003   5.7152964944904738E-002
  -1.1538711326683051E-002   3.1735551769349057E-003   5.6978827352032357E-002
  -1.0005861090458520E-002   2.8736849053213331E-003   5.7069181714041212E-002
  -8.4730108542339973E-003   2.6742371203688428E-003   5.7424028030931371E-002
  -6.9401606180095037E-003   2.5752118220775388E-003   5.8043366302702487E-002
  -1.5462300041068496E-002   4.2447061941505437E-003   5.2943553584232958E-002
  -1.3665503078660796E-002   3.7417599348739949E-003   5.2790806310688040E-002
  -1.1868706116253097E-002   3.3424015928135570E-003   5.2901460534628401E-002
  -1.0071909153845399E-002   3.0466311679687129E-003   5.3275516256053770E-002
  -8.2751121914377002E-003   2.8544486603396813E-003   5.3912973474964258E-002
  -1.7933108173142143E-002   4.9155644530914921E-003   4.8629906007281898E-002
  -1.5873454941947404E-002   4.3099646928135282E-003   4.8501714483619396E-002
  -1.3813801710752679E-002   3.8111182803059473E-003   4.8635834000045841E-002
  -1.1754148479557955E-002   3.4190252155684581E-003   4.9032264556561567E-002
  -9.6944952483632163E-003   3.1336854986017126E-003   4.9691006153165795E-002
  -4.5235519216448444E-003   2.0167381455533651E-003   6.6029428475997465E-002
  -3.9299915950072734E-003   2.2699298798108947E-003   6.4994226310260972E-002
  -3.3364312683696953E-003   2.7608352162632188E-003   6.4090904574419738E-002
  -2.7428709417321191E-003   3.4894541549106081E-003   6.3319463268473347E-002
  -2.1493106150945462E-003   4.4557866957518621E-003   6.2679902392421938E-002
  -5.6896405280785073E-003   2.2959749838152854E-003   6.2082184636380267E-002
  -4.9409992048060312E-003   2.5054092698396091E-003   6.1271282201908306E-002
  -4.1923578815335275E-003   3.0481912497123398E-003   6.0638661330810917E-002
  -3.4437165582610219E-003   3.9243209234336718E-003   6.0184322023088627E-002
  -2.6950752349885164E-003   5.1337982910036883E-003   5.9908264278740964E-002
  -6.9401606180095037E-003   2.5752118220775388E-003   5.8043366302702487E-002
  -5.9900371646222153E-003   2.7408886598681570E-003   5.7552397691148810E-002
  -5.0399137112349278E-003   3.3355472831614746E-003   5.7286111776449697E-002
  -4.0897902578476523E-003   4.3591876919572940E-003   5.7244508558605460E-002
  -3.1396668044603535E-003   5.8118098862556811E-003   5.7427588037615579E-002
  -8.2751121914377002E-003   2.8544486603396813E-003   5.3912973474964258E-002
  -7.0771054744558221E-003   2.9763680498967882E-003   5.3837572777982790E-002
  -5.8790987574738789E-003   3.6229033166106026E-003   5.4033255911335773E-002
  -4.6810920404919878E-003   4.7940544604808590E-003   5.4500022875023486E-002
  -3.4830853235100581E-003   6.4898214815075905E-003   5.5237873669045527E-002
  -9.6944952483632163E-003   3.1336854986017126E-003   4.9691006153165795E-002
  -8.2022041343068203E-003   3.2118474399253638E-003   5.0126807462410494E-002
  -6.7099130202504242E-003   3.9102593500597027E-003   5.0880093735469367E-002
  -5.2176219061940282E-003   5.2289212290041950E-003   5.1950864972342942E-002
  -3.7253307921376322E-003   7.1678330767593890E-003   5.3339121173030635E-002
  -2.1493106150945462E-003   4.4557866957518621E-003   6.2679902392421938E-002
  -2.3842762294952469E-003   5.7476961812634730E-003   5.8578607618767764E-002
  -2.6192418438959267E-003   7.4530459539192406E-003   5.4474339313736519E-002
  -2.8542074582966152E-003   9.5718360137195188E-003   5.0367097477328343E-002
  -3.0891730726973071E-003   1.2104066360663968E-002   4.6256882109543263E-002
  -2.6950752349885164E-003   5.1337982910036883E-003   5.9908264278740964E-002
  -2.9510790200092292E-003   6.7467385677876801E-003   5.6333587122127937E-002
  -3.2070828050299854E-003   8.8332569691510765E-003   5.2719807155651277E-002
  -3.4630865900506713E-003   1.1393353495093718E-002   4.9066924379311427E-002
  -3.7190903750714474E-003   1.4427028145615139E-002   4.5374938793109276E-002
  -3.1396668044603535E-003   5.8118098862556811E-003   5.7427588037615579E-002
  -3.4528380385872720E-003   7.7457809543123313E-003   5.4439666335477893E-002
  -3.7660092727141896E-003   1.0213467984383037E-002   5.1376512544991107E-002
  -4.0791805068411107E-003   1.3214870976467532E-002   4.8238126666154964E-002
  -4.3923517409680292E-003   1.6749989930566311E-002   4.5024508698969457E-002
  -3.4830853235100581E-003   6.4898214815075905E-003   5.5237873669045527E-002
  -3.8895532852292920E-003   8.7448233408367604E-003   5.2896845258818138E-002
  -4.2960212469485394E-003   1.1593678999615047E-002   5.0444455481755884E-002
  -4.7024892086677261E-003   1.5036388457841761E-002   4.7880704337857724E-002
  -5.1089571703869944E-003   1.9072951715517483E-002   4.5205591827124580E-002
  -3.7253307921376322E-003   7.1678330767593890E-003   5.3339121173030635E-002
  -4.2612247599353170E-003   9.7438657273613005E-003   5.1705123892148541E-002
  -4.7971187277330157E-003   1.2973890014846806E-002   4.9923635965945123E-002
  -5.3330126955306936E-003   1.6857905939215760E-002   4.7994657394419910E-002
  -5.8689066633283993E-003   2.1395913500468655E-002   4.5918188177573427E-002
  -3.0867358234808573E-002   1.1552200668020540E-002   1.4614117605561971E-002
  -3.5266232593345020E-002   1.2023630108113803E-002   2.5733515438744525E-002
  -3.9665106951881482E-002   1.2458065787747080E-002   3.5478188737395611E-002
  -4.4063981310417950E-002   1.2855507706920018E-002   4.3848137501515422E-002
  -4.8462855668954405E-002   1.3215955865633067E-002   5.0843361731103820E-002
  -3.2702787187743443E-002   3.5400481498593095E-003   1.0236635041502851E-002
  -3.8208307755718970E-002   8.1471828943428526E-003   1.9289866657973331E-002
  -4.3713828323694470E-002   1.1562517199432548E-002   2.7504530390096760E-002
  -4.9219348891669998E-002   1.3786051065128278E-002   3.4880626237873621E-002
  -5.4724869459645546E-002   1.4817784491430119E-002   4.1418154201303625E-002
  -3.6258063582555726E-002  -4.4721043683020323E-003   1.0572261121301024E-002
  -4.2334073709785730E-002   4.2707356805719021E-003   1.6404519842125528E-002
  -4.8410083837015769E-002   1.0666968611118086E-002   2.1934367328787632E-002
  -5.4486093964245773E-002   1.4716594423336563E-002   2.7161803581287655E-002
  -6.0562104091475763E-002   1.6419613117227227E-002   3.2086828599625417E-002
  -4.1533187419245304E-002  -1.2484256886463346E-002   1.5620995844956367E-002
  -4.7643530455545244E-002   3.9428846680095164E-004   1.7077474991201082E-002
  -5.3753873491845197E-002   9.7714200228035883E-003   1.8767699553468031E-002
  -5.9864216528145206E-002   1.5647137781544695E-002   2.0691669531757453E-002
  -6.5974559564445215E-002   1.8021441743024308E-002   2.2849384926069111E-002
  -4.8528158697812407E-002  -2.0496409404624605E-002   2.5382839212469088E-002
  -5.4136677992997734E-002  -3.4821587469699988E-003   2.1308732105200123E-002
  -5.9745197288183061E-002   8.8758714344890910E-003   1.8004527064138076E-002
  -6.5353716583368388E-002   1.6577681139753025E-002   1.5470224089283030E-002
  -7.0962235878553714E-002   1.9623270368821388E-002   1.3705823180634735E-002
  -4.8462855668954405E-002   1.3215955865633067E-002   5.0843361731103820E-002
  -4.6521366923854141E-002   1.3418482111669627E-002   5.0110792703543572E-002
  -4.4579878178753897E-002   1.3342158292813433E-002   4.9675178474066745E-002
  -4.2638389433653653E-002   1.2986984409064414E-002   4.9536519042673394E-002
  -4.0696900688553389E-002   1.2352960460422890E-002   4.9694814409363408E-002
  -5.4724869459645546E-002   1.4817784491430119E-002   4.1418154201303625E-002
  -5.2465600721915501E-002   1.5080740486925467E-002   4.0818887283594771E-002
  -5.0206331984185448E-002   1.4997942060202121E-002   4.0558225553062127E-002
  -4.7947063246455375E-002   1.4569389211259626E-002   4.0636169009705542E-002
  -4.5687794508725357E-002   1.3795081940098375E-002   4.1052717653525223E-002
  -6.0562104091475763E-002   1.6419613117227227E-002   3.2086828599625417E-002
  -5.7943404972023237E-002   1.6742998862181502E-002   3.1553959434441795E-002
  -5.5324705852570662E-002   1.6653725827590699E-002   3.1401345845527034E-002
  -5.2706006733118135E-002   1.6151794013454894E-002   3.1628987832881192E-002
  -5.0087307613665560E-002   1.5237203419774026E-002   3.2236885396504114E-002
  -6.5974559564445215E-002   1.8021441743024308E-002   2.2849384926069111E-002
  -6.2954779674177438E-002   1.8405257237437384E-002   2.2316009156084570E-002
  -5.9934999783909648E-002   1.8309509594979415E-002   2.2204539351461682E-002
  -5.6915219893641872E-002   1.7734198815650078E-002   2.2514975512200261E-002
  -5.3895440003374144E-002   1.6679324899449621E-002   2.3247317638300603E-002
  -7.0962235878553714E-002   1.9623270368821388E-002   1.3705823180634735E-002
  -6.7499724828377988E-002   2.0067515612693432E-002   1.3105036448523177E-002
  -6.4037213778202304E-002   1.9965293362367992E-002   1.2967806070865867E-002
  -6.0574702728026585E-002   1.9316603617845381E-002   1.3294132047662818E-002
  -5.7112191677850865E-002   1.8121446379125217E-002   1.4084014378914211E-002
  -4.0696900688553389E-002   1.2352960460422890E-002   4.9694814409363408E-002
  -3.8852643821181421E-002   1.1568244077912931E-002   4.9353528317671702E-002
  -3.7008386953809411E-002   1.0760992892558913E-002   4.9283138474597588E-002
  -3.5164130086437415E-002   9.9312069043612991E-003   4.9483644880141037E-002
  -3.3319873219065432E-002   9.0788861133196397E-003   4.9955047534302133E-002
  -4.5687794508725357E-002   1.3795081940098375E-002   4.1052717653525223E-002
  -4.3618215393425100E-002   1.2864233554878618E-002   4.1262306972004753E-002
  -4.1548636278124780E-002   1.1966057363760108E-002   4.1651644537723367E-002
  -3.9479057162824488E-002   1.1100553366743260E-002   4.2220730350680878E-002
  -3.7409478047524203E-002   1.0267721563828158E-002   4.2969564410877514E-002
  -5.0087307613665560E-002   1.5237203419774026E-002   3.2236885396504114E-002
  -4.7883554251815549E-002   1.4160223031844124E-002   3.3052557122100507E-002
  -4.5679800889965566E-002   1.3171121834961205E-002   3.3956829093557281E-002
  -4.3476047528115569E-002   1.2269899829125391E-002   3.4949701310874506E-002
  -4.1272294166265565E-002   1.1456557014336732E-002   3.6031173774052128E-002
  -5.3895440003374144E-002   1.6679324899449621E-002   2.3247317638300603E-002
  -5.1648660396352991E-002   1.5456212508809776E-002   2.4724278767959094E-002
  -4.9401880789331831E-002   1.4376186306162518E-002   2.6198692142099366E-002
  -4.7155101182310616E-002   1.3439246291507547E-002   2.7670557760721658E-002
  -4.4908321575289463E-002   1.2645392464845168E-002   2.9139875623825647E-002
  -5.7112191677850865E-002   1.8121446379125217E-002   1.4084014378914211E-002
  -5.4913533827037148E-002   1.6752201985775345E-002   1.6277471909580565E-002
  -5.2714875976223458E-002   1.5581250777363498E-002   1.8377233683349842E-002
  -5.0516218125409768E-002   1.4608592753889510E-002   2.0383299700222735E-002
  -4.8317560274596050E-002   1.3834227915353881E-002   2.2295669960198661E-002
  -3.3319873219065432E-002   9.0788861133196397E-003   4.9955047534302133E-002
  -3.1448060290076352E-002   8.2883029321958457E-003   4.9724548981994521E-002
  -2.9576247361087285E-002   7.6437297737522447E-003   4.9704414290191790E-002
  -2.7704434432098198E-002   7.1451666379889964E-003   4.9894643458893939E-002
  -2.5832621503109138E-002   6.7926135249052333E-003   5.0295236488100969E-002
  -3.7409478047524203E-002   1.0267721563828158E-002   4.2969564410877514E-002
  -3.5345304551352992E-002   9.5081153235187232E-003   4.3077745751859492E-002
  -3.3281131055181712E-002   8.8622880143189864E-003   4.3360284366700863E-002
  -3.1216957559010480E-002   8.3302396362298081E-003   4.3817180255401697E-002
  -2.9152784062839290E-002   7.9119701892500505E-003   4.4448433417962008E-002
  -4.1272294166265565E-002   1.1456557014336732E-002   3.6031173774052128E-002
  -3.9051766689557663E-002   1.0727927714841323E-002   3.6445803916753672E-002
  -3.6831239212849767E-002   1.0080846254885964E-002   3.6998784746669205E-002
  -3.4610711736141879E-002   9.5153126344706233E-003   3.7690116263798680E-002
  -3.2390184259433970E-002   9.0313268535949787E-003   3.8519798468142019E-002
  -4.4908321575289463E-002   1.2645392464845168E-002   2.9139875623825647E-002
  -4.2567446704690474E-002   1.1947740106164062E-002   2.9828723476676935E-002
  -4.0226571834091340E-002   1.1299404495452657E-002   3.0619915430096453E-002
  -3.7885696963492276E-002   1.0700385632711437E-002   3.1513451484084548E-002
  -3.5544822092893225E-002   1.0150683517939851E-002   3.2509331638641031E-002
  -4.8317560274596050E-002   1.3834227915353881E-002   2.2295669960198661E-002
  -4.5892344596751317E-002   1.3167552497486912E-002   2.3226504431629325E-002
  -4.3467128918906528E-002   1.2517962736019364E-002   2.4223676416982948E-002
  -4.1041913241061795E-002   1.1885458630952448E-002   2.5287185916259516E-002
  -3.8616697563217006E-002   1.1270040182284724E-002   2.6417032929459072E-002
  -2.5832621503109138E-002   6.7926135249052333E-003   5.0295236488100969E-002
  -2.3857743170617396E-002   6.4656368816092824E-003   4.9559891074545726E-002
  -2.1882864838125640E-002   6.0438031552081384E-003   4.9037220856557429E-002
  -1.9907986505633878E-002   5.5271123457022453E-003   4.8727225834136134E-002
  -1.7933108173142143E-002   4.9155644530914921E-003   4.8629906007281898E-002
  -2.9152784062839290E-002   7.9119701892500505E-003   4.4448433417962008E-002
  -2.6975905688746221E-002   7.5083924556992865E-003   4.3695548919897964E-002
  -2.4799027314653166E-002   7.0204192178964231E-003   4.3133989309469545E-002
  -2.2622148940560076E-002   6.4480504758407942E-003   4.2763754586676805E-002
  -2.0445270566467041E-002   5.7912862295331768E-003   4.2584844751519690E-002
  -3.2390184259433970E-002   9.0313268535949787E-003   3.8519798468142019E-002
  -3.0032656151670910E-002   8.5511480297894571E-003   3.7759836464421631E-002
  -2.7675128043907881E-002   7.9970352805842637E-003   3.7169849040405753E-002
  -2.5317599936144880E-002   7.3689886059795096E-003   3.6749836196094315E-002
  -2.2960071828381792E-002   6.6670080059750281E-003   3.6499797931486888E-002
  -3.5544822092893225E-002   1.0150683517939851E-002   3.2509331638641031E-002
  -3.3027994559391455E-002   9.5939036038797665E-003   3.1752753708117150E-002
  -3.0511167025889720E-002   8.9736513432723819E-003   3.1144800049366303E-002
  -2.7994339492388002E-002   8.2899267361181417E-003   3.0685470662388567E-002
  -2.5477511958886218E-002   7.5427297824165740E-003   3.0374765547183533E-002
  -3.8616697563217006E-002   1.1270040182284724E-002   2.6417032929459072E-002
  -3.5961920911907891E-002   1.0636659177969743E-002   2.5674300650984194E-002
  -3.3307144260598776E-002   9.9502674059602780E-003   2.5058842336350917E-002
  -3.0652367609289646E-002   9.2108648662566905E-003   2.4570657985559574E-002
  -2.7997590957980545E-002   8.4184515588585640E-003   2.4209747598609721E-002
  -1.7933108173142143E-002   4.9155644530914921E-003   4.8629906007281898E-002
  -1.5873454941947404E-002   4.3099646928135282E-003   4.8501714483619396E-002
  -1.3813801710752679E-002   3.8111182803059473E-003   4.8635834000045841E-002
  -1.1754148479557955E-002   3.4190252155684581E-003   4.9032264556561567E-002
  -9.6944952483632163E-003   3.1336854986017126E-003   4.9691006153165795E-002
  -2.0445270566467041E-002   5.7912862295331768E-003   4.2584844751519690E-002
  -1.8171935080371154E-002   5.1289486587658417E-003   4.2495386675631353E-002
  -1.5898599594275177E-002   4.5398599433314479E-003   4.2570982069456420E-002
  -1.3625264108179238E-002   4.0240200832295653E-003   4.2811630932995087E-002
  -1.1351928622083313E-002   3.5814290784610403E-003   4.3217333266246938E-002
  -2.2960071828381792E-002   6.6670080059750281E-003   3.6499797931486888E-002
  -2.0570311657760226E-002   5.9479326247181552E-003   3.6415568810935078E-002
  -1.8180551487138603E-002   5.2686016063568653E-003   3.6399135589721382E-002
  -1.5790791316516919E-002   4.6290149508907905E-003   3.6450498267845410E-002
  -1.3401031145895352E-002   4.0291726583201459E-003   3.6569656845307302E-002
  -2.5477511958886218E-002   7.5427297824165740E-003   3.0374765547183533E-002
  -2.3068584674114552E-002   6.7669165906707462E-003   3.0262260889530906E-002
  -2.0659657389342778E-002   5.9973432693822687E-003   3.0120294560840498E-002
  -1.8250730104571088E-002   5.2340098185520677E-003   2.9948866561112560E-002
  -1.5841802819799342E-002   4.4769162381794181E-003   2.9747976890346799E-002
  -2.7997590957980545E-002   8.4184515588585640E-003   2.4209747598609721E-002
  -2.5666754129434199E-002   7.5859005566228932E-003   2.4035462911418559E-002
  -2.3335917300887882E-002   6.7260849324078942E-003   2.3734458982814177E-002
  -2.1005080472341564E-002   5.8390046862130396E-003   2.3306735812796631E-002
  -1.8674243643795219E-002   4.9246598180384682E-003   2.2752293401365864E-002
  -9.6944952483632163E-003   3.1336854986017126E-003   4.9691006153165795E-002
  -8.2022041343068203E-003   3.2118474399253638E-003   5.0126807462410494E-002
  -6.7099130202504242E-003   3.9102593500597027E-003   5.0880093735469367E-002
  -5.2176219061940282E-003   5.2289212290041950E-003   5.1950864972342942E-002
  -3.7253307921376322E-003   7.1678330767593890E-003   5.3339121173030635E-002
  -1.1351928622083313E-002   3.5814290784610403E-003   4.3217333266246938E-002
  -9.5257862497665630E-003   3.4554893747125726E-003   4.3867983577604519E-002
  -7.6996438774498271E-003   3.8896034176716110E-003   4.4868851441668495E-002
  -5.8735015051331052E-003   4.8837712073385095E-003   4.6219936858438990E-002
  -4.0473591328163416E-003   6.4379927437129281E-003   4.7921239827915296E-002
  -1.3401031145895352E-002   4.0291726583201459E-003   3.6569656845307302E-002
  -1.1208304926426375E-002   3.6991313094994760E-003   3.7374959936675139E-002
  -9.0155787069573640E-003   3.8689474852837552E-003   3.8563213169641328E-002
  -6.8228524874883421E-003   4.5386211856727164E-003   4.0134416544205555E-002
  -4.6301262680193203E-003   5.7081524106667447E-003   4.2088570060368063E-002
  -1.5841802819799342E-002   4.4769162381794181E-003   2.9747976890346799E-002
  -1.3249760164286152E-002   3.9427732442865321E-003   3.0647736539622196E-002
  -1.0657717508773073E-002   3.8482915528958370E-003   3.1963178919387630E-002
  -8.0656748532599663E-003   4.1934711640071991E-003   3.3694304029643157E-002
  -5.4736321977468614E-003   4.9783120776207557E-003   3.5841111870388818E-002
  -1.8674243643795219E-002   4.9246598180384682E-003   2.2752293401365864E-002
  -1.5650151963346098E-002   4.1864151790735882E-003   2.3686313386445890E-002
  -1.2626060282896895E-002   3.8276356205079187E-003   2.5068748690907694E-002
  -9.6019686024477191E-003   3.8483211423412655E-003   2.6899599314751693E-002
  -6.5778769219985711E-003   4.2484717445742115E-003   2.9178865257977527E-002
  -3.7253307921376322E-003   7.1678330767593890E-003   5.3339121173030635E-002
  -4.2612247599353170E-003   9.7438657273613005E-003   5.1705123892148541E-002
  -4.7971187277330157E-003   1.2973890014846806E-002   4.9923635965945123E-002
  -5.3330126955306936E-003   1.6857905939215760E-002   4.7994657394419910E-002
  -5.8689066633283993E-003   2.1395913500468655E-002   4.5918188177573427E-002
  -4.0473591328163416E-003   6.4379927437129281E-003   4.7921239827915296E-002
  -4.6278305055299090E-003   8.8637873831621805E-003   4.7047959041077392E-002
  -5.2083018782434765E-003   1.2472674482053775E-002   4.6233014089729518E-002
  -5.7887732509569259E-003   1.7264654040387510E-002   4.5476404973871232E-002
  -6.3692446236705558E-003   2.3239726058163601E-002   4.4778131693502976E-002
  -4.6301262680193203E-003   5.7081524106667447E-003   4.2088570060368063E-002
  -5.0493485648375122E-003   7.9837090389634491E-003   4.2505106590132985E-002
  -5.4685708616555619E-003   1.1971458949260980E-002   4.3185805436198946E-002
  -5.8877931584737451E-003   1.7671402141559264E-002   4.4130666598565425E-002
  -6.3070154552918589E-003   2.5083538615858325E-002   4.5339690077234041E-002
  -5.4736321977468614E-003   4.9783120776207557E-003   3.5841111870388818E-002
  -5.5257789378581872E-003   7.1036306947647454E-003   3.8076566539315092E-002
  -5.5779256779695677E-003   1.1470243416467955E-002   4.0782010005354016E-002
  -5.6300724180808216E-003   1.8078150242730684E-002   4.3957442268504912E-002
  -5.6822191581923295E-003   2.6927351173553160E-002   4.7602863328768785E-002
  -6.5778769219985711E-003   4.2484717445742115E-003   2.9178865257977527E-002
  -6.0571216245918769E-003   6.2235523505655976E-003   3.3762338888623789E-002
  -5.5363663271852104E-003   1.0969027883675236E-002   3.9021627797193814E-002
  -5.0156110297785300E-003   1.8484898343902621E-002   4.4956731983687631E-002
  -4.4948557323718497E-003   2.8771163731247995E-002   5.1567651448105156E-002
  -4.8528158697812407E-002  -2.0496409404624605E-002   2.5382839212469088E-002
  -5.4136677992997734E-002  -3.4821587469699988E-003   2.1308732105200123E-002
  -5.9745197288183061E-002   8.8758714344890910E-003   1.8004527064138076E-002
  -6.5353716583368388E-002   1.6577681139753025E-002   1.5470224089283030E-002
  -7.0962235878553714E-002   1.9623270368821388E-002   1.3705823180634735E-002
  -5.1222234140298195E-002  -2.2405741875605178E-002  -2.9625700637248009E-004
  -5.6813693829108003E-002  -4.5947756822603547E-003   4.2874244750737422E-004
  -6.2405153517917950E-002   8.3330308011606846E-003   4.1795904793140437E-004
  -6.7996613206727757E-002   1.6377677574657669E-002  -3.2860720510072272E-004
  -7.3588072895537704E-002   1.9539164638230883E-002  -1.8109563115889238E-003
  -4.3594670468743643E-002  -2.4315074346585808E-002  -2.5065168072659572E-002
  -5.0674755470841125E-002  -5.7073926175505441E-003  -1.9768001291359069E-002
  -5.7754840472938607E-002   7.7901901678322227E-003  -1.6712302283177785E-002
  -6.4834925475036081E-002   1.6177674009562451E-002  -1.5898071048115459E-002
  -7.1915010477133584E-002   1.9455058907640377E-002  -1.7325307586172137E-002
  -2.5645467683149202E-002  -2.6224406817566437E-002  -4.8923893986391923E-002
  -3.5719862918197114E-002  -6.8200095528407959E-003  -3.9281499111399637E-002
  -4.5794258153245213E-002   7.2473495345037053E-003  -3.3386256929189485E-002
  -5.5868653388293187E-002   1.5977670444467469E-002  -3.1238167439761051E-002
  -6.5943048623341147E-002   1.9370953177049982E-002  -3.2837230643114848E-002
   2.6253742164854543E-003  -2.8133739288547011E-002  -7.1872434747569769E-002
  -1.1949016171176163E-002  -7.9326264881312003E-003  -5.8111751012614232E-002
  -2.6523406558837670E-002   6.7045089011754100E-003  -4.9603904890103606E-002
  -4.1097796946499121E-002   1.5777666879372057E-002  -4.6348896380037898E-002
  -5.5672187334160683E-002   1.9286847446459476E-002  -4.8346725482417419E-002
  -7.0962235878553714E-002   1.9623270368821388E-002   1.3705823180634735E-002
  -6.7499724828377988E-002   2.0067515612693432E-002   1.3105036448523177E-002
  -6.4037213778202304E-002   1.9965293362367992E-002   1.2967806070865867E-002
  -6.0574702728026585E-002   1.9316603617845381E-002   1.3294132047662818E-002
  -5.7112191677850865E-002   1.8121446379125217E-002   1.4084014378914211E-002
  -7.3588072895537704E-002   1.9539164638230883E-002  -1.8109563115889238E-003
  -7.0177354189886923E-002   2.0026539028581494E-002   8.6604112734940675E-004
  -6.6766635484236156E-002   2.0048847782411471E-002   2.9758975227834605E-003
  -6.3355916778585403E-002   1.9606090899720575E-002   4.5186128747133625E-003
  -5.9945198072934608E-002   1.8698268380508865E-002   5.4941871831392097E-003
  -7.1915010477133584E-002   1.9455058907640377E-002  -1.7325307586172137E-002
  -6.9586781513966189E-002   1.9985562444469890E-002  -1.1289124118507653E-002
  -6.7258552550798767E-002   2.0132402202454949E-002  -6.8507790923054805E-003
  -6.4930323587631358E-002   1.9895578181595933E-002  -4.0102725075659984E-003
  -6.2602094624464005E-002   1.9275090381892485E-002  -2.7676043642892584E-003
  -6.5943048623341147E-002   1.9370953177049982E-002  -3.2837230643114848E-002
  -6.5728006800615621E-002   1.9944585860358091E-002  -2.3360459289047578E-002
  -6.5512964977890123E-002   2.0215956622498400E-002  -1.6512223774400821E-002
  -6.5297923155164625E-002   2.0185065463471374E-002  -1.2292524099175537E-002
  -6.5082881332439113E-002   1.9851912383276285E-002  -1.0701360263371068E-002
  -5.5672187334160683E-002   1.9286847446459476E-002  -4.8346725482417419E-002
  -5.8601030049835523E-002   1.9903609276246403E-002  -3.5347964384270070E-002
  -6.1529872765510196E-002   2.0299511042541823E-002  -2.6008436523502862E-002
  -6.4458715481184897E-002   2.0474552745346465E-002  -2.0328141900114626E-002
  -6.7387558196859709E-002   2.0428734384659863E-002  -1.8307080514106344E-002
  -5.7112191677850865E-002   1.8121446379125217E-002   1.4084014378914211E-002
  -5.4913533827037148E-002   1.6752201985775345E-002   1.6277471909580565E-002
  -5.2714875976223458E-002   1.5581250777363498E-002   1.8377233683349842E-002
  -5.0516218125409768E-002   1.4608592753889510E-002   2.0383299700222735E-002
  -4.8317560274596050E-002   1.3834227915353881E-002   2.2295669960198661E-002
  -5.9945198072934608E-002   1.8698268380508865E-002   5.4941871831392097E-003
  -5.7861712793520648E-002   1.7613928438208276E-002   7.9974397304972689E-003
  -5.5778227514106660E-002   1.6641619286250936E-002   1.0364042891952571E-002
  -5.3694742234692706E-002   1.5781340924636809E-002   1.2593996667505179E-002
  -5.1611256955278698E-002   1.5033093353365501E-002   1.4687301057155044E-002
  -6.2602094624464005E-002   1.9275090381892485E-002  -2.7676043642892584E-003
  -6.0676735545455739E-002   1.8475654890641083E-002  -4.0819194834063044E-005
  -5.8751376466447555E-002   1.7701987795138152E-002   2.5063629597125575E-003
  -5.6826017387439316E-002   1.6954089095383665E-002   4.8739420993500100E-003
  -5.4900658308431091E-002   1.6231958791377094E-002   7.0619182240789641E-003
  -6.5082881332439113E-002   1.9851912383276285E-002  -1.0701360263371068E-002
  -6.3358602082842594E-002   1.9337381343074063E-002  -7.8373048664137634E-003
  -6.1634322833246144E-002   1.8762356304025146E-002  -5.1958061133708863E-003
  -5.9910043583649701E-002   1.8126837266130354E-002  -2.7768640042430057E-003
  -5.8185764334053189E-002   1.7430824229388811E-002  -5.8047853902960453E-004
  -6.7387558196859709E-002   2.0428734384659863E-002  -1.8307080514106344E-002
  -6.5907312405681040E-002   2.0199107795506932E-002  -1.5392017284241333E-002
  -6.4427066614502371E-002   1.9822724812912917E-002  -1.2742464327296976E-002
  -6.2946820823323701E-002   1.9299585436877514E-002  -1.0358421643273802E-002
  -6.1466575032145032E-002   1.8629689667400529E-002  -8.2398892321708939E-003
  -4.8317560274596050E-002   1.3834227915353881E-002   2.2295669960198661E-002
  -4.5892344596751317E-002   1.3167552497486912E-002   2.3226504431629325E-002
  -4.3467128918906528E-002   1.2517962736019364E-002   2.4223676416982948E-002
  -4.1041913241061795E-002   1.1885458630952448E-002   2.5287185916259516E-002
  -3.8616697563217006E-002   1.1270040182284724E-002   2.6417032929459072E-002
  -5.1611256955278698E-002   1.5033093353365501E-002   1.4687301057155044E-002
  -4.9070802943005434E-002   1.4337502541219321E-002   1.5676515868774860E-002
  -4.6530348930732122E-002   1.3635194456979291E-002   1.6829869835328692E-002
  -4.3989894918458797E-002   1.2926169100645823E-002   1.8147362956816612E-002
  -4.1449440906185547E-002   1.2210426472218705E-002   1.9628995233238911E-002
  -5.4900658308431091E-002   1.6231958791377094E-002   7.0619182240789641E-003
  -5.2147164320718045E-002   1.5507452584951731E-002   8.0857104473944091E-003
  -4.9393670333004985E-002   1.4752426177938878E-002   9.3714434666550897E-003
  -4.6640176345291988E-002   1.3966879570339584E-002   1.0919117281861051E-002
  -4.3886682357578935E-002   1.3150812762152908E-002   1.2728731893012407E-002
  -5.8185764334053189E-002   1.7430824229388811E-002  -5.8047853902960453E-004
  -5.5121428729889191E-002   1.6677402628684251E-002   4.5408816748775116E-004
  -5.2057093125725179E-002   1.5869657898898524E-002   1.8483973109618291E-003
  -4.8992757521561126E-002   1.5007590040033318E-002   3.6024488913927915E-003
  -4.5928421917397169E-002   1.4091199052087000E-002   5.7162429087798533E-003
  -6.1466575032145032E-002   1.8629689667400529E-002  -8.2398892321708939E-003
  -5.7993596170518913E-002   1.7847352672416883E-002  -7.2183509709446980E-003
  -5.4520617308892627E-002   1.6986889619858447E-002  -5.7392686317504493E-003
  -5.1047638447266397E-002   1.6048300509726734E-002  -3.8026422145886196E-003
  -4.7574659585640222E-002   1.5031585342021092E-002  -1.4084717194591256E-003
  -3.8616697563217006E-002   1.1270040182284724E-002   2.6417032929459072E-002
  -3.5961920911907891E-002   1.0636659177969743E-002   2.5674300650984194E-002
  -3.3307144260598776E-002   9.9502674059602780E-003   2.5058842336350917E-002
  -3.0652367609289646E-002   9.2108648662566905E-003   2.4570657985559574E-002
  -2.7997590957980545E-002   8.4184515588585640E-003   2.4209747598609721E-002
  -4.1449440906185547E-002   1.2210426472218705E-002   1.9628995233238911E-002
  -3.8721740616659339E-002   1.1480978951652898E-002   1.9190562880775253E-002
  -3.5994040327133076E-002   1.0730838918902780E-002   1.8770703840903902E-002
  -3.3266340037606847E-002   9.9600063739685926E-003   1.8369418113625302E-002
  -3.0538639748080604E-002   9.1684813168504409E-003   1.7986705698938898E-002
  -4.3886682357578935E-002   1.3150812762152908E-002   1.2728731893012407E-002
  -4.1194759081084845E-002   1.2325298725335887E-002   1.2626917722070446E-002
  -3.8502835804590789E-002   1.1511410431844948E-002   1.2434976212471471E-002
  -3.5810912528096678E-002   1.0709147881680384E-002   1.2152907364215648E-002
  -3.3118989251602643E-002   9.9185110748423178E-003   1.1780711177303338E-002
  -4.5928421917397169E-002   1.4091199052087000E-002   5.7162429087798533E-003
  -4.3380976305184463E-002   1.3169618499018793E-002   5.9833651748695815E-003
  -4.0833530692971812E-002   1.2291981944787506E-002   6.0516594510531783E-003
  -3.8286085080759154E-002   1.1458289389392619E-002   5.9211257373308623E-003
  -3.5738639468546447E-002   1.0668540832834084E-002   5.5917640337026786E-003
  -4.7574659585640222E-002   1.5031585342021092E-002  -1.4084717194591256E-003
  -4.5280392288958193E-002   1.4013938272702031E-002  -7.4009476082698145E-004
  -4.2986124992276220E-002   1.3072553457729841E-002  -3.7924644335024515E-004
  -4.0691857695594191E-002   1.2207430897104243E-002  -3.2592676702873635E-004
  -3.8397590398912218E-002   1.1418570590826294E-002  -5.8013573186277423E-004
  -2.7997590957980545E-002   8.4184515588585640E-003   2.4209747598609721E-002
  -2.5666754129434199E-002   7.5859005566228932E-003   2.4035462911418559E-002
  -2.3335917300887882E-002   6.7260849324078942E-003   2.3734458982814177E-002
  -2.1005080472341564E-002   5.8390046862130396E-003   2.3306735812796631E-002
  -1.8674243643795219E-002   4.9246598180384682E-003   2.2752293401365864E-002
  -3.0538639748080604E-002   9.1684813168504409E-003   1.7986705698938898E-002
  -2.8315868042735517E-002   8.3725015247180234E-003   1.7784033626625839E-002
  -2.6093096337390306E-002   7.5883047747406784E-003   1.7491950549323620E-002
  -2.3870324632045151E-002   6.8158910669198700E-003   1.7110456467032145E-002
  -2.1647552926700009E-002   6.0552604012541478E-003   1.6639551379751705E-002
  -3.3118989251602643E-002   9.9185110748423178E-003   1.1780711177303338E-002
  -3.0966974433034589E-002   9.1591024928126541E-003   1.1588699384003531E-002
  -2.8814959614466597E-002   8.4505246170739068E-003   1.1344584822138862E-002
  -2.6662944795898577E-002   7.7927774476267003E-003   1.1048367491709100E-002
  -2.4510929977330551E-002   7.1858609844701049E-003   1.0700047392714018E-002
  -3.5738639468546447E-002   1.0668540832834084E-002   5.5917640337026786E-003
  -3.3620073300331593E-002   9.9457034609075345E-003   5.4494601835520171E-003
  -3.1501507132116656E-002   9.3127444594071351E-003   5.2923618012601092E-003
  -2.9382940963901798E-002   8.7696638283331976E-003   5.1204688868273472E-003
  -2.7264374795686865E-002   8.3164615676860343E-003   4.9337814402536304E-003
  -3.8397590398912218E-002   1.1418570590826294E-002  -5.8013573186277423E-004
  -3.6275164644626434E-002   1.0732304429002193E-002  -6.3368397472907123E-004
  -3.4152738890340650E-002   1.0174964301740141E-002  -6.6471851331234566E-004
  -3.2030313136054839E-002   9.7465502090401945E-003  -6.7323934761297222E-004
  -2.9907887381769083E-002   9.4470621509019637E-003  -6.5924647763060396E-004
  -1.8674243643795219E-002   4.9246598180384682E-003   2.2752293401365864E-002
  -1.5650151963346098E-002   4.1864151790735882E-003   2.3686313386445890E-002
  -1.2626060282896895E-002   3.8276356205079187E-003   2.5068748690907694E-002
  -9.6019686024477191E-003   3.8483211423412655E-003   2.6899599314751693E-002
  -6.5778769219985711E-003   4.2484717445742115E-003   2.9178865257977527E-002
  -2.1647552926700009E-002   6.0552604012541478E-003   1.6639551379751705E-002
  -1.8441583903017728E-002   5.3917619157834440E-003   1.7697938820273096E-002
  -1.5235614879335516E-002   4.9107447485453315E-003   1.8671665627878642E-002
  -1.2029645855653325E-002   4.6122088995408581E-003   1.9560731802568315E-002
  -8.8236768319710224E-003   4.4961543687693784E-003   2.0365137344342088E-002
  -2.4510929977330551E-002   7.1858609844701049E-003   1.0700047392714018E-002
  -2.1656159562713058E-002   6.5971086524930778E-003   1.1685818526510960E-002
  -1.8801389148095565E-002   5.9938538765827443E-003   1.2053853075094281E-002
  -1.5946618733478080E-002   5.3760966567402285E-003   1.1804151038463939E-002
  -1.3091848318860580E-002   4.7438369929642676E-003   1.0936712416619948E-002
  -2.7264374795686865E-002   8.3164615676860343E-003   4.9337814402536304E-003
  -2.5293878942431958E-002   7.8024553892026560E-003   5.6499525051596708E-003
  -2.3323383089177047E-002   7.0769630046203791E-003   5.2153110325550214E-003
  -2.1352887235922116E-002   6.1399844139391549E-003   3.6298570224379476E-003
  -1.9382391382667234E-002   4.9915196171590737E-003   8.9359047480998960E-004
  -2.9907887381769083E-002   9.4470621509019637E-003  -6.5924647763060396E-004
  -2.9354742042174475E-002   9.0078021259127894E-003  -4.0965924378061347E-004
  -2.8801596702579924E-002   8.1600721326576253E-003  -1.8439604997401438E-003
  -2.8248451362985344E-002   6.9038721711390388E-003  -4.9621502455090352E-003
  -2.7695306023390764E-002   5.2392022413545458E-003  -9.7642284810872670E-003
  -6.5778769219985711E-003   4.2484717445742115E-003   2.9178865257977527E-002
  -6.0571216245918769E-003   6.2235523505655976E-003   3.3762338888623789E-002
  -5.5363663271852104E-003   1.0969027883675236E-002   3.9021627797193814E-002
  -5.0156110297785300E-003   1.8484898343902621E-002   4.4956731983687631E-002
  -4.4948557323718497E-003   2.8771163731247995E-002   5.1567651448105156E-002
  -8.8236768319710224E-003   4.4961543687693784E-003   2.0365137344342088E-002
  -7.5540235178147425E-003   5.7122544987797674E-003   2.5625433602121606E-002
  -6.2843702036585875E-003   9.4101826321204562E-003   3.1707710615476559E-002
  -5.0147168895023561E-003   1.5589938768792555E-002   3.8611968384407086E-002
  -3.7450635753460415E-003   2.4251522908794954E-002   4.6338206908912882E-002
  -1.3091848318860580E-002   4.7438369929642676E-003   1.0936712416619948E-002
  -1.0927131510302987E-002   5.2009566469939372E-003   1.6585264377745101E-002
  -8.7624147017454010E-003   7.8513373805662451E-003   2.3201962572097348E-002
  -6.5976978931877560E-003   1.2694979193682492E-002   3.0786806999676973E-002
  -4.4329810846301110E-003   1.9731882086341912E-002   3.9339797660484233E-002
  -1.9382391382667234E-002   4.9915196171590737E-003   8.9359047480998960E-004
  -1.6176445602056510E-002   4.6896587952073299E-003   6.6418312154938181E-003
  -1.2970499821445844E-002   6.2924921290123045E-003   1.3504383667056429E-002
  -9.7645540408351772E-003   9.8000196185727608E-003   2.1481247829498347E-002
  -6.5586082602244536E-003   1.5212241263888870E-002   3.0572423702818707E-002
  -2.7695306023390764E-002   5.2392022413545458E-003  -9.7642284810872670E-003
  -2.3301965793075308E-002   4.1783609434218327E-003  -4.2048658846320919E-003
  -1.8908625562759795E-002   4.7336468774573093E-003   2.6149739003531458E-003
  -1.4515285332444200E-002   6.9050600434623771E-003   1.0695290873869889E-002
  -1.0121945102128826E-002   1.0692600441435829E-002   2.0036085035916473E-002
 </DataArray>
 </PointData>
 </Piece>
 </UnstructuredGrid>
 </VTKFile>
