 <VTKFile type="UnstructuredGrid"  version="0.1"   >
 <UnstructuredGrid>
 <Piece  NumberOfPoints="          1600 "  NumberOfCells="         1024 ">
 <Points>
 <DataArray  type="Float64" NumberOfComponents="3"  format="ascii" >
   0.0000000000000000        0.0000000000000000        0.0000000000000000     
   3.1250000000000000E-002   0.0000000000000000        0.0000000000000000     
   6.2500000000000000E-002   0.0000000000000000        0.0000000000000000     
   9.3750000000000000E-002   0.0000000000000000        0.0000000000000000     
  0.12500000000000000        0.0000000000000000        0.0000000000000000     
   0.0000000000000000        3.1250000000000000E-002   0.0000000000000000     
   3.1250000000000000E-002   3.1250000000000000E-002   0.0000000000000000     
   6.2500000000000000E-002   3.1250000000000000E-002   0.0000000000000000     
   9.3750000000000000E-002   3.1250000000000000E-002   0.0000000000000000     
  0.12500000000000000        3.1250000000000000E-002   0.0000000000000000     
   0.0000000000000000        6.2500000000000000E-002   0.0000000000000000     
   3.1250000000000000E-002   6.2500000000000000E-002   0.0000000000000000     
   6.2500000000000000E-002   6.2500000000000000E-002   0.0000000000000000     
   9.3750000000000000E-002   6.2500000000000000E-002   0.0000000000000000     
  0.12500000000000000        6.2500000000000000E-002   0.0000000000000000     
   0.0000000000000000        9.3750000000000000E-002   0.0000000000000000     
   3.1250000000000000E-002   9.3750000000000000E-002   0.0000000000000000     
   6.2500000000000000E-002   9.3750000000000000E-002   0.0000000000000000     
   9.3750000000000000E-002   9.3750000000000000E-002   0.0000000000000000     
  0.12500000000000000        9.3750000000000000E-002   0.0000000000000000     
   0.0000000000000000       0.12500000000000000        0.0000000000000000     
   3.1250000000000000E-002  0.12500000000000000        0.0000000000000000     
   6.2500000000000000E-002  0.12500000000000000        0.0000000000000000     
   9.3750000000000000E-002  0.12500000000000000        0.0000000000000000     
  0.12500000000000000       0.12500000000000000        0.0000000000000000     
  0.12500000000000000        0.0000000000000000        0.0000000000000000     
  0.15625000000000000        0.0000000000000000        0.0000000000000000     
  0.18750000000000000        0.0000000000000000        0.0000000000000000     
  0.21875000000000000        0.0000000000000000        0.0000000000000000     
  0.25000000000000000        0.0000000000000000        0.0000000000000000     
  0.12500000000000000        3.1250000000000000E-002   0.0000000000000000     
  0.15625000000000000        3.1250000000000000E-002   0.0000000000000000     
  0.18750000000000000        3.1250000000000000E-002   0.0000000000000000     
  0.21875000000000000        3.1250000000000000E-002   0.0000000000000000     
  0.25000000000000000        3.1250000000000000E-002   0.0000000000000000     
  0.12500000000000000        6.2500000000000000E-002   0.0000000000000000     
  0.15625000000000000        6.2500000000000000E-002   0.0000000000000000     
  0.18750000000000000        6.2500000000000000E-002   0.0000000000000000     
  0.21875000000000000        6.2500000000000000E-002   0.0000000000000000     
  0.25000000000000000        6.2500000000000000E-002   0.0000000000000000     
  0.12500000000000000        9.3750000000000000E-002   0.0000000000000000     
  0.15625000000000000        9.3750000000000000E-002   0.0000000000000000     
  0.18750000000000000        9.3750000000000000E-002   0.0000000000000000     
  0.21875000000000000        9.3750000000000000E-002   0.0000000000000000     
  0.25000000000000000        9.3750000000000000E-002   0.0000000000000000     
  0.12500000000000000       0.12500000000000000        0.0000000000000000     
  0.15625000000000000       0.12500000000000000        0.0000000000000000     
  0.18750000000000000       0.12500000000000000        0.0000000000000000     
  0.21875000000000000       0.12500000000000000        0.0000000000000000     
  0.25000000000000000       0.12500000000000000        0.0000000000000000     
  0.25000000000000000        0.0000000000000000        0.0000000000000000     
  0.28125000000000000        0.0000000000000000        0.0000000000000000     
  0.31250000000000000        0.0000000000000000        0.0000000000000000     
  0.34375000000000000        0.0000000000000000        0.0000000000000000     
  0.37500000000000000        0.0000000000000000        0.0000000000000000     
  0.25000000000000000        3.1250000000000000E-002   0.0000000000000000     
  0.28125000000000000        3.1250000000000000E-002   0.0000000000000000     
  0.31250000000000000        3.1250000000000000E-002   0.0000000000000000     
  0.34375000000000000        3.1250000000000000E-002   0.0000000000000000     
  0.37500000000000000        3.1250000000000000E-002   0.0000000000000000     
  0.25000000000000000        6.2500000000000000E-002   0.0000000000000000     
  0.28125000000000000        6.2500000000000000E-002   0.0000000000000000     
  0.31250000000000000        6.2500000000000000E-002   0.0000000000000000     
  0.34375000000000000        6.2500000000000000E-002   0.0000000000000000     
  0.37500000000000000        6.2500000000000000E-002   0.0000000000000000     
  0.25000000000000000        9.3750000000000000E-002   0.0000000000000000     
  0.28125000000000000        9.3750000000000000E-002   0.0000000000000000     
  0.31250000000000000        9.3750000000000000E-002   0.0000000000000000     
  0.34375000000000000        9.3750000000000000E-002   0.0000000000000000     
  0.37500000000000000        9.3750000000000000E-002   0.0000000000000000     
  0.25000000000000000       0.12500000000000000        0.0000000000000000     
  0.28125000000000000       0.12500000000000000        0.0000000000000000     
  0.31250000000000000       0.12500000000000000        0.0000000000000000     
  0.34375000000000000       0.12500000000000000        0.0000000000000000     
  0.37500000000000000       0.12500000000000000        0.0000000000000000     
  0.37500000000000000        0.0000000000000000        0.0000000000000000     
  0.40625000000000000        0.0000000000000000        0.0000000000000000     
  0.43750000000000000        0.0000000000000000        0.0000000000000000     
  0.46875000000000000        0.0000000000000000        0.0000000000000000     
  0.50000000000000000        0.0000000000000000        0.0000000000000000     
  0.37500000000000000        3.1250000000000000E-002   0.0000000000000000     
  0.40625000000000000        3.1250000000000000E-002   0.0000000000000000     
  0.43750000000000000        3.1250000000000000E-002   0.0000000000000000     
  0.46875000000000000        3.1250000000000000E-002   0.0000000000000000     
  0.50000000000000000        3.1250000000000000E-002   0.0000000000000000     
  0.37500000000000000        6.2500000000000000E-002   0.0000000000000000     
  0.40625000000000000        6.2500000000000000E-002   0.0000000000000000     
  0.43750000000000000        6.2500000000000000E-002   0.0000000000000000     
  0.46875000000000000        6.2500000000000000E-002   0.0000000000000000     
  0.50000000000000000        6.2500000000000000E-002   0.0000000000000000     
  0.37500000000000000        9.3750000000000000E-002   0.0000000000000000     
  0.40625000000000000        9.3750000000000000E-002   0.0000000000000000     
  0.43750000000000000        9.3750000000000000E-002   0.0000000000000000     
  0.46875000000000000        9.3750000000000000E-002   0.0000000000000000     
  0.50000000000000000        9.3750000000000000E-002   0.0000000000000000     
  0.37500000000000000       0.12500000000000000        0.0000000000000000     
  0.40625000000000000       0.12500000000000000        0.0000000000000000     
  0.43750000000000000       0.12500000000000000        0.0000000000000000     
  0.46875000000000000       0.12500000000000000        0.0000000000000000     
  0.50000000000000000       0.12500000000000000        0.0000000000000000     
  0.50000000000000000        0.0000000000000000        0.0000000000000000     
  0.53125000000000000        0.0000000000000000        0.0000000000000000     
  0.56250000000000000        0.0000000000000000        0.0000000000000000     
  0.59375000000000000        0.0000000000000000        0.0000000000000000     
  0.62500000000000000        0.0000000000000000        0.0000000000000000     
  0.50000000000000000        3.1250000000000000E-002   0.0000000000000000     
  0.53125000000000000        3.1250000000000000E-002   0.0000000000000000     
  0.56250000000000000        3.1250000000000000E-002   0.0000000000000000     
  0.59375000000000000        3.1250000000000000E-002   0.0000000000000000     
  0.62500000000000000        3.1250000000000000E-002   0.0000000000000000     
  0.50000000000000000        6.2500000000000000E-002   0.0000000000000000     
  0.53125000000000000        6.2500000000000000E-002   0.0000000000000000     
  0.56250000000000000        6.2500000000000000E-002   0.0000000000000000     
  0.59375000000000000        6.2500000000000000E-002   0.0000000000000000     
  0.62500000000000000        6.2500000000000000E-002   0.0000000000000000     
  0.50000000000000000        9.3750000000000000E-002   0.0000000000000000     
  0.53125000000000000        9.3750000000000000E-002   0.0000000000000000     
  0.56250000000000000        9.3750000000000000E-002   0.0000000000000000     
  0.59375000000000000        9.3750000000000000E-002   0.0000000000000000     
  0.62500000000000000        9.3750000000000000E-002   0.0000000000000000     
  0.50000000000000000       0.12500000000000000        0.0000000000000000     
  0.53125000000000000       0.12500000000000000        0.0000000000000000     
  0.56250000000000000       0.12500000000000000        0.0000000000000000     
  0.59375000000000000       0.12500000000000000        0.0000000000000000     
  0.62500000000000000       0.12500000000000000        0.0000000000000000     
  0.62500000000000000        0.0000000000000000        0.0000000000000000     
  0.65625000000000000        0.0000000000000000        0.0000000000000000     
  0.68750000000000000        0.0000000000000000        0.0000000000000000     
  0.71875000000000000        0.0000000000000000        0.0000000000000000     
  0.75000000000000000        0.0000000000000000        0.0000000000000000     
  0.62500000000000000        3.1250000000000000E-002   0.0000000000000000     
  0.65625000000000000        3.1250000000000000E-002   0.0000000000000000     
  0.68750000000000000        3.1250000000000000E-002   0.0000000000000000     
  0.71875000000000000        3.1250000000000000E-002   0.0000000000000000     
  0.75000000000000000        3.1250000000000000E-002   0.0000000000000000     
  0.62500000000000000        6.2500000000000000E-002   0.0000000000000000     
  0.65625000000000000        6.2500000000000000E-002   0.0000000000000000     
  0.68750000000000000        6.2500000000000000E-002   0.0000000000000000     
  0.71875000000000000        6.2500000000000000E-002   0.0000000000000000     
  0.75000000000000000        6.2500000000000000E-002   0.0000000000000000     
  0.62500000000000000        9.3750000000000000E-002   0.0000000000000000     
  0.65625000000000000        9.3750000000000000E-002   0.0000000000000000     
  0.68750000000000000        9.3750000000000000E-002   0.0000000000000000     
  0.71875000000000000        9.3750000000000000E-002   0.0000000000000000     
  0.75000000000000000        9.3750000000000000E-002   0.0000000000000000     
  0.62500000000000000       0.12500000000000000        0.0000000000000000     
  0.65625000000000000       0.12500000000000000        0.0000000000000000     
  0.68750000000000000       0.12500000000000000        0.0000000000000000     
  0.71875000000000000       0.12500000000000000        0.0000000000000000     
  0.75000000000000000       0.12500000000000000        0.0000000000000000     
  0.75000000000000000        0.0000000000000000        0.0000000000000000     
  0.78125000000000000        0.0000000000000000        0.0000000000000000     
  0.81250000000000000        0.0000000000000000        0.0000000000000000     
  0.84375000000000000        0.0000000000000000        0.0000000000000000     
  0.87500000000000000        0.0000000000000000        0.0000000000000000     
  0.75000000000000000        3.1250000000000000E-002   0.0000000000000000     
  0.78125000000000000        3.1250000000000000E-002   0.0000000000000000     
  0.81250000000000000        3.1250000000000000E-002   0.0000000000000000     
  0.84375000000000000        3.1250000000000000E-002   0.0000000000000000     
  0.87500000000000000        3.1250000000000000E-002   0.0000000000000000     
  0.75000000000000000        6.2500000000000000E-002   0.0000000000000000     
  0.78125000000000000        6.2500000000000000E-002   0.0000000000000000     
  0.81250000000000000        6.2500000000000000E-002   0.0000000000000000     
  0.84375000000000000        6.2500000000000000E-002   0.0000000000000000     
  0.87500000000000000        6.2500000000000000E-002   0.0000000000000000     
  0.75000000000000000        9.3750000000000000E-002   0.0000000000000000     
  0.78125000000000000        9.3750000000000000E-002   0.0000000000000000     
  0.81250000000000000        9.3750000000000000E-002   0.0000000000000000     
  0.84375000000000000        9.3750000000000000E-002   0.0000000000000000     
  0.87500000000000000        9.3750000000000000E-002   0.0000000000000000     
  0.75000000000000000       0.12500000000000000        0.0000000000000000     
  0.78125000000000000       0.12500000000000000        0.0000000000000000     
  0.81250000000000000       0.12500000000000000        0.0000000000000000     
  0.84375000000000000       0.12500000000000000        0.0000000000000000     
  0.87500000000000000       0.12500000000000000        0.0000000000000000     
  0.87500000000000000        0.0000000000000000        0.0000000000000000     
  0.90625000000000000        0.0000000000000000        0.0000000000000000     
  0.93750000000000000        0.0000000000000000        0.0000000000000000     
  0.96875000000000000        0.0000000000000000        0.0000000000000000     
   1.0000000000000000        0.0000000000000000        0.0000000000000000     
  0.87500000000000000        3.1250000000000000E-002   0.0000000000000000     
  0.90625000000000000        3.1250000000000000E-002   0.0000000000000000     
  0.93750000000000000        3.1250000000000000E-002   0.0000000000000000     
  0.96875000000000000        3.1250000000000000E-002   0.0000000000000000     
   1.0000000000000000        3.1250000000000000E-002   0.0000000000000000     
  0.87500000000000000        6.2500000000000000E-002   0.0000000000000000     
  0.90625000000000000        6.2500000000000000E-002   0.0000000000000000     
  0.93750000000000000        6.2500000000000000E-002   0.0000000000000000     
  0.96875000000000000        6.2500000000000000E-002   0.0000000000000000     
   1.0000000000000000        6.2500000000000000E-002   0.0000000000000000     
  0.87500000000000000        9.3750000000000000E-002   0.0000000000000000     
  0.90625000000000000        9.3750000000000000E-002   0.0000000000000000     
  0.93750000000000000        9.3750000000000000E-002   0.0000000000000000     
  0.96875000000000000        9.3750000000000000E-002   0.0000000000000000     
   1.0000000000000000        9.3750000000000000E-002   0.0000000000000000     
  0.87500000000000000       0.12500000000000000        0.0000000000000000     
  0.90625000000000000       0.12500000000000000        0.0000000000000000     
  0.93750000000000000       0.12500000000000000        0.0000000000000000     
  0.96875000000000000       0.12500000000000000        0.0000000000000000     
   1.0000000000000000       0.12500000000000000        0.0000000000000000     
   0.0000000000000000       0.12500000000000000        0.0000000000000000     
   3.1250000000000000E-002  0.12500000000000000        0.0000000000000000     
   6.2500000000000000E-002  0.12500000000000000        0.0000000000000000     
   9.3750000000000000E-002  0.12500000000000000        0.0000000000000000     
  0.12500000000000000       0.12500000000000000        0.0000000000000000     
   0.0000000000000000       0.15625000000000000        0.0000000000000000     
   3.1250000000000000E-002  0.15625000000000000        0.0000000000000000     
   6.2500000000000000E-002  0.15625000000000000        0.0000000000000000     
   9.3750000000000000E-002  0.15625000000000000        0.0000000000000000     
  0.12500000000000000       0.15625000000000000        0.0000000000000000     
   0.0000000000000000       0.18750000000000000        0.0000000000000000     
   3.1250000000000000E-002  0.18750000000000000        0.0000000000000000     
   6.2500000000000000E-002  0.18750000000000000        0.0000000000000000     
   9.3750000000000000E-002  0.18750000000000000        0.0000000000000000     
  0.12500000000000000       0.18750000000000000        0.0000000000000000     
   0.0000000000000000       0.21875000000000000        0.0000000000000000     
   3.1250000000000000E-002  0.21875000000000000        0.0000000000000000     
   6.2500000000000000E-002  0.21875000000000000        0.0000000000000000     
   9.3750000000000000E-002  0.21875000000000000        0.0000000000000000     
  0.12500000000000000       0.21875000000000000        0.0000000000000000     
   0.0000000000000000       0.25000000000000000        0.0000000000000000     
   3.1250000000000000E-002  0.25000000000000000        0.0000000000000000     
   6.2500000000000000E-002  0.25000000000000000        0.0000000000000000     
   9.3750000000000000E-002  0.25000000000000000        0.0000000000000000     
  0.12500000000000000       0.25000000000000000        0.0000000000000000     
  0.12500000000000000       0.12500000000000000        0.0000000000000000     
  0.15625000000000000       0.12500000000000000        0.0000000000000000     
  0.18750000000000000       0.12500000000000000        0.0000000000000000     
  0.21875000000000000       0.12500000000000000        0.0000000000000000     
  0.25000000000000000       0.12500000000000000        0.0000000000000000     
  0.12500000000000000       0.15625000000000000        0.0000000000000000     
  0.15625000000000000       0.15625000000000000        0.0000000000000000     
  0.18750000000000000       0.15625000000000000        0.0000000000000000     
  0.21875000000000000       0.15625000000000000        0.0000000000000000     
  0.25000000000000000       0.15625000000000000        0.0000000000000000     
  0.12500000000000000       0.18750000000000000        0.0000000000000000     
  0.15625000000000000       0.18750000000000000        0.0000000000000000     
  0.18750000000000000       0.18750000000000000        0.0000000000000000     
  0.21875000000000000       0.18750000000000000        0.0000000000000000     
  0.25000000000000000       0.18750000000000000        0.0000000000000000     
  0.12500000000000000       0.21875000000000000        0.0000000000000000     
  0.15625000000000000       0.21875000000000000        0.0000000000000000     
  0.18750000000000000       0.21875000000000000        0.0000000000000000     
  0.21875000000000000       0.21875000000000000        0.0000000000000000     
  0.25000000000000000       0.21875000000000000        0.0000000000000000     
  0.12500000000000000       0.25000000000000000        0.0000000000000000     
  0.15625000000000000       0.25000000000000000        0.0000000000000000     
  0.18750000000000000       0.25000000000000000        0.0000000000000000     
  0.21875000000000000       0.25000000000000000        0.0000000000000000     
  0.25000000000000000       0.25000000000000000        0.0000000000000000     
  0.25000000000000000       0.12500000000000000        0.0000000000000000     
  0.28125000000000000       0.12500000000000000        0.0000000000000000     
  0.31250000000000000       0.12500000000000000        0.0000000000000000     
  0.34375000000000000       0.12500000000000000        0.0000000000000000     
  0.37500000000000000       0.12500000000000000        0.0000000000000000     
  0.25000000000000000       0.15625000000000000        0.0000000000000000     
  0.28125000000000000       0.15625000000000000        0.0000000000000000     
  0.31250000000000000       0.15625000000000000        0.0000000000000000     
  0.34375000000000000       0.15625000000000000        0.0000000000000000     
  0.37500000000000000       0.15625000000000000        0.0000000000000000     
  0.25000000000000000       0.18750000000000000        0.0000000000000000     
  0.28125000000000000       0.18750000000000000        0.0000000000000000     
  0.31250000000000000       0.18750000000000000        0.0000000000000000     
  0.34375000000000000       0.18750000000000000        0.0000000000000000     
  0.37500000000000000       0.18750000000000000        0.0000000000000000     
  0.25000000000000000       0.21875000000000000        0.0000000000000000     
  0.28125000000000000       0.21875000000000000        0.0000000000000000     
  0.31250000000000000       0.21875000000000000        0.0000000000000000     
  0.34375000000000000       0.21875000000000000        0.0000000000000000     
  0.37500000000000000       0.21875000000000000        0.0000000000000000     
  0.25000000000000000       0.25000000000000000        0.0000000000000000     
  0.28125000000000000       0.25000000000000000        0.0000000000000000     
  0.31250000000000000       0.25000000000000000        0.0000000000000000     
  0.34375000000000000       0.25000000000000000        0.0000000000000000     
  0.37500000000000000       0.25000000000000000        0.0000000000000000     
  0.37500000000000000       0.12500000000000000        0.0000000000000000     
  0.40625000000000000       0.12500000000000000        0.0000000000000000     
  0.43750000000000000       0.12500000000000000        0.0000000000000000     
  0.46875000000000000       0.12500000000000000        0.0000000000000000     
  0.50000000000000000       0.12500000000000000        0.0000000000000000     
  0.37500000000000000       0.15625000000000000        0.0000000000000000     
  0.40625000000000000       0.15625000000000000        0.0000000000000000     
  0.43750000000000000       0.15625000000000000        0.0000000000000000     
  0.46875000000000000       0.15625000000000000        0.0000000000000000     
  0.50000000000000000       0.15625000000000000        0.0000000000000000     
  0.37500000000000000       0.18750000000000000        0.0000000000000000     
  0.40625000000000000       0.18750000000000000        0.0000000000000000     
  0.43750000000000000       0.18750000000000000        0.0000000000000000     
  0.46875000000000000       0.18750000000000000        0.0000000000000000     
  0.50000000000000000       0.18750000000000000        0.0000000000000000     
  0.37500000000000000       0.21875000000000000        0.0000000000000000     
  0.40625000000000000       0.21875000000000000        0.0000000000000000     
  0.43750000000000000       0.21875000000000000        0.0000000000000000     
  0.46875000000000000       0.21875000000000000        0.0000000000000000     
  0.50000000000000000       0.21875000000000000        0.0000000000000000     
  0.37500000000000000       0.25000000000000000        0.0000000000000000     
  0.40625000000000000       0.25000000000000000        0.0000000000000000     
  0.43750000000000000       0.25000000000000000        0.0000000000000000     
  0.46875000000000000       0.25000000000000000        0.0000000000000000     
  0.50000000000000000       0.25000000000000000        0.0000000000000000     
  0.50000000000000000       0.12500000000000000        0.0000000000000000     
  0.53125000000000000       0.12500000000000000        0.0000000000000000     
  0.56250000000000000       0.12500000000000000        0.0000000000000000     
  0.59375000000000000       0.12500000000000000        0.0000000000000000     
  0.62500000000000000       0.12500000000000000        0.0000000000000000     
  0.50000000000000000       0.15625000000000000        0.0000000000000000     
  0.53125000000000000       0.15625000000000000        0.0000000000000000     
  0.56250000000000000       0.15625000000000000        0.0000000000000000     
  0.59375000000000000       0.15625000000000000        0.0000000000000000     
  0.62500000000000000       0.15625000000000000        0.0000000000000000     
  0.50000000000000000       0.18750000000000000        0.0000000000000000     
  0.53125000000000000       0.18750000000000000        0.0000000000000000     
  0.56250000000000000       0.18750000000000000        0.0000000000000000     
  0.59375000000000000       0.18750000000000000        0.0000000000000000     
  0.62500000000000000       0.18750000000000000        0.0000000000000000     
  0.50000000000000000       0.21875000000000000        0.0000000000000000     
  0.53125000000000000       0.21875000000000000        0.0000000000000000     
  0.56250000000000000       0.21875000000000000        0.0000000000000000     
  0.59375000000000000       0.21875000000000000        0.0000000000000000     
  0.62500000000000000       0.21875000000000000        0.0000000000000000     
  0.50000000000000000       0.25000000000000000        0.0000000000000000     
  0.53125000000000000       0.25000000000000000        0.0000000000000000     
  0.56250000000000000       0.25000000000000000        0.0000000000000000     
  0.59375000000000000       0.25000000000000000        0.0000000000000000     
  0.62500000000000000       0.25000000000000000        0.0000000000000000     
  0.62500000000000000       0.12500000000000000        0.0000000000000000     
  0.65625000000000000       0.12500000000000000        0.0000000000000000     
  0.68750000000000000       0.12500000000000000        0.0000000000000000     
  0.71875000000000000       0.12500000000000000        0.0000000000000000     
  0.75000000000000000       0.12500000000000000        0.0000000000000000     
  0.62500000000000000       0.15625000000000000        0.0000000000000000     
  0.65625000000000000       0.15625000000000000        0.0000000000000000     
  0.68750000000000000       0.15625000000000000        0.0000000000000000     
  0.71875000000000000       0.15625000000000000        0.0000000000000000     
  0.75000000000000000       0.15625000000000000        0.0000000000000000     
  0.62500000000000000       0.18750000000000000        0.0000000000000000     
  0.65625000000000000       0.18750000000000000        0.0000000000000000     
  0.68750000000000000       0.18750000000000000        0.0000000000000000     
  0.71875000000000000       0.18750000000000000        0.0000000000000000     
  0.75000000000000000       0.18750000000000000        0.0000000000000000     
  0.62500000000000000       0.21875000000000000        0.0000000000000000     
  0.65625000000000000       0.21875000000000000        0.0000000000000000     
  0.68750000000000000       0.21875000000000000        0.0000000000000000     
  0.71875000000000000       0.21875000000000000        0.0000000000000000     
  0.75000000000000000       0.21875000000000000        0.0000000000000000     
  0.62500000000000000       0.25000000000000000        0.0000000000000000     
  0.65625000000000000       0.25000000000000000        0.0000000000000000     
  0.68750000000000000       0.25000000000000000        0.0000000000000000     
  0.71875000000000000       0.25000000000000000        0.0000000000000000     
  0.75000000000000000       0.25000000000000000        0.0000000000000000     
  0.75000000000000000       0.12500000000000000        0.0000000000000000     
  0.78125000000000000       0.12500000000000000        0.0000000000000000     
  0.81250000000000000       0.12500000000000000        0.0000000000000000     
  0.84375000000000000       0.12500000000000000        0.0000000000000000     
  0.87500000000000000       0.12500000000000000        0.0000000000000000     
  0.75000000000000000       0.15625000000000000        0.0000000000000000     
  0.78125000000000000       0.15625000000000000        0.0000000000000000     
  0.81250000000000000       0.15625000000000000        0.0000000000000000     
  0.84375000000000000       0.15625000000000000        0.0000000000000000     
  0.87500000000000000       0.15625000000000000        0.0000000000000000     
  0.75000000000000000       0.18750000000000000        0.0000000000000000     
  0.78125000000000000       0.18750000000000000        0.0000000000000000     
  0.81250000000000000       0.18750000000000000        0.0000000000000000     
  0.84375000000000000       0.18750000000000000        0.0000000000000000     
  0.87500000000000000       0.18750000000000000        0.0000000000000000     
  0.75000000000000000       0.21875000000000000        0.0000000000000000     
  0.78125000000000000       0.21875000000000000        0.0000000000000000     
  0.81250000000000000       0.21875000000000000        0.0000000000000000     
  0.84375000000000000       0.21875000000000000        0.0000000000000000     
  0.87500000000000000       0.21875000000000000        0.0000000000000000     
  0.75000000000000000       0.25000000000000000        0.0000000000000000     
  0.78125000000000000       0.25000000000000000        0.0000000000000000     
  0.81250000000000000       0.25000000000000000        0.0000000000000000     
  0.84375000000000000       0.25000000000000000        0.0000000000000000     
  0.87500000000000000       0.25000000000000000        0.0000000000000000     
  0.87500000000000000       0.12500000000000000        0.0000000000000000     
  0.90625000000000000       0.12500000000000000        0.0000000000000000     
  0.93750000000000000       0.12500000000000000        0.0000000000000000     
  0.96875000000000000       0.12500000000000000        0.0000000000000000     
   1.0000000000000000       0.12500000000000000        0.0000000000000000     
  0.87500000000000000       0.15625000000000000        0.0000000000000000     
  0.90625000000000000       0.15625000000000000        0.0000000000000000     
  0.93750000000000000       0.15625000000000000        0.0000000000000000     
  0.96875000000000000       0.15625000000000000        0.0000000000000000     
   1.0000000000000000       0.15625000000000000        0.0000000000000000     
  0.87500000000000000       0.18750000000000000        0.0000000000000000     
  0.90625000000000000       0.18750000000000000        0.0000000000000000     
  0.93750000000000000       0.18750000000000000        0.0000000000000000     
  0.96875000000000000       0.18750000000000000        0.0000000000000000     
   1.0000000000000000       0.18750000000000000        0.0000000000000000     
  0.87500000000000000       0.21875000000000000        0.0000000000000000     
  0.90625000000000000       0.21875000000000000        0.0000000000000000     
  0.93750000000000000       0.21875000000000000        0.0000000000000000     
  0.96875000000000000       0.21875000000000000        0.0000000000000000     
   1.0000000000000000       0.21875000000000000        0.0000000000000000     
  0.87500000000000000       0.25000000000000000        0.0000000000000000     
  0.90625000000000000       0.25000000000000000        0.0000000000000000     
  0.93750000000000000       0.25000000000000000        0.0000000000000000     
  0.96875000000000000       0.25000000000000000        0.0000000000000000     
   1.0000000000000000       0.25000000000000000        0.0000000000000000     
   0.0000000000000000       0.25000000000000000        0.0000000000000000     
   3.1250000000000000E-002  0.25000000000000000        0.0000000000000000     
   6.2500000000000000E-002  0.25000000000000000        0.0000000000000000     
   9.3750000000000000E-002  0.25000000000000000        0.0000000000000000     
  0.12500000000000000       0.25000000000000000        0.0000000000000000     
   0.0000000000000000       0.28125000000000000        0.0000000000000000     
   3.1250000000000000E-002  0.28125000000000000        0.0000000000000000     
   6.2500000000000000E-002  0.28125000000000000        0.0000000000000000     
   9.3750000000000000E-002  0.28125000000000000        0.0000000000000000     
  0.12500000000000000       0.28125000000000000        0.0000000000000000     
   0.0000000000000000       0.31250000000000000        0.0000000000000000     
   3.1250000000000000E-002  0.31250000000000000        0.0000000000000000     
   6.2500000000000000E-002  0.31250000000000000        0.0000000000000000     
   9.3750000000000000E-002  0.31250000000000000        0.0000000000000000     
  0.12500000000000000       0.31250000000000000        0.0000000000000000     
   0.0000000000000000       0.34375000000000000        0.0000000000000000     
   3.1250000000000000E-002  0.34375000000000000        0.0000000000000000     
   6.2500000000000000E-002  0.34375000000000000        0.0000000000000000     
   9.3750000000000000E-002  0.34375000000000000        0.0000000000000000     
  0.12500000000000000       0.34375000000000000        0.0000000000000000     
   0.0000000000000000       0.37500000000000000        0.0000000000000000     
   3.1250000000000000E-002  0.37500000000000000        0.0000000000000000     
   6.2500000000000000E-002  0.37500000000000000        0.0000000000000000     
   9.3750000000000000E-002  0.37500000000000000        0.0000000000000000     
  0.12500000000000000       0.37500000000000000        0.0000000000000000     
  0.12500000000000000       0.25000000000000000        0.0000000000000000     
  0.15625000000000000       0.25000000000000000        0.0000000000000000     
  0.18750000000000000       0.25000000000000000        0.0000000000000000     
  0.21875000000000000       0.25000000000000000        0.0000000000000000     
  0.25000000000000000       0.25000000000000000        0.0000000000000000     
  0.12500000000000000       0.28125000000000000        0.0000000000000000     
  0.15625000000000000       0.28125000000000000        0.0000000000000000     
  0.18750000000000000       0.28125000000000000        0.0000000000000000     
  0.21875000000000000       0.28125000000000000        0.0000000000000000     
  0.25000000000000000       0.28125000000000000        0.0000000000000000     
  0.12500000000000000       0.31250000000000000        0.0000000000000000     
  0.15625000000000000       0.31250000000000000        0.0000000000000000     
  0.18750000000000000       0.31250000000000000        0.0000000000000000     
  0.21875000000000000       0.31250000000000000        0.0000000000000000     
  0.25000000000000000       0.31250000000000000        0.0000000000000000     
  0.12500000000000000       0.34375000000000000        0.0000000000000000     
  0.15625000000000000       0.34375000000000000        0.0000000000000000     
  0.18750000000000000       0.34375000000000000        0.0000000000000000     
  0.21875000000000000       0.34375000000000000        0.0000000000000000     
  0.25000000000000000       0.34375000000000000        0.0000000000000000     
  0.12500000000000000       0.37500000000000000        0.0000000000000000     
  0.15625000000000000       0.37500000000000000        0.0000000000000000     
  0.18750000000000000       0.37500000000000000        0.0000000000000000     
  0.21875000000000000       0.37500000000000000        0.0000000000000000     
  0.25000000000000000       0.37500000000000000        0.0000000000000000     
  0.25000000000000000       0.25000000000000000        0.0000000000000000     
  0.28125000000000000       0.25000000000000000        0.0000000000000000     
  0.31250000000000000       0.25000000000000000        0.0000000000000000     
  0.34375000000000000       0.25000000000000000        0.0000000000000000     
  0.37500000000000000       0.25000000000000000        0.0000000000000000     
  0.25000000000000000       0.28125000000000000        0.0000000000000000     
  0.28125000000000000       0.28125000000000000        0.0000000000000000     
  0.31250000000000000       0.28125000000000000        0.0000000000000000     
  0.34375000000000000       0.28125000000000000        0.0000000000000000     
  0.37500000000000000       0.28125000000000000        0.0000000000000000     
  0.25000000000000000       0.31250000000000000        0.0000000000000000     
  0.28125000000000000       0.31250000000000000        0.0000000000000000     
  0.31250000000000000       0.31250000000000000        0.0000000000000000     
  0.34375000000000000       0.31250000000000000        0.0000000000000000     
  0.37500000000000000       0.31250000000000000        0.0000000000000000     
  0.25000000000000000       0.34375000000000000        0.0000000000000000     
  0.28125000000000000       0.34375000000000000        0.0000000000000000     
  0.31250000000000000       0.34375000000000000        0.0000000000000000     
  0.34375000000000000       0.34375000000000000        0.0000000000000000     
  0.37500000000000000       0.34375000000000000        0.0000000000000000     
  0.25000000000000000       0.37500000000000000        0.0000000000000000     
  0.28125000000000000       0.37500000000000000        0.0000000000000000     
  0.31250000000000000       0.37500000000000000        0.0000000000000000     
  0.34375000000000000       0.37500000000000000        0.0000000000000000     
  0.37500000000000000       0.37500000000000000        0.0000000000000000     
  0.37500000000000000       0.25000000000000000        0.0000000000000000     
  0.40625000000000000       0.25000000000000000        0.0000000000000000     
  0.43750000000000000       0.25000000000000000        0.0000000000000000     
  0.46875000000000000       0.25000000000000000        0.0000000000000000     
  0.50000000000000000       0.25000000000000000        0.0000000000000000     
  0.37500000000000000       0.28125000000000000        0.0000000000000000     
  0.40625000000000000       0.28125000000000000        0.0000000000000000     
  0.43750000000000000       0.28125000000000000        0.0000000000000000     
  0.46875000000000000       0.28125000000000000        0.0000000000000000     
  0.50000000000000000       0.28125000000000000        0.0000000000000000     
  0.37500000000000000       0.31250000000000000        0.0000000000000000     
  0.40625000000000000       0.31250000000000000        0.0000000000000000     
  0.43750000000000000       0.31250000000000000        0.0000000000000000     
  0.46875000000000000       0.31250000000000000        0.0000000000000000     
  0.50000000000000000       0.31250000000000000        0.0000000000000000     
  0.37500000000000000       0.34375000000000000        0.0000000000000000     
  0.40625000000000000       0.34375000000000000        0.0000000000000000     
  0.43750000000000000       0.34375000000000000        0.0000000000000000     
  0.46875000000000000       0.34375000000000000        0.0000000000000000     
  0.50000000000000000       0.34375000000000000        0.0000000000000000     
  0.37500000000000000       0.37500000000000000        0.0000000000000000     
  0.40625000000000000       0.37500000000000000        0.0000000000000000     
  0.43750000000000000       0.37500000000000000        0.0000000000000000     
  0.46875000000000000       0.37500000000000000        0.0000000000000000     
  0.50000000000000000       0.37500000000000000        0.0000000000000000     
  0.50000000000000000       0.25000000000000000        0.0000000000000000     
  0.53125000000000000       0.25000000000000000        0.0000000000000000     
  0.56250000000000000       0.25000000000000000        0.0000000000000000     
  0.59375000000000000       0.25000000000000000        0.0000000000000000     
  0.62500000000000000       0.25000000000000000        0.0000000000000000     
  0.50000000000000000       0.28125000000000000        0.0000000000000000     
  0.53125000000000000       0.28125000000000000        0.0000000000000000     
  0.56250000000000000       0.28125000000000000        0.0000000000000000     
  0.59375000000000000       0.28125000000000000        0.0000000000000000     
  0.62500000000000000       0.28125000000000000        0.0000000000000000     
  0.50000000000000000       0.31250000000000000        0.0000000000000000     
  0.53125000000000000       0.31250000000000000        0.0000000000000000     
  0.56250000000000000       0.31250000000000000        0.0000000000000000     
  0.59375000000000000       0.31250000000000000        0.0000000000000000     
  0.62500000000000000       0.31250000000000000        0.0000000000000000     
  0.50000000000000000       0.34375000000000000        0.0000000000000000     
  0.53125000000000000       0.34375000000000000        0.0000000000000000     
  0.56250000000000000       0.34375000000000000        0.0000000000000000     
  0.59375000000000000       0.34375000000000000        0.0000000000000000     
  0.62500000000000000       0.34375000000000000        0.0000000000000000     
  0.50000000000000000       0.37500000000000000        0.0000000000000000     
  0.53125000000000000       0.37500000000000000        0.0000000000000000     
  0.56250000000000000       0.37500000000000000        0.0000000000000000     
  0.59375000000000000       0.37500000000000000        0.0000000000000000     
  0.62500000000000000       0.37500000000000000        0.0000000000000000     
  0.62500000000000000       0.25000000000000000        0.0000000000000000     
  0.65625000000000000       0.25000000000000000        0.0000000000000000     
  0.68750000000000000       0.25000000000000000        0.0000000000000000     
  0.71875000000000000       0.25000000000000000        0.0000000000000000     
  0.75000000000000000       0.25000000000000000        0.0000000000000000     
  0.62500000000000000       0.28125000000000000        0.0000000000000000     
  0.65625000000000000       0.28125000000000000        0.0000000000000000     
  0.68750000000000000       0.28125000000000000        0.0000000000000000     
  0.71875000000000000       0.28125000000000000        0.0000000000000000     
  0.75000000000000000       0.28125000000000000        0.0000000000000000     
  0.62500000000000000       0.31250000000000000        0.0000000000000000     
  0.65625000000000000       0.31250000000000000        0.0000000000000000     
  0.68750000000000000       0.31250000000000000        0.0000000000000000     
  0.71875000000000000       0.31250000000000000        0.0000000000000000     
  0.75000000000000000       0.31250000000000000        0.0000000000000000     
  0.62500000000000000       0.34375000000000000        0.0000000000000000     
  0.65625000000000000       0.34375000000000000        0.0000000000000000     
  0.68750000000000000       0.34375000000000000        0.0000000000000000     
  0.71875000000000000       0.34375000000000000        0.0000000000000000     
  0.75000000000000000       0.34375000000000000        0.0000000000000000     
  0.62500000000000000       0.37500000000000000        0.0000000000000000     
  0.65625000000000000       0.37500000000000000        0.0000000000000000     
  0.68750000000000000       0.37500000000000000        0.0000000000000000     
  0.71875000000000000       0.37500000000000000        0.0000000000000000     
  0.75000000000000000       0.37500000000000000        0.0000000000000000     
  0.75000000000000000       0.25000000000000000        0.0000000000000000     
  0.78125000000000000       0.25000000000000000        0.0000000000000000     
  0.81250000000000000       0.25000000000000000        0.0000000000000000     
  0.84375000000000000       0.25000000000000000        0.0000000000000000     
  0.87500000000000000       0.25000000000000000        0.0000000000000000     
  0.75000000000000000       0.28125000000000000        0.0000000000000000     
  0.78125000000000000       0.28125000000000000        0.0000000000000000     
  0.81250000000000000       0.28125000000000000        0.0000000000000000     
  0.84375000000000000       0.28125000000000000        0.0000000000000000     
  0.87500000000000000       0.28125000000000000        0.0000000000000000     
  0.75000000000000000       0.31250000000000000        0.0000000000000000     
  0.78125000000000000       0.31250000000000000        0.0000000000000000     
  0.81250000000000000       0.31250000000000000        0.0000000000000000     
  0.84375000000000000       0.31250000000000000        0.0000000000000000     
  0.87500000000000000       0.31250000000000000        0.0000000000000000     
  0.75000000000000000       0.34375000000000000        0.0000000000000000     
  0.78125000000000000       0.34375000000000000        0.0000000000000000     
  0.81250000000000000       0.34375000000000000        0.0000000000000000     
  0.84375000000000000       0.34375000000000000        0.0000000000000000     
  0.87500000000000000       0.34375000000000000        0.0000000000000000     
  0.75000000000000000       0.37500000000000000        0.0000000000000000     
  0.78125000000000000       0.37500000000000000        0.0000000000000000     
  0.81250000000000000       0.37500000000000000        0.0000000000000000     
  0.84375000000000000       0.37500000000000000        0.0000000000000000     
  0.87500000000000000       0.37500000000000000        0.0000000000000000     
  0.87500000000000000       0.25000000000000000        0.0000000000000000     
  0.90625000000000000       0.25000000000000000        0.0000000000000000     
  0.93750000000000000       0.25000000000000000        0.0000000000000000     
  0.96875000000000000       0.25000000000000000        0.0000000000000000     
   1.0000000000000000       0.25000000000000000        0.0000000000000000     
  0.87500000000000000       0.28125000000000000        0.0000000000000000     
  0.90625000000000000       0.28125000000000000        0.0000000000000000     
  0.93750000000000000       0.28125000000000000        0.0000000000000000     
  0.96875000000000000       0.28125000000000000        0.0000000000000000     
   1.0000000000000000       0.28125000000000000        0.0000000000000000     
  0.87500000000000000       0.31250000000000000        0.0000000000000000     
  0.90625000000000000       0.31250000000000000        0.0000000000000000     
  0.93750000000000000       0.31250000000000000        0.0000000000000000     
  0.96875000000000000       0.31250000000000000        0.0000000000000000     
   1.0000000000000000       0.31250000000000000        0.0000000000000000     
  0.87500000000000000       0.34375000000000000        0.0000000000000000     
  0.90625000000000000       0.34375000000000000        0.0000000000000000     
  0.93750000000000000       0.34375000000000000        0.0000000000000000     
  0.96875000000000000       0.34375000000000000        0.0000000000000000     
   1.0000000000000000       0.34375000000000000        0.0000000000000000     
  0.87500000000000000       0.37500000000000000        0.0000000000000000     
  0.90625000000000000       0.37500000000000000        0.0000000000000000     
  0.93750000000000000       0.37500000000000000        0.0000000000000000     
  0.96875000000000000       0.37500000000000000        0.0000000000000000     
   1.0000000000000000       0.37500000000000000        0.0000000000000000     
   0.0000000000000000       0.37500000000000000        0.0000000000000000     
   3.1250000000000000E-002  0.37500000000000000        0.0000000000000000     
   6.2500000000000000E-002  0.37500000000000000        0.0000000000000000     
   9.3750000000000000E-002  0.37500000000000000        0.0000000000000000     
  0.12500000000000000       0.37500000000000000        0.0000000000000000     
   0.0000000000000000       0.40625000000000000        0.0000000000000000     
   3.1250000000000000E-002  0.40625000000000000        0.0000000000000000     
   6.2500000000000000E-002  0.40625000000000000        0.0000000000000000     
   9.3750000000000000E-002  0.40625000000000000        0.0000000000000000     
  0.12500000000000000       0.40625000000000000        0.0000000000000000     
   0.0000000000000000       0.43750000000000000        0.0000000000000000     
   3.1250000000000000E-002  0.43750000000000000        0.0000000000000000     
   6.2500000000000000E-002  0.43750000000000000        0.0000000000000000     
   9.3750000000000000E-002  0.43750000000000000        0.0000000000000000     
  0.12500000000000000       0.43750000000000000        0.0000000000000000     
   0.0000000000000000       0.46875000000000000        0.0000000000000000     
   3.1250000000000000E-002  0.46875000000000000        0.0000000000000000     
   6.2500000000000000E-002  0.46875000000000000        0.0000000000000000     
   9.3750000000000000E-002  0.46875000000000000        0.0000000000000000     
  0.12500000000000000       0.46875000000000000        0.0000000000000000     
   0.0000000000000000       0.50000000000000000        0.0000000000000000     
   3.1250000000000000E-002  0.50000000000000000        0.0000000000000000     
   6.2500000000000000E-002  0.50000000000000000        0.0000000000000000     
   9.3750000000000000E-002  0.50000000000000000        0.0000000000000000     
  0.12500000000000000       0.50000000000000000        0.0000000000000000     
  0.12500000000000000       0.37500000000000000        0.0000000000000000     
  0.15625000000000000       0.37500000000000000        0.0000000000000000     
  0.18750000000000000       0.37500000000000000        0.0000000000000000     
  0.21875000000000000       0.37500000000000000        0.0000000000000000     
  0.25000000000000000       0.37500000000000000        0.0000000000000000     
  0.12500000000000000       0.40625000000000000        0.0000000000000000     
  0.15625000000000000       0.40625000000000000        0.0000000000000000     
  0.18750000000000000       0.40625000000000000        0.0000000000000000     
  0.21875000000000000       0.40625000000000000        0.0000000000000000     
  0.25000000000000000       0.40625000000000000        0.0000000000000000     
  0.12500000000000000       0.43750000000000000        0.0000000000000000     
  0.15625000000000000       0.43750000000000000        0.0000000000000000     
  0.18750000000000000       0.43750000000000000        0.0000000000000000     
  0.21875000000000000       0.43750000000000000        0.0000000000000000     
  0.25000000000000000       0.43750000000000000        0.0000000000000000     
  0.12500000000000000       0.46875000000000000        0.0000000000000000     
  0.15625000000000000       0.46875000000000000        0.0000000000000000     
  0.18750000000000000       0.46875000000000000        0.0000000000000000     
  0.21875000000000000       0.46875000000000000        0.0000000000000000     
  0.25000000000000000       0.46875000000000000        0.0000000000000000     
  0.12500000000000000       0.50000000000000000        0.0000000000000000     
  0.15625000000000000       0.50000000000000000        0.0000000000000000     
  0.18750000000000000       0.50000000000000000        0.0000000000000000     
  0.21875000000000000       0.50000000000000000        0.0000000000000000     
  0.25000000000000000       0.50000000000000000        0.0000000000000000     
  0.25000000000000000       0.37500000000000000        0.0000000000000000     
  0.28125000000000000       0.37500000000000000        0.0000000000000000     
  0.31250000000000000       0.37500000000000000        0.0000000000000000     
  0.34375000000000000       0.37500000000000000        0.0000000000000000     
  0.37500000000000000       0.37500000000000000        0.0000000000000000     
  0.25000000000000000       0.40625000000000000        0.0000000000000000     
  0.28125000000000000       0.40625000000000000        0.0000000000000000     
  0.31250000000000000       0.40625000000000000        0.0000000000000000     
  0.34375000000000000       0.40625000000000000        0.0000000000000000     
  0.37500000000000000       0.40625000000000000        0.0000000000000000     
  0.25000000000000000       0.43750000000000000        0.0000000000000000     
  0.28125000000000000       0.43750000000000000        0.0000000000000000     
  0.31250000000000000       0.43750000000000000        0.0000000000000000     
  0.34375000000000000       0.43750000000000000        0.0000000000000000     
  0.37500000000000000       0.43750000000000000        0.0000000000000000     
  0.25000000000000000       0.46875000000000000        0.0000000000000000     
  0.28125000000000000       0.46875000000000000        0.0000000000000000     
  0.31250000000000000       0.46875000000000000        0.0000000000000000     
  0.34375000000000000       0.46875000000000000        0.0000000000000000     
  0.37500000000000000       0.46875000000000000        0.0000000000000000     
  0.25000000000000000       0.50000000000000000        0.0000000000000000     
  0.28125000000000000       0.50000000000000000        0.0000000000000000     
  0.31250000000000000       0.50000000000000000        0.0000000000000000     
  0.34375000000000000       0.50000000000000000        0.0000000000000000     
  0.37500000000000000       0.50000000000000000        0.0000000000000000     
  0.37500000000000000       0.37500000000000000        0.0000000000000000     
  0.40625000000000000       0.37500000000000000        0.0000000000000000     
  0.43750000000000000       0.37500000000000000        0.0000000000000000     
  0.46875000000000000       0.37500000000000000        0.0000000000000000     
  0.50000000000000000       0.37500000000000000        0.0000000000000000     
  0.37500000000000000       0.40625000000000000        0.0000000000000000     
  0.40625000000000000       0.40625000000000000        0.0000000000000000     
  0.43750000000000000       0.40625000000000000        0.0000000000000000     
  0.46875000000000000       0.40625000000000000        0.0000000000000000     
  0.50000000000000000       0.40625000000000000        0.0000000000000000     
  0.37500000000000000       0.43750000000000000        0.0000000000000000     
  0.40625000000000000       0.43750000000000000        0.0000000000000000     
  0.43750000000000000       0.43750000000000000        0.0000000000000000     
  0.46875000000000000       0.43750000000000000        0.0000000000000000     
  0.50000000000000000       0.43750000000000000        0.0000000000000000     
  0.37500000000000000       0.46875000000000000        0.0000000000000000     
  0.40625000000000000       0.46875000000000000        0.0000000000000000     
  0.43750000000000000       0.46875000000000000        0.0000000000000000     
  0.46875000000000000       0.46875000000000000        0.0000000000000000     
  0.50000000000000000       0.46875000000000000        0.0000000000000000     
  0.37500000000000000       0.50000000000000000        0.0000000000000000     
  0.40625000000000000       0.50000000000000000        0.0000000000000000     
  0.43750000000000000       0.50000000000000000        0.0000000000000000     
  0.46875000000000000       0.50000000000000000        0.0000000000000000     
  0.50000000000000000       0.50000000000000000        0.0000000000000000     
  0.50000000000000000       0.37500000000000000        0.0000000000000000     
  0.53125000000000000       0.37500000000000000        0.0000000000000000     
  0.56250000000000000       0.37500000000000000        0.0000000000000000     
  0.59375000000000000       0.37500000000000000        0.0000000000000000     
  0.62500000000000000       0.37500000000000000        0.0000000000000000     
  0.50000000000000000       0.40625000000000000        0.0000000000000000     
  0.53125000000000000       0.40625000000000000        0.0000000000000000     
  0.56250000000000000       0.40625000000000000        0.0000000000000000     
  0.59375000000000000       0.40625000000000000        0.0000000000000000     
  0.62500000000000000       0.40625000000000000        0.0000000000000000     
  0.50000000000000000       0.43750000000000000        0.0000000000000000     
  0.53125000000000000       0.43750000000000000        0.0000000000000000     
  0.56250000000000000       0.43750000000000000        0.0000000000000000     
  0.59375000000000000       0.43750000000000000        0.0000000000000000     
  0.62500000000000000       0.43750000000000000        0.0000000000000000     
  0.50000000000000000       0.46875000000000000        0.0000000000000000     
  0.53125000000000000       0.46875000000000000        0.0000000000000000     
  0.56250000000000000       0.46875000000000000        0.0000000000000000     
  0.59375000000000000       0.46875000000000000        0.0000000000000000     
  0.62500000000000000       0.46875000000000000        0.0000000000000000     
  0.50000000000000000       0.50000000000000000        0.0000000000000000     
  0.53125000000000000       0.50000000000000000        0.0000000000000000     
  0.56250000000000000       0.50000000000000000        0.0000000000000000     
  0.59375000000000000       0.50000000000000000        0.0000000000000000     
  0.62500000000000000       0.50000000000000000        0.0000000000000000     
  0.62500000000000000       0.37500000000000000        0.0000000000000000     
  0.65625000000000000       0.37500000000000000        0.0000000000000000     
  0.68750000000000000       0.37500000000000000        0.0000000000000000     
  0.71875000000000000       0.37500000000000000        0.0000000000000000     
  0.75000000000000000       0.37500000000000000        0.0000000000000000     
  0.62500000000000000       0.40625000000000000        0.0000000000000000     
  0.65625000000000000       0.40625000000000000        0.0000000000000000     
  0.68750000000000000       0.40625000000000000        0.0000000000000000     
  0.71875000000000000       0.40625000000000000        0.0000000000000000     
  0.75000000000000000       0.40625000000000000        0.0000000000000000     
  0.62500000000000000       0.43750000000000000        0.0000000000000000     
  0.65625000000000000       0.43750000000000000        0.0000000000000000     
  0.68750000000000000       0.43750000000000000        0.0000000000000000     
  0.71875000000000000       0.43750000000000000        0.0000000000000000     
  0.75000000000000000       0.43750000000000000        0.0000000000000000     
  0.62500000000000000       0.46875000000000000        0.0000000000000000     
  0.65625000000000000       0.46875000000000000        0.0000000000000000     
  0.68750000000000000       0.46875000000000000        0.0000000000000000     
  0.71875000000000000       0.46875000000000000        0.0000000000000000     
  0.75000000000000000       0.46875000000000000        0.0000000000000000     
  0.62500000000000000       0.50000000000000000        0.0000000000000000     
  0.65625000000000000       0.50000000000000000        0.0000000000000000     
  0.68750000000000000       0.50000000000000000        0.0000000000000000     
  0.71875000000000000       0.50000000000000000        0.0000000000000000     
  0.75000000000000000       0.50000000000000000        0.0000000000000000     
  0.75000000000000000       0.37500000000000000        0.0000000000000000     
  0.78125000000000000       0.37500000000000000        0.0000000000000000     
  0.81250000000000000       0.37500000000000000        0.0000000000000000     
  0.84375000000000000       0.37500000000000000        0.0000000000000000     
  0.87500000000000000       0.37500000000000000        0.0000000000000000     
  0.75000000000000000       0.40625000000000000        0.0000000000000000     
  0.78125000000000000       0.40625000000000000        0.0000000000000000     
  0.81250000000000000       0.40625000000000000        0.0000000000000000     
  0.84375000000000000       0.40625000000000000        0.0000000000000000     
  0.87500000000000000       0.40625000000000000        0.0000000000000000     
  0.75000000000000000       0.43750000000000000        0.0000000000000000     
  0.78125000000000000       0.43750000000000000        0.0000000000000000     
  0.81250000000000000       0.43750000000000000        0.0000000000000000     
  0.84375000000000000       0.43750000000000000        0.0000000000000000     
  0.87500000000000000       0.43750000000000000        0.0000000000000000     
  0.75000000000000000       0.46875000000000000        0.0000000000000000     
  0.78125000000000000       0.46875000000000000        0.0000000000000000     
  0.81250000000000000       0.46875000000000000        0.0000000000000000     
  0.84375000000000000       0.46875000000000000        0.0000000000000000     
  0.87500000000000000       0.46875000000000000        0.0000000000000000     
  0.75000000000000000       0.50000000000000000        0.0000000000000000     
  0.78125000000000000       0.50000000000000000        0.0000000000000000     
  0.81250000000000000       0.50000000000000000        0.0000000000000000     
  0.84375000000000000       0.50000000000000000        0.0000000000000000     
  0.87500000000000000       0.50000000000000000        0.0000000000000000     
  0.87500000000000000       0.37500000000000000        0.0000000000000000     
  0.90625000000000000       0.37500000000000000        0.0000000000000000     
  0.93750000000000000       0.37500000000000000        0.0000000000000000     
  0.96875000000000000       0.37500000000000000        0.0000000000000000     
   1.0000000000000000       0.37500000000000000        0.0000000000000000     
  0.87500000000000000       0.40625000000000000        0.0000000000000000     
  0.90625000000000000       0.40625000000000000        0.0000000000000000     
  0.93750000000000000       0.40625000000000000        0.0000000000000000     
  0.96875000000000000       0.40625000000000000        0.0000000000000000     
   1.0000000000000000       0.40625000000000000        0.0000000000000000     
  0.87500000000000000       0.43750000000000000        0.0000000000000000     
  0.90625000000000000       0.43750000000000000        0.0000000000000000     
  0.93750000000000000       0.43750000000000000        0.0000000000000000     
  0.96875000000000000       0.43750000000000000        0.0000000000000000     
   1.0000000000000000       0.43750000000000000        0.0000000000000000     
  0.87500000000000000       0.46875000000000000        0.0000000000000000     
  0.90625000000000000       0.46875000000000000        0.0000000000000000     
  0.93750000000000000       0.46875000000000000        0.0000000000000000     
  0.96875000000000000       0.46875000000000000        0.0000000000000000     
   1.0000000000000000       0.46875000000000000        0.0000000000000000     
  0.87500000000000000       0.50000000000000000        0.0000000000000000     
  0.90625000000000000       0.50000000000000000        0.0000000000000000     
  0.93750000000000000       0.50000000000000000        0.0000000000000000     
  0.96875000000000000       0.50000000000000000        0.0000000000000000     
   1.0000000000000000       0.50000000000000000        0.0000000000000000     
   0.0000000000000000       0.50000000000000000        0.0000000000000000     
   3.1250000000000000E-002  0.50000000000000000        0.0000000000000000     
   6.2500000000000000E-002  0.50000000000000000        0.0000000000000000     
   9.3750000000000000E-002  0.50000000000000000        0.0000000000000000     
  0.12500000000000000       0.50000000000000000        0.0000000000000000     
   0.0000000000000000       0.53125000000000000        0.0000000000000000     
   3.1250000000000000E-002  0.53125000000000000        0.0000000000000000     
   6.2500000000000000E-002  0.53125000000000000        0.0000000000000000     
   9.3750000000000000E-002  0.53125000000000000        0.0000000000000000     
  0.12500000000000000       0.53125000000000000        0.0000000000000000     
   0.0000000000000000       0.56250000000000000        0.0000000000000000     
   3.1250000000000000E-002  0.56250000000000000        0.0000000000000000     
   6.2500000000000000E-002  0.56250000000000000        0.0000000000000000     
   9.3750000000000000E-002  0.56250000000000000        0.0000000000000000     
  0.12500000000000000       0.56250000000000000        0.0000000000000000     
   0.0000000000000000       0.59375000000000000        0.0000000000000000     
   3.1250000000000000E-002  0.59375000000000000        0.0000000000000000     
   6.2500000000000000E-002  0.59375000000000000        0.0000000000000000     
   9.3750000000000000E-002  0.59375000000000000        0.0000000000000000     
  0.12500000000000000       0.59375000000000000        0.0000000000000000     
   0.0000000000000000       0.62500000000000000        0.0000000000000000     
   3.1250000000000000E-002  0.62500000000000000        0.0000000000000000     
   6.2500000000000000E-002  0.62500000000000000        0.0000000000000000     
   9.3750000000000000E-002  0.62500000000000000        0.0000000000000000     
  0.12500000000000000       0.62500000000000000        0.0000000000000000     
  0.12500000000000000       0.50000000000000000        0.0000000000000000     
  0.15625000000000000       0.50000000000000000        0.0000000000000000     
  0.18750000000000000       0.50000000000000000        0.0000000000000000     
  0.21875000000000000       0.50000000000000000        0.0000000000000000     
  0.25000000000000000       0.50000000000000000        0.0000000000000000     
  0.12500000000000000       0.53125000000000000        0.0000000000000000     
  0.15625000000000000       0.53125000000000000        0.0000000000000000     
  0.18750000000000000       0.53125000000000000        0.0000000000000000     
  0.21875000000000000       0.53125000000000000        0.0000000000000000     
  0.25000000000000000       0.53125000000000000        0.0000000000000000     
  0.12500000000000000       0.56250000000000000        0.0000000000000000     
  0.15625000000000000       0.56250000000000000        0.0000000000000000     
  0.18750000000000000       0.56250000000000000        0.0000000000000000     
  0.21875000000000000       0.56250000000000000        0.0000000000000000     
  0.25000000000000000       0.56250000000000000        0.0000000000000000     
  0.12500000000000000       0.59375000000000000        0.0000000000000000     
  0.15625000000000000       0.59375000000000000        0.0000000000000000     
  0.18750000000000000       0.59375000000000000        0.0000000000000000     
  0.21875000000000000       0.59375000000000000        0.0000000000000000     
  0.25000000000000000       0.59375000000000000        0.0000000000000000     
  0.12500000000000000       0.62500000000000000        0.0000000000000000     
  0.15625000000000000       0.62500000000000000        0.0000000000000000     
  0.18750000000000000       0.62500000000000000        0.0000000000000000     
  0.21875000000000000       0.62500000000000000        0.0000000000000000     
  0.25000000000000000       0.62500000000000000        0.0000000000000000     
  0.25000000000000000       0.50000000000000000        0.0000000000000000     
  0.28125000000000000       0.50000000000000000        0.0000000000000000     
  0.31250000000000000       0.50000000000000000        0.0000000000000000     
  0.34375000000000000       0.50000000000000000        0.0000000000000000     
  0.37500000000000000       0.50000000000000000        0.0000000000000000     
  0.25000000000000000       0.53125000000000000        0.0000000000000000     
  0.28125000000000000       0.53125000000000000        0.0000000000000000     
  0.31250000000000000       0.53125000000000000        0.0000000000000000     
  0.34375000000000000       0.53125000000000000        0.0000000000000000     
  0.37500000000000000       0.53125000000000000        0.0000000000000000     
  0.25000000000000000       0.56250000000000000        0.0000000000000000     
  0.28125000000000000       0.56250000000000000        0.0000000000000000     
  0.31250000000000000       0.56250000000000000        0.0000000000000000     
  0.34375000000000000       0.56250000000000000        0.0000000000000000     
  0.37500000000000000       0.56250000000000000        0.0000000000000000     
  0.25000000000000000       0.59375000000000000        0.0000000000000000     
  0.28125000000000000       0.59375000000000000        0.0000000000000000     
  0.31250000000000000       0.59375000000000000        0.0000000000000000     
  0.34375000000000000       0.59375000000000000        0.0000000000000000     
  0.37500000000000000       0.59375000000000000        0.0000000000000000     
  0.25000000000000000       0.62500000000000000        0.0000000000000000     
  0.28125000000000000       0.62500000000000000        0.0000000000000000     
  0.31250000000000000       0.62500000000000000        0.0000000000000000     
  0.34375000000000000       0.62500000000000000        0.0000000000000000     
  0.37500000000000000       0.62500000000000000        0.0000000000000000     
  0.37500000000000000       0.50000000000000000        0.0000000000000000     
  0.40625000000000000       0.50000000000000000        0.0000000000000000     
  0.43750000000000000       0.50000000000000000        0.0000000000000000     
  0.46875000000000000       0.50000000000000000        0.0000000000000000     
  0.50000000000000000       0.50000000000000000        0.0000000000000000     
  0.37500000000000000       0.53125000000000000        0.0000000000000000     
  0.40625000000000000       0.53125000000000000        0.0000000000000000     
  0.43750000000000000       0.53125000000000000        0.0000000000000000     
  0.46875000000000000       0.53125000000000000        0.0000000000000000     
  0.50000000000000000       0.53125000000000000        0.0000000000000000     
  0.37500000000000000       0.56250000000000000        0.0000000000000000     
  0.40625000000000000       0.56250000000000000        0.0000000000000000     
  0.43750000000000000       0.56250000000000000        0.0000000000000000     
  0.46875000000000000       0.56250000000000000        0.0000000000000000     
  0.50000000000000000       0.56250000000000000        0.0000000000000000     
  0.37500000000000000       0.59375000000000000        0.0000000000000000     
  0.40625000000000000       0.59375000000000000        0.0000000000000000     
  0.43750000000000000       0.59375000000000000        0.0000000000000000     
  0.46875000000000000       0.59375000000000000        0.0000000000000000     
  0.50000000000000000       0.59375000000000000        0.0000000000000000     
  0.37500000000000000       0.62500000000000000        0.0000000000000000     
  0.40625000000000000       0.62500000000000000        0.0000000000000000     
  0.43750000000000000       0.62500000000000000        0.0000000000000000     
  0.46875000000000000       0.62500000000000000        0.0000000000000000     
  0.50000000000000000       0.62500000000000000        0.0000000000000000     
  0.50000000000000000       0.50000000000000000        0.0000000000000000     
  0.53125000000000000       0.50000000000000000        0.0000000000000000     
  0.56250000000000000       0.50000000000000000        0.0000000000000000     
  0.59375000000000000       0.50000000000000000        0.0000000000000000     
  0.62500000000000000       0.50000000000000000        0.0000000000000000     
  0.50000000000000000       0.53125000000000000        0.0000000000000000     
  0.53125000000000000       0.53125000000000000        0.0000000000000000     
  0.56250000000000000       0.53125000000000000        0.0000000000000000     
  0.59375000000000000       0.53125000000000000        0.0000000000000000     
  0.62500000000000000       0.53125000000000000        0.0000000000000000     
  0.50000000000000000       0.56250000000000000        0.0000000000000000     
  0.53125000000000000       0.56250000000000000        0.0000000000000000     
  0.56250000000000000       0.56250000000000000        0.0000000000000000     
  0.59375000000000000       0.56250000000000000        0.0000000000000000     
  0.62500000000000000       0.56250000000000000        0.0000000000000000     
  0.50000000000000000       0.59375000000000000        0.0000000000000000     
  0.53125000000000000       0.59375000000000000        0.0000000000000000     
  0.56250000000000000       0.59375000000000000        0.0000000000000000     
  0.59375000000000000       0.59375000000000000        0.0000000000000000     
  0.62500000000000000       0.59375000000000000        0.0000000000000000     
  0.50000000000000000       0.62500000000000000        0.0000000000000000     
  0.53125000000000000       0.62500000000000000        0.0000000000000000     
  0.56250000000000000       0.62500000000000000        0.0000000000000000     
  0.59375000000000000       0.62500000000000000        0.0000000000000000     
  0.62500000000000000       0.62500000000000000        0.0000000000000000     
  0.62500000000000000       0.50000000000000000        0.0000000000000000     
  0.65625000000000000       0.50000000000000000        0.0000000000000000     
  0.68750000000000000       0.50000000000000000        0.0000000000000000     
  0.71875000000000000       0.50000000000000000        0.0000000000000000     
  0.75000000000000000       0.50000000000000000        0.0000000000000000     
  0.62500000000000000       0.53125000000000000        0.0000000000000000     
  0.65625000000000000       0.53125000000000000        0.0000000000000000     
  0.68750000000000000       0.53125000000000000        0.0000000000000000     
  0.71875000000000000       0.53125000000000000        0.0000000000000000     
  0.75000000000000000       0.53125000000000000        0.0000000000000000     
  0.62500000000000000       0.56250000000000000        0.0000000000000000     
  0.65625000000000000       0.56250000000000000        0.0000000000000000     
  0.68750000000000000       0.56250000000000000        0.0000000000000000     
  0.71875000000000000       0.56250000000000000        0.0000000000000000     
  0.75000000000000000       0.56250000000000000        0.0000000000000000     
  0.62500000000000000       0.59375000000000000        0.0000000000000000     
  0.65625000000000000       0.59375000000000000        0.0000000000000000     
  0.68750000000000000       0.59375000000000000        0.0000000000000000     
  0.71875000000000000       0.59375000000000000        0.0000000000000000     
  0.75000000000000000       0.59375000000000000        0.0000000000000000     
  0.62500000000000000       0.62500000000000000        0.0000000000000000     
  0.65625000000000000       0.62500000000000000        0.0000000000000000     
  0.68750000000000000       0.62500000000000000        0.0000000000000000     
  0.71875000000000000       0.62500000000000000        0.0000000000000000     
  0.75000000000000000       0.62500000000000000        0.0000000000000000     
  0.75000000000000000       0.50000000000000000        0.0000000000000000     
  0.78125000000000000       0.50000000000000000        0.0000000000000000     
  0.81250000000000000       0.50000000000000000        0.0000000000000000     
  0.84375000000000000       0.50000000000000000        0.0000000000000000     
  0.87500000000000000       0.50000000000000000        0.0000000000000000     
  0.75000000000000000       0.53125000000000000        0.0000000000000000     
  0.78125000000000000       0.53125000000000000        0.0000000000000000     
  0.81250000000000000       0.53125000000000000        0.0000000000000000     
  0.84375000000000000       0.53125000000000000        0.0000000000000000     
  0.87500000000000000       0.53125000000000000        0.0000000000000000     
  0.75000000000000000       0.56250000000000000        0.0000000000000000     
  0.78125000000000000       0.56250000000000000        0.0000000000000000     
  0.81250000000000000       0.56250000000000000        0.0000000000000000     
  0.84375000000000000       0.56250000000000000        0.0000000000000000     
  0.87500000000000000       0.56250000000000000        0.0000000000000000     
  0.75000000000000000       0.59375000000000000        0.0000000000000000     
  0.78125000000000000       0.59375000000000000        0.0000000000000000     
  0.81250000000000000       0.59375000000000000        0.0000000000000000     
  0.84375000000000000       0.59375000000000000        0.0000000000000000     
  0.87500000000000000       0.59375000000000000        0.0000000000000000     
  0.75000000000000000       0.62500000000000000        0.0000000000000000     
  0.78125000000000000       0.62500000000000000        0.0000000000000000     
  0.81250000000000000       0.62500000000000000        0.0000000000000000     
  0.84375000000000000       0.62500000000000000        0.0000000000000000     
  0.87500000000000000       0.62500000000000000        0.0000000000000000     
  0.87500000000000000       0.50000000000000000        0.0000000000000000     
  0.90625000000000000       0.50000000000000000        0.0000000000000000     
  0.93750000000000000       0.50000000000000000        0.0000000000000000     
  0.96875000000000000       0.50000000000000000        0.0000000000000000     
   1.0000000000000000       0.50000000000000000        0.0000000000000000     
  0.87500000000000000       0.53125000000000000        0.0000000000000000     
  0.90625000000000000       0.53125000000000000        0.0000000000000000     
  0.93750000000000000       0.53125000000000000        0.0000000000000000     
  0.96875000000000000       0.53125000000000000        0.0000000000000000     
   1.0000000000000000       0.53125000000000000        0.0000000000000000     
  0.87500000000000000       0.56250000000000000        0.0000000000000000     
  0.90625000000000000       0.56250000000000000        0.0000000000000000     
  0.93750000000000000       0.56250000000000000        0.0000000000000000     
  0.96875000000000000       0.56250000000000000        0.0000000000000000     
   1.0000000000000000       0.56250000000000000        0.0000000000000000     
  0.87500000000000000       0.59375000000000000        0.0000000000000000     
  0.90625000000000000       0.59375000000000000        0.0000000000000000     
  0.93750000000000000       0.59375000000000000        0.0000000000000000     
  0.96875000000000000       0.59375000000000000        0.0000000000000000     
   1.0000000000000000       0.59375000000000000        0.0000000000000000     
  0.87500000000000000       0.62500000000000000        0.0000000000000000     
  0.90625000000000000       0.62500000000000000        0.0000000000000000     
  0.93750000000000000       0.62500000000000000        0.0000000000000000     
  0.96875000000000000       0.62500000000000000        0.0000000000000000     
   1.0000000000000000       0.62500000000000000        0.0000000000000000     
   0.0000000000000000       0.62500000000000000        0.0000000000000000     
   3.1250000000000000E-002  0.62500000000000000        0.0000000000000000     
   6.2500000000000000E-002  0.62500000000000000        0.0000000000000000     
   9.3750000000000000E-002  0.62500000000000000        0.0000000000000000     
  0.12500000000000000       0.62500000000000000        0.0000000000000000     
   0.0000000000000000       0.65625000000000000        0.0000000000000000     
   3.1250000000000000E-002  0.65625000000000000        0.0000000000000000     
   6.2500000000000000E-002  0.65625000000000000        0.0000000000000000     
   9.3750000000000000E-002  0.65625000000000000        0.0000000000000000     
  0.12500000000000000       0.65625000000000000        0.0000000000000000     
   0.0000000000000000       0.68750000000000000        0.0000000000000000     
   3.1250000000000000E-002  0.68750000000000000        0.0000000000000000     
   6.2500000000000000E-002  0.68750000000000000        0.0000000000000000     
   9.3750000000000000E-002  0.68750000000000000        0.0000000000000000     
  0.12500000000000000       0.68750000000000000        0.0000000000000000     
   0.0000000000000000       0.71875000000000000        0.0000000000000000     
   3.1250000000000000E-002  0.71875000000000000        0.0000000000000000     
   6.2500000000000000E-002  0.71875000000000000        0.0000000000000000     
   9.3750000000000000E-002  0.71875000000000000        0.0000000000000000     
  0.12500000000000000       0.71875000000000000        0.0000000000000000     
   0.0000000000000000       0.75000000000000000        0.0000000000000000     
   3.1250000000000000E-002  0.75000000000000000        0.0000000000000000     
   6.2500000000000000E-002  0.75000000000000000        0.0000000000000000     
   9.3750000000000000E-002  0.75000000000000000        0.0000000000000000     
  0.12500000000000000       0.75000000000000000        0.0000000000000000     
  0.12500000000000000       0.62500000000000000        0.0000000000000000     
  0.15625000000000000       0.62500000000000000        0.0000000000000000     
  0.18750000000000000       0.62500000000000000        0.0000000000000000     
  0.21875000000000000       0.62500000000000000        0.0000000000000000     
  0.25000000000000000       0.62500000000000000        0.0000000000000000     
  0.12500000000000000       0.65625000000000000        0.0000000000000000     
  0.15625000000000000       0.65625000000000000        0.0000000000000000     
  0.18750000000000000       0.65625000000000000        0.0000000000000000     
  0.21875000000000000       0.65625000000000000        0.0000000000000000     
  0.25000000000000000       0.65625000000000000        0.0000000000000000     
  0.12500000000000000       0.68750000000000000        0.0000000000000000     
  0.15625000000000000       0.68750000000000000        0.0000000000000000     
  0.18750000000000000       0.68750000000000000        0.0000000000000000     
  0.21875000000000000       0.68750000000000000        0.0000000000000000     
  0.25000000000000000       0.68750000000000000        0.0000000000000000     
  0.12500000000000000       0.71875000000000000        0.0000000000000000     
  0.15625000000000000       0.71875000000000000        0.0000000000000000     
  0.18750000000000000       0.71875000000000000        0.0000000000000000     
  0.21875000000000000       0.71875000000000000        0.0000000000000000     
  0.25000000000000000       0.71875000000000000        0.0000000000000000     
  0.12500000000000000       0.75000000000000000        0.0000000000000000     
  0.15625000000000000       0.75000000000000000        0.0000000000000000     
  0.18750000000000000       0.75000000000000000        0.0000000000000000     
  0.21875000000000000       0.75000000000000000        0.0000000000000000     
  0.25000000000000000       0.75000000000000000        0.0000000000000000     
  0.25000000000000000       0.62500000000000000        0.0000000000000000     
  0.28125000000000000       0.62500000000000000        0.0000000000000000     
  0.31250000000000000       0.62500000000000000        0.0000000000000000     
  0.34375000000000000       0.62500000000000000        0.0000000000000000     
  0.37500000000000000       0.62500000000000000        0.0000000000000000     
  0.25000000000000000       0.65625000000000000        0.0000000000000000     
  0.28125000000000000       0.65625000000000000        0.0000000000000000     
  0.31250000000000000       0.65625000000000000        0.0000000000000000     
  0.34375000000000000       0.65625000000000000        0.0000000000000000     
  0.37500000000000000       0.65625000000000000        0.0000000000000000     
  0.25000000000000000       0.68750000000000000        0.0000000000000000     
  0.28125000000000000       0.68750000000000000        0.0000000000000000     
  0.31250000000000000       0.68750000000000000        0.0000000000000000     
  0.34375000000000000       0.68750000000000000        0.0000000000000000     
  0.37500000000000000       0.68750000000000000        0.0000000000000000     
  0.25000000000000000       0.71875000000000000        0.0000000000000000     
  0.28125000000000000       0.71875000000000000        0.0000000000000000     
  0.31250000000000000       0.71875000000000000        0.0000000000000000     
  0.34375000000000000       0.71875000000000000        0.0000000000000000     
  0.37500000000000000       0.71875000000000000        0.0000000000000000     
  0.25000000000000000       0.75000000000000000        0.0000000000000000     
  0.28125000000000000       0.75000000000000000        0.0000000000000000     
  0.31250000000000000       0.75000000000000000        0.0000000000000000     
  0.34375000000000000       0.75000000000000000        0.0000000000000000     
  0.37500000000000000       0.75000000000000000        0.0000000000000000     
  0.37500000000000000       0.62500000000000000        0.0000000000000000     
  0.40625000000000000       0.62500000000000000        0.0000000000000000     
  0.43750000000000000       0.62500000000000000        0.0000000000000000     
  0.46875000000000000       0.62500000000000000        0.0000000000000000     
  0.50000000000000000       0.62500000000000000        0.0000000000000000     
  0.37500000000000000       0.65625000000000000        0.0000000000000000     
  0.40625000000000000       0.65625000000000000        0.0000000000000000     
  0.43750000000000000       0.65625000000000000        0.0000000000000000     
  0.46875000000000000       0.65625000000000000        0.0000000000000000     
  0.50000000000000000       0.65625000000000000        0.0000000000000000     
  0.37500000000000000       0.68750000000000000        0.0000000000000000     
  0.40625000000000000       0.68750000000000000        0.0000000000000000     
  0.43750000000000000       0.68750000000000000        0.0000000000000000     
  0.46875000000000000       0.68750000000000000        0.0000000000000000     
  0.50000000000000000       0.68750000000000000        0.0000000000000000     
  0.37500000000000000       0.71875000000000000        0.0000000000000000     
  0.40625000000000000       0.71875000000000000        0.0000000000000000     
  0.43750000000000000       0.71875000000000000        0.0000000000000000     
  0.46875000000000000       0.71875000000000000        0.0000000000000000     
  0.50000000000000000       0.71875000000000000        0.0000000000000000     
  0.37500000000000000       0.75000000000000000        0.0000000000000000     
  0.40625000000000000       0.75000000000000000        0.0000000000000000     
  0.43750000000000000       0.75000000000000000        0.0000000000000000     
  0.46875000000000000       0.75000000000000000        0.0000000000000000     
  0.50000000000000000       0.75000000000000000        0.0000000000000000     
  0.50000000000000000       0.62500000000000000        0.0000000000000000     
  0.53125000000000000       0.62500000000000000        0.0000000000000000     
  0.56250000000000000       0.62500000000000000        0.0000000000000000     
  0.59375000000000000       0.62500000000000000        0.0000000000000000     
  0.62500000000000000       0.62500000000000000        0.0000000000000000     
  0.50000000000000000       0.65625000000000000        0.0000000000000000     
  0.53125000000000000       0.65625000000000000        0.0000000000000000     
  0.56250000000000000       0.65625000000000000        0.0000000000000000     
  0.59375000000000000       0.65625000000000000        0.0000000000000000     
  0.62500000000000000       0.65625000000000000        0.0000000000000000     
  0.50000000000000000       0.68750000000000000        0.0000000000000000     
  0.53125000000000000       0.68750000000000000        0.0000000000000000     
  0.56250000000000000       0.68750000000000000        0.0000000000000000     
  0.59375000000000000       0.68750000000000000        0.0000000000000000     
  0.62500000000000000       0.68750000000000000        0.0000000000000000     
  0.50000000000000000       0.71875000000000000        0.0000000000000000     
  0.53125000000000000       0.71875000000000000        0.0000000000000000     
  0.56250000000000000       0.71875000000000000        0.0000000000000000     
  0.59375000000000000       0.71875000000000000        0.0000000000000000     
  0.62500000000000000       0.71875000000000000        0.0000000000000000     
  0.50000000000000000       0.75000000000000000        0.0000000000000000     
  0.53125000000000000       0.75000000000000000        0.0000000000000000     
  0.56250000000000000       0.75000000000000000        0.0000000000000000     
  0.59375000000000000       0.75000000000000000        0.0000000000000000     
  0.62500000000000000       0.75000000000000000        0.0000000000000000     
  0.62500000000000000       0.62500000000000000        0.0000000000000000     
  0.65625000000000000       0.62500000000000000        0.0000000000000000     
  0.68750000000000000       0.62500000000000000        0.0000000000000000     
  0.71875000000000000       0.62500000000000000        0.0000000000000000     
  0.75000000000000000       0.62500000000000000        0.0000000000000000     
  0.62500000000000000       0.65625000000000000        0.0000000000000000     
  0.65625000000000000       0.65625000000000000        0.0000000000000000     
  0.68750000000000000       0.65625000000000000        0.0000000000000000     
  0.71875000000000000       0.65625000000000000        0.0000000000000000     
  0.75000000000000000       0.65625000000000000        0.0000000000000000     
  0.62500000000000000       0.68750000000000000        0.0000000000000000     
  0.65625000000000000       0.68750000000000000        0.0000000000000000     
  0.68750000000000000       0.68750000000000000        0.0000000000000000     
  0.71875000000000000       0.68750000000000000        0.0000000000000000     
  0.75000000000000000       0.68750000000000000        0.0000000000000000     
  0.62500000000000000       0.71875000000000000        0.0000000000000000     
  0.65625000000000000       0.71875000000000000        0.0000000000000000     
  0.68750000000000000       0.71875000000000000        0.0000000000000000     
  0.71875000000000000       0.71875000000000000        0.0000000000000000     
  0.75000000000000000       0.71875000000000000        0.0000000000000000     
  0.62500000000000000       0.75000000000000000        0.0000000000000000     
  0.65625000000000000       0.75000000000000000        0.0000000000000000     
  0.68750000000000000       0.75000000000000000        0.0000000000000000     
  0.71875000000000000       0.75000000000000000        0.0000000000000000     
  0.75000000000000000       0.75000000000000000        0.0000000000000000     
  0.75000000000000000       0.62500000000000000        0.0000000000000000     
  0.78125000000000000       0.62500000000000000        0.0000000000000000     
  0.81250000000000000       0.62500000000000000        0.0000000000000000     
  0.84375000000000000       0.62500000000000000        0.0000000000000000     
  0.87500000000000000       0.62500000000000000        0.0000000000000000     
  0.75000000000000000       0.65625000000000000        0.0000000000000000     
  0.78125000000000000       0.65625000000000000        0.0000000000000000     
  0.81250000000000000       0.65625000000000000        0.0000000000000000     
  0.84375000000000000       0.65625000000000000        0.0000000000000000     
  0.87500000000000000       0.65625000000000000        0.0000000000000000     
  0.75000000000000000       0.68750000000000000        0.0000000000000000     
  0.78125000000000000       0.68750000000000000        0.0000000000000000     
  0.81250000000000000       0.68750000000000000        0.0000000000000000     
  0.84375000000000000       0.68750000000000000        0.0000000000000000     
  0.87500000000000000       0.68750000000000000        0.0000000000000000     
  0.75000000000000000       0.71875000000000000        0.0000000000000000     
  0.78125000000000000       0.71875000000000000        0.0000000000000000     
  0.81250000000000000       0.71875000000000000        0.0000000000000000     
  0.84375000000000000       0.71875000000000000        0.0000000000000000     
  0.87500000000000000       0.71875000000000000        0.0000000000000000     
  0.75000000000000000       0.75000000000000000        0.0000000000000000     
  0.78125000000000000       0.75000000000000000        0.0000000000000000     
  0.81250000000000000       0.75000000000000000        0.0000000000000000     
  0.84375000000000000       0.75000000000000000        0.0000000000000000     
  0.87500000000000000       0.75000000000000000        0.0000000000000000     
  0.87500000000000000       0.62500000000000000        0.0000000000000000     
  0.90625000000000000       0.62500000000000000        0.0000000000000000     
  0.93750000000000000       0.62500000000000000        0.0000000000000000     
  0.96875000000000000       0.62500000000000000        0.0000000000000000     
   1.0000000000000000       0.62500000000000000        0.0000000000000000     
  0.87500000000000000       0.65625000000000000        0.0000000000000000     
  0.90625000000000000       0.65625000000000000        0.0000000000000000     
  0.93750000000000000       0.65625000000000000        0.0000000000000000     
  0.96875000000000000       0.65625000000000000        0.0000000000000000     
   1.0000000000000000       0.65625000000000000        0.0000000000000000     
  0.87500000000000000       0.68750000000000000        0.0000000000000000     
  0.90625000000000000       0.68750000000000000        0.0000000000000000     
  0.93750000000000000       0.68750000000000000        0.0000000000000000     
  0.96875000000000000       0.68750000000000000        0.0000000000000000     
   1.0000000000000000       0.68750000000000000        0.0000000000000000     
  0.87500000000000000       0.71875000000000000        0.0000000000000000     
  0.90625000000000000       0.71875000000000000        0.0000000000000000     
  0.93750000000000000       0.71875000000000000        0.0000000000000000     
  0.96875000000000000       0.71875000000000000        0.0000000000000000     
   1.0000000000000000       0.71875000000000000        0.0000000000000000     
  0.87500000000000000       0.75000000000000000        0.0000000000000000     
  0.90625000000000000       0.75000000000000000        0.0000000000000000     
  0.93750000000000000       0.75000000000000000        0.0000000000000000     
  0.96875000000000000       0.75000000000000000        0.0000000000000000     
   1.0000000000000000       0.75000000000000000        0.0000000000000000     
   0.0000000000000000       0.75000000000000000        0.0000000000000000     
   3.1250000000000000E-002  0.75000000000000000        0.0000000000000000     
   6.2500000000000000E-002  0.75000000000000000        0.0000000000000000     
   9.3750000000000000E-002  0.75000000000000000        0.0000000000000000     
  0.12500000000000000       0.75000000000000000        0.0000000000000000     
   0.0000000000000000       0.78125000000000000        0.0000000000000000     
   3.1250000000000000E-002  0.78125000000000000        0.0000000000000000     
   6.2500000000000000E-002  0.78125000000000000        0.0000000000000000     
   9.3750000000000000E-002  0.78125000000000000        0.0000000000000000     
  0.12500000000000000       0.78125000000000000        0.0000000000000000     
   0.0000000000000000       0.81250000000000000        0.0000000000000000     
   3.1250000000000000E-002  0.81250000000000000        0.0000000000000000     
   6.2500000000000000E-002  0.81250000000000000        0.0000000000000000     
   9.3750000000000000E-002  0.81250000000000000        0.0000000000000000     
  0.12500000000000000       0.81250000000000000        0.0000000000000000     
   0.0000000000000000       0.84375000000000000        0.0000000000000000     
   3.1250000000000000E-002  0.84375000000000000        0.0000000000000000     
   6.2500000000000000E-002  0.84375000000000000        0.0000000000000000     
   9.3750000000000000E-002  0.84375000000000000        0.0000000000000000     
  0.12500000000000000       0.84375000000000000        0.0000000000000000     
   0.0000000000000000       0.87500000000000000        0.0000000000000000     
   3.1250000000000000E-002  0.87500000000000000        0.0000000000000000     
   6.2500000000000000E-002  0.87500000000000000        0.0000000000000000     
   9.3750000000000000E-002  0.87500000000000000        0.0000000000000000     
  0.12500000000000000       0.87500000000000000        0.0000000000000000     
  0.12500000000000000       0.75000000000000000        0.0000000000000000     
  0.15625000000000000       0.75000000000000000        0.0000000000000000     
  0.18750000000000000       0.75000000000000000        0.0000000000000000     
  0.21875000000000000       0.75000000000000000        0.0000000000000000     
  0.25000000000000000       0.75000000000000000        0.0000000000000000     
  0.12500000000000000       0.78125000000000000        0.0000000000000000     
  0.15625000000000000       0.78125000000000000        0.0000000000000000     
  0.18750000000000000       0.78125000000000000        0.0000000000000000     
  0.21875000000000000       0.78125000000000000        0.0000000000000000     
  0.25000000000000000       0.78125000000000000        0.0000000000000000     
  0.12500000000000000       0.81250000000000000        0.0000000000000000     
  0.15625000000000000       0.81250000000000000        0.0000000000000000     
  0.18750000000000000       0.81250000000000000        0.0000000000000000     
  0.21875000000000000       0.81250000000000000        0.0000000000000000     
  0.25000000000000000       0.81250000000000000        0.0000000000000000     
  0.12500000000000000       0.84375000000000000        0.0000000000000000     
  0.15625000000000000       0.84375000000000000        0.0000000000000000     
  0.18750000000000000       0.84375000000000000        0.0000000000000000     
  0.21875000000000000       0.84375000000000000        0.0000000000000000     
  0.25000000000000000       0.84375000000000000        0.0000000000000000     
  0.12500000000000000       0.87500000000000000        0.0000000000000000     
  0.15625000000000000       0.87500000000000000        0.0000000000000000     
  0.18750000000000000       0.87500000000000000        0.0000000000000000     
  0.21875000000000000       0.87500000000000000        0.0000000000000000     
  0.25000000000000000       0.87500000000000000        0.0000000000000000     
  0.25000000000000000       0.75000000000000000        0.0000000000000000     
  0.28125000000000000       0.75000000000000000        0.0000000000000000     
  0.31250000000000000       0.75000000000000000        0.0000000000000000     
  0.34375000000000000       0.75000000000000000        0.0000000000000000     
  0.37500000000000000       0.75000000000000000        0.0000000000000000     
  0.25000000000000000       0.78125000000000000        0.0000000000000000     
  0.28125000000000000       0.78125000000000000        0.0000000000000000     
  0.31250000000000000       0.78125000000000000        0.0000000000000000     
  0.34375000000000000       0.78125000000000000        0.0000000000000000     
  0.37500000000000000       0.78125000000000000        0.0000000000000000     
  0.25000000000000000       0.81250000000000000        0.0000000000000000     
  0.28125000000000000       0.81250000000000000        0.0000000000000000     
  0.31250000000000000       0.81250000000000000        0.0000000000000000     
  0.34375000000000000       0.81250000000000000        0.0000000000000000     
  0.37500000000000000       0.81250000000000000        0.0000000000000000     
  0.25000000000000000       0.84375000000000000        0.0000000000000000     
  0.28125000000000000       0.84375000000000000        0.0000000000000000     
  0.31250000000000000       0.84375000000000000        0.0000000000000000     
  0.34375000000000000       0.84375000000000000        0.0000000000000000     
  0.37500000000000000       0.84375000000000000        0.0000000000000000     
  0.25000000000000000       0.87500000000000000        0.0000000000000000     
  0.28125000000000000       0.87500000000000000        0.0000000000000000     
  0.31250000000000000       0.87500000000000000        0.0000000000000000     
  0.34375000000000000       0.87500000000000000        0.0000000000000000     
  0.37500000000000000       0.87500000000000000        0.0000000000000000     
  0.37500000000000000       0.75000000000000000        0.0000000000000000     
  0.40625000000000000       0.75000000000000000        0.0000000000000000     
  0.43750000000000000       0.75000000000000000        0.0000000000000000     
  0.46875000000000000       0.75000000000000000        0.0000000000000000     
  0.50000000000000000       0.75000000000000000        0.0000000000000000     
  0.37500000000000000       0.78125000000000000        0.0000000000000000     
  0.40625000000000000       0.78125000000000000        0.0000000000000000     
  0.43750000000000000       0.78125000000000000        0.0000000000000000     
  0.46875000000000000       0.78125000000000000        0.0000000000000000     
  0.50000000000000000       0.78125000000000000        0.0000000000000000     
  0.37500000000000000       0.81250000000000000        0.0000000000000000     
  0.40625000000000000       0.81250000000000000        0.0000000000000000     
  0.43750000000000000       0.81250000000000000        0.0000000000000000     
  0.46875000000000000       0.81250000000000000        0.0000000000000000     
  0.50000000000000000       0.81250000000000000        0.0000000000000000     
  0.37500000000000000       0.84375000000000000        0.0000000000000000     
  0.40625000000000000       0.84375000000000000        0.0000000000000000     
  0.43750000000000000       0.84375000000000000        0.0000000000000000     
  0.46875000000000000       0.84375000000000000        0.0000000000000000     
  0.50000000000000000       0.84375000000000000        0.0000000000000000     
  0.37500000000000000       0.87500000000000000        0.0000000000000000     
  0.40625000000000000       0.87500000000000000        0.0000000000000000     
  0.43750000000000000       0.87500000000000000        0.0000000000000000     
  0.46875000000000000       0.87500000000000000        0.0000000000000000     
  0.50000000000000000       0.87500000000000000        0.0000000000000000     
  0.50000000000000000       0.75000000000000000        0.0000000000000000     
  0.53125000000000000       0.75000000000000000        0.0000000000000000     
  0.56250000000000000       0.75000000000000000        0.0000000000000000     
  0.59375000000000000       0.75000000000000000        0.0000000000000000     
  0.62500000000000000       0.75000000000000000        0.0000000000000000     
  0.50000000000000000       0.78125000000000000        0.0000000000000000     
  0.53125000000000000       0.78125000000000000        0.0000000000000000     
  0.56250000000000000       0.78125000000000000        0.0000000000000000     
  0.59375000000000000       0.78125000000000000        0.0000000000000000     
  0.62500000000000000       0.78125000000000000        0.0000000000000000     
  0.50000000000000000       0.81250000000000000        0.0000000000000000     
  0.53125000000000000       0.81250000000000000        0.0000000000000000     
  0.56250000000000000       0.81250000000000000        0.0000000000000000     
  0.59375000000000000       0.81250000000000000        0.0000000000000000     
  0.62500000000000000       0.81250000000000000        0.0000000000000000     
  0.50000000000000000       0.84375000000000000        0.0000000000000000     
  0.53125000000000000       0.84375000000000000        0.0000000000000000     
  0.56250000000000000       0.84375000000000000        0.0000000000000000     
  0.59375000000000000       0.84375000000000000        0.0000000000000000     
  0.62500000000000000       0.84375000000000000        0.0000000000000000     
  0.50000000000000000       0.87500000000000000        0.0000000000000000     
  0.53125000000000000       0.87500000000000000        0.0000000000000000     
  0.56250000000000000       0.87500000000000000        0.0000000000000000     
  0.59375000000000000       0.87500000000000000        0.0000000000000000     
  0.62500000000000000       0.87500000000000000        0.0000000000000000     
  0.62500000000000000       0.75000000000000000        0.0000000000000000     
  0.65625000000000000       0.75000000000000000        0.0000000000000000     
  0.68750000000000000       0.75000000000000000        0.0000000000000000     
  0.71875000000000000       0.75000000000000000        0.0000000000000000     
  0.75000000000000000       0.75000000000000000        0.0000000000000000     
  0.62500000000000000       0.78125000000000000        0.0000000000000000     
  0.65625000000000000       0.78125000000000000        0.0000000000000000     
  0.68750000000000000       0.78125000000000000        0.0000000000000000     
  0.71875000000000000       0.78125000000000000        0.0000000000000000     
  0.75000000000000000       0.78125000000000000        0.0000000000000000     
  0.62500000000000000       0.81250000000000000        0.0000000000000000     
  0.65625000000000000       0.81250000000000000        0.0000000000000000     
  0.68750000000000000       0.81250000000000000        0.0000000000000000     
  0.71875000000000000       0.81250000000000000        0.0000000000000000     
  0.75000000000000000       0.81250000000000000        0.0000000000000000     
  0.62500000000000000       0.84375000000000000        0.0000000000000000     
  0.65625000000000000       0.84375000000000000        0.0000000000000000     
  0.68750000000000000       0.84375000000000000        0.0000000000000000     
  0.71875000000000000       0.84375000000000000        0.0000000000000000     
  0.75000000000000000       0.84375000000000000        0.0000000000000000     
  0.62500000000000000       0.87500000000000000        0.0000000000000000     
  0.65625000000000000       0.87500000000000000        0.0000000000000000     
  0.68750000000000000       0.87500000000000000        0.0000000000000000     
  0.71875000000000000       0.87500000000000000        0.0000000000000000     
  0.75000000000000000       0.87500000000000000        0.0000000000000000     
  0.75000000000000000       0.75000000000000000        0.0000000000000000     
  0.78125000000000000       0.75000000000000000        0.0000000000000000     
  0.81250000000000000       0.75000000000000000        0.0000000000000000     
  0.84375000000000000       0.75000000000000000        0.0000000000000000     
  0.87500000000000000       0.75000000000000000        0.0000000000000000     
  0.75000000000000000       0.78125000000000000        0.0000000000000000     
  0.78125000000000000       0.78125000000000000        0.0000000000000000     
  0.81250000000000000       0.78125000000000000        0.0000000000000000     
  0.84375000000000000       0.78125000000000000        0.0000000000000000     
  0.87500000000000000       0.78125000000000000        0.0000000000000000     
  0.75000000000000000       0.81250000000000000        0.0000000000000000     
  0.78125000000000000       0.81250000000000000        0.0000000000000000     
  0.81250000000000000       0.81250000000000000        0.0000000000000000     
  0.84375000000000000       0.81250000000000000        0.0000000000000000     
  0.87500000000000000       0.81250000000000000        0.0000000000000000     
  0.75000000000000000       0.84375000000000000        0.0000000000000000     
  0.78125000000000000       0.84375000000000000        0.0000000000000000     
  0.81250000000000000       0.84375000000000000        0.0000000000000000     
  0.84375000000000000       0.84375000000000000        0.0000000000000000     
  0.87500000000000000       0.84375000000000000        0.0000000000000000     
  0.75000000000000000       0.87500000000000000        0.0000000000000000     
  0.78125000000000000       0.87500000000000000        0.0000000000000000     
  0.81250000000000000       0.87500000000000000        0.0000000000000000     
  0.84375000000000000       0.87500000000000000        0.0000000000000000     
  0.87500000000000000       0.87500000000000000        0.0000000000000000     
  0.87500000000000000       0.75000000000000000        0.0000000000000000     
  0.90625000000000000       0.75000000000000000        0.0000000000000000     
  0.93750000000000000       0.75000000000000000        0.0000000000000000     
  0.96875000000000000       0.75000000000000000        0.0000000000000000     
   1.0000000000000000       0.75000000000000000        0.0000000000000000     
  0.87500000000000000       0.78125000000000000        0.0000000000000000     
  0.90625000000000000       0.78125000000000000        0.0000000000000000     
  0.93750000000000000       0.78125000000000000        0.0000000000000000     
  0.96875000000000000       0.78125000000000000        0.0000000000000000     
   1.0000000000000000       0.78125000000000000        0.0000000000000000     
  0.87500000000000000       0.81250000000000000        0.0000000000000000     
  0.90625000000000000       0.81250000000000000        0.0000000000000000     
  0.93750000000000000       0.81250000000000000        0.0000000000000000     
  0.96875000000000000       0.81250000000000000        0.0000000000000000     
   1.0000000000000000       0.81250000000000000        0.0000000000000000     
  0.87500000000000000       0.84375000000000000        0.0000000000000000     
  0.90625000000000000       0.84375000000000000        0.0000000000000000     
  0.93750000000000000       0.84375000000000000        0.0000000000000000     
  0.96875000000000000       0.84375000000000000        0.0000000000000000     
   1.0000000000000000       0.84375000000000000        0.0000000000000000     
  0.87500000000000000       0.87500000000000000        0.0000000000000000     
  0.90625000000000000       0.87500000000000000        0.0000000000000000     
  0.93750000000000000       0.87500000000000000        0.0000000000000000     
  0.96875000000000000       0.87500000000000000        0.0000000000000000     
   1.0000000000000000       0.87500000000000000        0.0000000000000000     
   0.0000000000000000       0.87500000000000000        0.0000000000000000     
   3.1250000000000000E-002  0.87500000000000000        0.0000000000000000     
   6.2500000000000000E-002  0.87500000000000000        0.0000000000000000     
   9.3750000000000000E-002  0.87500000000000000        0.0000000000000000     
  0.12500000000000000       0.87500000000000000        0.0000000000000000     
   0.0000000000000000       0.90625000000000000        0.0000000000000000     
   3.1250000000000000E-002  0.90625000000000000        0.0000000000000000     
   6.2500000000000000E-002  0.90625000000000000        0.0000000000000000     
   9.3750000000000000E-002  0.90625000000000000        0.0000000000000000     
  0.12500000000000000       0.90625000000000000        0.0000000000000000     
   0.0000000000000000       0.93750000000000000        0.0000000000000000     
   3.1250000000000000E-002  0.93750000000000000        0.0000000000000000     
   6.2500000000000000E-002  0.93750000000000000        0.0000000000000000     
   9.3750000000000000E-002  0.93750000000000000        0.0000000000000000     
  0.12500000000000000       0.93750000000000000        0.0000000000000000     
   0.0000000000000000       0.96875000000000000        0.0000000000000000     
   3.1250000000000000E-002  0.96875000000000000        0.0000000000000000     
   6.2500000000000000E-002  0.96875000000000000        0.0000000000000000     
   9.3750000000000000E-002  0.96875000000000000        0.0000000000000000     
  0.12500000000000000       0.96875000000000000        0.0000000000000000     
   0.0000000000000000        1.0000000000000000        0.0000000000000000     
   3.1250000000000000E-002   1.0000000000000000        0.0000000000000000     
   6.2500000000000000E-002   1.0000000000000000        0.0000000000000000     
   9.3750000000000000E-002   1.0000000000000000        0.0000000000000000     
  0.12500000000000000        1.0000000000000000        0.0000000000000000     
  0.12500000000000000       0.87500000000000000        0.0000000000000000     
  0.15625000000000000       0.87500000000000000        0.0000000000000000     
  0.18750000000000000       0.87500000000000000        0.0000000000000000     
  0.21875000000000000       0.87500000000000000        0.0000000000000000     
  0.25000000000000000       0.87500000000000000        0.0000000000000000     
  0.12500000000000000       0.90625000000000000        0.0000000000000000     
  0.15625000000000000       0.90625000000000000        0.0000000000000000     
  0.18750000000000000       0.90625000000000000        0.0000000000000000     
  0.21875000000000000       0.90625000000000000        0.0000000000000000     
  0.25000000000000000       0.90625000000000000        0.0000000000000000     
  0.12500000000000000       0.93750000000000000        0.0000000000000000     
  0.15625000000000000       0.93750000000000000        0.0000000000000000     
  0.18750000000000000       0.93750000000000000        0.0000000000000000     
  0.21875000000000000       0.93750000000000000        0.0000000000000000     
  0.25000000000000000       0.93750000000000000        0.0000000000000000     
  0.12500000000000000       0.96875000000000000        0.0000000000000000     
  0.15625000000000000       0.96875000000000000        0.0000000000000000     
  0.18750000000000000       0.96875000000000000        0.0000000000000000     
  0.21875000000000000       0.96875000000000000        0.0000000000000000     
  0.25000000000000000       0.96875000000000000        0.0000000000000000     
  0.12500000000000000        1.0000000000000000        0.0000000000000000     
  0.15625000000000000        1.0000000000000000        0.0000000000000000     
  0.18750000000000000        1.0000000000000000        0.0000000000000000     
  0.21875000000000000        1.0000000000000000        0.0000000000000000     
  0.25000000000000000        1.0000000000000000        0.0000000000000000     
  0.25000000000000000       0.87500000000000000        0.0000000000000000     
  0.28125000000000000       0.87500000000000000        0.0000000000000000     
  0.31250000000000000       0.87500000000000000        0.0000000000000000     
  0.34375000000000000       0.87500000000000000        0.0000000000000000     
  0.37500000000000000       0.87500000000000000        0.0000000000000000     
  0.25000000000000000       0.90625000000000000        0.0000000000000000     
  0.28125000000000000       0.90625000000000000        0.0000000000000000     
  0.31250000000000000       0.90625000000000000        0.0000000000000000     
  0.34375000000000000       0.90625000000000000        0.0000000000000000     
  0.37500000000000000       0.90625000000000000        0.0000000000000000     
  0.25000000000000000       0.93750000000000000        0.0000000000000000     
  0.28125000000000000       0.93750000000000000        0.0000000000000000     
  0.31250000000000000       0.93750000000000000        0.0000000000000000     
  0.34375000000000000       0.93750000000000000        0.0000000000000000     
  0.37500000000000000       0.93750000000000000        0.0000000000000000     
  0.25000000000000000       0.96875000000000000        0.0000000000000000     
  0.28125000000000000       0.96875000000000000        0.0000000000000000     
  0.31250000000000000       0.96875000000000000        0.0000000000000000     
  0.34375000000000000       0.96875000000000000        0.0000000000000000     
  0.37500000000000000       0.96875000000000000        0.0000000000000000     
  0.25000000000000000        1.0000000000000000        0.0000000000000000     
  0.28125000000000000        1.0000000000000000        0.0000000000000000     
  0.31250000000000000        1.0000000000000000        0.0000000000000000     
  0.34375000000000000        1.0000000000000000        0.0000000000000000     
  0.37500000000000000        1.0000000000000000        0.0000000000000000     
  0.37500000000000000       0.87500000000000000        0.0000000000000000     
  0.40625000000000000       0.87500000000000000        0.0000000000000000     
  0.43750000000000000       0.87500000000000000        0.0000000000000000     
  0.46875000000000000       0.87500000000000000        0.0000000000000000     
  0.50000000000000000       0.87500000000000000        0.0000000000000000     
  0.37500000000000000       0.90625000000000000        0.0000000000000000     
  0.40625000000000000       0.90625000000000000        0.0000000000000000     
  0.43750000000000000       0.90625000000000000        0.0000000000000000     
  0.46875000000000000       0.90625000000000000        0.0000000000000000     
  0.50000000000000000       0.90625000000000000        0.0000000000000000     
  0.37500000000000000       0.93750000000000000        0.0000000000000000     
  0.40625000000000000       0.93750000000000000        0.0000000000000000     
  0.43750000000000000       0.93750000000000000        0.0000000000000000     
  0.46875000000000000       0.93750000000000000        0.0000000000000000     
  0.50000000000000000       0.93750000000000000        0.0000000000000000     
  0.37500000000000000       0.96875000000000000        0.0000000000000000     
  0.40625000000000000       0.96875000000000000        0.0000000000000000     
  0.43750000000000000       0.96875000000000000        0.0000000000000000     
  0.46875000000000000       0.96875000000000000        0.0000000000000000     
  0.50000000000000000       0.96875000000000000        0.0000000000000000     
  0.37500000000000000        1.0000000000000000        0.0000000000000000     
  0.40625000000000000        1.0000000000000000        0.0000000000000000     
  0.43750000000000000        1.0000000000000000        0.0000000000000000     
  0.46875000000000000        1.0000000000000000        0.0000000000000000     
  0.50000000000000000        1.0000000000000000        0.0000000000000000     
  0.50000000000000000       0.87500000000000000        0.0000000000000000     
  0.53125000000000000       0.87500000000000000        0.0000000000000000     
  0.56250000000000000       0.87500000000000000        0.0000000000000000     
  0.59375000000000000       0.87500000000000000        0.0000000000000000     
  0.62500000000000000       0.87500000000000000        0.0000000000000000     
  0.50000000000000000       0.90625000000000000        0.0000000000000000     
  0.53125000000000000       0.90625000000000000        0.0000000000000000     
  0.56250000000000000       0.90625000000000000        0.0000000000000000     
  0.59375000000000000       0.90625000000000000        0.0000000000000000     
  0.62500000000000000       0.90625000000000000        0.0000000000000000     
  0.50000000000000000       0.93750000000000000        0.0000000000000000     
  0.53125000000000000       0.93750000000000000        0.0000000000000000     
  0.56250000000000000       0.93750000000000000        0.0000000000000000     
  0.59375000000000000       0.93750000000000000        0.0000000000000000     
  0.62500000000000000       0.93750000000000000        0.0000000000000000     
  0.50000000000000000       0.96875000000000000        0.0000000000000000     
  0.53125000000000000       0.96875000000000000        0.0000000000000000     
  0.56250000000000000       0.96875000000000000        0.0000000000000000     
  0.59375000000000000       0.96875000000000000        0.0000000000000000     
  0.62500000000000000       0.96875000000000000        0.0000000000000000     
  0.50000000000000000        1.0000000000000000        0.0000000000000000     
  0.53125000000000000        1.0000000000000000        0.0000000000000000     
  0.56250000000000000        1.0000000000000000        0.0000000000000000     
  0.59375000000000000        1.0000000000000000        0.0000000000000000     
  0.62500000000000000        1.0000000000000000        0.0000000000000000     
  0.62500000000000000       0.87500000000000000        0.0000000000000000     
  0.65625000000000000       0.87500000000000000        0.0000000000000000     
  0.68750000000000000       0.87500000000000000        0.0000000000000000     
  0.71875000000000000       0.87500000000000000        0.0000000000000000     
  0.75000000000000000       0.87500000000000000        0.0000000000000000     
  0.62500000000000000       0.90625000000000000        0.0000000000000000     
  0.65625000000000000       0.90625000000000000        0.0000000000000000     
  0.68750000000000000       0.90625000000000000        0.0000000000000000     
  0.71875000000000000       0.90625000000000000        0.0000000000000000     
  0.75000000000000000       0.90625000000000000        0.0000000000000000     
  0.62500000000000000       0.93750000000000000        0.0000000000000000     
  0.65625000000000000       0.93750000000000000        0.0000000000000000     
  0.68750000000000000       0.93750000000000000        0.0000000000000000     
  0.71875000000000000       0.93750000000000000        0.0000000000000000     
  0.75000000000000000       0.93750000000000000        0.0000000000000000     
  0.62500000000000000       0.96875000000000000        0.0000000000000000     
  0.65625000000000000       0.96875000000000000        0.0000000000000000     
  0.68750000000000000       0.96875000000000000        0.0000000000000000     
  0.71875000000000000       0.96875000000000000        0.0000000000000000     
  0.75000000000000000       0.96875000000000000        0.0000000000000000     
  0.62500000000000000        1.0000000000000000        0.0000000000000000     
  0.65625000000000000        1.0000000000000000        0.0000000000000000     
  0.68750000000000000        1.0000000000000000        0.0000000000000000     
  0.71875000000000000        1.0000000000000000        0.0000000000000000     
  0.75000000000000000        1.0000000000000000        0.0000000000000000     
  0.75000000000000000       0.87500000000000000        0.0000000000000000     
  0.78125000000000000       0.87500000000000000        0.0000000000000000     
  0.81250000000000000       0.87500000000000000        0.0000000000000000     
  0.84375000000000000       0.87500000000000000        0.0000000000000000     
  0.87500000000000000       0.87500000000000000        0.0000000000000000     
  0.75000000000000000       0.90625000000000000        0.0000000000000000     
  0.78125000000000000       0.90625000000000000        0.0000000000000000     
  0.81250000000000000       0.90625000000000000        0.0000000000000000     
  0.84375000000000000       0.90625000000000000        0.0000000000000000     
  0.87500000000000000       0.90625000000000000        0.0000000000000000     
  0.75000000000000000       0.93750000000000000        0.0000000000000000     
  0.78125000000000000       0.93750000000000000        0.0000000000000000     
  0.81250000000000000       0.93750000000000000        0.0000000000000000     
  0.84375000000000000       0.93750000000000000        0.0000000000000000     
  0.87500000000000000       0.93750000000000000        0.0000000000000000     
  0.75000000000000000       0.96875000000000000        0.0000000000000000     
  0.78125000000000000       0.96875000000000000        0.0000000000000000     
  0.81250000000000000       0.96875000000000000        0.0000000000000000     
  0.84375000000000000       0.96875000000000000        0.0000000000000000     
  0.87500000000000000       0.96875000000000000        0.0000000000000000     
  0.75000000000000000        1.0000000000000000        0.0000000000000000     
  0.78125000000000000        1.0000000000000000        0.0000000000000000     
  0.81250000000000000        1.0000000000000000        0.0000000000000000     
  0.84375000000000000        1.0000000000000000        0.0000000000000000     
  0.87500000000000000        1.0000000000000000        0.0000000000000000     
  0.87500000000000000       0.87500000000000000        0.0000000000000000     
  0.90625000000000000       0.87500000000000000        0.0000000000000000     
  0.93750000000000000       0.87500000000000000        0.0000000000000000     
  0.96875000000000000       0.87500000000000000        0.0000000000000000     
   1.0000000000000000       0.87500000000000000        0.0000000000000000     
  0.87500000000000000       0.90625000000000000        0.0000000000000000     
  0.90625000000000000       0.90625000000000000        0.0000000000000000     
  0.93750000000000000       0.90625000000000000        0.0000000000000000     
  0.96875000000000000       0.90625000000000000        0.0000000000000000     
   1.0000000000000000       0.90625000000000000        0.0000000000000000     
  0.87500000000000000       0.93750000000000000        0.0000000000000000     
  0.90625000000000000       0.93750000000000000        0.0000000000000000     
  0.93750000000000000       0.93750000000000000        0.0000000000000000     
  0.96875000000000000       0.93750000000000000        0.0000000000000000     
   1.0000000000000000       0.93750000000000000        0.0000000000000000     
  0.87500000000000000       0.96875000000000000        0.0000000000000000     
  0.90625000000000000       0.96875000000000000        0.0000000000000000     
  0.93750000000000000       0.96875000000000000        0.0000000000000000     
  0.96875000000000000       0.96875000000000000        0.0000000000000000     
   1.0000000000000000       0.96875000000000000        0.0000000000000000     
  0.87500000000000000        1.0000000000000000        0.0000000000000000     
  0.90625000000000000        1.0000000000000000        0.0000000000000000     
  0.93750000000000000        1.0000000000000000        0.0000000000000000     
  0.96875000000000000        1.0000000000000000        0.0000000000000000     
   1.0000000000000000        1.0000000000000000        0.0000000000000000     
 </DataArray>
 </Points>
 <Cells>
 <DataArray  type="Int32"  Name="connectivity"  format="ascii">
           0           1           6           5
           1           2           7           6
           2           3           8           7
           3           4           9           8
           5           6          11          10
           6           7          12          11
           7           8          13          12
           8           9          14          13
          10          11          16          15
          11          12          17          16
          12          13          18          17
          13          14          19          18
          15          16          21          20
          16          17          22          21
          17          18          23          22
          18          19          24          23
          25          26          31          30
          26          27          32          31
          27          28          33          32
          28          29          34          33
          30          31          36          35
          31          32          37          36
          32          33          38          37
          33          34          39          38
          35          36          41          40
          36          37          42          41
          37          38          43          42
          38          39          44          43
          40          41          46          45
          41          42          47          46
          42          43          48          47
          43          44          49          48
          50          51          56          55
          51          52          57          56
          52          53          58          57
          53          54          59          58
          55          56          61          60
          56          57          62          61
          57          58          63          62
          58          59          64          63
          60          61          66          65
          61          62          67          66
          62          63          68          67
          63          64          69          68
          65          66          71          70
          66          67          72          71
          67          68          73          72
          68          69          74          73
          75          76          81          80
          76          77          82          81
          77          78          83          82
          78          79          84          83
          80          81          86          85
          81          82          87          86
          82          83          88          87
          83          84          89          88
          85          86          91          90
          86          87          92          91
          87          88          93          92
          88          89          94          93
          90          91          96          95
          91          92          97          96
          92          93          98          97
          93          94          99          98
         100         101         106         105
         101         102         107         106
         102         103         108         107
         103         104         109         108
         105         106         111         110
         106         107         112         111
         107         108         113         112
         108         109         114         113
         110         111         116         115
         111         112         117         116
         112         113         118         117
         113         114         119         118
         115         116         121         120
         116         117         122         121
         117         118         123         122
         118         119         124         123
         125         126         131         130
         126         127         132         131
         127         128         133         132
         128         129         134         133
         130         131         136         135
         131         132         137         136
         132         133         138         137
         133         134         139         138
         135         136         141         140
         136         137         142         141
         137         138         143         142
         138         139         144         143
         140         141         146         145
         141         142         147         146
         142         143         148         147
         143         144         149         148
         150         151         156         155
         151         152         157         156
         152         153         158         157
         153         154         159         158
         155         156         161         160
         156         157         162         161
         157         158         163         162
         158         159         164         163
         160         161         166         165
         161         162         167         166
         162         163         168         167
         163         164         169         168
         165         166         171         170
         166         167         172         171
         167         168         173         172
         168         169         174         173
         175         176         181         180
         176         177         182         181
         177         178         183         182
         178         179         184         183
         180         181         186         185
         181         182         187         186
         182         183         188         187
         183         184         189         188
         185         186         191         190
         186         187         192         191
         187         188         193         192
         188         189         194         193
         190         191         196         195
         191         192         197         196
         192         193         198         197
         193         194         199         198
         200         201         206         205
         201         202         207         206
         202         203         208         207
         203         204         209         208
         205         206         211         210
         206         207         212         211
         207         208         213         212
         208         209         214         213
         210         211         216         215
         211         212         217         216
         212         213         218         217
         213         214         219         218
         215         216         221         220
         216         217         222         221
         217         218         223         222
         218         219         224         223
         225         226         231         230
         226         227         232         231
         227         228         233         232
         228         229         234         233
         230         231         236         235
         231         232         237         236
         232         233         238         237
         233         234         239         238
         235         236         241         240
         236         237         242         241
         237         238         243         242
         238         239         244         243
         240         241         246         245
         241         242         247         246
         242         243         248         247
         243         244         249         248
         250         251         256         255
         251         252         257         256
         252         253         258         257
         253         254         259         258
         255         256         261         260
         256         257         262         261
         257         258         263         262
         258         259         264         263
         260         261         266         265
         261         262         267         266
         262         263         268         267
         263         264         269         268
         265         266         271         270
         266         267         272         271
         267         268         273         272
         268         269         274         273
         275         276         281         280
         276         277         282         281
         277         278         283         282
         278         279         284         283
         280         281         286         285
         281         282         287         286
         282         283         288         287
         283         284         289         288
         285         286         291         290
         286         287         292         291
         287         288         293         292
         288         289         294         293
         290         291         296         295
         291         292         297         296
         292         293         298         297
         293         294         299         298
         300         301         306         305
         301         302         307         306
         302         303         308         307
         303         304         309         308
         305         306         311         310
         306         307         312         311
         307         308         313         312
         308         309         314         313
         310         311         316         315
         311         312         317         316
         312         313         318         317
         313         314         319         318
         315         316         321         320
         316         317         322         321
         317         318         323         322
         318         319         324         323
         325         326         331         330
         326         327         332         331
         327         328         333         332
         328         329         334         333
         330         331         336         335
         331         332         337         336
         332         333         338         337
         333         334         339         338
         335         336         341         340
         336         337         342         341
         337         338         343         342
         338         339         344         343
         340         341         346         345
         341         342         347         346
         342         343         348         347
         343         344         349         348
         350         351         356         355
         351         352         357         356
         352         353         358         357
         353         354         359         358
         355         356         361         360
         356         357         362         361
         357         358         363         362
         358         359         364         363
         360         361         366         365
         361         362         367         366
         362         363         368         367
         363         364         369         368
         365         366         371         370
         366         367         372         371
         367         368         373         372
         368         369         374         373
         375         376         381         380
         376         377         382         381
         377         378         383         382
         378         379         384         383
         380         381         386         385
         381         382         387         386
         382         383         388         387
         383         384         389         388
         385         386         391         390
         386         387         392         391
         387         388         393         392
         388         389         394         393
         390         391         396         395
         391         392         397         396
         392         393         398         397
         393         394         399         398
         400         401         406         405
         401         402         407         406
         402         403         408         407
         403         404         409         408
         405         406         411         410
         406         407         412         411
         407         408         413         412
         408         409         414         413
         410         411         416         415
         411         412         417         416
         412         413         418         417
         413         414         419         418
         415         416         421         420
         416         417         422         421
         417         418         423         422
         418         419         424         423
         425         426         431         430
         426         427         432         431
         427         428         433         432
         428         429         434         433
         430         431         436         435
         431         432         437         436
         432         433         438         437
         433         434         439         438
         435         436         441         440
         436         437         442         441
         437         438         443         442
         438         439         444         443
         440         441         446         445
         441         442         447         446
         442         443         448         447
         443         444         449         448
         450         451         456         455
         451         452         457         456
         452         453         458         457
         453         454         459         458
         455         456         461         460
         456         457         462         461
         457         458         463         462
         458         459         464         463
         460         461         466         465
         461         462         467         466
         462         463         468         467
         463         464         469         468
         465         466         471         470
         466         467         472         471
         467         468         473         472
         468         469         474         473
         475         476         481         480
         476         477         482         481
         477         478         483         482
         478         479         484         483
         480         481         486         485
         481         482         487         486
         482         483         488         487
         483         484         489         488
         485         486         491         490
         486         487         492         491
         487         488         493         492
         488         489         494         493
         490         491         496         495
         491         492         497         496
         492         493         498         497
         493         494         499         498
         500         501         506         505
         501         502         507         506
         502         503         508         507
         503         504         509         508
         505         506         511         510
         506         507         512         511
         507         508         513         512
         508         509         514         513
         510         511         516         515
         511         512         517         516
         512         513         518         517
         513         514         519         518
         515         516         521         520
         516         517         522         521
         517         518         523         522
         518         519         524         523
         525         526         531         530
         526         527         532         531
         527         528         533         532
         528         529         534         533
         530         531         536         535
         531         532         537         536
         532         533         538         537
         533         534         539         538
         535         536         541         540
         536         537         542         541
         537         538         543         542
         538         539         544         543
         540         541         546         545
         541         542         547         546
         542         543         548         547
         543         544         549         548
         550         551         556         555
         551         552         557         556
         552         553         558         557
         553         554         559         558
         555         556         561         560
         556         557         562         561
         557         558         563         562
         558         559         564         563
         560         561         566         565
         561         562         567         566
         562         563         568         567
         563         564         569         568
         565         566         571         570
         566         567         572         571
         567         568         573         572
         568         569         574         573
         575         576         581         580
         576         577         582         581
         577         578         583         582
         578         579         584         583
         580         581         586         585
         581         582         587         586
         582         583         588         587
         583         584         589         588
         585         586         591         590
         586         587         592         591
         587         588         593         592
         588         589         594         593
         590         591         596         595
         591         592         597         596
         592         593         598         597
         593         594         599         598
         600         601         606         605
         601         602         607         606
         602         603         608         607
         603         604         609         608
         605         606         611         610
         606         607         612         611
         607         608         613         612
         608         609         614         613
         610         611         616         615
         611         612         617         616
         612         613         618         617
         613         614         619         618
         615         616         621         620
         616         617         622         621
         617         618         623         622
         618         619         624         623
         625         626         631         630
         626         627         632         631
         627         628         633         632
         628         629         634         633
         630         631         636         635
         631         632         637         636
         632         633         638         637
         633         634         639         638
         635         636         641         640
         636         637         642         641
         637         638         643         642
         638         639         644         643
         640         641         646         645
         641         642         647         646
         642         643         648         647
         643         644         649         648
         650         651         656         655
         651         652         657         656
         652         653         658         657
         653         654         659         658
         655         656         661         660
         656         657         662         661
         657         658         663         662
         658         659         664         663
         660         661         666         665
         661         662         667         666
         662         663         668         667
         663         664         669         668
         665         666         671         670
         666         667         672         671
         667         668         673         672
         668         669         674         673
         675         676         681         680
         676         677         682         681
         677         678         683         682
         678         679         684         683
         680         681         686         685
         681         682         687         686
         682         683         688         687
         683         684         689         688
         685         686         691         690
         686         687         692         691
         687         688         693         692
         688         689         694         693
         690         691         696         695
         691         692         697         696
         692         693         698         697
         693         694         699         698
         700         701         706         705
         701         702         707         706
         702         703         708         707
         703         704         709         708
         705         706         711         710
         706         707         712         711
         707         708         713         712
         708         709         714         713
         710         711         716         715
         711         712         717         716
         712         713         718         717
         713         714         719         718
         715         716         721         720
         716         717         722         721
         717         718         723         722
         718         719         724         723
         725         726         731         730
         726         727         732         731
         727         728         733         732
         728         729         734         733
         730         731         736         735
         731         732         737         736
         732         733         738         737
         733         734         739         738
         735         736         741         740
         736         737         742         741
         737         738         743         742
         738         739         744         743
         740         741         746         745
         741         742         747         746
         742         743         748         747
         743         744         749         748
         750         751         756         755
         751         752         757         756
         752         753         758         757
         753         754         759         758
         755         756         761         760
         756         757         762         761
         757         758         763         762
         758         759         764         763
         760         761         766         765
         761         762         767         766
         762         763         768         767
         763         764         769         768
         765         766         771         770
         766         767         772         771
         767         768         773         772
         768         769         774         773
         775         776         781         780
         776         777         782         781
         777         778         783         782
         778         779         784         783
         780         781         786         785
         781         782         787         786
         782         783         788         787
         783         784         789         788
         785         786         791         790
         786         787         792         791
         787         788         793         792
         788         789         794         793
         790         791         796         795
         791         792         797         796
         792         793         798         797
         793         794         799         798
         800         801         806         805
         801         802         807         806
         802         803         808         807
         803         804         809         808
         805         806         811         810
         806         807         812         811
         807         808         813         812
         808         809         814         813
         810         811         816         815
         811         812         817         816
         812         813         818         817
         813         814         819         818
         815         816         821         820
         816         817         822         821
         817         818         823         822
         818         819         824         823
         825         826         831         830
         826         827         832         831
         827         828         833         832
         828         829         834         833
         830         831         836         835
         831         832         837         836
         832         833         838         837
         833         834         839         838
         835         836         841         840
         836         837         842         841
         837         838         843         842
         838         839         844         843
         840         841         846         845
         841         842         847         846
         842         843         848         847
         843         844         849         848
         850         851         856         855
         851         852         857         856
         852         853         858         857
         853         854         859         858
         855         856         861         860
         856         857         862         861
         857         858         863         862
         858         859         864         863
         860         861         866         865
         861         862         867         866
         862         863         868         867
         863         864         869         868
         865         866         871         870
         866         867         872         871
         867         868         873         872
         868         869         874         873
         875         876         881         880
         876         877         882         881
         877         878         883         882
         878         879         884         883
         880         881         886         885
         881         882         887         886
         882         883         888         887
         883         884         889         888
         885         886         891         890
         886         887         892         891
         887         888         893         892
         888         889         894         893
         890         891         896         895
         891         892         897         896
         892         893         898         897
         893         894         899         898
         900         901         906         905
         901         902         907         906
         902         903         908         907
         903         904         909         908
         905         906         911         910
         906         907         912         911
         907         908         913         912
         908         909         914         913
         910         911         916         915
         911         912         917         916
         912         913         918         917
         913         914         919         918
         915         916         921         920
         916         917         922         921
         917         918         923         922
         918         919         924         923
         925         926         931         930
         926         927         932         931
         927         928         933         932
         928         929         934         933
         930         931         936         935
         931         932         937         936
         932         933         938         937
         933         934         939         938
         935         936         941         940
         936         937         942         941
         937         938         943         942
         938         939         944         943
         940         941         946         945
         941         942         947         946
         942         943         948         947
         943         944         949         948
         950         951         956         955
         951         952         957         956
         952         953         958         957
         953         954         959         958
         955         956         961         960
         956         957         962         961
         957         958         963         962
         958         959         964         963
         960         961         966         965
         961         962         967         966
         962         963         968         967
         963         964         969         968
         965         966         971         970
         966         967         972         971
         967         968         973         972
         968         969         974         973
         975         976         981         980
         976         977         982         981
         977         978         983         982
         978         979         984         983
         980         981         986         985
         981         982         987         986
         982         983         988         987
         983         984         989         988
         985         986         991         990
         986         987         992         991
         987         988         993         992
         988         989         994         993
         990         991         996         995
         991         992         997         996
         992         993         998         997
         993         994         999         998
        1000        1001        1006        1005
        1001        1002        1007        1006
        1002        1003        1008        1007
        1003        1004        1009        1008
        1005        1006        1011        1010
        1006        1007        1012        1011
        1007        1008        1013        1012
        1008        1009        1014        1013
        1010        1011        1016        1015
        1011        1012        1017        1016
        1012        1013        1018        1017
        1013        1014        1019        1018
        1015        1016        1021        1020
        1016        1017        1022        1021
        1017        1018        1023        1022
        1018        1019        1024        1023
        1025        1026        1031        1030
        1026        1027        1032        1031
        1027        1028        1033        1032
        1028        1029        1034        1033
        1030        1031        1036        1035
        1031        1032        1037        1036
        1032        1033        1038        1037
        1033        1034        1039        1038
        1035        1036        1041        1040
        1036        1037        1042        1041
        1037        1038        1043        1042
        1038        1039        1044        1043
        1040        1041        1046        1045
        1041        1042        1047        1046
        1042        1043        1048        1047
        1043        1044        1049        1048
        1050        1051        1056        1055
        1051        1052        1057        1056
        1052        1053        1058        1057
        1053        1054        1059        1058
        1055        1056        1061        1060
        1056        1057        1062        1061
        1057        1058        1063        1062
        1058        1059        1064        1063
        1060        1061        1066        1065
        1061        1062        1067        1066
        1062        1063        1068        1067
        1063        1064        1069        1068
        1065        1066        1071        1070
        1066        1067        1072        1071
        1067        1068        1073        1072
        1068        1069        1074        1073
        1075        1076        1081        1080
        1076        1077        1082        1081
        1077        1078        1083        1082
        1078        1079        1084        1083
        1080        1081        1086        1085
        1081        1082        1087        1086
        1082        1083        1088        1087
        1083        1084        1089        1088
        1085        1086        1091        1090
        1086        1087        1092        1091
        1087        1088        1093        1092
        1088        1089        1094        1093
        1090        1091        1096        1095
        1091        1092        1097        1096
        1092        1093        1098        1097
        1093        1094        1099        1098
        1100        1101        1106        1105
        1101        1102        1107        1106
        1102        1103        1108        1107
        1103        1104        1109        1108
        1105        1106        1111        1110
        1106        1107        1112        1111
        1107        1108        1113        1112
        1108        1109        1114        1113
        1110        1111        1116        1115
        1111        1112        1117        1116
        1112        1113        1118        1117
        1113        1114        1119        1118
        1115        1116        1121        1120
        1116        1117        1122        1121
        1117        1118        1123        1122
        1118        1119        1124        1123
        1125        1126        1131        1130
        1126        1127        1132        1131
        1127        1128        1133        1132
        1128        1129        1134        1133
        1130        1131        1136        1135
        1131        1132        1137        1136
        1132        1133        1138        1137
        1133        1134        1139        1138
        1135        1136        1141        1140
        1136        1137        1142        1141
        1137        1138        1143        1142
        1138        1139        1144        1143
        1140        1141        1146        1145
        1141        1142        1147        1146
        1142        1143        1148        1147
        1143        1144        1149        1148
        1150        1151        1156        1155
        1151        1152        1157        1156
        1152        1153        1158        1157
        1153        1154        1159        1158
        1155        1156        1161        1160
        1156        1157        1162        1161
        1157        1158        1163        1162
        1158        1159        1164        1163
        1160        1161        1166        1165
        1161        1162        1167        1166
        1162        1163        1168        1167
        1163        1164        1169        1168
        1165        1166        1171        1170
        1166        1167        1172        1171
        1167        1168        1173        1172
        1168        1169        1174        1173
        1175        1176        1181        1180
        1176        1177        1182        1181
        1177        1178        1183        1182
        1178        1179        1184        1183
        1180        1181        1186        1185
        1181        1182        1187        1186
        1182        1183        1188        1187
        1183        1184        1189        1188
        1185        1186        1191        1190
        1186        1187        1192        1191
        1187        1188        1193        1192
        1188        1189        1194        1193
        1190        1191        1196        1195
        1191        1192        1197        1196
        1192        1193        1198        1197
        1193        1194        1199        1198
        1200        1201        1206        1205
        1201        1202        1207        1206
        1202        1203        1208        1207
        1203        1204        1209        1208
        1205        1206        1211        1210
        1206        1207        1212        1211
        1207        1208        1213        1212
        1208        1209        1214        1213
        1210        1211        1216        1215
        1211        1212        1217        1216
        1212        1213        1218        1217
        1213        1214        1219        1218
        1215        1216        1221        1220
        1216        1217        1222        1221
        1217        1218        1223        1222
        1218        1219        1224        1223
        1225        1226        1231        1230
        1226        1227        1232        1231
        1227        1228        1233        1232
        1228        1229        1234        1233
        1230        1231        1236        1235
        1231        1232        1237        1236
        1232        1233        1238        1237
        1233        1234        1239        1238
        1235        1236        1241        1240
        1236        1237        1242        1241
        1237        1238        1243        1242
        1238        1239        1244        1243
        1240        1241        1246        1245
        1241        1242        1247        1246
        1242        1243        1248        1247
        1243        1244        1249        1248
        1250        1251        1256        1255
        1251        1252        1257        1256
        1252        1253        1258        1257
        1253        1254        1259        1258
        1255        1256        1261        1260
        1256        1257        1262        1261
        1257        1258        1263        1262
        1258        1259        1264        1263
        1260        1261        1266        1265
        1261        1262        1267        1266
        1262        1263        1268        1267
        1263        1264        1269        1268
        1265        1266        1271        1270
        1266        1267        1272        1271
        1267        1268        1273        1272
        1268        1269        1274        1273
        1275        1276        1281        1280
        1276        1277        1282        1281
        1277        1278        1283        1282
        1278        1279        1284        1283
        1280        1281        1286        1285
        1281        1282        1287        1286
        1282        1283        1288        1287
        1283        1284        1289        1288
        1285        1286        1291        1290
        1286        1287        1292        1291
        1287        1288        1293        1292
        1288        1289        1294        1293
        1290        1291        1296        1295
        1291        1292        1297        1296
        1292        1293        1298        1297
        1293        1294        1299        1298
        1300        1301        1306        1305
        1301        1302        1307        1306
        1302        1303        1308        1307
        1303        1304        1309        1308
        1305        1306        1311        1310
        1306        1307        1312        1311
        1307        1308        1313        1312
        1308        1309        1314        1313
        1310        1311        1316        1315
        1311        1312        1317        1316
        1312        1313        1318        1317
        1313        1314        1319        1318
        1315        1316        1321        1320
        1316        1317        1322        1321
        1317        1318        1323        1322
        1318        1319        1324        1323
        1325        1326        1331        1330
        1326        1327        1332        1331
        1327        1328        1333        1332
        1328        1329        1334        1333
        1330        1331        1336        1335
        1331        1332        1337        1336
        1332        1333        1338        1337
        1333        1334        1339        1338
        1335        1336        1341        1340
        1336        1337        1342        1341
        1337        1338        1343        1342
        1338        1339        1344        1343
        1340        1341        1346        1345
        1341        1342        1347        1346
        1342        1343        1348        1347
        1343        1344        1349        1348
        1350        1351        1356        1355
        1351        1352        1357        1356
        1352        1353        1358        1357
        1353        1354        1359        1358
        1355        1356        1361        1360
        1356        1357        1362        1361
        1357        1358        1363        1362
        1358        1359        1364        1363
        1360        1361        1366        1365
        1361        1362        1367        1366
        1362        1363        1368        1367
        1363        1364        1369        1368
        1365        1366        1371        1370
        1366        1367        1372        1371
        1367        1368        1373        1372
        1368        1369        1374        1373
        1375        1376        1381        1380
        1376        1377        1382        1381
        1377        1378        1383        1382
        1378        1379        1384        1383
        1380        1381        1386        1385
        1381        1382        1387        1386
        1382        1383        1388        1387
        1383        1384        1389        1388
        1385        1386        1391        1390
        1386        1387        1392        1391
        1387        1388        1393        1392
        1388        1389        1394        1393
        1390        1391        1396        1395
        1391        1392        1397        1396
        1392        1393        1398        1397
        1393        1394        1399        1398
        1400        1401        1406        1405
        1401        1402        1407        1406
        1402        1403        1408        1407
        1403        1404        1409        1408
        1405        1406        1411        1410
        1406        1407        1412        1411
        1407        1408        1413        1412
        1408        1409        1414        1413
        1410        1411        1416        1415
        1411        1412        1417        1416
        1412        1413        1418        1417
        1413        1414        1419        1418
        1415        1416        1421        1420
        1416        1417        1422        1421
        1417        1418        1423        1422
        1418        1419        1424        1423
        1425        1426        1431        1430
        1426        1427        1432        1431
        1427        1428        1433        1432
        1428        1429        1434        1433
        1430        1431        1436        1435
        1431        1432        1437        1436
        1432        1433        1438        1437
        1433        1434        1439        1438
        1435        1436        1441        1440
        1436        1437        1442        1441
        1437        1438        1443        1442
        1438        1439        1444        1443
        1440        1441        1446        1445
        1441        1442        1447        1446
        1442        1443        1448        1447
        1443        1444        1449        1448
        1450        1451        1456        1455
        1451        1452        1457        1456
        1452        1453        1458        1457
        1453        1454        1459        1458
        1455        1456        1461        1460
        1456        1457        1462        1461
        1457        1458        1463        1462
        1458        1459        1464        1463
        1460        1461        1466        1465
        1461        1462        1467        1466
        1462        1463        1468        1467
        1463        1464        1469        1468
        1465        1466        1471        1470
        1466        1467        1472        1471
        1467        1468        1473        1472
        1468        1469        1474        1473
        1475        1476        1481        1480
        1476        1477        1482        1481
        1477        1478        1483        1482
        1478        1479        1484        1483
        1480        1481        1486        1485
        1481        1482        1487        1486
        1482        1483        1488        1487
        1483        1484        1489        1488
        1485        1486        1491        1490
        1486        1487        1492        1491
        1487        1488        1493        1492
        1488        1489        1494        1493
        1490        1491        1496        1495
        1491        1492        1497        1496
        1492        1493        1498        1497
        1493        1494        1499        1498
        1500        1501        1506        1505
        1501        1502        1507        1506
        1502        1503        1508        1507
        1503        1504        1509        1508
        1505        1506        1511        1510
        1506        1507        1512        1511
        1507        1508        1513        1512
        1508        1509        1514        1513
        1510        1511        1516        1515
        1511        1512        1517        1516
        1512        1513        1518        1517
        1513        1514        1519        1518
        1515        1516        1521        1520
        1516        1517        1522        1521
        1517        1518        1523        1522
        1518        1519        1524        1523
        1525        1526        1531        1530
        1526        1527        1532        1531
        1527        1528        1533        1532
        1528        1529        1534        1533
        1530        1531        1536        1535
        1531        1532        1537        1536
        1532        1533        1538        1537
        1533        1534        1539        1538
        1535        1536        1541        1540
        1536        1537        1542        1541
        1537        1538        1543        1542
        1538        1539        1544        1543
        1540        1541        1546        1545
        1541        1542        1547        1546
        1542        1543        1548        1547
        1543        1544        1549        1548
        1550        1551        1556        1555
        1551        1552        1557        1556
        1552        1553        1558        1557
        1553        1554        1559        1558
        1555        1556        1561        1560
        1556        1557        1562        1561
        1557        1558        1563        1562
        1558        1559        1564        1563
        1560        1561        1566        1565
        1561        1562        1567        1566
        1562        1563        1568        1567
        1563        1564        1569        1568
        1565        1566        1571        1570
        1566        1567        1572        1571
        1567        1568        1573        1572
        1568        1569        1574        1573
        1575        1576        1581        1580
        1576        1577        1582        1581
        1577        1578        1583        1582
        1578        1579        1584        1583
        1580        1581        1586        1585
        1581        1582        1587        1586
        1582        1583        1588        1587
        1583        1584        1589        1588
        1585        1586        1591        1590
        1586        1587        1592        1591
        1587        1588        1593        1592
        1588        1589        1594        1593
        1590        1591        1596        1595
        1591        1592        1597        1596
        1592        1593        1598        1597
        1593        1594        1599        1598
 </DataArray>
 <DataArray  type="Int32"  Name="offsets"  format="ascii"> 
           4
           8
          12
          16
          20
          24
          28
          32
          36
          40
          44
          48
          52
          56
          60
          64
          68
          72
          76
          80
          84
          88
          92
          96
         100
         104
         108
         112
         116
         120
         124
         128
         132
         136
         140
         144
         148
         152
         156
         160
         164
         168
         172
         176
         180
         184
         188
         192
         196
         200
         204
         208
         212
         216
         220
         224
         228
         232
         236
         240
         244
         248
         252
         256
         260
         264
         268
         272
         276
         280
         284
         288
         292
         296
         300
         304
         308
         312
         316
         320
         324
         328
         332
         336
         340
         344
         348
         352
         356
         360
         364
         368
         372
         376
         380
         384
         388
         392
         396
         400
         404
         408
         412
         416
         420
         424
         428
         432
         436
         440
         444
         448
         452
         456
         460
         464
         468
         472
         476
         480
         484
         488
         492
         496
         500
         504
         508
         512
         516
         520
         524
         528
         532
         536
         540
         544
         548
         552
         556
         560
         564
         568
         572
         576
         580
         584
         588
         592
         596
         600
         604
         608
         612
         616
         620
         624
         628
         632
         636
         640
         644
         648
         652
         656
         660
         664
         668
         672
         676
         680
         684
         688
         692
         696
         700
         704
         708
         712
         716
         720
         724
         728
         732
         736
         740
         744
         748
         752
         756
         760
         764
         768
         772
         776
         780
         784
         788
         792
         796
         800
         804
         808
         812
         816
         820
         824
         828
         832
         836
         840
         844
         848
         852
         856
         860
         864
         868
         872
         876
         880
         884
         888
         892
         896
         900
         904
         908
         912
         916
         920
         924
         928
         932
         936
         940
         944
         948
         952
         956
         960
         964
         968
         972
         976
         980
         984
         988
         992
         996
        1000
        1004
        1008
        1012
        1016
        1020
        1024
        1028
        1032
        1036
        1040
        1044
        1048
        1052
        1056
        1060
        1064
        1068
        1072
        1076
        1080
        1084
        1088
        1092
        1096
        1100
        1104
        1108
        1112
        1116
        1120
        1124
        1128
        1132
        1136
        1140
        1144
        1148
        1152
        1156
        1160
        1164
        1168
        1172
        1176
        1180
        1184
        1188
        1192
        1196
        1200
        1204
        1208
        1212
        1216
        1220
        1224
        1228
        1232
        1236
        1240
        1244
        1248
        1252
        1256
        1260
        1264
        1268
        1272
        1276
        1280
        1284
        1288
        1292
        1296
        1300
        1304
        1308
        1312
        1316
        1320
        1324
        1328
        1332
        1336
        1340
        1344
        1348
        1352
        1356
        1360
        1364
        1368
        1372
        1376
        1380
        1384
        1388
        1392
        1396
        1400
        1404
        1408
        1412
        1416
        1420
        1424
        1428
        1432
        1436
        1440
        1444
        1448
        1452
        1456
        1460
        1464
        1468
        1472
        1476
        1480
        1484
        1488
        1492
        1496
        1500
        1504
        1508
        1512
        1516
        1520
        1524
        1528
        1532
        1536
        1540
        1544
        1548
        1552
        1556
        1560
        1564
        1568
        1572
        1576
        1580
        1584
        1588
        1592
        1596
        1600
        1604
        1608
        1612
        1616
        1620
        1624
        1628
        1632
        1636
        1640
        1644
        1648
        1652
        1656
        1660
        1664
        1668
        1672
        1676
        1680
        1684
        1688
        1692
        1696
        1700
        1704
        1708
        1712
        1716
        1720
        1724
        1728
        1732
        1736
        1740
        1744
        1748
        1752
        1756
        1760
        1764
        1768
        1772
        1776
        1780
        1784
        1788
        1792
        1796
        1800
        1804
        1808
        1812
        1816
        1820
        1824
        1828
        1832
        1836
        1840
        1844
        1848
        1852
        1856
        1860
        1864
        1868
        1872
        1876
        1880
        1884
        1888
        1892
        1896
        1900
        1904
        1908
        1912
        1916
        1920
        1924
        1928
        1932
        1936
        1940
        1944
        1948
        1952
        1956
        1960
        1964
        1968
        1972
        1976
        1980
        1984
        1988
        1992
        1996
        2000
        2004
        2008
        2012
        2016
        2020
        2024
        2028
        2032
        2036
        2040
        2044
        2048
        2052
        2056
        2060
        2064
        2068
        2072
        2076
        2080
        2084
        2088
        2092
        2096
        2100
        2104
        2108
        2112
        2116
        2120
        2124
        2128
        2132
        2136
        2140
        2144
        2148
        2152
        2156
        2160
        2164
        2168
        2172
        2176
        2180
        2184
        2188
        2192
        2196
        2200
        2204
        2208
        2212
        2216
        2220
        2224
        2228
        2232
        2236
        2240
        2244
        2248
        2252
        2256
        2260
        2264
        2268
        2272
        2276
        2280
        2284
        2288
        2292
        2296
        2300
        2304
        2308
        2312
        2316
        2320
        2324
        2328
        2332
        2336
        2340
        2344
        2348
        2352
        2356
        2360
        2364
        2368
        2372
        2376
        2380
        2384
        2388
        2392
        2396
        2400
        2404
        2408
        2412
        2416
        2420
        2424
        2428
        2432
        2436
        2440
        2444
        2448
        2452
        2456
        2460
        2464
        2468
        2472
        2476
        2480
        2484
        2488
        2492
        2496
        2500
        2504
        2508
        2512
        2516
        2520
        2524
        2528
        2532
        2536
        2540
        2544
        2548
        2552
        2556
        2560
        2564
        2568
        2572
        2576
        2580
        2584
        2588
        2592
        2596
        2600
        2604
        2608
        2612
        2616
        2620
        2624
        2628
        2632
        2636
        2640
        2644
        2648
        2652
        2656
        2660
        2664
        2668
        2672
        2676
        2680
        2684
        2688
        2692
        2696
        2700
        2704
        2708
        2712
        2716
        2720
        2724
        2728
        2732
        2736
        2740
        2744
        2748
        2752
        2756
        2760
        2764
        2768
        2772
        2776
        2780
        2784
        2788
        2792
        2796
        2800
        2804
        2808
        2812
        2816
        2820
        2824
        2828
        2832
        2836
        2840
        2844
        2848
        2852
        2856
        2860
        2864
        2868
        2872
        2876
        2880
        2884
        2888
        2892
        2896
        2900
        2904
        2908
        2912
        2916
        2920
        2924
        2928
        2932
        2936
        2940
        2944
        2948
        2952
        2956
        2960
        2964
        2968
        2972
        2976
        2980
        2984
        2988
        2992
        2996
        3000
        3004
        3008
        3012
        3016
        3020
        3024
        3028
        3032
        3036
        3040
        3044
        3048
        3052
        3056
        3060
        3064
        3068
        3072
        3076
        3080
        3084
        3088
        3092
        3096
        3100
        3104
        3108
        3112
        3116
        3120
        3124
        3128
        3132
        3136
        3140
        3144
        3148
        3152
        3156
        3160
        3164
        3168
        3172
        3176
        3180
        3184
        3188
        3192
        3196
        3200
        3204
        3208
        3212
        3216
        3220
        3224
        3228
        3232
        3236
        3240
        3244
        3248
        3252
        3256
        3260
        3264
        3268
        3272
        3276
        3280
        3284
        3288
        3292
        3296
        3300
        3304
        3308
        3312
        3316
        3320
        3324
        3328
        3332
        3336
        3340
        3344
        3348
        3352
        3356
        3360
        3364
        3368
        3372
        3376
        3380
        3384
        3388
        3392
        3396
        3400
        3404
        3408
        3412
        3416
        3420
        3424
        3428
        3432
        3436
        3440
        3444
        3448
        3452
        3456
        3460
        3464
        3468
        3472
        3476
        3480
        3484
        3488
        3492
        3496
        3500
        3504
        3508
        3512
        3516
        3520
        3524
        3528
        3532
        3536
        3540
        3544
        3548
        3552
        3556
        3560
        3564
        3568
        3572
        3576
        3580
        3584
        3588
        3592
        3596
        3600
        3604
        3608
        3612
        3616
        3620
        3624
        3628
        3632
        3636
        3640
        3644
        3648
        3652
        3656
        3660
        3664
        3668
        3672
        3676
        3680
        3684
        3688
        3692
        3696
        3700
        3704
        3708
        3712
        3716
        3720
        3724
        3728
        3732
        3736
        3740
        3744
        3748
        3752
        3756
        3760
        3764
        3768
        3772
        3776
        3780
        3784
        3788
        3792
        3796
        3800
        3804
        3808
        3812
        3816
        3820
        3824
        3828
        3832
        3836
        3840
        3844
        3848
        3852
        3856
        3860
        3864
        3868
        3872
        3876
        3880
        3884
        3888
        3892
        3896
        3900
        3904
        3908
        3912
        3916
        3920
        3924
        3928
        3932
        3936
        3940
        3944
        3948
        3952
        3956
        3960
        3964
        3968
        3972
        3976
        3980
        3984
        3988
        3992
        3996
        4000
        4004
        4008
        4012
        4016
        4020
        4024
        4028
        4032
        4036
        4040
        4044
        4048
        4052
        4056
        4060
        4064
        4068
        4072
        4076
        4080
        4084
        4088
        4092
        4096
 </DataArray>
 <DataArray  type="UInt8"  Name="types"  format="ascii">
 9
 9
 9
 9
 9
 9
 9
 9
 9
 9
 9
 9
 9
 9
 9
 9
 9
 9
 9
 9
 9
 9
 9
 9
 9
 9
 9
 9
 9
 9
 9
 9
 9
 9
 9
 9
 9
 9
 9
 9
 9
 9
 9
 9
 9
 9
 9
 9
 9
 9
 9
 9
 9
 9
 9
 9
 9
 9
 9
 9
 9
 9
 9
 9
 9
 9
 9
 9
 9
 9
 9
 9
 9
 9
 9
 9
 9
 9
 9
 9
 9
 9
 9
 9
 9
 9
 9
 9
 9
 9
 9
 9
 9
 9
 9
 9
 9
 9
 9
 9
 9
 9
 9
 9
 9
 9
 9
 9
 9
 9
 9
 9
 9
 9
 9
 9
 9
 9
 9
 9
 9
 9
 9
 9
 9
 9
 9
 9
 9
 9
 9
 9
 9
 9
 9
 9
 9
 9
 9
 9
 9
 9
 9
 9
 9
 9
 9
 9
 9
 9
 9
 9
 9
 9
 9
 9
 9
 9
 9
 9
 9
 9
 9
 9
 9
 9
 9
 9
 9
 9
 9
 9
 9
 9
 9
 9
 9
 9
 9
 9
 9
 9
 9
 9
 9
 9
 9
 9
 9
 9
 9
 9
 9
 9
 9
 9
 9
 9
 9
 9
 9
 9
 9
 9
 9
 9
 9
 9
 9
 9
 9
 9
 9
 9
 9
 9
 9
 9
 9
 9
 9
 9
 9
 9
 9
 9
 9
 9
 9
 9
 9
 9
 9
 9
 9
 9
 9
 9
 9
 9
 9
 9
 9
 9
 9
 9
 9
 9
 9
 9
 9
 9
 9
 9
 9
 9
 9
 9
 9
 9
 9
 9
 9
 9
 9
 9
 9
 9
 9
 9
 9
 9
 9
 9
 9
 9
 9
 9
 9
 9
 9
 9
 9
 9
 9
 9
 9
 9
 9
 9
 9
 9
 9
 9
 9
 9
 9
 9
 9
 9
 9
 9
 9
 9
 9
 9
 9
 9
 9
 9
 9
 9
 9
 9
 9
 9
 9
 9
 9
 9
 9
 9
 9
 9
 9
 9
 9
 9
 9
 9
 9
 9
 9
 9
 9
 9
 9
 9
 9
 9
 9
 9
 9
 9
 9
 9
 9
 9
 9
 9
 9
 9
 9
 9
 9
 9
 9
 9
 9
 9
 9
 9
 9
 9
 9
 9
 9
 9
 9
 9
 9
 9
 9
 9
 9
 9
 9
 9
 9
 9
 9
 9
 9
 9
 9
 9
 9
 9
 9
 9
 9
 9
 9
 9
 9
 9
 9
 9
 9
 9
 9
 9
 9
 9
 9
 9
 9
 9
 9
 9
 9
 9
 9
 9
 9
 9
 9
 9
 9
 9
 9
 9
 9
 9
 9
 9
 9
 9
 9
 9
 9
 9
 9
 9
 9
 9
 9
 9
 9
 9
 9
 9
 9
 9
 9
 9
 9
 9
 9
 9
 9
 9
 9
 9
 9
 9
 9
 9
 9
 9
 9
 9
 9
 9
 9
 9
 9
 9
 9
 9
 9
 9
 9
 9
 9
 9
 9
 9
 9
 9
 9
 9
 9
 9
 9
 9
 9
 9
 9
 9
 9
 9
 9
 9
 9
 9
 9
 9
 9
 9
 9
 9
 9
 9
 9
 9
 9
 9
 9
 9
 9
 9
 9
 9
 9
 9
 9
 9
 9
 9
 9
 9
 9
 9
 9
 9
 9
 9
 9
 9
 9
 9
 9
 9
 9
 9
 9
 9
 9
 9
 9
 9
 9
 9
 9
 9
 9
 9
 9
 9
 9
 9
 9
 9
 9
 9
 9
 9
 9
 9
 9
 9
 9
 9
 9
 9
 9
 9
 9
 9
 9
 9
 9
 9
 9
 9
 9
 9
 9
 9
 9
 9
 9
 9
 9
 9
 9
 9
 9
 9
 9
 9
 9
 9
 9
 9
 9
 9
 9
 9
 9
 9
 9
 9
 9
 9
 9
 9
 9
 9
 9
 9
 9
 9
 9
 9
 9
 9
 9
 9
 9
 9
 9
 9
 9
 9
 9
 9
 9
 9
 9
 9
 9
 9
 9
 9
 9
 9
 9
 9
 9
 9
 9
 9
 9
 9
 9
 9
 9
 9
 9
 9
 9
 9
 9
 9
 9
 9
 9
 9
 9
 9
 9
 9
 9
 9
 9
 9
 9
 9
 9
 9
 9
 9
 9
 9
 9
 9
 9
 9
 9
 9
 9
 9
 9
 9
 9
 9
 9
 9
 9
 9
 9
 9
 9
 9
 9
 9
 9
 9
 9
 9
 9
 9
 9
 9
 9
 9
 9
 9
 9
 9
 9
 9
 9
 9
 9
 9
 9
 9
 9
 9
 9
 9
 9
 9
 9
 9
 9
 9
 9
 9
 9
 9
 9
 9
 9
 9
 9
 9
 9
 9
 9
 9
 9
 9
 9
 9
 9
 9
 9
 9
 9
 9
 9
 9
 9
 9
 9
 9
 9
 9
 9
 9
 9
 9
 9
 9
 9
 9
 9
 9
 9
 9
 9
 9
 9
 9
 9
 9
 9
 9
 9
 9
 9
 9
 9
 9
 9
 9
 9
 9
 9
 9
 9
 9
 9
 9
 9
 9
 9
 9
 9
 9
 9
 9
 9
 9
 9
 9
 9
 9
 9
 9
 9
 9
 9
 9
 9
 9
 9
 9
 9
 9
 9
 9
 9
 9
 9
 9
 9
 9
 9
 9
 9
 9
 9
 9
 9
 9
 9
 9
 9
 9
 9
 9
 9
 9
 9
 9
 9
 9
 9
 9
 9
 9
 9
 9
 9
 9
 9
 9
 9
 9
 9
 9
 9
 9
 9
 9
 9
 9
 9
 9
 9
 9
 9
 9
 9
 9
 9
 9
 9
 9
 9
 9
 9
 9
 9
 9
 9
 9
 9
 9
 9
 9
 9
 9
 9
 9
 9
 9
 9
 9
 9
 9
 9
 9
 9
 9
 9
 9
 9
 9
 9
 9
 9
 9
 9
 9
 9
 9
 9
 9
 9
 9
 9
 9
 9
 9
 9
 9
 9
 9
 9
 9
 9
 9
 9
 9
 9
 9
 9
 9
 9
 9
 9
 9
 9
 9
 9
 9
 9
 9
 9
 9
 9
 9
 9
 9
 9
 9
 9
 9
 9
 9
 9
 9
 9
 9
 9
 9
 9
 9
 9
 9
 9
 9
 9
 9
 9
 9
 9
 9
 9
 9
 9
 9
 9
 9
 9
 9
 9
 9
 9
 9
 9
 9
 9
 9
 9
 9
 9
 9
 9
 9
 9
 9
 9
 9
 9
 9
 9
 9
 9
 9
 9
 9
 9
 9
 9
 9
 9
 9
 </DataArray>
 </Cells> 
 <PointData>
 <DataArray  type="Float64" Name="disp" NumberOfComponents="3" format="ascii">
   0.0000000000000000        0.0000000000000000        0.0000000000000000     
   6.0948151419165722E-003   3.7898384894168502E-003   0.0000000000000000     
   1.1664456562461364E-002   7.3229551302266827E-003   0.0000000000000000     
   1.6708924261634374E-002   1.0599349922429498E-002   0.0000000000000000     
   2.1228218239435607E-002   1.3619022866025295E-002   0.0000000000000000     
   0.0000000000000000        0.0000000000000000        0.0000000000000000     
   4.8907201682075107E-003   3.0220787365105137E-003   0.0000000000000000     
   9.5728944715601609E-003   6.0602994079919370E-003   0.0000000000000000     
   1.4046522910057951E-002   9.1146620144442695E-003   0.0000000000000000     
   1.8311605483700880E-002   1.2185166555867512E-002   0.0000000000000000     
   0.0000000000000000        0.0000000000000000        0.0000000000000000     
   3.9535411260578990E-003   2.4253609753066641E-003   0.0000000000000000     
   7.9103493781600837E-003   5.0630791705854831E-003   0.0000000000000000     
   1.1870424756306557E-002   7.9131545858364561E-003   0.0000000000000000     
   1.5833767260497313E-002   1.0975587221059584E-002   0.0000000000000000     
   0.0000000000000000        0.0000000000000000        0.0000000000000000     
   3.2832780154677366E-003   1.9996852058053018E-003   0.0000000000000000     
   6.6768212822611323E-003   4.3312944180073218E-003   0.0000000000000000     
   1.0180629800380186E-002   6.9948276366060581E-003   0.0000000000000000     
   1.3794703569824901E-002   9.9902848616015161E-003   0.0000000000000000     
   0.0000000000000000        0.0000000000000000        0.0000000000000000     
   2.8799308364370240E-003   1.7450514280064264E-003   0.0000000000000000     
   5.8723101838633060E-003   3.8649451502574530E-003   0.0000000000000000     
   8.9771380422788462E-003   6.3596811667530791E-003   0.0000000000000000     
   1.2194414411683644E-002   9.2292594774933054E-003   0.0000000000000000     
   2.1228218239435607E-002   1.3619022866025295E-002   0.0000000000000000     
   2.5434239053578635E-002   1.6612416774274240E-002   0.0000000000000000     
   2.9538887261777051E-002   1.9809974460436506E-002   0.0000000000000000     
   3.3542162864030847E-002   2.3211695924512086E-002   0.0000000000000000     
   3.7444065860340034E-002   2.6817581166500987E-002   0.0000000000000000     
   1.8311605483700880E-002   1.2185166555867512E-002   0.0000000000000000     
   2.2406265585287671E-002   1.5340464071766572E-002   0.0000000000000000     
   2.6368626607617043E-002   1.8649205601646370E-002   0.0000000000000000     
   3.0198688550688992E-002   2.2111391145506899E-002   0.0000000000000000     
   3.3896451414503523E-002   2.5727020703348164E-002   0.0000000000000000     
   1.5833767260497313E-002   1.0975587221059584E-002   0.0000000000000000     
   1.9728948826215394E-002   1.4209692984517863E-002   0.0000000000000000     
   2.3484541388943837E-002   1.7574787784474275E-002   0.0000000000000000     
   2.7100544948682644E-002   2.1070871620928834E-002   0.0000000000000000     
   3.0576959505431815E-002   2.4697944493881532E-002   0.0000000000000000     
   1.3794703569824901E-002   9.9902848616015161E-003   0.0000000000000000     
   1.7402288776361810E-002   1.3220103512528098E-002   0.0000000000000000     
   2.0886631605757437E-002   1.6586721008920224E-002   0.0000000000000000     
   2.4247732058011801E-002   2.0090137350777890E-002   0.0000000000000000     
   2.7485590133124890E-002   2.3730352538101095E-002   0.0000000000000000     
   1.2194414411683644E-002   9.2292594774933054E-003   0.0000000000000000     
   1.5426285435726911E-002   1.2371695655797297E-002   0.0000000000000000     
   1.8574897258057853E-002   1.5685005274984221E-002   0.0000000000000000     
   2.1640249878676469E-002   1.9169188335054071E-002   0.0000000000000000     
   2.4622343297582765E-002   2.2824244836006854E-002   0.0000000000000000     
   3.7444065860340034E-002   2.6817581166500987E-002   0.0000000000000000     
   4.1250716260491108E-002   3.0622317514218605E-002   0.0000000000000000     
   4.4968234074270585E-002   3.4620592295480340E-002   0.0000000000000000     
   4.8596619301678468E-002   3.8812405510286190E-002   0.0000000000000000     
   5.2135871942714747E-002   4.3197757158636163E-002   0.0000000000000000     
   3.3896451414503523E-002   2.5727020703348164E-002   0.0000000000000000     
   3.7485152459746075E-002   2.9523668412136356E-002   0.0000000000000000     
   4.0988028947102087E-002   3.3528908408837682E-002   0.0000000000000000     
   4.4405080876571551E-002   3.7742740693452147E-002   0.0000000000000000     
   4.7736308248154474E-002   4.2165165265979729E-002   0.0000000000000000     
   3.0576959505431815E-002   2.4697944493881532E-002   0.0000000000000000     
   3.3942581769818417E-002   2.8499189397112809E-002   0.0000000000000000     
   3.7226208452469531E-002   3.2517789324403093E-002   0.0000000000000000     
   4.0427839553385143E-002   3.6753744275752398E-002   0.0000000000000000     
   4.3547475072565275E-002   4.1207054251160717E-002   0.0000000000000000     
   2.7485590133124890E-002   2.3730352538101095E-002   0.0000000000000000     
   3.0623004190708125E-002   2.7548880469147958E-002   0.0000000000000000     
   3.3682772590372903E-002   3.1587235042176580E-002   0.0000000000000000     
   3.6664895332119245E-002   3.5845416257186964E-002   0.0000000000000000     
   3.9569372415947129E-002   4.0323424114179121E-002   0.0000000000000000     
   2.4622343297582765E-002   2.2824244836006854E-002   0.0000000000000000     
   2.7526419722415197E-002   2.6672741628241799E-002   0.0000000000000000     
   3.0357721360812218E-002   3.0737245562158129E-002   0.0000000000000000     
   3.3116248212773841E-002   3.5017756637755845E-002   0.0000000000000000     
   3.5802000278300050E-002   3.9514274855034941E-002   0.0000000000000000     
   5.2135871942714747E-002   4.3197757158636163E-002   0.0000000000000000     
   5.5581397842579594E-002   4.7784244588850978E-002   0.0000000000000000     
   5.8928602846473138E-002   5.2579465149251388E-002   0.0000000000000000     
   6.2177486954395414E-002   5.7583418839837384E-002   0.0000000000000000     
   6.5328050166346380E-002   6.2796105660608961E-002   0.0000000000000000     
   4.7736308248154474E-002   4.2165165265979729E-002   0.0000000000000000     
   5.0978453858565566E-002   4.6792982515780845E-002   0.0000000000000000     
   5.4128260504519521E-002   5.1622992832215872E-002   0.0000000000000000     
   5.7185728186016346E-002   5.6655196215284823E-002   0.0000000000000000     
   6.0150856903056035E-002   6.1889592664987683E-002   0.0000000000000000     
   4.3547475072565275E-002   4.1207054251160717E-002   0.0000000000000000     
   4.6582093521164429E-002   4.5868127186627375E-002   0.0000000000000000     
   4.9528673410337135E-002   5.0727371018151723E-002   0.0000000000000000     
   5.2387214740083378E-002   5.5784785745733721E-002   0.0000000000000000     
   5.5157717510403173E-002   6.1040371369373410E-002   0.0000000000000000     
   3.9569372415947129E-002   4.0323424114179121E-002   0.0000000000000000     
   4.2392316830376170E-002   4.5009678601390588E-002   0.0000000000000000     
   4.5129841563925965E-002   4.9892599707058921E-002   0.0000000000000000     
   4.7781946616596495E-002   5.4972187431184108E-002   0.0000000000000000     
   5.0348631988387786E-002   6.0248441773766141E-002   0.0000000000000000     
   3.5802000278300050E-002   3.9514274855034941E-002   0.0000000000000000     
   3.8409123786200802E-002   4.4217636760070476E-002   0.0000000000000000     
   4.0931764965286020E-002   4.9118678898937479E-002   0.0000000000000000     
   4.3369923815555725E-002   5.4217401271635948E-002   0.0000000000000000     
   4.5723600337009902E-002   5.9513803878165905E-002   0.0000000000000000     
   6.5328050166346380E-002   6.2796105660608961E-002   0.0000000000000000     
   6.8384829116275636E-002   6.8201684277400351E-002   0.0000000000000000     
   7.1352360438132714E-002   7.3784313356045753E-002   0.0000000000000000     
   7.4230644131917614E-002   7.9543992896545179E-002   0.0000000000000000     
   7.7019680197630350E-002   8.5480722898898617E-002   0.0000000000000000     
   6.0150856903056035E-002   6.1889592664987683E-002   0.0000000000000000     
   6.3026955476081795E-002   6.7315922922674576E-002   0.0000000000000000     
   6.5817332725536803E-002   7.2923927729695623E-002   0.0000000000000000     
   6.8521988651421090E-002   7.8713607086050810E-002   0.0000000000000000     
   7.1140923253734611E-002   8.4684960991740138E-002   0.0000000000000000     
   5.5157717510403173E-002   6.1040371369373410E-002   0.0000000000000000     
   5.7845189132341823E-002   6.6487324892661223E-002   0.0000000000000000     
   6.0454637016944653E-002   7.2118843319187623E-002   0.0000000000000000     
   6.2986061164211668E-002   7.7934926648952588E-002   0.0000000000000000     
   6.5439461574142863E-002   8.3935574881956146E-002   0.0000000000000000     
   5.0348631988387786E-002   6.0248441773766141E-002   0.0000000000000000     
   5.2839530085055736E-002   6.5715890187360279E-002   0.0000000000000000     
   5.5264273312356289E-002   7.1369060124521752E-002   0.0000000000000000     
   5.7622861670289398E-002   7.7207951585250512E-002   0.0000000000000000     
   5.9915295158855117E-002   8.3232564569546613E-002   0.0000000000000000     
   4.5723600337009902E-002   5.9513803878165905E-002   0.0000000000000000     
   4.8009978334223553E-002   6.5001618806771772E-002   0.0000000000000000     
   5.0246241611771672E-002   7.0674578145697997E-002   0.0000000000000000     
   5.2432390169654272E-002   7.6532681894944596E-002   0.0000000000000000     
   5.4568424007871333E-002   8.2575930054511554E-002   0.0000000000000000     
   7.7019680197630350E-002   8.5480722898898617E-002   0.0000000000000000     
   7.9714602714460722E-002   9.1579048077111910E-002   0.0000000000000000     
   8.2310545761598547E-002   9.7823513145190888E-002   0.0000000000000000     
   8.4807509339043824E-002  0.10421411810313556        0.0000000000000000     
   8.7205493446796567E-002  0.11075086295094594        0.0000000000000000     
   7.1140923253734611E-002   8.4684960991740138E-002   0.0000000000000000     
   7.3667602360239087E-002   9.0818326877642311E-002   0.0000000000000000     
   7.6095491798696166E-002   9.7094042174635964E-002   0.0000000000000000     
   7.8424591569105875E-002  0.10351210688272115        0.0000000000000000     
   8.0654901671468174E-002  0.11007252100189784        0.0000000000000000     
   6.5439461574142863E-002   8.3935574881956146E-002   0.0000000000000000     
   6.7805250376560683E-002   9.0099594407285294E-002   0.0000000000000000     
   7.0073839701287555E-002   9.6405791614027056E-002   0.0000000000000000     
   7.2245229548323492E-002  0.10285416650218143        0.0000000000000000     
   7.4319419917668494E-002  0.10944471907174841        0.0000000000000000     
   5.9915295158855117E-002   8.3232564569546613E-002   0.0000000000000000     
   6.2127546763425495E-002   8.9422850666040887E-002   0.0000000000000000     
   6.4245589469372713E-002   9.5758761463364137E-002   0.0000000000000000     
   6.6269423276696729E-002  0.10224029696151639        0.0000000000000000     
   6.8199048185397529E-002  0.10886745716049763        0.0000000000000000     
   5.4568424007871333E-002   8.2575930054511554E-002   0.0000000000000000     
   5.6634491520833552E-002   8.8788095653909049E-002   0.0000000000000000     
   5.8610741102951627E-002   9.5152951722647192E-002   0.0000000000000000     
   6.0497172754225538E-002  0.10167049826072602        0.0000000000000000     
   6.2293786474655298E-002  0.10834073526814551        0.0000000000000000     
   8.7205493446796567E-002  0.11075086295094594        0.0000000000000000     
   8.9502062899505269E-002  0.11744569180424075        0.0000000000000000     
   9.1694782511818423E-002  0.12431054877863877        0.0000000000000000     
   9.3783652283736016E-002  0.13134543387413997        0.0000000000000000     
   9.5768672215258116E-002  0.13855034709074440        0.0000000000000000     
   8.0654901671468174E-002  0.11007252100189784        0.0000000000000000     
   8.2796552311566421E-002  0.11678833696149978        0.0000000000000000     
   8.4859673695184018E-002  0.12367260719086072        0.0000000000000000     
   8.6844265822320868E-002  0.13072533168998066        0.0000000000000000     
   8.8750328692977054E-002  0.13794651045885958        0.0000000000000000     
   7.4319419917668494E-002  0.10944471907174841        0.0000000000000000     
   7.6309701978448094E-002  0.11618705305614770        0.0000000000000000     
   7.8229366899787822E-002  0.12309077218879902        0.0000000000000000     
   8.0078414681687693E-002  0.13015587646970234        0.0000000000000000     
   8.1856845324147692E-002  0.13738236589885769        0.0000000000000000     
   6.8199048185397529E-002  0.10886745716049763        0.0000000000000000     
   7.0041511900150247E-002  0.11564184008818450        0.0000000000000000     
   7.1803862125629891E-002  0.12256504377245366        0.0000000000000000     
   7.3486098861836505E-002  0.12963706821330503        0.0000000000000000     
   7.5088222108770072E-002  0.13685791341073866        0.0000000000000000     
   6.2293786474655298E-002  0.10834073526814551        0.0000000000000000     
   6.3991982076672865E-002  0.11515269805761021        0.0000000000000000     
   6.5583159372710198E-002  0.12209542194182463        0.0000000000000000     
   6.7067318362767275E-002  0.12916890692078881        0.0000000000000000     
   6.8444459046844153E-002  0.13637315299450267        0.0000000000000000     
   9.5768672215258116E-002  0.13855034709074440        0.0000000000000000     
   9.7672340349352821E-002  0.14586437378094264        0.0000000000000000     
   9.9517154728988338E-002  0.15322659929722524        0.0000000000000000     
  0.10130311535416467       0.16063702363959220        0.0000000000000000     
  0.10303022222488180       0.16809564680804356        0.0000000000000000     
   8.8750328692977054E-002  0.13794651045885958        0.0000000000000000     
   9.0567739959298343E-002  0.14528329457468458        0.0000000000000000     
   9.2286377273430559E-002  0.15268283511464278        0.0000000000000000     
   9.3906240635373686E-002  0.16014513207873410        0.0000000000000000     
   9.5427330045127726E-002  0.16767018546695861        0.0000000000000000     
   8.1856845324147692E-002  0.13738236589885769        0.0000000000000000     
   8.3555275956451014E-002  0.14473197230909646        0.0000000000000000     
   8.5164323707880837E-002  0.15216642753325008        0.0000000000000000     
   8.6683988578437107E-002  0.15968573157131863        0.0000000000000000     
   8.8114270568119879E-002  0.16728988442330203        0.0000000000000000     
   7.5088222108770072E-002  0.13685791341073866        0.0000000000000000     
   7.6634948340810860E-002  0.14421040698417822        0.0000000000000000     
   7.8150994032339147E-002  0.15167737655304725        0.0000000000000000     
   7.9636359183354932E-002  0.15925882211734577        0.0000000000000000     
   8.1091043793858217E-002  0.16695474367707377        0.0000000000000000     
   6.8444459046844153E-002  0.13637315299450267        0.0000000000000000     
   6.9806757112377854E-002  0.14371859859992994        0.0000000000000000     
   7.1246388246805542E-002  0.15121568217403422        0.0000000000000000     
   7.2763352450127189E-002  0.15886440371681557        0.0000000000000000     
   7.4357649722342795E-002  0.16666476322827389        0.0000000000000000     
   0.0000000000000000        0.0000000000000000        0.0000000000000000     
   2.8799308364370240E-003   1.7450514280064264E-003   0.0000000000000000     
   5.8723101838633060E-003   3.8649451502574530E-003   0.0000000000000000     
   8.9771380422788462E-003   6.3596811667530791E-003   0.0000000000000000     
   1.2194414411683644E-002   9.2292594774933054E-003   0.0000000000000000     
   0.0000000000000000        0.0000000000000000        0.0000000000000000     
   2.6098971294672892E-003   1.5889612543981157E-003   0.0000000000000000     
   5.2890945480438215E-003   3.5568940315444742E-003   0.0000000000000000     
   8.0375922557295969E-003   5.9037983314390759E-003   0.0000000000000000     
   1.0855390252524617E-002   8.6296741540819195E-003   0.0000000000000000     
   0.0000000000000000        0.0000000000000000        0.0000000000000000     
   2.3395744350600623E-003   1.4589162974684470E-003   0.0000000000000000     
   4.7194528398798972E-003   3.3000037260769843E-003   0.0000000000000000     
   7.1396352144595049E-003   5.5232622858256116E-003   0.0000000000000000     
   9.6001215587988836E-003   8.1286919767143296E-003   0.0000000000000000     
   0.0000000000000000        0.0000000000000000        0.0000000000000000     
   2.0689627532153427E-003   1.3549165572174203E-003   0.0000000000000000     
   4.1633850593715315E-003   3.0942742338549824E-003   0.0000000000000000     
   6.2832669184685669E-003   5.2180730299126879E-003   0.0000000000000000     
   8.4286083305064475E-003   7.7263129453905340E-003   0.0000000000000000     
   0.0000000000000000        0.0000000000000000        0.0000000000000000     
   1.7980620839331304E-003   1.2769620336450357E-003   0.0000000000000000     
   3.6208912065187255E-003   2.9397055548784699E-003   0.0000000000000000     
   5.4684873677567853E-003   4.9882305637003023E-003   0.0000000000000000     
   7.3408505676473097E-003   7.4225370601105328E-003   0.0000000000000000     
   1.2194414411683644E-002   9.2292594774933054E-003   0.0000000000000000     
   1.5426285435726911E-002   1.2371695655797297E-002   0.0000000000000000     
   1.8574897258057853E-002   1.5685005274984221E-002   0.0000000000000000     
   2.1640249878676469E-002   1.9169188335054071E-002   0.0000000000000000     
   2.4622343297582765E-002   2.2824244836006854E-002   0.0000000000000000     
   1.0855390252524617E-002   8.6296741540819195E-003   0.0000000000000000     
   1.3688510305974124E-002   1.1651956241600253E-002   0.0000000000000000     
   1.6482974183623364E-002   1.4888079336121313E-002   0.0000000000000000     
   1.9238781885472338E-002   1.8338043437645103E-002   0.0000000000000000     
   2.1955933411521047E-002   2.2001848546171619E-002   0.0000000000000000     
   9.6001215587988836E-003   8.1286919767143296E-003   0.0000000000000000     
   1.2076534888766866E-002   1.1048372097211769E-002   0.0000000000000000     
   1.4544498220232266E-002   1.4214381945786562E-002   0.0000000000000000     
   1.7004011553195097E-002   1.7626721522438708E-002   0.0000000000000000     
   1.9455074887655351E-002   2.1285390827168207E-002   0.0000000000000000     
   8.4286083305064475E-003   7.7263129453905340E-003   0.0000000000000000     
   1.0590359184105128E-002   1.0560943222631852E-002   0.0000000000000000     
   1.2759469367884562E-002   1.3663913103979970E-002   0.0000000000000000     
   1.4935938881844744E-002   1.7035222589434889E-002   0.0000000000000000     
   1.7119767725985679E-002   2.0674871678996606E-002   0.0000000000000000     
   7.3408505676473097E-003   7.4225370601105328E-003   0.0000000000000000     
   9.2299831919889219E-003   1.0189669617860499E-002   0.0000000000000000     
   1.1127887626580247E-002   1.3236672810701535E-002   0.0000000000000000     
   1.3034563871421281E-002   1.6563546638633644E-002   0.0000000000000000     
   1.4950011926512031E-002   2.0170291101656829E-002   0.0000000000000000     
   2.4622343297582765E-002   2.2824244836006854E-002   0.0000000000000000     
   2.7526419722415197E-002   2.6672741628241799E-002   0.0000000000000000     
   3.0357721360812218E-002   3.0737245562158129E-002   0.0000000000000000     
   3.3116248212773841E-002   3.5017756637755845E-002   0.0000000000000000     
   3.5802000278300050E-002   3.9514274855034941E-002   0.0000000000000000     
   2.1955933411521047E-002   2.2001848546171619E-002   0.0000000000000000     
   2.4620312080624769E-002   2.5878255269087099E-002   0.0000000000000000     
   2.7217801211638783E-002   2.9966024213777764E-002   0.0000000000000000     
   2.9748400804563091E-002   3.4265155380243606E-002   0.0000000000000000     
   3.2212110859397694E-002   3.8775648768484654E-002   0.0000000000000000     
   1.9455074887655351E-002   2.1285390827168207E-002   0.0000000000000000     
   2.1872164981021971E-002   2.5172903786376613E-002   0.0000000000000000     
   2.4229758590703913E-002   2.9271774326465508E-002   0.0000000000000000     
   2.6527855716701160E-002   3.3582002447434874E-002   0.0000000000000000     
   2.8766456359013721E-002   3.8103588149284717E-002   0.0000000000000000     
   1.7119767725985679E-002   2.0674871678996606E-002   0.0000000000000000     
   1.9281978423606818E-002   2.4556687180110354E-002   0.0000000000000000     
   2.1393593498007603E-002   2.8654495900221358E-002   0.0000000000000000     
   2.3454612949188040E-002   3.2968297839329627E-002   0.0000000000000000     
   2.5465036777148124E-002   3.7498092997435138E-002   0.0000000000000000     
   1.4950011926512031E-002   2.0170291101656829E-002   0.0000000000000000     
   1.6849752408379291E-002   2.4029605450288309E-002   0.0000000000000000     
   1.8709305933549854E-002   2.8114188935045314E-002   0.0000000000000000     
   2.0528672502023733E-002   3.2424041555927853E-002   0.0000000000000000     
   2.2307852113800916E-002   3.6959163312935923E-002   0.0000000000000000     
   3.5802000278300050E-002   3.9514274855034941E-002   0.0000000000000000     
   3.8409123786200802E-002   4.4217636760070476E-002   0.0000000000000000     
   4.0931764965286020E-002   4.9118678898937479E-002   0.0000000000000000     
   4.3369923815555725E-002   5.4217401271635948E-002   0.0000000000000000     
   4.5723600337009902E-002   5.9513803878165905E-002   0.0000000000000000     
   3.2212110859397694E-002   3.8775648768484654E-002   0.0000000000000000     
   3.4601170121713154E-002   4.3491692328427249E-002   0.0000000000000000     
   3.6907817337079998E-002   4.8407474009997731E-002   0.0000000000000000     
   3.9132052505498262E-002   5.3522993813196140E-002   0.0000000000000000     
   4.1273875626967924E-002   5.8838251738022450E-002   0.0000000000000000     
   2.8766456359013721E-002   3.8103588149284717E-002   0.0000000000000000     
   3.0937111569988046E-002   4.2831535972221085E-002   0.0000000000000000     
   3.3031372401970578E-002   4.7760850456450017E-002   0.0000000000000000     
   3.5049238854961313E-002   5.2891531601971520E-002   0.0000000000000000     
   3.6990710928960266E-002   5.8223579408785600E-002   0.0000000000000000     
   2.5465036777148124E-002   3.7498092997435138E-002   0.0000000000000000     
   2.7416948131025489E-002   4.2237167691452013E-002   0.0000000000000000     
   2.9302430159957746E-002   4.7178808238294324E-002   0.0000000000000000     
   3.1121482863944897E-002   5.2323014637962094E-002   0.0000000000000000     
   3.2874106242986943E-002   5.7669786890455314E-002   0.0000000000000000     
   2.2307852113800916E-002   3.6959163312935923E-002   0.0000000000000000     
   2.4040679804825479E-002   4.1708587486120025E-002   0.0000000000000000     
   2.5720990611041508E-002   4.6661347355530680E-002   0.0000000000000000     
   2.7348784532448999E-002   5.1817442921167869E-002   0.0000000000000000     
   2.8924061569047945E-002   5.7176874183031620E-002   0.0000000000000000     
   4.5723600337009902E-002   5.9513803878165905E-002   0.0000000000000000     
   4.8009978334223553E-002   6.5001618806771772E-002   0.0000000000000000     
   5.0246241611771672E-002   7.0674578145697997E-002   0.0000000000000000     
   5.2432390169654272E-002   7.6532681894944596E-002   0.0000000000000000     
   5.4568424007871333E-002   8.2575930054511554E-002   0.0000000000000000     
   4.1273875626967924E-002   5.8838251738022450E-002   0.0000000000000000     
   4.3356672510499232E-002   6.4345359698045196E-002   0.0000000000000000     
   4.5403828965102450E-002   7.0036429606832887E-002   0.0000000000000000     
   4.7415344990777555E-002   7.5911461464385557E-002   0.0000000000000000     
   4.9391220587524556E-002   8.1970455270703166E-002   0.0000000000000000     
   3.6990710928960266E-002   5.8223579408785600E-002   0.0000000000000000     
   3.8879751244536784E-002   6.3747961808330103E-002   0.0000000000000000     
   4.0740322422260208E-002   6.9455646732042936E-002   0.0000000000000000     
   4.2572424462130540E-002   7.5346634179924099E-002   0.0000000000000000     
   4.4376057364147799E-002   8.1420924151973606E-002   0.0000000000000000     
   3.2874106242986943E-002   5.7669786890455314E-002   0.0000000000000000     
   3.4579214536336202E-002   6.3209425137626493E-002   0.0000000000000000     
   3.6255721983244955E-002   6.8932229521328145E-002   0.0000000000000000     
   3.7903628583713246E-002   7.4838200041560277E-002   0.0000000000000000     
   3.9522934337741053E-002   8.0927336698322888E-002   0.0000000000000000     
   2.8924061569047945E-002   5.7176874183031620E-002   0.0000000000000000     
   3.0455062385897472E-002   6.2729749685934338E-002   0.0000000000000000     
   3.1950027648056711E-002   6.8466177974688486E-002   0.0000000000000000     
   3.3408957355525661E-002   7.4386159049294048E-002   0.0000000000000000     
   3.4831851508304319E-002   8.0489692909751040E-002   0.0000000000000000     
   5.4568424007871333E-002   8.2575930054511554E-002   0.0000000000000000     
   5.6634491520833552E-002   8.8788095653909049E-002   0.0000000000000000     
   5.8610741102951627E-002   9.5152951722647192E-002   0.0000000000000000     
   6.0497172754225538E-002  0.10167049826072602        0.0000000000000000     
   6.2293786474655298E-002  0.10834073526814551        0.0000000000000000     
   4.9391220587524556E-002   8.1970455270703166E-002   0.0000000000000000     
   5.1307290228381090E-002   8.8201585219880391E-002   0.0000000000000000     
   5.3139388386384802E-002   9.4593025506011855E-002   0.0000000000000000     
   5.4887515061535684E-002  0.10114477612909760        0.0000000000000000     
   5.6551670253833709E-002  0.10785683708913760        0.0000000000000000     
   4.4376057364147799E-002   8.1420924151973606E-002   0.0000000000000000     
   4.6127148465664382E-002   8.7669575212945466E-002   0.0000000000000000     
   4.7801625104032727E-002   9.4083645927593704E-002   0.0000000000000000     
   4.9399487279252835E-002  0.10066313629591836        0.0000000000000000     
   5.0920734991324698E-002  0.10740804631791938        0.0000000000000000     
   3.9522934337741053E-002   8.0927336698322888E-002   0.0000000000000000     
   4.1094066232683427E-002   8.7192065633104290E-002   0.0000000000000000     
   4.2597451255895410E-002   9.3624812987392780E-002   0.0000000000000000     
   4.4033089407377018E-002  0.10022557876118829        0.0000000000000000     
   4.5400980687128251E-002  0.10699436295449090        0.0000000000000000     
   3.4831851508304319E-002   8.0489692909751040E-002   0.0000000000000000     
   3.6208043529438204E-002   8.6769056480356876E-002   0.0000000000000000     
   3.7526866841972845E-002   9.3216526685409001E-002   0.0000000000000000     
   3.8788321445908241E-002   9.9832103524907415E-002   0.0000000000000000     
   3.9992407341244388E-002  0.10661578699885212        0.0000000000000000     
   6.2293786474655298E-002  0.10834073526814551        0.0000000000000000     
   6.3991982076672865E-002  0.11515269805761021        0.0000000000000000     
   6.5583159372710198E-002  0.12209542194182463        0.0000000000000000     
   6.7067318362767275E-002  0.12916890692078881        0.0000000000000000     
   6.8444459046844153E-002  0.13637315299450267        0.0000000000000000     
   5.6551670253833709E-002  0.10785683708913760        0.0000000000000000     
   5.8107900617452288E-002  0.11470602568642654        0.0000000000000000     
   5.9532252806564753E-002  0.12166915922125912        0.0000000000000000     
   6.0824726821171127E-002  0.12874623769363536        0.0000000000000000     
   6.1985322661271408E-002  0.13593726110355517        0.0000000000000000     
   5.0920734991324698E-002  0.10740804631791938        0.0000000000000000     
   5.2336055631924790E-002  0.11428822169663520        0.0000000000000000     
   5.3616136592729589E-002  0.12127350813510422        0.0000000000000000     
   5.4760977873739111E-002  0.12836390563332642        0.0000000000000000     
   5.5770579474953327E-002  0.13555941419130182        0.0000000000000000     
   4.5400980687128251E-002  0.10699436295449090        0.0000000000000000     
   4.6676447120090392E-002  0.11389928608823623        0.0000000000000000     
   4.7834810731204706E-002  0.12090846868335997        0.0000000000000000     
   4.8876071520471229E-002  0.12802191073986213        0.0000000000000000     
   4.9800229487889910E-002  0.13523961225774264        0.0000000000000000     
   3.9992407341244388E-002  0.10661578699885212        0.0000000000000000     
   4.1129075081949087E-002  0.11353921886122960        0.0000000000000000     
   4.2188275221990111E-002  0.12057404086602636        0.0000000000000000     
   4.3170007761367465E-002  0.12772025301324236        0.0000000000000000     
   4.4074272700081164E-002  0.13497785530287765        0.0000000000000000     
   6.8444459046844153E-002  0.13637315299450267        0.0000000000000000     
   6.9806757112377854E-002  0.14371859859992994        0.0000000000000000     
   7.1246388246805542E-002  0.15121568217403422        0.0000000000000000     
   7.2763352450127189E-002  0.15886440371681557        0.0000000000000000     
   7.4357649722342795E-002  0.16666476322827389        0.0000000000000000     
   6.1985322661271408E-002  0.13593726110355517        0.0000000000000000     
   6.3167456094739727E-002  0.14327651995460725        0.0000000000000000     
   6.4524542889450240E-002  0.15079830475038006        0.0000000000000000     
   6.6056583045402947E-002  0.15850261549087363        0.0000000000000000     
   6.7763576562597849E-002  0.16638945217608797        0.0000000000000000     
   5.5770579474953327E-002  0.13555941419130182        0.0000000000000000     
   5.6813799111484146E-002  0.14290414384646583        0.0000000000000000     
   5.8059494498443484E-002  0.15044220463625382        0.0000000000000000     
   5.9507665635831333E-002  0.15817359656066576        0.0000000000000000     
   6.1158312523647680E-002  0.16609831961970176        0.0000000000000000     
   4.9800229487889910E-002  0.13523961225774264        0.0000000000000000     
   5.0745786162611155E-002  0.14260147027550577        0.0000000000000000     
   5.1851243073785296E-002  0.15014738183165552        0.0000000000000000     
   5.3116600221412340E-002  0.15787734692619199        0.0000000000000000     
   5.4541857605492308E-002  0.16579136555911514        0.0000000000000000     
   4.4074272700081164E-002  0.13497785530287765        0.0000000000000000     
   4.4963417248120724E-002  0.14236849924172695        0.0000000000000000     
   4.5899788615475667E-002  0.14991383633658517        0.0000000000000000     
   4.6883386802145988E-002  0.15761386658745222        0.0000000000000000     
   4.7914211808131706E-002  0.16546858999432817        0.0000000000000000     
   0.0000000000000000        0.0000000000000000        0.0000000000000000     
   1.7980620839331304E-003   1.2769620336450357E-003   0.0000000000000000     
   3.6208912065187255E-003   2.9397055548784699E-003   0.0000000000000000     
   5.4684873677567853E-003   4.9882305637003023E-003   0.0000000000000000     
   7.3408505676473097E-003   7.4225370601105328E-003   0.0000000000000000     
   0.0000000000000000        0.0000000000000000        0.0000000000000000     
   1.5350113774420127E-003   1.2178617432779019E-003   0.0000000000000000     
   3.0992054053630798E-003   2.8216894617940735E-003   0.0000000000000000     
   4.6925820837632002E-003   4.8114831555485143E-003   0.0000000000000000     
   6.3151414126423741E-003   7.1872428245412269E-003   0.0000000000000000     
   0.0000000000000000        0.0000000000000000        0.0000000000000000     
   1.2879495839705774E-003   1.1704247026426270E-003   0.0000000000000000     
   2.6055617799461950E-003   2.7256177272484217E-003   0.0000000000000000     
   3.9528365879268517E-003   4.6655790738173832E-003   0.0000000000000000     
   5.3297740079125489E-003   6.9903087423495106E-003   0.0000000000000000     
   0.0000000000000000        0.0000000000000000        0.0000000000000000     
   1.0568767035188241E-003   1.1346509117392122E-003   0.0000000000000000     
   2.1399603302680714E-003   2.6514903512415144E-003   0.0000000000000000     
   3.2492508802477414E-003   4.5505183185069065E-003   0.0000000000000000     
   4.3847483534578350E-003   6.8317348135353900E-003   0.0000000000000000     
   0.0000000000000000        0.0000000000000000        0.0000000000000000     
   8.4179273608675248E-004   1.1105403705676559E-003   0.0000000000000000     
   1.7024010563287087E-003   2.5993073337733513E-003   0.0000000000000000     
   2.5818249607258686E-003   4.4663008896170860E-003   0.0000000000000000     
   3.4800644492782315E-003   6.7115210380988615E-003   0.0000000000000000     
   7.3408505676473097E-003   7.4225370601105328E-003   0.0000000000000000     
   9.2299831919889219E-003   1.0189669617860499E-002   0.0000000000000000     
   1.1127887626580247E-002   1.3236672810701535E-002   0.0000000000000000     
   1.3034563871421281E-002   1.6563546638633644E-002   0.0000000000000000     
   1.4950011926512031E-002   2.0170291101656829E-002   0.0000000000000000     
   6.3151414126423741E-003   7.1872428245412269E-003   0.0000000000000000     
   7.9543031701040413E-003   9.8990145447399192E-003   0.0000000000000000     
   9.5974871342516480E-003   1.2896844392112304E-002   0.0000000000000000     
   1.1244693305085192E-002   1.6180732366658384E-002   0.0000000000000000     
   1.2895921682604668E-002   1.9750678468378163E-002   0.0000000000000000     
   5.3297740079125489E-003   6.9903087423495106E-003   0.0000000000000000     
   6.7222153761362933E-003   9.6534412651123197E-003   0.0000000000000000     
   8.1160020288310927E-003   1.2608611174373324E-002   0.0000000000000000     
   9.5111339659969488E-003   1.5855818470132520E-002   0.0000000000000000     
   1.0907611187633854E-002   1.9395063152389910E-002   0.0000000000000000     
   4.3847483534578350E-003   6.8317348135353900E-003   0.0000000000000000     
   5.5337198100856733E-003   9.4529497789777039E-003   0.0000000000000000     
   6.6834323103185794E-003   1.2371973157484591E-002   0.0000000000000000     
   7.8338858541565515E-003   1.5588804949056047E-002   0.0000000000000000     
   8.9850804415995932E-003   1.9103445153692080E-002   0.0000000000000000     
   3.4800644492782315E-003   6.7115210380988615E-003   0.0000000000000000     
   4.3888164719521842E-003   9.2975400863360685E-003   0.0000000000000000     
   5.2997779787141083E-003   1.2186930341446104E-002   0.0000000000000000     
   6.2129489695640066E-003   1.5379691803428970E-002   0.0000000000000000     
   7.1283294445018772E-003   1.8875824472284662E-002   0.0000000000000000     
   1.4950011926512031E-002   2.0170291101656829E-002   0.0000000000000000     
   1.6849752408379291E-002   2.4029605450288309E-002   0.0000000000000000     
   1.8709305933549854E-002   2.8114188935045314E-002   0.0000000000000000     
   2.0528672502023733E-002   3.2424041555927853E-002   0.0000000000000000     
   2.2307852113800916E-002   3.6959163312935923E-002   0.0000000000000000     
   1.2895921682604668E-002   1.9750678468378163E-002   0.0000000000000000     
   1.4534150469015789E-002   2.3581490813981306E-002   0.0000000000000000     
   1.6142357866524258E-002   2.7647977520177485E-002   0.0000000000000000     
   1.7720543875130071E-002   3.1950138586966707E-002   0.0000000000000000     
   1.9268708494833232E-002   3.6487974014348973E-002   0.0000000000000000     
   1.0907611187633854E-002   1.9395063152389910E-002   0.0000000000000000     
   1.2293836139192705E-002   2.3202175488260170E-002   0.0000000000000000     
   1.3658211266124383E-002   2.7252985744857971E-002   0.0000000000000000     
   1.5000736568428886E-002   3.1547493922183312E-002   0.0000000000000000     
   1.6321412046106220E-002   3.6085700020236193E-002   0.0000000000000000     
   8.9850804415995932E-003   1.9103445153692080E-002   0.0000000000000000     
   1.0128809418910043E-002   2.2891659473124909E-002   0.0000000000000000     
   1.1256866132350237E-002   2.6929213609086775E-002   0.0000000000000000     
   1.2369250581920182E-002   3.1216107561577670E-002   0.0000000000000000     
   1.3465962767619879E-002   3.5752341330597598E-002   0.0000000000000000     
   7.1283294445018772E-003   1.8875824472284662E-002   0.0000000000000000     
   8.0390703081677922E-003   2.2649942768575518E-002   0.0000000000000000     
   8.9383224652018183E-003   2.6676661112863889E-002   0.0000000000000000     
   9.8260859156039573E-003   3.0955979505149774E-002   0.0000000000000000     
   1.0702360659374209E-002   3.5487897945433174E-002   0.0000000000000000     
   2.2307852113800916E-002   3.6959163312935923E-002   0.0000000000000000     
   2.4040679804825479E-002   4.1708587486120025E-002   0.0000000000000000     
   2.5720990611041508E-002   4.6661347355530680E-002   0.0000000000000000     
   2.7348784532448999E-002   5.1817442921167869E-002   0.0000000000000000     
   2.8924061569047945E-002   5.7176874183031620E-002   0.0000000000000000     
   1.9268708494833232E-002   3.6487974014348973E-002   0.0000000000000000     
   2.0782484891082798E-002   4.1245723151844708E-002   0.0000000000000000     
   2.2257506229327827E-002   4.6207625348974365E-002   0.0000000000000000     
   2.3693772509568316E-002   5.1373680605737937E-002   0.0000000000000000     
   2.5091283731804283E-002   5.6743888922135437E-002   0.0000000000000000     
   1.6321412046106220E-002   3.6085700020236193E-002   0.0000000000000000     
   1.7616541689492195E-002   4.0848502484245652E-002   0.0000000000000000     
   1.8882429488922648E-002   4.5816799759440717E-002   0.0000000000000000     
   2.0119075444397568E-002   5.0990591845821401E-002   0.0000000000000000     
   2.1326479555916957E-002   5.6369878743387690E-002   0.0000000000000000     
   1.3465962767619879E-002   3.5752341330597598E-002   0.0000000000000000     
   1.4542850200053685E-002   4.0516925483322842E-002   0.0000000000000000     
   1.5595760389825972E-002   4.5488870586929742E-002   0.0000000000000000     
   1.6624693336936731E-002   5.0668176641418247E-002   0.0000000000000000     
   1.7629649041385979E-002   5.6054843646788387E-002   0.0000000000000000     
   1.0702360659374209E-002   3.5487897945433174E-002   0.0000000000000000     
   1.1561410422767262E-002   4.0250992149076306E-002   0.0000000000000000     
   1.2397498932037801E-002   4.5223837831441398E-002   0.0000000000000000     
   1.3210626187185827E-002   5.0406434992528483E-002   0.0000000000000000     
   1.4000792188211342E-002   5.5798783632337520E-002   0.0000000000000000     
   2.8924061569047945E-002   5.7176874183031620E-002   0.0000000000000000     
   3.0455062385897472E-002   6.2729749685934338E-002   0.0000000000000000     
   3.1950027648056711E-002   6.8466177974688486E-002   0.0000000000000000     
   3.3408957355525661E-002   7.4386159049294048E-002   0.0000000000000000     
   3.4831851508304319E-002   8.0489692909751040E-002   0.0000000000000000     
   2.5091283731804283E-002   5.6743888922135437E-002   0.0000000000000000     
   2.6447469148573745E-002   6.2308263205481919E-002   0.0000000000000000     
   2.7759758012414763E-002   6.8056816363092451E-002   0.0000000000000000     
   2.9028150323327333E-002   7.3989548394967034E-002   0.0000000000000000     
   3.0252646081311462E-002   8.0106459301105687E-002   0.0000000000000000     
   2.1326479555916957E-002   5.6369878743387690E-002   0.0000000000000000     
   2.2496609179718133E-002   6.1944293448497438E-002   0.0000000000000000     
   2.3621431672038434E-002   6.7703468957508492E-002   0.0000000000000000     
   2.4700947032877837E-002   7.3647405270420879E-002   0.0000000000000000     
   2.5735155262236360E-002   7.9776102387234551E-002   0.0000000000000000     
   1.7629649041385979E-002   5.6054843646788387E-002   0.0000000000000000     
   1.8602482479330648E-002   6.1637840414980917E-002   0.0000000000000000     
   1.9535048626927714E-002   6.7406135757936636E-002   0.0000000000000000     
   2.0427347484177162E-002   7.3359729675655516E-002   0.0000000000000000     
   2.1279379051079000E-002   7.9498622168137564E-002   0.0000000000000000     
   1.4000792188211342E-002   5.5798783632337520E-002   0.0000000000000000     
   1.4765089047411289E-002   6.1388904104932362E-002   0.0000000000000000     
   1.5500608877082614E-002   6.7164816764376856E-002   0.0000000000000000     
   1.6207351677225312E-002   7.3126521610671000E-002   0.0000000000000000     
   1.6885317447839391E-002   7.9274018643814781E-002   0.0000000000000000     
   3.4831851508304319E-002   8.0489692909751040E-002   0.0000000000000000     
   3.6208043529438204E-002   8.6769056480356876E-002   0.0000000000000000     
   3.7526866841972845E-002   9.3216526685409001E-002   0.0000000000000000     
   3.8788321445908241E-002   9.9832103524907415E-002   0.0000000000000000     
   3.9992407341244388E-002  0.10661578699885212        0.0000000000000000     
   3.0252646081311462E-002   8.0106459301105687E-002   0.0000000000000000     
   3.1431796263296577E-002   8.6399041120513956E-002   0.0000000000000000     
   3.2564151846212114E-002   9.2858785892197440E-002   0.0000000000000000     
   3.3649712830058069E-002   9.9485693616156098E-002   0.0000000000000000     
   3.4688479214834450E-002  0.10627976429238996        0.0000000000000000     
   2.5735155262236360E-002   7.9776102387234551E-002   0.0000000000000000     
   2.6728040341626375E-002   8.6080512919386329E-002   0.0000000000000000     
   2.7683586252560295E-002   9.2551589478313032E-002   0.0000000000000000     
   2.8601792995038094E-002   9.9189332064014729E-002   0.0000000000000000     
   2.9482660569059793E-002  0.10599374067649132        0.0000000000000000     
   2.1279379051079000E-002   7.9498622168137564E-002   0.0000000000000000     
   2.2096775764427614E-002   8.5813471876973954E-002   0.0000000000000000     
   2.2885170061017382E-002   9.2294937443755873E-002   0.0000000000000000     
   2.3644561940848321E-002   9.8943018868483293E-002   0.0000000000000000     
   2.4374951403920413E-002  0.10575771615115621        0.0000000000000000     
   1.6885317447839391E-002   7.9274018643814781E-002   0.0000000000000000     
   1.7538002531700275E-002   8.5597917993276859E-002   0.0000000000000000     
   1.8168903271583391E-002   9.2088829788525867E-002   0.0000000000000000     
   1.8778019667488738E-002   9.8746754029561776E-002   0.0000000000000000     
   1.9365351719416314E-002  0.10557169071638460        0.0000000000000000     
   3.9992407341244388E-002  0.10661578699885212        0.0000000000000000     
   4.1129075081949087E-002  0.11353921886122960        0.0000000000000000     
   4.2188275221990111E-002  0.12057404086602636        0.0000000000000000     
   4.3170007761367465E-002  0.12772025301324236        0.0000000000000000     
   4.4074272700081164E-002  0.13497785530287765        0.0000000000000000     
   3.4688479214834450E-002  0.10627976429238996        0.0000000000000000     
   3.5685701920099795E-002  0.11321735604990982        0.0000000000000000     
   3.6646631865412650E-002  0.12027482701772646        0.0000000000000000     
   3.7571269050773008E-002  0.12745217719583990        0.0000000000000000     
   3.8459613476180876E-002  0.13474940658425014        0.0000000000000000     
   2.9482660569059793E-002  0.10599374067649132        0.0000000000000000     
   3.0338090037141465E-002  0.11294303368857139        0.0000000000000000     
   3.1179982461799195E-002  0.12001542947308348        0.0000000000000000     
   3.2008337843032988E-002  0.12721092803002756        0.0000000000000000     
   3.2823156180842833E-002  0.13452952935940363        0.0000000000000000     
   2.4374951403920413E-002  0.10575771615115621        0.0000000000000000     
   2.5086239433074087E-002  0.11271625177721432        0.0000000000000000     
   2.5788327011149751E-002  0.11979584823209737        0.0000000000000000     
   2.6481214138147403E-002  0.12699650551580524        0.0000000000000000     
   2.7164900814067045E-002  0.13431822362833803        0.0000000000000000     
   1.9365351719416314E-002  0.10557169071638460        0.0000000000000000     
   1.9930150107897657E-002  0.11253701031583863        0.0000000000000000     
   2.0471665513464306E-002  0.11961608329476811        0.0000000000000000     
   2.0989897936116258E-002  0.12680890965317301        0.0000000000000000     
   2.1484847375853506E-002  0.13411548939105342        0.0000000000000000     
   4.4074272700081164E-002  0.13497785530287765        0.0000000000000000     
   4.4963417248120724E-002  0.14236849924172695        0.0000000000000000     
   4.5899788615475667E-002  0.14991383633658517        0.0000000000000000     
   4.6883386802145988E-002  0.15761386658745222        0.0000000000000000     
   4.7914211808131706E-002  0.16546858999432817        0.0000000000000000     
   3.8459613476180876E-002  0.13474940658425014        0.0000000000000000     
   3.9296055773208584E-002  0.14217052468092212        0.0000000000000000     
   4.0064986573428503E-002  0.14971954098382073        0.0000000000000000     
   4.0766405876840606E-002  0.15739645549294604        0.0000000000000000     
   4.1400313683444906E-002  0.16520126820829806        0.0000000000000000     
   3.2823156180842833E-002  0.13452952935940363        0.0000000000000000     
   3.3573065143070506E-002  0.14197284052888381        0.0000000000000000     
   3.4206692397557734E-002  0.14954246860614023        0.0000000000000000     
   3.4724037944304544E-002  0.15723841359117291        0.0000000000000000     
   3.5125101783310915E-002  0.16506067548398187        0.0000000000000000     
   2.7164900814067045E-002  0.13431822362833803        0.0000000000000000     
   2.7794445357706445E-002  0.14177544678561207        0.0000000000000000     
   2.8324906087863363E-002  0.14938261920354365        0.0000000000000000     
   2.8756283004537791E-002  0.15713974088213289        0.0000000000000000     
   2.9088576107729740E-002  0.16504681182137970        0.0000000000000000     
   2.1484847375853506E-002  0.13411548939105342        0.0000000000000000     
   2.1960196417116426E-002  0.14157834345110687        0.0000000000000000     
   2.2419627644345377E-002  0.14923999277603109        0.0000000000000000     
   2.2863141057540361E-002  0.15710043736582593        0.0000000000000000     
   2.3290736656701380E-002  0.16515967722049152        0.0000000000000000     
   0.0000000000000000        0.0000000000000000        0.0000000000000000     
   8.4179273608675248E-004   1.1105403705676559E-003   0.0000000000000000     
   1.7024010563287087E-003   2.5993073337733513E-003   0.0000000000000000     
   2.5818249607258686E-003   4.4663008896170860E-003   0.0000000000000000     
   3.4800644492782315E-003   6.7115210380988615E-003   0.0000000000000000     
   0.0000000000000000        0.0000000000000000        0.0000000000000000     
   6.3389425127597016E-004   1.0945211895570610E-003   0.0000000000000000     
   1.2784166266334512E-003   2.5631981492507225E-003   0.0000000000000000     
   1.9335671260724430E-003   4.4060308790809851E-003   0.0000000000000000     
   2.5993457495929453E-003   6.6230193790478469E-003   0.0000000000000000     
   0.0000000000000000        0.0000000000000000        0.0000000000000000     
   4.2437781868808378E-004   1.0830214791365288E-003   0.0000000000000000     
   8.5353970968764215E-004   2.5372922720804164E-003   0.0000000000000000     
   1.2874856729986749E-003   4.3628123788316629E-003   0.0000000000000000     
   1.7262157086211825E-003   6.5595817993902685E-003   0.0000000000000000     
   0.0000000000000000        0.0000000000000000        0.0000000000000000     
   2.1324343832309354E-004   1.0760412393060594E-003   0.0000000000000000     
   4.2777030549128175E-004   2.5215897022624330E-003   0.0000000000000000     
   6.4358060150456462E-004   4.3366453888691219E-003   0.0000000000000000     
   8.6067432636294217E-004   6.5212082991261246E-003   0.0000000000000000     
   0.0000000000000000        0.0000000000000000        0.0000000000000000     
   4.9111018099939419E-007   1.0735804700656526E-003   0.0000000000000000     
   1.1084140443701229E-006   2.5160904397967727E-003   0.0000000000000000     
   1.8519115901119150E-006   4.3275299091933596E-003   0.0000000000000000     
   2.7216028182250687E-006   6.5078988782554144E-003   0.0000000000000000     
   3.4800644492782315E-003   6.7115210380988615E-003   0.0000000000000000     
   4.3888164719521842E-003   9.2975400863360685E-003   0.0000000000000000     
   5.2997779787141083E-003   1.2186930341446104E-002   0.0000000000000000     
   6.2129489695640066E-003   1.5379691803428970E-002   0.0000000000000000     
   7.1283294445018772E-003   1.8875824472284662E-002   0.0000000000000000     
   2.5993457495929453E-003   6.6230193790478469E-003   0.0000000000000000     
   3.2724232277606398E-003   9.1811552192219530E-003   0.0000000000000000     
   3.9494702911412067E-003   1.2047429969673940E-002   0.0000000000000000     
   4.6304869397346465E-003   1.5221843630403818E-002   0.0000000000000000     
   5.3154731735409579E-003   1.8704396201411573E-002   0.0000000000000000     
   1.7262157086211825E-003   6.5595817993902685E-003   0.0000000000000000     
   2.1694579435358598E-003   9.0977382096698867E-003   0.0000000000000000     
   2.6169405047234023E-003   1.1947419285584170E-002   0.0000000000000000     
   3.0686633921838099E-003   1.5108625027133126E-002   0.0000000000000000     
   3.5246266059170833E-003   1.8581355434316743E-002   0.0000000000000000     
   8.6067432636294217E-004   6.5212082991261246E-003   0.0000000000000000     
   1.0799206192778426E-003   9.0472890576798713E-003   0.0000000000000000     
   1.3021886194606942E-003   1.1886898289176795E-002   0.0000000000000000     
   1.5274783269114969E-003   1.5040035993616896E-002   0.0000000000000000     
   1.7557897416302505E-003   1.8506702171000169E-002   0.0000000000000000     
   2.7216028182250687E-006   6.5078988782554144E-003   0.0000000000000000     
   3.8112549865888855E-006   9.0298077632519069E-003   0.0000000000000000     
   5.2146353530830260E-006   1.1865866980451811E-002   0.0000000000000000     
   6.9317439177073970E-006   1.5016076529855125E-002   0.0000000000000000     
   8.9625806804616683E-006   1.8480436411461847E-002   0.0000000000000000     
   7.1283294445018772E-003   1.8875824472284662E-002   0.0000000000000000     
   8.0390703081677922E-003   2.2649942768575518E-002   0.0000000000000000     
   8.9383224652018183E-003   2.6676661112863889E-002   0.0000000000000000     
   9.8260859156039573E-003   3.0955979505149774E-002   0.0000000000000000     
   1.0702360659374209E-002   3.5487897945433174E-002   0.0000000000000000     
   5.3154731735409579E-003   1.8704396201411573E-002   0.0000000000000000     
   5.9982810450729049E-003   2.2468208646742850E-002   0.0000000000000000     
   6.6727626068432454E-003   2.6486401930443274E-002   0.0000000000000000     
   7.3389178588519829E-003   3.0758976052512845E-002   0.0000000000000000     
   7.9967468010991149E-003   3.5285931012951556E-002   0.0000000000000000     
   3.5246266059170833E-003   1.8581355434316743E-002   0.0000000000000000     
   3.9801038677323248E-003   2.2337640379757755E-002   0.0000000000000000     
   4.4303688994386413E-003   2.6349509736078858E-002   0.0000000000000000     
   4.8754217010360300E-003   3.0616963503280071E-002   0.0000000000000000     
   5.3152622725244937E-003   3.5140001681361381E-002   0.0000000000000000     
   1.7557897416302505E-003   1.8506702171000169E-002   0.0000000000000000     
   1.9845387761460538E-003   2.2258237967620224E-002   0.0000000000000000     
   2.2111413429880041E-003   2.6265984529770654E-002   0.0000000000000000     
   2.4355974421561015E-003   3.0529941857451462E-002   0.0000000000000000     
   2.6579070736503464E-003   3.5050109950662649E-002   0.0000000000000000     
   8.9625806804616683E-006   1.8480436411461847E-002   0.0000000000000000     
   1.1585770314089850E-005   2.2230001410330259E-002   0.0000000000000000     
   1.5079937491334464E-005   2.6235826311518648E-002   0.0000000000000000     
   1.9445082212195704E-005   3.0497911115027018E-002   0.0000000000000000     
   2.4681204476673579E-005   3.5016255820855352E-002   0.0000000000000000     
   1.0702360659374209E-002   3.5487897945433174E-002   0.0000000000000000     
   1.1561410422767262E-002   4.0250992149076306E-002   0.0000000000000000     
   1.2397498932037801E-002   4.5223837831441398E-002   0.0000000000000000     
   1.3210626187185827E-002   5.0406434992528483E-002   0.0000000000000000     
   1.4000792188211342E-002   5.5798783632337520E-002   0.0000000000000000     
   7.9967468010991149E-003   3.5285931012951556E-002   0.0000000000000000     
   8.6393464194576101E-003   4.0046063023295532E-002   0.0000000000000000     
   9.2598136998004420E-003   4.5018168295080867E-002   0.0000000000000000     
   9.8581486421276052E-003   5.0202246828307560E-002   0.0000000000000000     
   1.0434351246439103E-002   5.5598298622975620E-002   0.0000000000000000     
   5.3152622725244937E-003   3.5140001681361381E-002   0.0000000000000000     
   5.7437822519494190E-003   3.9897498647770022E-002   0.0000000000000000     
   6.1548732773561970E-003   4.4868328779953219E-002   0.0000000000000000     
   6.5485353487448284E-003   5.0052492077910946E-002   0.0000000000000000     
   6.9247684661153100E-003   5.5449988541643229E-002   0.0000000000000000     
   2.6579070736503464E-003   3.5050109950662649E-002   0.0000000000000000     
   2.8747179202426869E-003   3.9805299022499789E-002   0.0000000000000000     
   3.0826776647050707E-003   4.4774319286058462E-002   0.0000000000000000     
   3.2817863070374975E-003   4.9957170741338645E-002   0.0000000000000000     
   3.4720438472399685E-003   5.5353853388340368E-002   0.0000000000000000     
   2.4681204476673579E-005   3.5016255820855352E-002   0.0000000000000000     
   3.2153424337413557E-005   3.9769464147484827E-002   0.0000000000000000     
   4.3226861847059643E-005   4.4736139813396594E-002   0.0000000000000000     
   5.7901517005614129E-005   4.9916282818590653E-002   0.0000000000000000     
   7.6177389813074804E-005   5.5309893163067017E-002   0.0000000000000000     
   1.4000792188211342E-002   5.5798783632337520E-002   0.0000000000000000     
   1.4765089047411289E-002   6.1388904104932362E-002   0.0000000000000000     
   1.5500608877082614E-002   6.7164816764376856E-002   0.0000000000000000     
   1.6207351677225312E-002   7.3126521610671000E-002   0.0000000000000000     
   1.6885317447839391E-002   7.9274018643814781E-002   0.0000000000000000     
   1.0434351246439103E-002   5.5598298622975620E-002   0.0000000000000000     
   1.0991563842022111E-002   6.1193497582061468E-002   0.0000000000000000     
   1.1532928758163816E-002   6.6975017608541507E-002   0.0000000000000000     
   1.2058445994864211E-002   7.2942858702415778E-002   0.0000000000000000     
   1.2568115552123301E-002   7.9097020863684225E-002   0.0000000000000000     
   6.9247684661153100E-003   5.5449988541643229E-002   0.0000000000000000     
   7.2890418212251925E-003   6.1047633910077954E-002   0.0000000000000000     
   7.6468246058320182E-003   6.6832243922142973E-002   0.0000000000000000     
   7.9981168199357890E-003   7.2803818577838297E-002   0.0000000000000000     
   8.3429184635365038E-003   7.8962357877163949E-002   0.0000000000000000     
   3.4720438472399685E-003   5.5353853388340368E-002   0.0000000000000000     
   3.6575229850205272E-003   6.0951313088981822E-002   0.0000000000000000     
   3.8422964200872205E-003   6.6736495705181254E-002   0.0000000000000000     
   4.0263641524400443E-003   7.2709401236938587E-002   0.0000000000000000     
   4.2097261820790034E-003   7.8870029684253884E-002   0.0000000000000000     
   7.6177389813074804E-005   5.5309893163067017E-002   0.0000000000000000     
   9.7007333408118254E-005   6.0904535118773091E-002   0.0000000000000000     
   1.1934420092941922E-004   6.6687772957656294E-002   0.0000000000000000     
   1.4318799237697866E-004   7.2659606679716632E-002   0.0000000000000000     
   1.6853870775079523E-004   7.8820036284954098E-002   0.0000000000000000     
   1.6885317447839391E-002   7.9274018643814781E-002   0.0000000000000000     
   1.7538002531700275E-002   8.5597917993276859E-002   0.0000000000000000     
   1.8168903271583391E-002   9.2088829788525867E-002   0.0000000000000000     
   1.8778019667488738E-002   9.8746754029561776E-002   0.0000000000000000     
   1.9365351719416314E-002  0.10557169071638460        0.0000000000000000     
   1.2568115552123301E-002   7.9097020863684225E-002   0.0000000000000000     
   1.3062114934544882E-002   8.5427902942346631E-002   0.0000000000000000     
   1.3540621646732755E-002   9.1925903788402680E-002   0.0000000000000000     
   1.4003635688686924E-002   9.8591023401852385E-002   0.0000000000000000     
   1.4451157060407387E-002  0.10542326178269576        0.0000000000000000     
   8.3429184635365038E-003   7.8962357877163949E-002   0.0000000000000000     
   8.6795072640619593E-003   8.5297478398234844E-002   0.0000000000000000     
   9.0061609489399484E-003   9.1798796719165979E-002   0.0000000000000000     
   9.3228795181704727E-003   9.8466312839957326E-002   0.0000000000000000     
   9.6296629717535272E-003  0.10530002676060891        0.0000000000000000     
   4.2097261820790034E-003   7.8870029684253884E-002   0.0000000000000000     
   4.3901795202515061E-003   8.5206644360941483E-002   0.0000000000000000     
   4.5655211782049624E-003   9.1707508580815708E-002   0.0000000000000000     
   4.7357511559393741E-003   9.8372622343876559E-002   0.0000000000000000     
   4.9008694534547412E-003  0.10520198565012404        0.0000000000000000     
   1.6853870775079523E-004   7.8820036284954098E-002   0.0000000000000000     
   1.9413170311351874E-004   8.5155400830466577E-002   0.0000000000000000     
   2.1870233452779770E-004   9.1652039373351910E-002   0.0000000000000000     
   2.4225060199363209E-004   9.8309951913610097E-002   0.0000000000000000     
   2.6477650551102148E-004  0.10512913845124117        0.0000000000000000     
   1.9365351719416314E-002  0.10557169071638460        0.0000000000000000     
   1.9930150107897657E-002  0.11253701031583863        0.0000000000000000     
   2.0471665513464306E-002  0.11961608329476811        0.0000000000000000     
   2.0989897936116258E-002  0.12680890965317301        0.0000000000000000     
   2.1484847375853506E-002  0.13411548939105342        0.0000000000000000     
   1.4451157060407387E-002  0.10542326178269576        0.0000000000000000     
   1.4870909963190536E-002  0.11239245290564856        0.0000000000000000     
   1.5250618598332773E-002  0.11946843074542662        0.0000000000000000     
   1.5590282965834094E-002  0.12665119530202990        0.0000000000000000     
   1.5889903065694502E-002  0.13394074657545840        0.0000000000000000     
   9.6296629717535272E-003  0.10530002676060891        0.0000000000000000     
   9.9096069005310712E-003  0.11226972314784849        0.0000000000000000     
   1.0145806895345048E-002  0.11934518666840380        0.0000000000000000     
   1.0338262956195464E-002  0.12652641732227488        0.0000000000000000     
   1.0486975083082316E-002  0.13381341510946174        0.0000000000000000     
   4.9008694534547412E-003  0.10520198565012404        0.0000000000000000     
   5.0462409199192619E-003  0.11216882104243835        0.0000000000000000     
   5.1572304045011362E-003  0.11924635106369967        0.0000000000000000     
   5.2338379072003668E-003  0.12643457571390798        0.0000000000000000     
   5.2760634280169492E-003  0.13373349499306328        0.0000000000000000     
   2.6477650551102148E-004  0.10512913845124117        0.0000000000000000     
   2.8081202135510786E-004  0.11208974658941817        0.0000000000000000     
   2.8488912580103352E-004  0.11917192393131421        0.0000000000000000     
   2.7700781884879727E-004  0.12637567047692919        0.0000000000000000     
   2.5716810049840116E-004  0.13370098622626322        0.0000000000000000     
   2.1484847375853506E-002  0.13411548939105342        0.0000000000000000     
   2.1960196417116426E-002  0.14157834345110687        0.0000000000000000     
   2.2419627644345377E-002  0.14923999277603109        0.0000000000000000     
   2.2863141057540361E-002  0.15710043736582593        0.0000000000000000     
   2.3290736656701380E-002  0.16515967722049152        0.0000000000000000     
   1.5889903065694502E-002  0.13394074657545840        0.0000000000000000     
   1.6205536211449718E-002  0.14140336227766337        0.0000000000000000     
   1.6593239716635472E-002  0.14910532012059599        0.0000000000000000     
   1.7053013581251754E-002  0.15704662010425627        0.0000000000000000     
   1.7584857805298573E-002  0.16522726222864417        0.0000000000000000     
   1.0486975083082316E-002  0.13381341510946174        0.0000000000000000     
   1.0665682630855603E-002  0.14127233501757666        0.0000000000000000     
   1.0948124954365326E-002  0.14896933203423210        0.0000000000000000     
   1.1334302053611483E-002  0.15690440615942808        0.0000000000000000     
   1.1824213928594072E-002  0.16507755739316446        0.0000000000000000     
   5.2760634280169492E-003  0.13373349499306328        0.0000000000000000     
   5.3406356753340767E-003  0.14118526167084675        0.0000000000000000     
   5.4842833575349404E-003  0.14883202851693944        0.0000000000000000     
   5.7070064746195378E-003  0.15667379553134131        0.0000000000000000     
   6.0088050265878733E-003  0.16471056271405243        0.0000000000000000     
   2.5716810049840116E-004  0.13370098622626322        0.0000000000000000     
   2.3039534488514149E-004  0.14114214223747365        0.0000000000000000     
   2.0171492614431865E-004  0.14869340956871793        0.0000000000000000     
   1.7112684427593024E-004  0.15635478821999607        0.0000000000000000     
   1.3863109927997677E-004  0.16412627819130798        0.0000000000000000     
   0.0000000000000000        0.0000000000000000        0.0000000000000000     
   4.9111018099939419E-007   1.0735804700656526E-003   0.0000000000000000     
   1.1084140443701229E-006   2.5160904397967727E-003   0.0000000000000000     
   1.8519115901119150E-006   4.3275299091933596E-003   0.0000000000000000     
   2.7216028182250687E-006   6.5078988782554144E-003   0.0000000000000000     
   0.0000000000000000        0.0000000000000000        0.0000000000000000     
  -2.1229515540750497E-004   1.0756758961191146E-003   0.0000000000000000     
  -4.2562921887079200E-004   2.5208647352657960E-003   0.0000000000000000     
  -6.4000219038986097E-004   4.3355665174400456E-003   0.0000000000000000     
  -8.5541406996471206E-004   6.5197812426418603E-003   0.0000000000000000     
   0.0000000000000000        0.0000000000000000        0.0000000000000000     
  -4.2353134811172613E-004   1.0823642421702510E-003   0.0000000000000000     
  -8.5162584747190337E-004   2.5359828392518646E-003   0.0000000000000000     
  -1.2842834980805317E-003   4.3608557912448416E-003   0.0000000000000000     
  -1.7215042999376112E-003   6.5569830981491804E-003   0.0000000000000000     
   0.0000000000000000        0.0000000000000000        0.0000000000000000     
  -6.3321746793166373E-004   1.0936455082190617E-003   0.0000000000000000     
  -1.2768814717589640E-003   2.5614447517549781E-003   0.0000000000000000     
  -1.9309920114819008E-003   4.4033977306077495E-003   0.0000000000000000     
  -2.5955490871004735E-003   6.6195044447773755E-003   0.0000000000000000     
   0.0000000000000000        0.0000000000000000        0.0000000000000000     
  -8.4135351486731836E-004   1.1095196942655472E-003   0.0000000000000000     
  -1.7013960917319740E-003   2.5972504727751373E-003   0.0000000000000000     
  -2.5801277305939675E-003   4.4631923355287709E-003   0.0000000000000000     
  -3.4775484314532980E-003   6.7073452825264484E-003   0.0000000000000000     
   2.7216028182250687E-006   6.5078988782554144E-003   0.0000000000000000     
   3.8112549865888855E-006   9.0298077632519069E-003   0.0000000000000000     
   5.2146353530830260E-006   1.1865866980451811E-002   0.0000000000000000     
   6.9317439177073970E-006   1.5016076529855125E-002   0.0000000000000000     
   8.9625806804616683E-006   1.8480436411461847E-002   0.0000000000000000     
  -8.5541406996471206E-004   6.5197812426418603E-003   0.0000000000000000     
  -1.0725632389587704E-003   9.0454657099850889E-003   0.0000000000000000     
  -1.2921480787354612E-003   1.1884576718583588E-002   0.0000000000000000     
  -1.5141685892947853E-003   1.5037114268437344E-002   0.0000000000000000     
  -1.7386247706367426E-003   1.8503078359546368E-002   0.0000000000000000     
  -1.7215042999376112E-003   6.5569830981491804E-003   0.0000000000000000     
  -2.1628959521791031E-003   9.0944342814785160E-003   0.0000000000000000     
  -2.6080661539409694E-003   1.1943278862746490E-002   0.0000000000000000     
  -3.0570149052232083E-003   1.5103516841953093E-002   0.0000000000000000     
  -3.5097422060258207E-003   1.8575148219098329E-002   0.0000000000000000     
  -2.5955490871004735E-003   6.6195044447773755E-003   0.0000000000000000     
  -3.2671868846744106E-003   9.1767134777321901E-003   0.0000000000000000     
  -3.9425395902634398E-003   1.2041973412940518E-002   0.0000000000000000     
  -4.6216072038675598E-003   1.5215284250402366E-002   0.0000000000000000     
  -5.3043897254867719E-003   1.8696645990117729E-002   0.0000000000000000     
  -3.4775484314532980E-003   6.7073452825264484E-003   0.0000000000000000     
  -4.3854360364446914E-003   9.2923032987461043E-003   0.0000000000000000     
  -5.2955683877028729E-003   1.2180660369165675E-002   0.0000000000000000     
  -6.2079454852278426E-003   1.5372416493785165E-002   0.0000000000000000     
  -7.1225673290195978E-003   1.8867571672604569E-002   0.0000000000000000     
   8.9625806804616683E-006   1.8480436411461847E-002   0.0000000000000000     
   1.1585770314089850E-005   2.2230001410330259E-002   0.0000000000000000     
   1.5079937491334464E-005   2.6235826311518648E-002   0.0000000000000000     
   1.9445082212195704E-005   3.0497911115027018E-002   0.0000000000000000     
   2.4681204476673579E-005   3.5016255820855352E-002   0.0000000000000000     
  -1.7386247706367426E-003   1.8503078359546368E-002   0.0000000000000000     
  -1.9624131798581528E-003   2.2253645540719163E-002   0.0000000000000000     
  -2.1824303740558349E-003   2.6259992360764230E-002   0.0000000000000000     
  -2.3986763532297911E-003   3.0522118819681570E-002   0.0000000000000000     
  -2.6111511173800188E-003   3.5040024917471192E-002   0.0000000000000000     
  -3.5097422060258207E-003   1.8575148219098329E-002   0.0000000000000000     
  -3.9611161044652574E-003   2.2329885191618215E-002   0.0000000000000000     
  -4.4060046486579709E-003   2.6339439956948769E-002   0.0000000000000000     
  -4.8444078386039599E-003   3.0603812515089986E-002   0.0000000000000000     
  -5.2763256743032253E-003   3.5123002866041864E-002   0.0000000000000000     
  -5.3043897254867719E-003   1.8696645990117729E-002   0.0000000000000000     
  -5.9845230035072269E-003   2.2458720363027422E-002   0.0000000000000000     
  -6.6556428863150724E-003   2.6474169100072262E-002   0.0000000000000000     
  -7.3177493739103134E-003   3.0742992201252241E-002   0.0000000000000000     
  -7.9708424662929440E-003   3.5265189666567366E-002   0.0000000000000000     
  -7.1225673290195978E-003   1.8867571672604569E-002   0.0000000000000000     
  -8.0326338769840591E-003   2.2640151054946784E-002   0.0000000000000000     
  -8.9313450870271427E-003   2.6664179790134714E-002   0.0000000000000000     
  -9.8187009591488468E-003   3.0939657878168353E-002   0.0000000000000000     
  -1.0694701493349178E-002   3.5466585319047707E-002   0.0000000000000000     
   2.4681204476673579E-005   3.5016255820855352E-002   0.0000000000000000     
   3.2153424337413557E-005   3.9769464147484827E-002   0.0000000000000000     
   4.3226861847059643E-005   4.4736139813396594E-002   0.0000000000000000     
   5.7901517005614129E-005   4.9916282818590653E-002   0.0000000000000000     
   7.6177389813074804E-005   5.5309893163067017E-002   0.0000000000000000     
  -2.6111511173800188E-003   3.5040024917471192E-002   0.0000000000000000     
  -2.8140092597199818E-003   3.9792239745994669E-002   0.0000000000000000     
  -3.0014053734631393E-003   4.4757292397113610E-002   0.0000000000000000     
  -3.1733394586094922E-003   4.9935182870827995E-002   0.0000000000000000     
  -3.3298115151590398E-003   5.5325911167137837E-002   0.0000000000000000     
  -5.2763256743032253E-003   3.5123002866041864E-002   0.0000000000000000     
  -5.6938681558830802E-003   3.9875871541298874E-002   0.0000000000000000     
  -6.0891452834708334E-003   4.4841279072355494E-002   0.0000000000000000     
  -6.4621570570664900E-003   5.0019225459211704E-002   0.0000000000000000     
  -6.8129034766700467E-003   5.5409710701867503E-002   0.0000000000000000     
  -7.9708424662929440E-003   3.5265189666567366E-002   0.0000000000000000     
  -8.6074232641518787E-003   4.0020359533397429E-002   0.0000000000000000     
  -9.2199928681760256E-003   4.4988099839122234E-002   0.0000000000000000     
  -9.8085512783653763E-003   5.0168410583741760E-002   0.0000000000000000     
  -1.0373098494719948E-002   5.5561291767256035E-002   0.0000000000000000     
  -1.0694701493349178E-002   3.5466585319047707E-002   0.0000000000000000     
  -1.1554674584526380E-002   4.0225703722290333E-002   0.0000000000000000     
  -1.2393948127578706E-002   4.5197754697413835E-002   0.0000000000000000     
  -1.3212522122506161E-002   5.0382738244418176E-002   0.0000000000000000     
  -1.4010396569308737E-002   5.5780654363303379E-002   0.0000000000000000     
   7.6177389813074804E-005   5.5309893163067017E-002   0.0000000000000000     
   9.7007333408118254E-005   6.0904535118773091E-002   0.0000000000000000     
   1.1934420092941922E-004   6.6687772957656294E-002   0.0000000000000000     
   1.4318799237697866E-004   7.2659606679716632E-002   0.0000000000000000     
   1.6853870775079523E-004   7.8820036284954098E-002   0.0000000000000000     
  -3.3298115151590398E-003   5.5325911167137837E-002   0.0000000000000000     
  -3.4769627447873608E-003   6.0917576487640152E-002   0.0000000000000000     
  -3.6209343491700311E-003   6.6698278033931954E-002   0.0000000000000000     
  -3.7617263283070508E-003   7.2668015806013245E-002   0.0000000000000000     
  -3.8993386821984206E-003   7.8826789803884023E-002   0.0000000000000000     
  -6.8129034766700467E-003   5.5409710701867503E-002   0.0000000000000000     
  -7.1488448607412340E-003   6.1000713683771433E-002   0.0000000000000000     
  -7.4774415277397812E-003   6.6780213288372026E-002   0.0000000000000000     
  -7.7986934776656846E-003   7.2748209515669252E-002   0.0000000000000000     
  -8.1126007105189468E-003   7.8904702365663132E-002   0.0000000000000000     
  -1.0373098494719948E-002   5.5561291767256035E-002   0.0000000000000000     
  -1.0918639014453502E-002   6.1153946707166951E-002   0.0000000000000000     
  -1.1450177334779828E-002   6.6933578720976494E-002   0.0000000000000000     
  -1.1967713455698921E-002   7.2900187808684652E-002   0.0000000000000000     
  -1.2471247377210783E-002   7.9053773970291383E-002   0.0000000000000000     
  -1.4010396569308737E-002   5.5780654363303379E-002   0.0000000000000000     
  -1.4786345205924164E-002   6.1377275557826690E-002   0.0000000000000000     
  -1.5539141770290175E-002   6.7158374331745374E-002   0.0000000000000000     
  -1.6268786262406763E-002   7.3123950685059433E-002   0.0000000000000000     
  -1.6975278682273932E-002   7.9274004617768845E-002   0.0000000000000000     
   1.6853870775079523E-004   7.8820036284954098E-002   0.0000000000000000     
   1.9413170311351874E-004   8.5155400830466577E-002   0.0000000000000000     
   2.1870233452779770E-004   9.1652039373351910E-002   0.0000000000000000     
   2.4225060199363209E-004   9.8309951913610097E-002   0.0000000000000000     
   2.6477650551102148E-004  0.10512913845124117        0.0000000000000000     
  -3.8993386821984206E-003   7.8826789803884023E-002   0.0000000000000000     
  -4.0336610372419405E-003   8.5159398056597280E-002   0.0000000000000000     
  -4.1645830198354158E-003   9.1650638593205963E-002   0.0000000000000000     
  -4.2921046299788405E-003   9.8300511413710087E-002   0.0000000000000000     
  -4.4162258676722190E-003  0.10510901651810964        0.0000000000000000     
  -8.1126007105189468E-003   7.8904702365663132E-002   0.0000000000000000     
  -8.4182235507048175E-003   8.5234286289120761E-002   0.0000000000000000     
  -8.7146223226285454E-003   9.1721555736809263E-002   0.0000000000000000     
  -9.0017970262901304E-003   9.8366510708728608E-002   0.0000000000000000     
  -9.2797476616895743E-003  0.10516915120487884        0.0000000000000000     
  -1.2471247377210783E-002   7.9053773970291383E-002   0.0000000000000000     
  -1.2959555837275108E-002   8.5380065528037022E-002   0.0000000000000000     
  -1.3431415573851593E-002   9.1864790804161781E-002   0.0000000000000000     
  -1.3886826586940237E-002   9.8507949798665687E-002   0.0000000000000000     
  -1.4325788876541040E-002  0.10530954251154870        0.0000000000000000     
  -1.6975278682273932E-002   7.9274004617768845E-002   0.0000000000000000     
  -1.7657657896952814E-002   8.5596735773346061E-002   0.0000000000000000     
  -1.8314962773504563E-002   9.2080343795263531E-002   0.0000000000000000     
  -1.8947193311929161E-002   9.8724828683521268E-002   0.0000000000000000     
  -1.9554349512226617E-002  0.10553019043811926        0.0000000000000000     
   2.6477650551102148E-004  0.10512913845124117        0.0000000000000000     
   2.8081202135510786E-004  0.11208974658941817        0.0000000000000000     
   2.8488912580103352E-004  0.11917192393131421        0.0000000000000000     
   2.7700781884879727E-004  0.12637567047692919        0.0000000000000000     
   2.5716810049840116E-004  0.13370098622626322        0.0000000000000000     
  -4.4162258676722190E-003  0.10510901651810964        0.0000000000000000     
  -4.5324531880026140E-003  0.11206360804432883        0.0000000000000000     
  -4.6362930460570875E-003  0.11915174013029182        0.0000000000000000     
  -4.7277454418356412E-003  0.12637341277599862        0.0000000000000000     
  -4.8068103753382743E-003  0.13372862598144922        0.0000000000000000     
  -9.2797476616895743E-003  0.10516915120487884        0.0000000000000000     
  -9.5393281009951269E-003  0.11212151366271121        0.0000000000000000     
  -9.7713922163750570E-003  0.11921563451967707        0.0000000000000000     
  -9.9759400078293543E-003  0.12645151377577640        0.0000000000000000     
  -1.0152971475358021E-002  0.13382915143100921        0.0000000000000000     
  -1.4325788876541040E-002  0.10530954251154870        0.0000000000000000     
  -1.4739812717622440E-002  0.11226346344456530        0.0000000000000000     
  -1.5120408385152872E-002  0.11936360709946987        0.0000000000000000     
  -1.5467575879132342E-002  0.12660997347626249        0.0000000000000000     
  -1.5781315199560841E-002  0.13400256257494308        0.0000000000000000     
  -1.9554349512226617E-002  0.10553019043811926        0.0000000000000000     
  -2.0133907037884542E-002  0.11248945738989106        0.0000000000000000     
  -2.0683341552390534E-002  0.11959565786967029        0.0000000000000000     
  -2.1202653055744602E-002  0.12684879187745693        0.0000000000000000     
  -2.1691841547946730E-002  0.13424885941325093        0.0000000000000000     
   2.5716810049840116E-004  0.13370098622626322        0.0000000000000000     
   2.3039534488514149E-004  0.14114214223747365        0.0000000000000000     
   2.0171492614431865E-004  0.14869340956871793        0.0000000000000000     
   1.7112684427593024E-004  0.15635478821999607        0.0000000000000000     
   1.3863109927997677E-004  0.16412627819130798        0.0000000000000000     
  -4.8068103753382743E-003  0.13372862598144922        0.0000000000000000     
  -4.9210844422086326E-003  0.14116434924369733        0.0000000000000000     
  -5.1181642380903640E-003  0.14862755205979655        0.0000000000000000     
  -5.3980497629834675E-003  0.15611823442974690        0.0000000000000000     
  -5.7607410168879439E-003  0.16363639635354837        0.0000000000000000     
  -1.0152971475358021E-002  0.13382915143100921        0.0000000000000000     
  -1.0369849767664672E-002  0.14127325521575770        0.0000000000000000     
  -1.0693938033452923E-002  0.14870853286040411        0.0000000000000000     
  -1.1125236272722770E-002  0.15613498436494846        0.0000000000000000     
  -1.1663744485474218E-002  0.16355260972939070        0.0000000000000000     
  -1.5781315199560841E-002  0.13400256257494308        0.0000000000000000     
  -1.6115900631482983E-002  0.14146886015365479        0.0000000000000000     
  -1.6525606459943363E-002  0.14893635197054073        0.0000000000000000     
  -1.7010432684941977E-002  0.15640503802560074        0.0000000000000000     
  -1.7570379306478843E-002  0.16387491831883499        0.0000000000000000     
  -2.1691841547946730E-002  0.13424885941325093        0.0000000000000000     
  -2.2159237033663549E-002  0.14175116405738861        0.0000000000000000     
  -2.2613169517561670E-002  0.14931100939020622        0.0000000000000000     
  -2.3053638999641097E-002  0.15692839541170375        0.0000000000000000     
  -2.3480645479901821E-002  0.16460332212188120        0.0000000000000000     
   0.0000000000000000        0.0000000000000000        0.0000000000000000     
  -8.4135351486731836E-004   1.1095196942655472E-003   0.0000000000000000     
  -1.7013960917319740E-003   2.5972504727751373E-003   0.0000000000000000     
  -2.5801277305939675E-003   4.4631923355287709E-003   0.0000000000000000     
  -3.4775484314532980E-003   6.7073452825264484E-003   0.0000000000000000     
   0.0000000000000000        0.0000000000000000        0.0000000000000000     
  -1.0566841231526016E-003   1.1335527433347728E-003   0.0000000000000000     
  -2.1395095812565940E-003   2.6492664030593111E-003   0.0000000000000000     
  -3.2484763743119783E-003   4.5471409791736153E-003   0.0000000000000000     
  -4.3835845023187537E-003   6.8271764716776855E-003   0.0000000000000000     
   0.0000000000000000        0.0000000000000000        0.0000000000000000     
  -1.2879539270214254E-003   1.1693105984518048E-003   0.0000000000000000     
  -2.6055618141984861E-003   2.7233589433544700E-003   0.0000000000000000     
  -3.9528236615311799E-003   4.6621450347079955E-003   0.0000000000000000     
  -5.3297394690195081E-003   6.9856688725123822E-003   0.0000000000000000     
   0.0000000000000000        0.0000000000000000        0.0000000000000000     
  -1.5351629264737910E-003   1.2167932596166438E-003   0.0000000000000000     
  -3.0995527905576482E-003   2.8195280936606148E-003   0.0000000000000000     
  -4.6931695922515721E-003   4.8082045021319124E-003   0.0000000000000000     
  -6.3160133315555622E-003   7.1828224850305367E-003   0.0000000000000000     
   0.0000000000000000        0.0000000000000000        0.0000000000000000     
  -1.7983111215096968E-003   1.2760007268292888E-003   0.0000000000000000     
  -3.6214825103340815E-003   2.9377738539777434E-003   0.0000000000000000     
  -5.4695141664731555E-003   4.9853193814453634E-003   0.0000000000000000     
  -7.3424060899269167E-003   7.4186373092321499E-003   0.0000000000000000     
  -3.4775484314532980E-003   6.7073452825264484E-003   0.0000000000000000     
  -4.3854360364446914E-003   9.2923032987461043E-003   0.0000000000000000     
  -5.2955683877028729E-003   1.2180660369165675E-002   0.0000000000000000     
  -6.2079454852278426E-003   1.5372416493785165E-002   0.0000000000000000     
  -7.1225673290195978E-003   1.8867571672604569E-002   0.0000000000000000     
  -4.3835845023187537E-003   6.8271764716776855E-003   0.0000000000000000     
  -5.5322862220647962E-003   9.4472795681613351E-003   0.0000000000000000     
  -6.6820337903379795E-003   1.2365356956214369E-002   0.0000000000000000     
  -7.8328272071383018E-003   1.5581408635836796E-002   0.0000000000000000     
  -8.9846664724657684E-003   1.9095434607028613E-002   0.0000000000000000     
  -5.3297394690195081E-003   6.9856688725123822E-003   0.0000000000000000     
  -6.7223802561095719E-003   9.6477181096189489E-003   0.0000000000000000     
  -8.1168170422474678E-003   1.2602080398879015E-002   0.0000000000000000     
  -9.5130498274331992E-003   1.5848755740292576E-002   0.0000000000000000     
  -1.0911078611666764E-002   1.9387744133859641E-002   0.0000000000000000     
  -6.3160133315555622E-003   7.1828224850305367E-003   0.0000000000000000     
  -7.9557181385790186E-003   9.8936189231189457E-003   0.0000000000000000     
  -9.5999181434313404E-003   1.2890830697159603E-002   0.0000000000000000     
  -1.1248613346112527E-002   1.6174457807152504E-002   0.0000000000000000     
  -1.2901803746622580E-002   1.9744500253097649E-002   0.0000000000000000     
  -7.3424060899269167E-003   7.4186373092321499E-003   0.0000000000000000     
  -9.2322998694731387E-003   1.0184982008661332E-002   0.0000000000000000     
  -1.1131337093889597E-002   1.3231607851056140E-002   0.0000000000000000     
  -1.3039517763176290E-002   1.6558514836416575E-002   0.0000000000000000     
  -1.4956841877333217E-002   2.0165702964742634E-002   0.0000000000000000     
  -7.1225673290195978E-003   1.8867571672604569E-002   0.0000000000000000     
  -8.0326338769840591E-003   2.2640151054946784E-002   0.0000000000000000     
  -8.9313450870271427E-003   2.6664179790134714E-002   0.0000000000000000     
  -9.8187009591488468E-003   3.0939657878168353E-002   0.0000000000000000     
  -1.0694701493349178E-002   3.5466585319047707E-002   0.0000000000000000     
  -8.9846664724657684E-003   1.9095434607028613E-002   0.0000000000000000     
  -1.0129631687420823E-002   2.2882519219629822E-002   0.0000000000000000     
  -1.1259802953103913E-002   2.6917746823480422E-002   0.0000000000000000     
  -1.2375180269515028E-002   3.1201117418580407E-002   0.0000000000000000     
  -1.3475763636654179E-002   3.5732631004929787E-002   0.0000000000000000     
  -1.0911078611666764E-002   1.9387744133859641E-002   0.0000000000000000     
  -1.2299699397342592E-002   2.3194166809330060E-002   0.0000000000000000     
  -1.3667708186855108E-002   2.7243144996453684E-002   0.0000000000000000     
  -1.5015104980204315E-002   3.1534678695230516E-002   0.0000000000000000     
  -1.6341889777390213E-002   3.6068767905660555E-002   0.0000000000000000     
  -1.2901803746622580E-002   1.9744500253097649E-002   0.0000000000000000     
  -1.4542837006749357E-002   2.3575093824047495E-002   0.0000000000000000     
  -1.6155060788280738E-002   2.7640374309054500E-002   0.0000000000000000     
  -1.7738475091216708E-002   3.1940341708118672E-002   0.0000000000000000     
  -1.9293079915557274E-002   3.6474996021239998E-002   0.0000000000000000     
  -1.4956841877333217E-002   2.0165702964742634E-002   0.0000000000000000     
  -1.6859044515641134E-002   2.4025300263782134E-002   0.0000000000000000     
  -1.8721860757380793E-002   2.8109434761282876E-002   0.0000000000000000     
  -2.0545290602552203E-002   3.2418106457244869E-002   0.0000000000000000     
  -2.2329334051155357E-002   3.6951315351668103E-002   0.0000000000000000     
  -1.0694701493349178E-002   3.5466585319047707E-002   0.0000000000000000     
  -1.1554674584526380E-002   4.0225703722290333E-002   0.0000000000000000     
  -1.2393948127578706E-002   4.5197754697413835E-002   0.0000000000000000     
  -1.3212522122506161E-002   5.0382738244418176E-002   0.0000000000000000     
  -1.4010396569308737E-002   5.5780654363303379E-002   0.0000000000000000     
  -1.3475763636654179E-002   3.5732631004929787E-002   0.0000000000000000     
  -1.4559906476050506E-002   4.0494729830617145E-002   0.0000000000000000     
  -1.5625962209233128E-002   4.5469856143731044E-002   0.0000000000000000     
  -1.6673930836202062E-002   5.0658009944271484E-002   0.0000000000000000     
  -1.7703812356957296E-002   5.6059191232238473E-002   0.0000000000000000     
  -1.6341889777390213E-002   3.6068767905660555E-002   0.0000000000000000     
  -1.7647403297768163E-002   4.0830263581017393E-002   0.0000000000000000     
  -1.8930986260693523E-002   4.5804016674574614E-002   0.0000000000000000     
  -2.0192638666166302E-002   5.0990027186332214E-002   0.0000000000000000     
  -2.1432360514186500E-002   5.6388295116290212E-002   0.0000000000000000     
  -1.9293079915557274E-002   3.6474996021239998E-002   0.0000000000000000     
  -2.0817165049679363E-002   4.1232304973491091E-002   0.0000000000000000     
  -2.2309020281959902E-002   4.6200236289944546E-002   0.0000000000000000     
  -2.3768645612398893E-002   5.1378789970600386E-002   0.0000000000000000     
  -2.5196041040996341E-002   5.6767966015458582E-002   0.0000000000000000     
  -2.2329334051155357E-002   3.6951315351668103E-002   0.0000000000000000     
  -2.4069191731784092E-002   4.1700854008038218E-002   0.0000000000000000     
  -2.5760064273032252E-002   4.6658514989840832E-002   0.0000000000000000     
  -2.7401951674899828E-002   5.1824298297075959E-002   0.0000000000000000     
  -2.8994853937386822E-002   5.7198203929743591E-002   0.0000000000000000     
  -1.4010396569308737E-002   5.5780654363303379E-002   0.0000000000000000     
  -1.4786345205924164E-002   6.1377275557826690E-002   0.0000000000000000     
  -1.5539141770290175E-002   6.7158374331745374E-002   0.0000000000000000     
  -1.6268786262406763E-002   7.3123950685059433E-002   0.0000000000000000     
  -1.6975278682273932E-002   7.9274004617768845E-002   0.0000000000000000     
  -1.7703812356957296E-002   5.6059191232238473E-002   0.0000000000000000     
  -1.8708709543741452E-002   6.1657859890977038E-002   0.0000000000000000     
  -1.9681725168797144E-002   6.7438475803832165E-002   0.0000000000000000     
  -2.0622859232124369E-002   7.3401038970803870E-002   0.0000000000000000     
  -2.1532111733723130E-002   7.9545549391892151E-002   0.0000000000000000     
  -2.1432360514186500E-002   5.6388295116290212E-002   0.0000000000000000     
  -2.2642478136493584E-002   6.1982859361844340E-002   0.0000000000000000     
  -2.3815317864827049E-002   6.7757758820390368E-002   0.0000000000000000     
  -2.4950879699186895E-002   7.3712993491928253E-002   0.0000000000000000     
  -2.6049163639573117E-002   7.9848563376458043E-002   0.0000000000000000     
  -2.5196041040996341E-002   5.6767966015458582E-002   0.0000000000000000     
  -2.6587650984180561E-002   6.2352273970428626E-002   0.0000000000000000     
  -2.7939919858379896E-002   6.8116223381419969E-002   0.0000000000000000     
  -2.9252847663594341E-002   7.4059814248432596E-002   0.0000000000000000     
  -3.0526434399823887E-002   8.0183046571466521E-002   0.0000000000000000     
  -2.8994853937386822E-002   5.7198203929743591E-002   0.0000000000000000     
  -3.0544228086802395E-002   6.2766103716729874E-002   0.0000000000000000     
  -3.2055531149455682E-002   6.8513869486920981E-002   0.0000000000000000     
  -3.3528763125346708E-002   7.4441501240316871E-002   0.0000000000000000     
  -3.4963924014475442E-002   8.0548998976917585E-002   0.0000000000000000     
  -1.6975278682273932E-002   7.9274004617768845E-002   0.0000000000000000     
  -1.7657657896952814E-002   8.5596735773346061E-002   0.0000000000000000     
  -1.8314962773504563E-002   9.2080343795263531E-002   0.0000000000000000     
  -1.8947193311929161E-002   9.8724828683521268E-002   0.0000000000000000     
  -1.9554349512226617E-002  0.10553019043811926        0.0000000000000000     
  -2.1532111733723130E-002   7.9545549391892151E-002   0.0000000000000000     
  -2.2408416456609320E-002   8.5862862345521998E-002   0.0000000000000000     
  -2.3250707183798826E-002   9.2343833110118373E-002   0.0000000000000000     
  -2.4058983915291658E-002   9.8988461685681262E-002   0.0000000000000000     
  -2.4833246651087808E-002  0.10579674807221072        0.0000000000000000     
  -2.6049163639573117E-002   7.9848563376458043E-002   0.0000000000000000     
  -2.7107718243115982E-002   8.6157010565038925E-002   0.0000000000000000     
  -2.8124092066945772E-002   9.2630877148730084E-002   0.0000000000000000     
  -2.9098285111062480E-002   9.9270163127531508E-002   0.0000000000000000     
  -3.0030297375466111E-002  0.10607486850144324        0.0000000000000000     
  -3.0526434399823887E-002   8.0183046571466521E-002   0.0000000000000000     
  -3.1755563256472809E-002   8.6479180431896854E-002   0.0000000000000000     
  -3.2935117422945394E-002   9.2941475911098664E-002   0.0000000000000000     
  -3.4065096899241636E-002   9.9569933009072020E-002   0.0000000000000000     
  -3.5145501685361520E-002  0.10636455172581682        0.0000000000000000     
  -3.4963924014475442E-002   8.0548998976917585E-002   0.0000000000000000     
  -3.6351951496679816E-002   8.6829371946095787E-002   0.0000000000000000     
  -3.7683783251797699E-002   9.3275629397224169E-002   0.0000000000000000     
  -3.8959419279829113E-002   9.9887771330302744E-002   0.0000000000000000     
  -4.0178859580774037E-002  0.10666579774533151        0.0000000000000000     
  -1.9554349512226617E-002  0.10553019043811926        0.0000000000000000     
  -2.0133907037884542E-002  0.11248945738989106        0.0000000000000000     
  -2.0683341552390534E-002  0.11959565786967029        0.0000000000000000     
  -2.1202653055744602E-002  0.12684879187745693        0.0000000000000000     
  -2.1691841547946730E-002  0.13424885941325093        0.0000000000000000     
  -2.4833246651087808E-002  0.10579674807221072        0.0000000000000000     
  -2.5576981461197700E-002  0.11275929659028994        0.0000000000000000     
  -2.6293674415631758E-002  0.11986671156050216        0.0000000000000000     
  -2.6983325514389974E-002  0.12711899298284740        0.0000000000000000     
  -2.7645934757472346E-002  0.13451614085732566        0.0000000000000000     
  -3.0030297375466111E-002  0.10607486850144324        0.0000000000000000     
  -3.0924406386978194E-002  0.11303278213736319        0.0000000000000000     
  -3.1784889672420262E-002  0.12013169290218936        0.0000000000000000     
  -3.2611747231792318E-002  0.12737160079592175        0.0000000000000000     
  -3.3404979065094348E-002  0.13475250581856033        0.0000000000000000     
  -3.5145501685361520E-002  0.10636455172581682        0.0000000000000000     
  -3.6176181815226006E-002  0.11330991403111090        0.0000000000000000     
  -3.7156987322756040E-002  0.12039060189473193        0.0000000000000000     
  -3.8087918207951613E-002  0.12760661531667994        0.0000000000000000     
  -3.8968974470812726E-002  0.13495795429695492        0.0000000000000000     
  -4.0178859580774037E-002  0.10666579774533151        0.0000000000000000     
  -4.1332307745941155E-002  0.11359069227153301        0.0000000000000000     
  -4.2409967366639094E-002  0.12064343853812984        0.0000000000000000     
  -4.3411838442867876E-002  0.12782403654512198        0.0000000000000000     
  -4.4337920974627486E-002  0.13513248629250943        0.0000000000000000     
  -2.1691841547946730E-002  0.13424885941325093        0.0000000000000000     
  -2.2159237033663549E-002  0.14175116405738861        0.0000000000000000     
  -2.2613169517561670E-002  0.14931100939020622        0.0000000000000000     
  -2.3053638999641097E-002  0.15692839541170375        0.0000000000000000     
  -2.3480645479901821E-002  0.16460332212188120        0.0000000000000000     
  -2.7645934757472346E-002  0.13451614085732566        0.0000000000000000     
  -2.8246056529619028E-002  0.14204555691114198        0.0000000000000000     
  -2.8748245215570158E-002  0.14969464287150142        0.0000000000000000     
  -2.9152500815325746E-002  0.15746339873840395        0.0000000000000000     
  -2.9458823328885771E-002  0.16535182451184954        0.0000000000000000     
  -3.3404979065094348E-002  0.13475250581856033        0.0000000000000000     
  -3.4122556674762057E-002  0.14227742869909785        0.0000000000000000     
  -3.4722451563231116E-002  0.14994939016652700        0.0000000000000000     
  -3.5204663730501538E-002  0.15776839022084779        0.0000000000000000     
  -3.5569193176573310E-002  0.16573442886206019        0.0000000000000000     
  -3.8968974470812726E-002  0.13495795429695492        0.0000000000000000     
  -3.9788737469092623E-002  0.14244677942125616        0.0000000000000000     
  -4.0535788560544544E-002  0.15007525127528296        0.0000000000000000     
  -4.1210127745168475E-002  0.15784336985903530        0.0000000000000000     
  -4.1811755022964442E-002  0.16575113517251319        0.0000000000000000     
  -4.4337920974627486E-002  0.13513248629250943        0.0000000000000000     
  -4.5244598912610734E-002  0.14255360907761694        0.0000000000000000     
  -4.6188256207510422E-002  0.15007222619776930        0.0000000000000000     
  -4.7168892859326572E-002  0.15768833765296647        0.0000000000000000     
  -4.8186508868059155E-002  0.16540194344320849        0.0000000000000000     
   0.0000000000000000        0.0000000000000000        0.0000000000000000     
  -1.7983111215096968E-003   1.2760007268292888E-003   0.0000000000000000     
  -3.6214825103340815E-003   2.9377738539777434E-003   0.0000000000000000     
  -5.4695141664731555E-003   4.9853193814453634E-003   0.0000000000000000     
  -7.3424060899269167E-003   7.4186373092321499E-003   0.0000000000000000     
   0.0000000000000000        0.0000000000000000        0.0000000000000000     
  -2.0692813696174318E-003   1.3540877261078762E-003   0.0000000000000000     
  -4.1641497418770344E-003   3.0926270988783575E-003   0.0000000000000000     
  -6.2846051167788066E-003   5.2156181183114414E-003   0.0000000000000000     
  -8.4306474943227506E-003   7.7230607844071316E-003   0.0000000000000000     
   0.0000000000000000        0.0000000000000000        0.0000000000000000     
  -2.3399565282852829E-003   1.4582089834705428E-003   0.0000000000000000     
  -4.7203532535357523E-003   3.2986187029349556E-003   0.0000000000000000     
  -7.1411901757514051E-003   5.5212291583932377E-003   0.0000000000000000     
  -9.6024672949322435E-003   8.1260403498453898E-003   0.0000000000000000     
   0.0000000000000000        0.0000000000000000        0.0000000000000000     
  -2.6103365975132515E-003   1.5883644989172871E-003   0.0000000000000000     
  -5.2900930453102348E-003   3.5557486661475374E-003   0.0000000000000000     
  -8.0392693433909493E-003   5.9021525016907505E-003   0.0000000000000000     
  -1.0857865491755396E-002   8.6275760055469271E-003   0.0000000000000000     
   0.0000000000000000        0.0000000000000000        0.0000000000000000     
  -2.8804215773013367E-003   1.7445542724481105E-003   0.0000000000000000     
  -5.8733691172004835E-003   3.8640169885161041E-003   0.0000000000000000     
  -8.9788426196974417E-003   6.3583881482039816E-003   0.0000000000000000     
  -1.2196842084792209E-002   9.2276677515117402E-003   0.0000000000000000     
  -7.3424060899269167E-003   7.4186373092321499E-003   0.0000000000000000     
  -9.2322998694731387E-003   1.0184982008661332E-002   0.0000000000000000     
  -1.1131337093889597E-002   1.3231607851056140E-002   0.0000000000000000     
  -1.3039517763176290E-002   1.6558514836416575E-002   0.0000000000000000     
  -1.4956841877333217E-002   2.0165702964742634E-002   0.0000000000000000     
  -8.4306474943227506E-003   7.7230607844071316E-003   0.0000000000000000     
  -1.0593278748499279E-002   1.0557112605402080E-002   0.0000000000000000     
  -1.2763500753298802E-002   1.3659931089532939E-002   0.0000000000000000     
  -1.4941313508721321E-002   1.7031516236799715E-002   0.0000000000000000     
  -1.7126717014766837E-002   2.0671868047202398E-002   0.0000000000000000     
  -9.6024672949322435E-003   8.1260403498453898E-003   0.0000000000000000     
  -1.2079808075364778E-002   1.1045315952497163E-002   0.0000000000000000     
  -1.4548835981335512E-002   1.4211319641554315E-002   0.0000000000000000     
  -1.7009551012844456E-002   1.7624051417016836E-002   0.0000000000000000     
  -1.9461953169891598E-002   2.1283511278884729E-002   0.0000000000000000     
  -1.0857865491755396E-002   8.6275760055469271E-003   0.0000000000000000     
  -1.3691887850069636E-002   1.1649592049946591E-002   0.0000000000000000     
  -1.6487342777999740E-002   1.4885773507120262E-002   0.0000000000000000     
  -1.9244230275545691E-002   1.8336120377067940E-002   0.0000000000000000     
  -2.1962550342707502E-002   2.2000632659789625E-002   0.0000000000000000     
  -1.2196842084792209E-002   9.2276677515117402E-003   0.0000000000000000     
  -1.5429518072613863E-002   1.2369940897750353E-002   0.0000000000000000     
  -1.8579021143291470E-002   1.5683292686230782E-002   0.0000000000000000     
  -2.1645351296825037E-002   1.9167723116953028E-002   0.0000000000000000     
  -2.4628508533214560E-002   2.2823232189917091E-002   0.0000000000000000     
  -1.4956841877333217E-002   2.0165702964742634E-002   0.0000000000000000     
  -1.6859044515641134E-002   2.4025300263782134E-002   0.0000000000000000     
  -1.8721860757380793E-002   2.8109434761282876E-002   0.0000000000000000     
  -2.0545290602552203E-002   3.2418106457244869E-002   0.0000000000000000     
  -2.2329334051155357E-002   3.6951315351668103E-002   0.0000000000000000     
  -1.7126717014766837E-002   2.0671868047202398E-002   0.0000000000000000     
  -1.9290748309357699E-002   2.4554361882836055E-002   0.0000000000000000     
  -2.1404444430416242E-002   2.8652373105795725E-002   0.0000000000000000     
  -2.3467805377942481E-002   3.2965901716081436E-002   0.0000000000000000     
  -2.5480831151936410E-002   3.7494947713693175E-002   0.0000000000000000     
  -1.9461953169891598E-002   2.1283511278884729E-002   0.0000000000000000     
  -2.1880374773238828E-002   2.5171854435511332E-002   0.0000000000000000     
  -2.4239148143648036E-002   2.9271236095249991E-002   0.0000000000000000     
  -2.6538273281119216E-002   3.3581656258100709E-002   0.0000000000000000     
  -2.8777750185652366E-002   3.8103114924063472E-002   0.0000000000000000     
  -2.1962550342707502E-002   2.2000632659789625E-002   0.0000000000000000     
  -2.4627923907284546E-002   2.5877777921807985E-002   0.0000000000000000     
  -2.7225971897076179E-002   2.9966023729645661E-002   0.0000000000000000     
  -2.9756694312082402E-002   3.4265370083302667E-002   0.0000000000000000     
  -3.2220091152303232E-002   3.8775816982779002E-002   0.0000000000000000     
  -2.4628508533214560E-002   2.2823232189917091E-002   0.0000000000000000     
  -2.7533395711494834E-002   2.6672132341725989E-002   0.0000000000000000     
  -3.0364915690700666E-002   3.0736736008982735E-002   0.0000000000000000     
  -3.3123068470832059E-002   3.5017043191687323E-002   0.0000000000000000     
  -3.5807854051888986E-002   3.9513053889839771E-002   0.0000000000000000     
  -2.2329334051155357E-002   3.6951315351668103E-002   0.0000000000000000     
  -2.4069191731784092E-002   4.1700854008038218E-002   0.0000000000000000     
  -2.5760064273032252E-002   4.6658514989840832E-002   0.0000000000000000     
  -2.7401951674899828E-002   5.1824298297075959E-002   0.0000000000000000     
  -2.8994853937386822E-002   5.7198203929743591E-002   0.0000000000000000     
  -2.5480831151936410E-002   3.7494947713693175E-002   0.0000000000000000     
  -2.7435559379374377E-002   4.2234419329568840E-002   0.0000000000000000     
  -2.9324027687232732E-002   4.7179224794646354E-002   0.0000000000000000     
  -3.1146236075511469E-002   5.2329364108925733E-002   0.0000000000000000     
  -3.2902184544210601E-002   5.7684837272406954E-002   0.0000000000000000     
  -2.8777750185652366E-002   3.8103114924063472E-002   0.0000000000000000     
  -3.0948344027742214E-002   4.2831509582992991E-002   0.0000000000000000     
  -3.3040819977883495E-002   4.7762737724743980E-002   0.0000000000000000     
  -3.5055178036076169E-002   5.2896799349316438E-002   0.0000000000000000     
  -3.6991418202320298E-002   5.8233694456710353E-002   0.0000000000000000     
  -3.2220091152303232E-002   3.8775816982779002E-002   0.0000000000000000     
  -3.4607545676887612E-002   4.3492124768310679E-002   0.0000000000000000     
  -3.6910441144984527E-002   4.8409053780133701E-002   0.0000000000000000     
  -3.9128777556593969E-002   5.3526604018248089E-002   0.0000000000000000     
  -4.1262554911715946E-002   5.8844775482653815E-002   0.0000000000000000     
  -3.5807854051888986E-002   3.9513053889839771E-002   0.0000000000000000     
  -3.8413164326810550E-002   4.4216264885521890E-002   0.0000000000000000     
  -4.0932891188535832E-002   4.9118172960815526E-002   0.0000000000000000     
  -4.3367034637064816E-002   5.4218778115720671E-002   0.0000000000000000     
  -4.5715594672397511E-002   5.9518080350237333E-002   0.0000000000000000     
  -2.8994853937386822E-002   5.7198203929743591E-002   0.0000000000000000     
  -3.0544228086802395E-002   6.2766103716729874E-002   0.0000000000000000     
  -3.2055531149455682E-002   6.8513869486920981E-002   0.0000000000000000     
  -3.3528763125346708E-002   7.4441501240316871E-002   0.0000000000000000     
  -3.4963924014475442E-002   8.0548998976917585E-002   0.0000000000000000     
  -3.2902184544210601E-002   5.7684837272406954E-002   0.0000000000000000     
  -3.4606543592062215E-002   6.3233275847235648E-002   0.0000000000000000     
  -3.6273983717798421E-002   6.8962311395557474E-002   0.0000000000000000     
  -3.7904504921419238E-002   7.4871943917372397E-002   0.0000000000000000     
  -3.9498107202924654E-002   8.0962173412680458E-002   0.0000000000000000     
  -3.6991418202320298E-002   5.8233694456710353E-002   0.0000000000000000     
  -3.8868931647663175E-002   6.3762717608433467E-002   0.0000000000000000     
  -4.0707109543152153E-002   6.9473163365993518E-002   0.0000000000000000     
  -4.2505951888787204E-002   7.5365031729390505E-002   0.0000000000000000     
  -4.4265458684568354E-002   8.1438322698624430E-002   0.0000000000000000     
  -4.1262554911715946E-002   5.8844775482653815E-002   0.0000000000000000     
  -4.3331392253605286E-002   6.4354429000323357E-002   0.0000000000000000     
  -4.5354908625516839E-002   7.0046425398229153E-002   0.0000000000000000     
  -4.7333104027450605E-002   7.5920764676371197E-002   0.0000000000000000     
  -4.9265978459406570E-002   8.1977446834749501E-002   0.0000000000000000     
  -4.5715594672397511E-002   5.9518080350237333E-002   0.0000000000000000     
  -4.7993925409888533E-002   6.5008410022905291E-002   0.0000000000000000     
  -5.0217380964892491E-002   7.0682097492264340E-002   0.0000000000000000     
  -5.2385961337409422E-002   7.6539142758314457E-002   0.0000000000000000     
  -5.4499666527439275E-002   8.2579545821055658E-002   0.0000000000000000     
  -3.4963924014475442E-002   8.0548998976917585E-002   0.0000000000000000     
  -3.6351951496679816E-002   8.6829371946095787E-002   0.0000000000000000     
  -3.7683783251797699E-002   9.3275629397224169E-002   0.0000000000000000     
  -3.8959419279829113E-002   9.9887771330302744E-002   0.0000000000000000     
  -4.0178859580774037E-002  0.10666579774533151        0.0000000000000000     
  -3.9498107202924654E-002   8.0962173412680458E-002   0.0000000000000000     
  -4.1041918457793952E-002   8.7224892815953803E-002   0.0000000000000000     
  -4.2523066581506466E-002   9.3651995061664606E-002   0.0000000000000000     
  -4.3941551574062182E-002  0.10024348014981285        0.0000000000000000     
  -4.5297373435461107E-002  0.10699934808039856        0.0000000000000000     
  -4.4265458684568354E-002   8.1438322698624430E-002   0.0000000000000000     
  -4.5970499633872237E-002   8.7683050749789021E-002   0.0000000000000000     
  -4.7605944440075501E-002   9.4089230358978052E-002   0.0000000000000000     
  -4.9171793103178145E-002  0.10065686152619148        0.0000000000000000     
  -5.0668045623180162E-002  0.10738594425142932        0.0000000000000000     
  -4.9265978459406570E-002   8.1977446834749501E-002   0.0000000000000000     
  -5.1137695024914658E-002   8.8203845747601470E-002   0.0000000000000000     
  -5.2932416827504804E-002   9.4587335289164506E-002   0.0000000000000000     
  -5.4650143867176967E-002  0.10112791545943862        0.0000000000000000     
  -5.6290876143931197E-002  0.10782558625842381        0.0000000000000000     
  -5.4499666527439275E-002   8.2579545821055658E-002   0.0000000000000000     
  -5.6543504630921212E-002   8.8787277809391107E-002   0.0000000000000000     
  -5.8502483743794353E-002   9.5146309852223984E-002   0.0000000000000000     
  -6.0376603866058684E-002  0.10165664194955427        0.0000000000000000     
  -6.2165864997714225E-002  0.10831827410138201        0.0000000000000000     
  -4.0178859580774037E-002  0.10666579774533151        0.0000000000000000     
  -4.1332307745941155E-002  0.11359069227153301        0.0000000000000000     
  -4.2409967366639094E-002  0.12064343853812984        0.0000000000000000     
  -4.3411838442867876E-002  0.12782403654512198        0.0000000000000000     
  -4.4337920974627486E-002  0.13513248629250943        0.0000000000000000     
  -4.5297373435461107E-002  0.10699934808039856        0.0000000000000000     
  -4.6571746388547268E-002  0.11389851852739971        0.0000000000000000     
  -4.7745884656164680E-002  0.12091991116479434        0.0000000000000000     
  -4.8819788238313372E-002  0.12806352599258239        0.0000000000000000     
  -4.9793457134993335E-002  0.13532936301076393        0.0000000000000000     
  -5.0668045623180162E-002  0.10738594425142932        0.0000000000000000     
  -5.2073459952467982E-002  0.11425679446748119        0.0000000000000000     
  -5.3366794043428069E-002  0.12124972810713665        0.0000000000000000     
  -5.4548047896060402E-002  0.12836474517039573        0.0000000000000000     
  -5.5617221510364981E-002  0.13560184565725844        0.0000000000000000     
  -5.6290876143931197E-002  0.10782558625842381        0.0000000000000000     
  -5.7837448437703325E-002  0.11466552009177744        0.0000000000000000     
  -5.9272695528429245E-002  0.12163288936515684        0.0000000000000000     
  -6.0596617416108937E-002  0.12872769407856202        0.0000000000000000     
  -6.1809214100742416E-002  0.13594993423199303        0.0000000000000000     
  -6.2165864997714225E-002  0.10831827410138201        0.0000000000000000     
  -6.3863711844253282E-002  0.11512469540028844        0.0000000000000000     
  -6.5463589111168216E-002  0.12206939493885487        0.0000000000000000     
  -6.6965496798459007E-002  0.12915237271708127        0.0000000000000000     
  -6.8369434906125667E-002  0.13637362873496767        0.0000000000000000     
  -4.4337920974627486E-002  0.13513248629250943        0.0000000000000000     
  -4.5244598912610734E-002  0.14255360907761694        0.0000000000000000     
  -4.6188256207510422E-002  0.15007222619776930        0.0000000000000000     
  -4.7168892859326572E-002  0.15768833765296647        0.0000000000000000     
  -4.8186508868059155E-002  0.16540194344320849        0.0000000000000000     
  -4.9793457134993335E-002  0.13532936301076393        0.0000000000000000     
  -5.0790140556674808E-002  0.14268144354456638        0.0000000000000000     
  -5.1933087713828076E-002  0.15008378891921723        0.0000000000000000     
  -5.3222298606453111E-002  0.15753639913471648        0.0000000000000000     
  -5.4657773234549942E-002  0.16503927419106418        0.0000000000000000     
  -5.5617221510364981E-002  0.13560184565725844        0.0000000000000000     
  -5.6725361952643279E-002  0.14291380869849055        0.0000000000000000     
  -5.8023516289196761E-002  0.15025341342485787        0.0000000000000000     
  -5.9511684520025435E-002  0.15762065983636045        0.0000000000000000     
  -6.1189866645129279E-002  0.16501554793299822        0.0000000000000000     
  -6.1809214100742416E-002  0.13594993423199303        0.0000000000000000     
  -6.3050263100516118E-002  0.14325070453938957        0.0000000000000000     
  -6.4459541933616485E-002  0.15058109971469136        0.0000000000000000     
  -6.6037050600043487E-002  0.15794111975789837        0.0000000000000000     
  -6.7782789099797180E-002  0.16533076466901070        0.0000000000000000     
  -6.8369434906125667E-002  0.13637362873496767        0.0000000000000000     
  -6.9764844000293355E-002  0.14369213106726333        0.0000000000000000     
  -7.1241164647087227E-002  0.15106684778871754        0.0000000000000000     
  -7.2798396846507324E-002  0.15849777889933031        0.0000000000000000     
  -7.4436540598553605E-002  0.16598492439910159        0.0000000000000000     
   0.0000000000000000        0.0000000000000000        0.0000000000000000     
  -2.8804215773013367E-003   1.7445542724481105E-003   0.0000000000000000     
  -5.8733691172004835E-003   3.8640169885161041E-003   0.0000000000000000     
  -8.9788426196974417E-003   6.3583881482039816E-003   0.0000000000000000     
  -1.2196842084792209E-002   9.2276677515117402E-003   0.0000000000000000     
   0.0000000000000000        0.0000000000000000        0.0000000000000000     
  -3.2837992125665581E-003   1.9992854388471287E-003   0.0000000000000000     
  -6.6779006106293948E-003   4.3305685095908061E-003   0.0000000000000000     
  -1.0182304194188512E-002   6.9938492122310304E-003   0.0000000000000000     
  -1.3797009963243911E-002   9.9891275467678051E-003   0.0000000000000000     
   0.0000000000000000        0.0000000000000000        0.0000000000000000     
  -3.9540572482259341E-003   2.4250651328984602E-003   0.0000000000000000     
  -7.9114066670198675E-003   5.0625480689217937E-003   0.0000000000000000     
  -1.1872048256381794E-002   7.9124488080700023E-003   0.0000000000000000     
  -1.5835982016311725E-002   1.0974767350343086E-002   0.0000000000000000     
   0.0000000000000000        0.0000000000000000        0.0000000000000000     
  -4.8911956842794665E-003   3.0218933546021028E-003   0.0000000000000000     
  -9.5738872863718981E-003   6.0599556665090681E-003   0.0000000000000000     
  -1.4048074806277290E-002   9.1141869357208964E-003   0.0000000000000000     
  -1.8313758243995643E-002   1.2184587162237588E-002   0.0000000000000000     
   0.0000000000000000        0.0000000000000000        0.0000000000000000     
  -6.0952145207271548E-003   3.7897701039580579E-003   0.0000000000000000     
  -1.1665342468685485E-002   7.3227913023526285E-003   0.0000000000000000     
  -1.6710383843874993E-002   1.0599063595183712E-002   0.0000000000000000     
  -2.1230338646295685E-002   1.3618586982451310E-002   0.0000000000000000     
  -1.2196842084792209E-002   9.2276677515117402E-003   0.0000000000000000     
  -1.5429518072613863E-002   1.2369940897750353E-002   0.0000000000000000     
  -1.8579021143291470E-002   1.5683292686230782E-002   0.0000000000000000     
  -2.1645351296825037E-002   1.9167723116953028E-002   0.0000000000000000     
  -2.4628508533214560E-002   2.2823232189917091E-002   0.0000000000000000     
  -1.3797009963243911E-002   9.9891275467678051E-003   0.0000000000000000     
  -1.7405288224262856E-002   1.3218849303734096E-002   0.0000000000000000     
  -2.0890409283712618E-002   1.6585460273662880E-002   0.0000000000000000     
  -2.4252373141593203E-002   2.0088960456554155E-002   0.0000000000000000     
  -2.7491179797904608E-002   2.3729349852407919E-002   0.0000000000000000     
  -1.5835982016311725E-002   1.0974767350343086E-002   0.0000000000000000     
  -1.9731787786282030E-002   1.4208804075723464E-002   0.0000000000000000     
  -2.3488045405765094E-002   1.7573859364193565E-002   0.0000000000000000     
  -2.7104754874760918E-002   2.1069933215753373E-002   0.0000000000000000     
  -3.0581916193269509E-002   2.4697025630402908E-002   0.0000000000000000     
  -1.8313758243995643E-002   1.2184587162237588E-002   0.0000000000000000     
  -2.2409016758671373E-002   1.5339805213718458E-002   0.0000000000000000     
  -2.6371929509448888E-002   1.8648489957822829E-002   0.0000000000000000     
  -3.0202496496328186E-002   2.2110641394550688E-002   0.0000000000000000     
  -3.3900717719309262E-002   2.5726259523902048E-002   0.0000000000000000     
  -2.1230338646295685E-002   1.3618586982451310E-002   0.0000000000000000     
  -2.5436975141430899E-002   1.6611852717719075E-002   0.0000000000000000     
  -2.9542061594764003E-002   1.9809352054550672E-002   0.0000000000000000     
  -3.3545598006294988E-002   2.3211084992946093E-002   0.0000000000000000     
  -3.7447584376023857E-002   2.6817051532905346E-002   0.0000000000000000     
  -2.4628508533214560E-002   2.2823232189917091E-002   0.0000000000000000     
  -2.7533395711494834E-002   2.6672132341725989E-002   0.0000000000000000     
  -3.0364915690700666E-002   3.0736736008982735E-002   0.0000000000000000     
  -3.3123068470832059E-002   3.5017043191687323E-002   0.0000000000000000     
  -3.5807854051888986E-002   3.9513053889839771E-002   0.0000000000000000     
  -2.7491179797904608E-002   2.3729349852407919E-002   0.0000000000000000     
  -3.0629281695489830E-002   2.7547901107595908E-002   0.0000000000000000     
  -3.3689131277191878E-002   3.1585886868489829E-002   0.0000000000000000     
  -3.6670728543010726E-002   3.5843307135089708E-002   0.0000000000000000     
  -3.9574073492946407E-002   4.0320161907395527E-002   0.0000000000000000     
  -3.0581916193269509E-002   2.4697025630402908E-002   0.0000000000000000     
  -3.3948073368889650E-002   2.8498067631748270E-002   0.0000000000000000     
  -3.7231770409220169E-002   3.2515990243395576E-002   0.0000000000000000     
  -4.0433007314261027E-002   3.6750793465344829E-002   0.0000000000000000     
  -4.3551784084012245E-002   4.1202477297596019E-002   0.0000000000000000     
  -3.3900717719309262E-002   2.5726259523902048E-002   0.0000000000000000     
  -3.7489770731694315E-002   2.9522631914183084E-002   0.0000000000000000     
  -4.0992833086785530E-002   3.3527046133699966E-002   0.0000000000000000     
  -4.4409904784582940E-002   3.7739502182452679E-002   0.0000000000000000     
  -4.7740985825086499E-002   4.2160000060441259E-002   0.0000000000000000     
  -3.7447584376023857E-002   2.6817051532905346E-002   0.0000000000000000     
  -4.1254373783903800E-002   3.0621593954900342E-002   0.0000000000000000     
  -4.4972319309887994E-002   3.4619054539402984E-002   0.0000000000000000     
  -4.8601420953976446E-002   3.8809433286413293E-002   0.0000000000000000     
  -5.2141678716169162E-002   4.3192730195931242E-002   0.0000000000000000     
  -3.5807854051888986E-002   3.9513053889839771E-002   0.0000000000000000     
  -3.8413164326810550E-002   4.4216264885521890E-002   0.0000000000000000     
  -4.0932891188535832E-002   4.9118172960815526E-002   0.0000000000000000     
  -4.3367034637064816E-002   5.4218778115720671E-002   0.0000000000000000     
  -4.5715594672397511E-002   5.9518080350237333E-002   0.0000000000000000     
  -3.9574073492946407E-002   4.0320161907395527E-002   0.0000000000000000     
  -4.2395760895882394E-002   4.5005807386505295E-002   0.0000000000000000     
  -4.5132385520702166E-002   4.9889599773517028E-002   0.0000000000000000     
  -4.7783947367405731E-002   5.4971539068430733E-002   0.0000000000000000     
  -5.0350446435993075E-002   6.0251625271246383E-002   0.0000000000000000     
  -4.3551784084012245E-002   4.1202477297596019E-002   0.0000000000000000     
  -4.6585896302474450E-002   4.5862629723139550E-002   0.0000000000000000     
  -4.9533139553648270E-002   5.0722838724965795E-002   0.0000000000000000     
  -5.2393513837533684E-002   5.5783104303074753E-002   0.0000000000000000     
  -5.5167019154130706E-002   6.1043426457466424E-002   0.0000000000000000     
  -4.7740985825086499E-002   4.2160000060441259E-002   0.0000000000000000     
  -5.0983570546586733E-002   4.6786731895424649E-002   0.0000000000000000     
  -5.4135153287374123E-002   5.1617889815161806E-002   0.0000000000000000     
  -5.7195734047448689E-002   5.6653473819652751E-002   0.0000000000000000     
  -6.0165312826810403E-002   6.1893483908897470E-002   0.0000000000000000     
  -5.2141678716169162E-002   4.3192730195931242E-002   0.0000000000000000     
  -5.5588783628219229E-002   4.7778113903360599E-002   0.0000000000000000     
  -5.8938426721879753E-002   5.2574753044105096E-002   0.0000000000000000     
  -6.2190607997150718E-002   5.7582647618164728E-002   0.0000000000000000     
  -6.5345327454032140E-002   6.2801797625539516E-002   0.0000000000000000     
  -4.5715594672397511E-002   5.9518080350237333E-002   0.0000000000000000     
  -4.7993925409888533E-002   6.5008410022905291E-002   0.0000000000000000     
  -5.0217380964892491E-002   7.0682097492264340E-002   0.0000000000000000     
  -5.2385961337409422E-002   7.6539142758314457E-002   0.0000000000000000     
  -5.4499666527439275E-002   8.2579545821055658E-002   0.0000000000000000     
  -5.0350446435993075E-002   6.0251625271246383E-002   0.0000000000000000     
  -5.2841510497629515E-002   6.5722572542558186E-002   0.0000000000000000     
  -5.5266767323480313E-002   7.1377095042960331E-002   0.0000000000000000     
  -5.7626216913545490E-002   7.7215192772452826E-002   0.0000000000000000     
  -5.9919859267825039E-002   8.3236865731035642E-002   0.0000000000000000     
  -5.5167019154130706E-002   6.1043426457466424E-002   0.0000000000000000     
  -5.7859126897944813E-002   6.6494828425660943E-002   0.0000000000000000     
  -6.0475308463481453E-002   7.2128333445178425E-002   0.0000000000000000     
  -6.3015563850740655E-002   7.7943941516018883E-002   0.0000000000000000     
  -6.5479893059722391E-002   8.3941652638182304E-002   0.0000000000000000     
  -6.0165312826810403E-002   6.1893483908897470E-002   0.0000000000000000     
  -6.3046774610834425E-002   6.7325177672213549E-002   0.0000000000000000     
  -6.5843004384895917E-002   7.2935812698918620E-002   0.0000000000000000     
  -6.8554002148994889E-002   7.8725388989012615E-002   0.0000000000000000     
  -7.1179767903131325E-002   8.4693906542495576E-002   0.0000000000000000     
  -6.5345327454032140E-002   6.2801797625539516E-002   0.0000000000000000     
  -6.8404453636298365E-002   6.8213620282216031E-002   0.0000000000000000     
  -7.1369855087723727E-002   7.3799532804180862E-002   0.0000000000000000     
  -7.4241531808308225E-002   7.9559535191434036E-002   0.0000000000000000     
  -7.7019483798051874E-002   8.5493627443975512E-002   0.0000000000000000     
  -5.4499666527439275E-002   8.2579545821055658E-002   0.0000000000000000     
  -5.6543504630921212E-002   8.8787277809391107E-002   0.0000000000000000     
  -5.8502483743794353E-002   9.5146309852223984E-002   0.0000000000000000     
  -6.0376603866058684E-002  0.10165664194955427        0.0000000000000000     
  -6.2165864997714225E-002  0.10831827410138201        0.0000000000000000     
  -5.9919859267825039E-002   8.3236865731035642E-002   0.0000000000000000     
  -6.2134788359411657E-002   8.9423362987462368E-002   0.0000000000000000     
  -6.4258098161398033E-002   9.5755933610486538E-002   0.0000000000000000     
  -6.6289788673784197E-002  0.10223457760010810        0.0000000000000000     
  -6.8229859896570128E-002  0.10885929495632712        0.0000000000000000     
  -6.5479893059722391E-002   8.3941652638182304E-002   0.0000000000000000     
  -6.7858406117905737E-002   9.0102117334119741E-002   0.0000000000000000     
  -7.0141213052769755E-002   9.6405986126282234E-002   0.0000000000000000     
  -7.2328313864314445E-002  0.10285325901466980        0.0000000000000000     
  -7.4419708552539821E-002  0.10944393599928241        0.0000000000000000     
  -7.1179767903131325E-002   8.4693906542495576E-002   0.0000000000000000     
  -7.3714357906403460E-002   9.0823540849363199E-002   0.0000000000000000     
  -7.6151828417909503E-002   9.7096467399611100E-002   0.0000000000000000     
  -7.8492179437649440E-002  0.10351268619323932        0.0000000000000000     
  -8.0735410965623311E-002  0.11007219723024782        0.0000000000000000     
  -7.7019483798051874E-002   8.5493627443975512E-002   0.0000000000000000     
  -7.9702643724904820E-002   9.1587633533192755E-002   0.0000000000000000     
  -8.2289944256817266E-002   9.7827377430473150E-002   0.0000000000000000     
  -8.4781385393789183E-002  0.10421285913581670        0.0000000000000000     
  -8.7176967135820571E-002  0.11074407864922342        0.0000000000000000     
  -6.2165864997714225E-002  0.10831827410138201        0.0000000000000000     
  -6.3863711844253282E-002  0.11512469540028844        0.0000000000000000     
  -6.5463589111168216E-002  0.12206939493885487        0.0000000000000000     
  -6.6965496798459007E-002  0.12915237271708127        0.0000000000000000     
  -6.8369434906125667E-002  0.13637362873496767        0.0000000000000000     
  -6.8229859896570128E-002  0.10885929495632712        0.0000000000000000     
  -7.0082753376290705E-002  0.11563234379700439        0.0000000000000000     
  -7.1852910659480809E-002  0.12255598224000075        0.0000000000000000     
  -7.3540331746140442E-002  0.12963021028531616        0.0000000000000000     
  -7.5145016636269601E-002  0.13685502793295062        0.0000000000000000     
  -7.4419708552539821E-002  0.10944393599928241        0.0000000000000000     
  -7.6425076237988443E-002  0.11618648868591548        0.0000000000000000     
  -7.8354096041202845E-002  0.12308938868036445        0.0000000000000000     
  -8.0206767962183081E-002  0.13015263598262936        0.0000000000000000     
  -8.1983092000929070E-002  0.13737623059271015        0.0000000000000000     
  -8.0735410965623311E-002  0.11007219723024782        0.0000000000000000     
  -8.2890680429346456E-002  0.11678713006702174        0.0000000000000000     
  -8.4967145256334337E-002  0.12366961425994609        0.0000000000000000     
  -8.6964805446586899E-002  0.13071964980902090        0.0000000000000000     
  -8.8883661000104169E-002  0.13793723671424621        0.0000000000000000     
  -8.7176967135820571E-002  0.11074407864922342        0.0000000000000000     
  -8.9479565950364826E-002  0.11743426794032309        0.0000000000000000     
  -9.1692058304875285E-002  0.12429665897874556        0.0000000000000000     
  -9.3814444199351935E-002  0.13133125176449079        0.0000000000000000     
  -9.5846723633794789E-002  0.13853804629755881        0.0000000000000000     
  -6.8369434906125667E-002  0.13637362873496767        0.0000000000000000     
  -6.9764844000293355E-002  0.14369213106726333        0.0000000000000000     
  -7.1241164647087227E-002  0.15106684778871754        0.0000000000000000     
  -7.2798396846507324E-002  0.15849777889933031        0.0000000000000000     
  -7.4436540598553605E-002  0.16598492439910159        0.0000000000000000     
  -7.5145016636269601E-002  0.13685502793295062        0.0000000000000000     
  -7.6698373969795369E-002  0.14419645875872095        0.0000000000000000     
  -7.8231812386644853E-002  0.15162052633844389        0.0000000000000000     
  -7.9745331886818038E-002  0.15912723067211948        0.0000000000000000     
  -8.1238932470314940E-002  0.16671657175974766        0.0000000000000000     
  -8.1983092000929070E-002  0.13737623059271015        0.0000000000000000     
  -8.3680122326842563E-002  0.14472205809037142        0.0000000000000000     
  -8.5294913109325132E-002  0.15215200405537779        0.0000000000000000     
  -8.6827464348376765E-002  0.15966606848772918        0.0000000000000000     
  -8.8277776043997516E-002  0.16726425138742573        0.0000000000000000     
  -8.8883661000104169E-002  0.13793723671424621        0.0000000000000000     
  -9.0710089071434935E-002  0.14526892906221470        0.0000000000000000     
  -9.2430466815128051E-002  0.15266128093951908        0.0000000000000000     
  -9.4044794231183532E-002  0.16011429234615943        0.0000000000000000     
  -9.5553071319601349E-002  0.16762796328213578        0.0000000000000000     
  -9.5846723633794789E-002  0.13853804629755881        0.0000000000000000     
  -9.7788274203572487E-002  0.14583707167425078        0.0000000000000000     
  -9.9638473504053665E-002  0.15314835699086796        0.0000000000000000     
 -0.10139732153523831       0.16047190224741029        0.0000000000000000     
 -0.10306481829712642       0.16780770744387780        0.0000000000000000     
 </DataArray>
 <DataArray  type="Float64" Name="stress" NumberOfComponents="3" format="ascii">
   13413419609.886515        4024025882.9659543        2893439567.0550342     
   11765262185.361036        1891279617.9937572        1716128954.3073640     
   10314076526.693769        415105905.88225651        811336709.06182802     
   9059862633.8847065       -404495253.36854696        179062831.31842571     
   8002620506.9338579       -567523859.75865221       -180692678.92284223     
   10538886541.998997        3161665962.5996990        2225728814.0492744     
   9667043042.4549675        1590214499.1907117        1447024760.1722817     
   8943655336.0436897        513615679.55755520        863437326.87968302     
   8368723422.7651587       -68130496.299772263        474966514.17147738     
   7942247302.6193771       -155024028.38126945        281612322.04766715     
   8338090682.4490681        2501427204.7347202        1712626977.4675102     
   8021413259.5500870        1424926188.3880227        1275927514.2814925     
   7804675657.0583973        681557906.73228860        956942924.76212776     
   7687877874.9739933        271322359.76751757        755673208.90941679     
   7671019913.2968807        194219547.49370909        672118366.72335958     
   6811032031.2367277        2043309609.3710184        1354134057.3097420     
   6828372836.6463947        1395414685.5856900        1202837216.6349955     
   6897137489.7378902        918932587.40645838        1091853502.7091620     
   7017325990.5112114        613863314.83332109        1021182915.5322412     
   7188938338.9663658        480206867.86628175        990825455.10423243     
   5957710588.3619747        1787313176.5085926        1150250053.5759702     
   6087921773.7438879        1501679990.7837133        1227753867.2327909     
   6221040834.0821676        1225739721.5800631        1268169060.7207844     
   6357067769.3768177        959492368.89764178        1271495634.0399501     
   6496002579.6278362        702937932.73644924        1237733587.1902888     
   8002620506.9338579       -567523859.75865221       -180692678.92284223     
   7917513406.1635113       -202429517.61426544       -79625372.820707425     
   7791357027.8956146        25833899.538300037       -10123419.163932620     
   7624151372.1301737        117266391.69905138        27813182.047478810     
   7415896438.8671913        71867958.867986679        34184430.813531354     
   7942247302.6193771       -155024028.38126945        281612322.04766715     
   7739292118.1424999        15172797.276625633        280153409.87653553     
   7513178334.1847773        108174291.33169174        264583828.02723947     
   7263905950.7462072        123980453.78393936        234903576.49978584     
   6991474967.8267908        62591284.633359909        191112655.29417023     
   7671019913.2968807        194219547.49370909        672118366.72335958     
   7400087167.3054752        184480013.32270956        589005693.96510541     
   7123886499.8499260        157180740.93788004        509237034.29589254     
   6842417910.9302235        112321730.33921885        432812387.71571755     
   6555681400.5463734        49902981.526727676        359731754.22457987     
   7188938338.9663658        480206867.86628175        990825455.10423243     
   6899898553.6524363        305492130.52399015        846931479.44500685     
   6623481524.8910532        172853248.35686016        723836199.64202082     
   6359687252.6822224        82290221.364895821        621539615.69527256     
   6108515737.0259380        33803049.548091888        540041727.60476422     
   6496002579.6278362        702937932.73644924        1237733587.1902888     
   6238726277.1833782        378209148.88046551        1053930766.3162383     
   6011963409.3081694        155191813.58863711        908381324.06562686     
   5815713976.0022058        33885926.860966206        801085260.43845403     
   5649977977.2654896        14291488.697451353        732042575.43472195     
   7415896438.8671913        71867958.867986679        34184430.813531354     
   7218701777.4736824       -14999026.332161903        18051846.155790430     
   7033026744.8327141       -63467249.023827553        4169763.3949482380     
   6858871340.9442863       -73536709.207027912       -7461817.4689841773     
   6696235565.8084068       -45207406.881747723       -16842896.436017543     
   6991474967.8267908        62591284.633359909        191112655.29417023     
   6809289597.3276348        4583886.7767238617        182308879.31698325     
   6634641785.1452885       -28298316.690566540        176140305.05159366     
   6467531531.2797394       -36055325.768516302        172606932.49799347     
   6307958835.7309952       -18687140.457127810        171708761.65618569     
   6555681400.5463734        49902981.526727676        359731754.22457987     
   6389604463.2698317        21084913.712082148        353611038.08625489     
   6227083013.8743544        4118472.1676454544        350510223.47461259     
   6068117052.3599358       -996343.10658621788        350429310.38965207     
   5912706578.7265835        5740467.8893899918        353368298.83137190     
   6108515737.0259380        33803049.548091888        540041727.60476422     
   5959646375.3002672        34504054.473910809        531958322.46360451     
   5810350431.0199156        33783117.550804615        527279518.66401237     
   5660627904.1848860        31640238.778769255        526005316.20599437     
   5510478794.7951794        28075418.157812595        528135715.08954543     
   5649977977.2654896        14291488.697451353        732042575.43472195     
   5519415333.4189386        44841309.062209845        717350732.44902921     
   5384444036.5819693        60695619.458909273        706448190.61979246     
   5245064086.7545824        61854419.887552023        699334949.94702125     
   5101275483.9367790        48317710.348131657        696011010.43070805     
   6696235565.8084068       -45207406.881747723       -16842896.436017543     
   6517505023.3754473       -11722147.442038536       -11358876.563339423     
   6333837964.6977777        5308057.8486354351       -836559.02476301813     
   6145234389.7754011        5883208.9902877808        14724056.179694057     
   5951694298.6083136       -9996694.0171012878        35322969.050050057     
   6307958835.7309952       -18687140.457127810        171708761.65618569     
   6136738850.8461990        1548949.1192038059        169300890.39543688     
   5962176092.9626827        10642462.033120632        170689574.16663256     
   5784270562.0804434        8593398.2846219540        175874812.96975973     
   5603022258.1994696       -4598242.1262950897        184856606.80483493     
   5912706578.7265835        5740467.8893899918        353368298.83137190     
   5745449315.2929525        11663036.773243904        344927903.55751401     
   5576443022.1065760        11755506.481295824        339042320.68164361     
   5405687699.1674671        6017877.0135545731        335711550.20376098     
   5233183346.4756136       -5549851.6299841404        334935592.12386489     
   5510478794.7951794        28075418.157812595        528135715.08954543     
   5343636416.7157040        18620115.520088434        515522162.92289311     
   5176638752.1294708        8647191.1931762695        504221680.52027869     
   5009485801.0364838       -1843354.8229141235        494234267.88169736     
   4842177563.4367447       -12851522.528185129        485559925.00714624     
   5101275483.9367790        48317710.348131657        696011010.43070805     
   4931300155.1144505        22420185.359723568        681083668.49157310     
   4762763283.0313549        1317516.1687510014        666227653.68252563     
   4595664867.6874847       -14990297.224792242        651442966.00355983     
   4430004909.0828485       -26503254.820890903        636729605.45467675     
   5951694298.6083136       -9996694.0171012878        35322969.050050057     
   5776567344.0391808       -22568389.585643291        35576536.096690528     
   5604915982.5011969       -23554775.050352097        36893977.827411585     
   5436740213.9943790       -12955850.411176443        39275294.242206499     
   5272040038.5187178        9228384.3318541050        42720485.341089047     
   5603022258.1994696       -4598242.1262950897        184856606.80483493     
   5435254161.2930460       -15208760.961647272        182656645.20891029     
   5269864261.2204151       -17891957.017683506        184600889.42332658     
   5106852557.9815750       -12647830.294414759        190689339.44809312     
   4946219051.5765381        523619.20818877220        200921995.28319865     
   5233183346.4756136       -5549851.6299841404        334935592.12386489     
   5081575053.3069439       -11558909.909633636        329001806.32178253     
   4931247560.7747011       -13298632.734514475        330292557.45631480     
   4782200868.8788948       -10769020.104612112        338807845.52745080     
   4634434977.6195221       -3970072.0199337006        354547670.53520632     
   4842177563.4367447       -12851522.528185129        485559925.00714624     
   4715530020.0808744       -11618836.429612160        474612019.43531978     
   4589065881.1640692       -9774802.2008142471        473968981.92636675     
   4462785146.6863384       -7319419.8417706490        483630812.48029768     
   4336687816.6476774       -4252689.3524951935        503597511.09710187     
   4430004909.0828485       -26503254.820890903        636729605.45467675     
   4337119061.6148272       -15388540.521584988        619487284.54951215     
   4243319222.3885107       -7320465.4165885448        615630162.83349323     
   4148605391.4039035       -2299029.5058975220        625158240.30662084     
   4052977568.6610003       -324232.78951311111        648071516.96888661     
   5272040038.5187178        9228384.3318541050        42720485.341089047     
   5086772281.9017086        25137801.640785456        23682892.543671533     
   4897960002.7425356        29232143.809170961        4268394.3600514587     
   4705603201.0411940        21511410.836995363       -15523009.209782701     
   4509701876.7976837        1975602.7242515087       -35691318.165819421     
   4946219051.5765381        523619.20818877220        200921995.28319865     
   4758574885.9923363        7296942.7641456127        184515265.84459808     
   4569676746.7438679        9890354.1058716774        168765764.22197843     
   4379524633.8311300        8303853.2333631516        153673490.41533259     
   4188118547.2541156        2537440.1466126442        139238444.42466637     
   4634434977.6195221       -3970072.0199337006        354547670.53520632     
   4447369069.3600979       -5446442.3293454647        343444111.47962898     
   4261339736.3142962       -3467561.9266855717        334031913.44221526     
   4076346978.4821157        1966569.1880528927        326311076.42296922     
   3892390795.8635612        10855951.014867544        320281600.42188531     
   4336687816.6476774       -4252689.3524951935        503597511.09710187     
   4153154832.0049853       -13092353.639706612        500469429.44875866     
   3972948971.4538112       -10841604.288516521        500066842.02076417     
   3796070234.9941540        2499558.7010619640        502389748.81312734     
   3622518622.6260152        26931135.329033136        507438149.82583517     
   4052977568.6610003       -324232.78951311111        648071516.96888661     
   3875932173.9270029       -15640791.166922092        655591219.75198698     
   3704504452.1624165       -12231772.979624510        666870549.95762813     
   3538694403.3672438        9902821.7723882198        681909507.58580530     
   3378502027.5414834        50762993.089096785        700708092.63651884     
   4509701876.7976837        1975602.7242515087       -35691318.165819421     
   4302123827.5100822       -25312249.702978611       -25844530.340426784     
   4095288744.6319542       -50123547.431952238        9128276.4524935037     
   3889196628.1632838       -72458290.462736845        69227102.212931827     
   3683847478.1040936       -92316478.795264244        154451946.94088885     
   4188118547.2541156        2537440.1466126442        139238444.42466637     
   4037465036.6114311        2946312.8141026497        150544714.30364648     
   3884076167.5279331       -5762675.9877755642        174121519.92010328     
   3727951940.0036068       -23589526.259064436        209968861.27404612     
   3569092354.0384779       -50534237.999727964        258086738.36546117     
   3892390795.8635612        10855951.014867544        320281600.42188531     
   3761931871.7799582        27942563.151328802        328989306.69578034     
   3625259264.4052610        24316897.650797844        337112065.47711462     
   3482372973.7394643       -21045.486725330353        344649876.76589298     
   3333272999.7825608       -45071266.261265755        351602740.56211054     
   3622518622.6260152        26931135.329033136        507438149.82583517     
   3475524333.0156727        49676501.308712244        509489246.83598578     
   3318838035.2639523        40115173.483790874        498099913.12353224     
   3152459729.3708444       -1752848.1457459927        473270148.68848449     
   2976389415.3363576       -75927563.579890490        434999953.53083616     
   3378502027.5414834        50762993.089096785        700708092.63651884     
   3178242420.3185740        68148127.286256790        692044534.72425437     
   2964812480.1039963        41632151.511175632        657085062.85935426     
   2738212206.8977623       -28784934.236092329        595829677.04181290     
   2498441600.6998477       -143103129.95561767        508278377.27163535     
   3683847478.1040936       -92316478.795264244        154451946.94088885     
   3577221529.0807180       -71072280.334340811        138430168.30696458     
   3477425422.3178158       -27061941.005183220        74721621.240351707     
   3384459157.8153625        39714539.192135215       -36673694.258969001     
   3298322735.5733747        129257160.25768673       -195755778.19098091     
   3569092354.0384779       -50534237.999727964        258086738.36546117     
   3371950564.1139150       -75520243.738153458        228649943.21774280     
   3186407891.2170186       -61842526.051012754        187940855.24012244     
   3012464335.3477936       -9501084.9383006096        135959474.43259943     
   2850119896.5062532        81504079.600005388        72705800.795173168     
   3333272999.7825608       -45071266.261265755        351602740.56211054     
   3149656727.8219376       -85075068.539511561        314315082.79567015     
   2982408847.6561928       -70517564.834823132        302169607.80213010     
   2831529359.2853365       -1398755.1471894979        315166315.58147997     
   2697018262.7093453        122281360.52336168        353305206.13370872     
   2976389415.3363576       -75927563.579890490        434999953.53083616     
   2910340020.2047949       -99736754.738422751        395425587.04076409     
   2865428291.6353168       -53087057.356655478        417407878.92637080     
   2841654229.6279345        64021528.565404773        500946829.18766493     
   2839017834.1826420        251589003.02778602        646042437.82463348     
   2498441600.6998477       -143103129.95561767        508278377.27163535     
   2654000441.2624760       -119505302.33488679        471981455.95299923     
   2835466223.1543965       -9551003.6165105104        533655668.61284220     
   3042838946.3756232        186759766.19955206        693301015.25115621     
   3276118610.9261527        469427007.11327446        950917495.86795509     
   5957710588.3619747        1787313176.5085926        1150250053.5759702     
   6087921773.7438879        1501679990.7837133        1227753867.2327909     
   6221040834.0821676        1225739721.5800631        1268169060.7207844     
   6357067769.3768177        959492368.89764178        1271495634.0399501     
   6496002579.6278362        702937932.73644924        1237733587.1902888     
   5433488143.9915628        1630046443.1974688        1033458825.6177187     
   5489147086.2935505        1372054400.5716047        1113798509.6003127     
   5547125484.6679573        1121793878.1871376        1167500209.1289423     
   5607423339.1147823        879264876.04406667        1194563924.2036076     
   5670040649.6340275        644467394.14239192        1194989654.8243091     
   4893726488.2922392        1468117946.4876719        936244232.78651202     
   4904692146.6996269        1246724734.7164209        1018733298.3969370     
   4917388842.2954836        1031101646.9067335        1085035015.2682612     
   4931816575.0798101        821248683.05861056        1135149383.4004855     
   4947975345.0526066        617165843.17205131        1169076402.7936096     
   4338425621.2640057        1301527686.3792017        858606275.08235025     
   4334556954.9621181        1125690993.2181606        942558233.62266481     
   4331830906.9647503        953663027.73885131        1020773479.1387430     
   4330247477.2719030        785443789.94127357        1093252011.6305845     
   4329806665.8835735        621033279.82542694        1159993831.0981886     
   3767585542.9068618        1130275662.8720586        800544952.50523329     
   3778741511.0810242        1008953176.0768251        885273315.27749634     
   3790451678.6757560        889478020.68349099        974715600.74038661     
   3802716045.6910577        771850196.69205499        1068871808.8939034     
   3815534612.1269279        656069704.10251832        1167741939.7380471     
   6496002579.6278362        702937932.73644924        1237733587.1902888     
   6238726277.1833782        378209148.88046551        1053930766.3162383     
   6011963409.3081694        155191813.58863711        908381324.06562686     
   5815713976.0022058        33885926.860966206        801085260.43845403     
   5649977977.2654896        14291488.697451353        732042575.43472195     
   5670040649.6340275        644467394.14239192        1194989654.8243091     
   5517981746.1342487        385003907.59816885        1073964788.3369882     
   5389803513.7465515        205142658.09421563        980561781.49634469     
   5285505952.4709330        104883645.63053036        914780634.30237544     
   5205089062.3073978        84226870.207114220        876621346.75508440     
   4947975345.0526066        617165843.17205131        1169076402.7936096     
   4870758071.9924707        413854923.38807821        1103091266.6596570     
   4810788706.5872498        268037029.12048697        1054096471.1956190     
   4768067248.8369436        179712160.36927819        1022092016.4014947     
   4742593698.7415514        148880317.13445091        1007077902.2772845     
   4329806665.8835735        621033279.82542694        1159993831.0981886     
   4297055254.7580462        464762196.25019360        1141310201.2842443     
   4274918987.8302689        343874926.66745603        1128985393.1634517     
   4263397865.1002378        258371471.07721186        1123019406.7358117     
   4262491886.5679555        208251829.47946215        1123412242.0013232     
   3815534612.1269279        656069704.10251832        1167741939.7380471     
   3796873294.4309740        537725726.18451500        1188621592.2107499     
   3782194357.4756017        432656350.73511803        1205228547.3998427     
   3771497801.2608118        340861577.75432909        1217562805.3053250     
   3764783625.7866044        262341407.24214780        1225624365.9271979     
   5649977977.2654896        14291488.697451353        732042575.43472195     
   5519415333.4189386        44841309.062209845        717350732.44902921     
   5384444036.5819693        60695619.458909273        706448190.61979246     
   5245064086.7545824        61854419.887552023        699334949.94702125     
   5101275483.9367790        48317710.348131657        696011010.43070805     
   5205089062.3073978        84226870.207114220        876621346.75508440     
   5076307461.1602812        83047910.157512426        852893880.44784713     
   4946054350.6607866        76963918.933321238        834069172.07933795     
   4814329730.8089180        65974896.534546852        820147221.64955521     
   4681133601.6046743        50080842.961186409        811128029.15849793     
   4742593698.7415514        148880317.13445091        1007077902.2772845     
   4618774445.3860588        116926968.19814062        977741480.22622085     
   4496420826.3162336        89859066.880720615        954421272.89615107     
   4375532841.5320749        67676613.182189703        937117280.28707433     
   4256110491.0335822        50379607.102543831        925829502.39899004     
   4262491886.5679555        208251829.47946215        1123412242.0013232     
   4146816286.0962758        146478483.18410516        1091893531.7841470     
   4035543463.5483060        99381063.301109076        1067504493.0702333     
   3928673418.9240465        66959569.830474377        1050245125.8595777     
   3826206152.2234926        49214002.772201300        1040115430.1521831     
   3764783625.7866044        262341407.24214780        1225624365.9271979     
   3660432983.2909317        171702455.11539710        1195350035.1216271     
   3563422262.3570108        105529908.19448566        1173318832.6015830     
   3473751462.9848399        63823766.479409218        1159530758.3670661     
   3391420585.1744180        46584029.970164418        1153985812.4180748     
   5101275483.9367790        48317710.348131657        696011010.43070805     
   4931300155.1144505        22420185.359723568        681083668.49157310     
   4762763283.0313549        1317516.1687510014        666227653.68252563     
   4595664867.6874847       -14990297.224792242        651442966.00355983     
   4430004909.0828485       -26503254.820890903        636729605.45467675     
   4681133601.6046743        50080842.961186409        811128029.15849793     
   4515034276.5652647        23853526.634165049        797469424.72627187     
   4350101645.0520000        1515188.7276391983        786797140.22896528     
   4186335707.0648880       -16934170.758388758        779111175.66657543     
   4023736462.6039219       -31494551.823926210        774411531.03910196     
   4256110491.0335822        50379607.102543831        925829502.39899004     
   4102215720.6480398        26321064.698196173        913122578.39174628     
   3949215880.5755649        5245623.3374049664        906316967.12424958     
   3797110970.8161573       -12846716.979832172        905412668.59650421     
   3645900991.3698182       -27955956.253509760        910409682.80851030     
   3826206152.2234926        49214002.772201300        1040115430.1521831     
   3692844487.3627763        29822799.551815271        1028043129.4879857     
   3560105989.6020460        12508819.998046398        1024787134.3683755     
   3427990658.9412975       -2727935.8891108036        1030347444.7933501     
   3296498495.3805346       -15887468.109650373        1044724060.7629058     
   3391420585.1744180        46584029.970164418        1153985812.4180748     
   3286920576.7094789        34358731.195023894        1142231078.0150013     
   3182771972.1314411        23304778.709558606        1142207641.9613431     
   3078974771.4403067        13422172.513771057        1153915504.2571049     
   2975528974.6360765        4710912.6076598167        1177354664.9022861     
   4430004909.0828485       -26503254.820890903        636729605.45467675     
   4337119061.6148272       -15388540.521584988        619487284.54951215     
   4243319222.3885107       -7320465.4165885448        615630162.83349323     
   4148605391.4039035       -2299029.5058975220        625158240.30662084     
   4052977568.6610003       -324232.78951311111        648071516.96888661     
   4023736462.6039219       -31494551.823926210        774411531.03910196     
   3960112075.8878474       -15477095.737646580        763551056.90720189     
   3895904762.5654163       -1402728.3392295837        760682797.59835958     
   3831114522.6366239        10728550.371316433        765806753.11257207     
   3765741356.1014738        20916740.394009113        778922923.44984019     
   3645900991.3698182       -27955956.253509760        910409682.80851030     
   3596129538.6454420       -11658316.408330679        906317298.12713206     
   3546106224.4666409        3799785.2554252148        904824143.90271926     
   3495831048.8334150        18418348.737762928        905930220.13527191     
   3445304011.7457619        32197374.038678408        909635526.82479370     
   3296498495.3805346       -15887468.109650373        1044724060.7629058     
   3245171449.8876061       -3932202.5336449146        1047786008.2093008     
   3193923608.0921855        8287075.3673775196        1048054201.7465723     
   3142754969.9942708        20770365.593424797        1045528641.3747228     
   3091665535.5938597        33517668.144487739        1040209327.0937552     
   2975528974.6360765        4710912.6076598167        1177354664.9022861     
   2907237809.6143436        7701245.8864128590        1187957187.1537068     
   2839356913.4420462        12059141.996621013        1190372971.1299183     
   2771886286.1191921        17784600.938303828        1184602016.8309214     
   2704825927.6457748        24877622.711445451        1170644324.2567136     
   4052977568.6610003       -324232.78951311111        648071516.96888661     
   3875932173.9270029       -15640791.166922092        655591219.75198698     
   3704504452.1624165       -12231772.979624510        666870549.95762813     
   3538694403.3672438        9902821.7723882198        681909507.58580530     
   3378502027.5414834        50762993.089096785        700708092.63651884     
   3765741356.1014738        20916740.394009113        778922923.44984019     
   3600117802.0970559        6255717.3040845394        781006958.82074952     
   3438522825.1131759        5023284.2826144695        787966120.72553515     
   3280956425.1498313        17219441.329586625        799800409.16419375     
   3127418602.2070184        42844188.445019245        816509824.13673115     
   3445304011.7457619        32197374.038678408        909635526.82479370     
   3294289438.7890353        19148028.331667662        904429949.50981987     
   3145714346.9039683        14230286.196856976        905214997.84005880     
   2999578736.0905571        17444147.634233356        911990671.81551611     
   2855882606.3488073        28789612.643811703        924756971.43618333     
   3091665535.5938597        33517668.144487739        1040209327.0937552     
   2958447084.0029325        23036141.915825129        1025860191.8192050     
   2826079017.5347891        15389232.763106465        1018617181.3012117     
   2694561336.1894288        10576940.686327100        1018480295.5397671     
   2563894039.9668441        8599265.6854764223        1025449534.5348765     
   2704825927.6457748        24877622.711445451        1170644324.2567136     
   2592590737.7387567        17920058.056564093        1145297685.7489007     
   2479616837.0056472        8500123.9813761711        1128172671.1089842     
   2365904225.4464369       -3382179.5141501427        1119269280.3369541     
   2251452903.0611353       -17726852.429975629        1118587513.4328146     
   3378502027.5414834        50762993.089096785        700708092.63651884     
   3178242420.3185740        68148127.286256790        692044534.72425437     
   2964812480.1039963        41632151.511175632        657085062.85935426     
   2738212206.8977623       -28784934.236092329        595829677.04181290     
   2498441600.6998477       -143103129.95561767        508278377.27163535     
   3127418602.2070184        42844188.445019245        816509824.13673115     
   2870758306.2208800        31330185.330259681        796207638.41481161     
   2605980196.9611139       -7243195.3632633686        765485253.13040853     
   2333084274.4277153       -72875953.635550380        724342668.28352904     
   2052070538.6206934       -165568089.48658884        672779883.87415791     
   2855882606.3488073        28789612.643811703        924756971.43618333     
   2588180805.5713124        1984227.4087015390        898710764.24232125     
   2317413711.2382274       -35038803.011709809        878120071.87613344     
   2043581323.3495512       -82279478.617423534        862984894.33761680     
   1766683641.9052882       -139737799.40843046        853305231.62677693     
   2563894039.9668441        8599265.6854764223        1025449534.5348765     
   2330509918.3698721       -19889746.478420615        999553912.20678246     
   2099113022.9353492       -41754671.434157133        994989519.09651482     
   1869703353.6632712       -56995509.181738138        1011756355.2040851     
   1642280910.5536456       -65612259.721152425        1049854420.5294797     
   2251452903.0611353       -17726852.429975629        1118587513.4328146     
   2097745644.6165595       -34291736.331101298        1098737082.3081980     
   1951078132.0524743       -27390800.630592823        1116093594.7915666     
   1811450365.3688662        2975954.6715073586        1170657050.8829257     
   1678862344.5657554        56808529.575264692        1262427450.5822732     
   2498441600.6998477       -143103129.95561767        508278377.27163535     
   2654000441.2624760       -119505302.33488679        471981455.95299923     
   2835466223.1543965       -9551003.6165105104        533655668.61284220     
   3042838946.3756232        186759766.19955206        693301015.25115621     
   3276118610.9261527        469427007.11327446        950917495.86795509     
   2052070538.6206934       -165568089.48658884        672779883.87415791     
   2420976318.7406845       -55583667.703318238        689754700.03612232     
   2803077298.6328974        98384753.320685267        752936044.76468575     
   3198373478.2973466        296337173.58544922        862323918.05984712     
   3606864857.7339959        538273593.09094727        1017918319.9216172     
   1766683641.9052882       -139737799.40843046        853305231.62677693     
   2201037488.9772854        12263554.755764365        908721420.11941338     
   2635874794.2644277        165876436.30378616        958579531.76677382     
   3071195557.7667170        321100845.23563373        1002879566.5688564     
   3506999779.4841547        477936781.55130816        1041621524.5256659     
   1642280910.5536456       -65612259.721152425        1049854420.5294797     
   1994183951.9722803        84036365.042370439        1128881616.2028720     
   2333858710.0489841        192924045.33278990        1150586129.6191049     
   2661305184.7837663        261050781.15012527        1114967960.7781880     
   2976523376.1766119        288416572.49435842        1022027109.6801219     
   1678862344.5657554        56808529.575264692        1262427450.5822732     
   1800415707.7256670        159734763.15649730        1350235288.2864900     
   1897029045.9865756        179527580.40771955        1328955838.3216827     
   1968702359.3484745        116186981.32891482        1198589100.6878452     
   2015435647.8113761       -30287034.079892635        959135075.38497508     
   3767585542.9068618        1130275662.8720586        800544952.50523329     
   3778741511.0810242        1008953176.0768251        885273315.27749634     
   3790451678.6757560        889478020.68349099        974715600.74038661     
   3802716045.6910577        771850196.69205499        1068871808.8939034     
   3815534612.1269279        656069704.10251832        1167741939.7380471     
   3207919231.0206299        962375769.30618894        756833542.64032030     
   3235774107.4943547        868456394.48599422        853505339.75317693     
   3263308333.7482262        773468185.59962165        951984733.18083036     
   3290521909.7822437        677411142.64707041        1052271722.9232810     
   3317414835.5964084        580285265.62834167        1154366308.9805284     
   2686139663.4051323        805841899.02153969        722245323.07277083     
   2722389658.5331917        736834499.28281522        829839896.61239362     
   2757444153.8009739        663842100.00983548        936335740.09098351     
   2791303149.2084804        586864701.20260048        1041732853.5085409     
   2823966644.7557101        505902302.86111063        1146031236.8650649     
   2202246840.0603690        660674052.01811063        696780293.80258477     
   2238588164.1975350        614087490.46728802        814276985.85514688     
   2272859138.8340006        560599763.91413307        927768621.47084641     
   2305059763.9697666        500210872.35864592        1037255200.6496834     
   2335190039.6048336        432920815.80082673        1142736723.3916574     
   1756240760.9863400        526872228.29590201        680438454.82976210     
   1784369624.4873841        500215368.03941268        806816607.48143661     
   1809553288.8473053        463741177.31251419        926283377.32041872     
   1831791754.0661039        417449656.11520600        1038838764.3467084     
   1851085020.1437798        361340804.44748950        1144482768.5603051     
   3815534612.1269279        656069704.10251832        1167741939.7380471     
   3796873294.4309740        537725726.18451500        1188621592.2107499     
   3782194357.4756017        432656350.73511803        1205228547.3998427     
   3771497801.2608118        340861577.75432909        1217562805.3053250     
   3764783625.7866044        262341407.24214780        1225624365.9271979     
   3317414835.5964084        580285265.62834167        1154366308.9805284     
   3292986952.9158545        473116867.23650479        1182215539.0960431     
   3272409646.5048084        378783723.07635796        1207322667.3855929     
   3255682916.3632712        297285833.14790273        1229687693.8491769     
   3242806762.4912391        228623197.45113540        1249310618.4867949     
   2823966644.7557101        505902302.86111063        1146031236.8650649     
   2798145326.9695430        411221422.95913684        1180696272.7404711     
   2776042780.9818087        328936449.05193591        1214149802.2475564     
   2757659006.7925048        259047381.13950706        1246391825.3863204     
   2742994004.4016328        201554219.22185087        1277422342.1567633     
   2335190039.6048336        432920815.80082673        1142736723.3916574     
   2312348416.5920382        352039393.35241157        1184063793.1440332     
   2293093760.9065986        283114528.66185027        1225709951.9857328     
   2277426072.5485148        226146221.72914445        1267675199.9167562     
   2265345351.5177894        181134472.55429399        1309959536.9371028     
   1851085020.1437798        361340804.44748950        1144482768.5603051     
   1835596221.7833395        295570778.41632718        1192318100.3067298     
   1823562586.2791810        241317961.90610343        1242003116.6001229     
   1814984113.6313026        198582354.91681522        1293537817.4404843     
   1809860803.8397064        167363957.44846672        1346922202.8278131     
   3764783625.7866044        262341407.24214780        1225624365.9271979     
   3660432983.2909317        171702455.11539710        1195350035.1216271     
   3563422262.3570108        105529908.19448566        1173318832.6015830     
   3473751462.9848399        63823766.479409218        1159530758.3670661     
   3391420585.1744180        46584029.970164418        1153985812.4180748     
   3242806762.4912391        228623197.45113540        1249310618.4867949     
   3162943854.3941770        154550392.77124417        1233741335.1185503     
   3088913352.8524761        99918943.275890231        1224942685.1298208     
   3020715257.8661394        64728848.965080261        1222914668.5206053     
   2958349569.4351645        48980109.838809729        1227657285.2909036     
   2742994004.4016328        201554219.22185087        1277422342.1567633     
   2683411702.4002895        142785423.49794888        1274799338.7183914     
   2628154291.9479208        98432932.937292695        1277474473.7535212     
   2577221773.0445242        68496747.539879799        1285447747.2621539     
   2530614145.6901021        52976867.305711627        1298719159.2442889     
   2265345351.5177894        181134472.55429399        1309959536.9371028     
   2221836527.3092737        136407547.29551673        1318524045.9211500     
   2181145079.6433430        101071877.17868769        1330914198.4726870     
   2143271008.5199957        75127462.203803539        1347129994.5917132     
   2108214313.9392340        58574302.370869398        1367171434.2782311     
   1809860803.8397064        167363957.44846672        1346922202.8278131     
   1778218329.1211259        135416764.16394383        1364915456.7268255     
   1747885715.9387410        107835776.00007254        1385261859.2873151     
   1718862964.2925522        84620992.956854880        1407961410.5092821     
   1691150074.1825595        65772415.034290493        1433014110.3927286     
   3391420585.1744180        46584029.970164418        1153985812.4180748     
   3286920576.7094789        34358731.195023894        1142231078.0150013     
   3182771972.1314411        23304778.709558606        1142207641.9613431     
   3078974771.4403067        13422172.513771057        1153915504.2571049     
   2975528974.6360765        4710912.6076598167        1177354664.9022861     
   2958349569.4351645        48980109.838809729        1227657285.2909036     
   2880814664.3681226        38562797.511034369        1216804880.9693949     
   2803963083.5958180        30423232.832380772        1214546337.8859222     
   2727794827.1182528        24561415.802862644        1220881656.0404813     
   2652309894.9354229        20977346.422458887        1235810835.4330790     
   2530614145.6901021        52976867.305711627        1298719159.2442889     
   2471080237.9884348        41678309.615543842        1289156325.4801524     
   2412561574.9893398        33763900.933951497        1285049915.8426688     
   2355058156.6928186        29233641.260936856        1286399930.3318365     
   2298569983.0988698        28087530.596492171        1293206368.9476547     
   2108214313.9392340        58574302.370869398        1367171434.2782311     
   2057717297.5704181        43705267.508556485        1359285411.5472767     
   2008567446.3120081        33326783.014269352        1353718375.8315876     
   1960764760.1640046        27438848.887996912        1350470327.1311686     
   1914309239.1264088        26041465.129752636        1349541265.4460158     
   1691150074.1825595        65772415.034290493        1433014110.3927286     
   1640725843.1140676        44643671.190065861        1427192139.1707611     
   1591980697.5638199        29111879.073320627        1420551717.8526781     
   1544914637.5318136        19177038.684047043        1413092846.4384785     
   1499527663.0180466        14839150.022241116        1404815524.9281647     
   2975528974.6360765        4710912.6076598167        1177354664.9022861     
   2907237809.6143436        7701245.8864128590        1187957187.1537068     
   2839356913.4420462        12059141.996621013        1190372971.1299183     
   2771886286.1191921        17784600.938303828        1184602016.8309214     
   2704825927.6457748        24877622.711445451        1170644324.2567136     
   2652309894.9354229        20977346.422458887        1235810835.4330790     
   2566509794.5101538        15914950.413623452        1238575102.0717592     
   2481092011.8852887        12126947.072798014        1237916017.2800658     
   2396056547.0608282        9613336.3999899626        1233833581.0579982     
   2311403400.0367699        8374118.3951888084        1226327793.4055572     
   2298569983.0988698        28087530.596492171        1293206368.9476547     
   2208870623.9695969        19055308.309929013        1288099770.4163859     
   2119525631.5916891        11204308.527920842        1284333207.2995834     
   2030535005.9651546        4534531.2504835129        1281906679.5972395     
   1941898747.0899851       -954023.52240216732        1280820187.3093581     
   1914309239.1264088        26041465.129752636        1349541265.4460158     
   1834320297.9926624        17122319.575316310        1336531192.1875932     
   1754657772.5612473        9291226.3619866371        1329624541.1884668     
   1675321662.8321688        2548185.4897798300        1328821312.4486411     
   1596311968.8054214       -3106803.0413266420        1334121505.9681106     
   1499527663.0180466        14839150.022241116        1404815524.9281647     
   1442858816.5793581        10115984.209795773        1383869367.3853786     
   1386488434.7939658        6387700.5750076771        1373790018.9467239     
   1330416517.6618748        3654299.1178880930        1374577479.6122057     
   1274643065.1830781        1915779.8384182453        1386231749.3818209     
   2704825927.6457748        24877622.711445451        1170644324.2567136     
   2592590737.7387567        17920058.056564093        1145297685.7489007     
   2479616837.0056472        8500123.9813761711        1128172671.1089842     
   2365904225.4464369       -3382179.5141501427        1119269280.3369541     
   2251452903.0611353       -17726852.429975629        1118587513.4328146     
   2311403400.0367699        8374118.3951888084        1226327793.4055572     
   2220598888.7308841        5177848.0875312090        1208242487.3648937     
   2129338448.8432989        461815.84088301659        1197552703.8386152     
   2037622080.3740098       -5773978.3447823524        1194258442.8267281     
   1945449783.3230166       -13529534.469455242        1198359704.3292310     
   1941898747.0899851       -954023.52240216732        1280820187.3093581     
   1870164624.8037968       -1097086.3572692871        1270326126.3542964     
   1798257356.1803024       -1817303.6498177052        1266401486.5601242     
   1726176941.2195013       -3114675.4000589848        1269046267.9268374     
   1653923379.9213929       -4989201.6079881191        1278260470.4544411     
   1596311968.8054214       -3106803.0413266420        1334121505.9681106     
   1541287945.9575014       -904745.27782559395        1331548602.7171164     
   1486373559.0166674        1662765.5092999339        1334719019.2735074     
   1431568807.9829223        4595729.3200501204        1343632755.6372874     
   1376873692.8562653        7894146.1544287205        1358289811.8084517     
   1274643065.1830781        1915779.8384182453        1386231749.3818209     
   1233968852.1919894        5754871.3258415461        1391909916.4533498     
   1193687057.3523870        10902023.318215728        1402505301.9787674     
   1153797680.6642661        17357235.815530539        1418017905.9580691     
   1114300722.1276298        25120508.817793190        1438447728.3912604     
   2251452903.0611353       -17726852.429975629        1118587513.4328146     
   2097745644.6165595       -34291736.331101298        1098737082.3081980     
   1951078132.0524743       -27390800.630592823        1116093594.7915666     
   1811450365.3688662        2975954.6715073586        1170657050.8829257     
   1678862344.5657554        56808529.575264692        1262427450.5822732     
   1945449783.3230166       -13529534.469455242        1198359704.3292310     
   1877060675.6368244       -9219563.0608173609        1183044066.6568234     
   1812378422.2843266        7446589.4601464272        1191333557.8113906     
   1751403023.2655296        36468923.093444586        1223228177.7929327     
   1694134478.5804377        77847437.839091480        1278727926.6014519     
   1653923379.9213929       -4989201.6079881191        1278260470.4544411     
   1631990095.0478284        8536926.7266815305        1263591252.7629921     
   1610430772.9611802        23309597.684398830        1258925349.1175060     
   1589245413.6614432        39328811.265156448        1264262759.5179851     
   1568434017.1486201        56594567.468961835        1279603483.9644232     
   1376873692.8562653        7894146.1544287205        1358289811.8084517     
   1362533902.8495824        18977733.031403720        1340378640.6267116     
   1345235184.0830286        20198224.042149901        1318868968.7099214     
   1324977536.5565979        11555619.186637700        1293760796.0580788     
   1301760960.2702961       -6950081.5351132154        1265054122.6711900     
   1114300722.1276298        25120508.817793190        1438447728.3912604     
   1068692099.0420791        22102855.853357077        1413406230.2479722     
   1016791655.6498692       -1887531.4666121602        1371164416.5886264     
   958599391.95100331       -46850653.142098784        1311722287.4132197     
   894115307.94547033       -112786509.17314219        1235079842.7217455     
   1678862344.5657554        56808529.575264692        1262427450.5822732     
   1800415707.7256670        159734763.15649730        1350235288.2864900     
   1897029045.9865756        179527580.40771955        1328955838.3216827     
   1968702359.3484745        116186981.32891482        1198589100.6878452     
   2015435647.8113761       -30287034.079892635        959135075.38497508     
   1694134478.5804377        77847437.839091480        1278727926.6014519     
   1568360949.5152688        90675920.525154054        1321765770.2844470     
   1433606805.6248322        73569020.460330725        1304431234.7468374     
   1289872046.9091294        26526737.644607484        1226724319.9886141     
   1137156673.3681550       -50450927.922003627        1088645026.0097842     
   1568434017.1486201        56594567.468961835        1279603483.9644232     
   1334519048.5681450        21080935.072801590        1296490645.3788874     
   1107582875.2361426        8829953.5048772693        1301720336.0211587     
   887625497.15260160        19841622.765158415        1295292555.8912532     
   674646914.31752920        54115942.853670567        1277207304.9891489     
   1301760960.2702961       -6950081.5351132154        1265054122.6711900     
   1098890004.8842909       -49050193.200567603        1274409913.5698137     
   918957254.82048821       -14689620.458685160        1320823142.1446712     
   761962710.07888889        96131636.690537274        1404293808.3957579     
   627906370.65949309        283413578.24711835        1524821912.3230736     
   894115307.94547033       -112786509.17314219        1235079842.7217455     
   861473818.46370840       -119717464.29495871        1255523574.8572185     
   867729944.37788486        3010298.5696884394        1361739653.1173475     
   912883685.68799484        255396779.42078197        1553728077.5021243     
   996935042.39404845        637441978.25834358        1831488848.0115626     
   1756240760.9863400        526872228.29590201        680438454.82976210     
   1784369624.4873841        500215368.03941268        806816607.48143661     
   1809553288.8473053        463741177.31251419        926283377.32041872     
   1831791754.0661039        417449656.11520600        1038838764.3467084     
   1851085020.1437798        361340804.44748950        1144482768.5603051     
   1326235124.5402331        397870537.36206990        670111978.69939256     
   1339950022.8966467        375566871.09511191        792289193.29921997     
   1351456727.5132399        345902559.02875429        909285541.98751640     
   1360755238.3900137        308877601.16299725        1021101024.7642823     
   1367845555.5269678        264491997.49784058        1127735641.6295176     
   890343629.07923663        267103088.72377098        662693037.95656562     
   894588896.29433846        250635916.64733997        781529154.13939929     
   897362975.17092335        229264783.44251910        896914921.31186390     
   898665865.70899129        202989689.10930842        1008850339.4739596     
   898497567.90854204        171810633.64770794        1117335408.6256857     
   448566274.60335022        134569882.38100508        658181632.60128152     
   448286244.68045950        125422504.69609675        774536490.00197494     
   447272031.82035476        113827850.55380836        889171515.29346073     
   445523636.02303606        99785919.954139858        1002086708.4757394     
   443041057.28850317        83296712.897091180        1113282069.5488107     
   903061.11257418885        270918.33377225668        656577762.63354027     
   1042068.0550100415       -73364.758617587970        771311200.88694668     
   1183897.4615346841       -408239.63737783028        886055323.93230736     
   1328549.3321483061       -733706.30250846513        1000810131.7696224     
   1476023.6668507436       -1049764.7540095421        1115575624.3988919     
   1851085020.1437798        361340804.44748950        1144482768.5603051     
   1835596221.7833395        295570778.41632718        1192318100.3067298     
   1823562586.2791810        241317961.90610343        1242003116.6001229     
   1814984113.6313026        198582354.91681522        1293537817.4404843     
   1809860803.8397064        167363957.44846672        1346922202.8278131     
   1367845555.5269678        264491997.49784058        1127735641.6295176     
   1361073208.1389775        216512160.84215695        1183403838.3543768     
   1356881296.0514390        177133775.18797624        1239821884.5013506     
   1355269819.2643497        146356840.53529489        1296989780.0704377     
   1356238777.7777116        124181356.88411576        1354907525.0616400     
   898497567.90854204        171810633.64770794        1117335408.6256857     
   897299285.42199087        140678270.54619932        1179815954.8471777     
   897806710.68005884        115231599.92675552        1241946515.3659298     
   900019843.68274689        95470621.789377868        1303727090.1819410     
   903938684.43005407        81395336.134065419        1365157679.2952118     
   443041057.28850317        83296712.897091180        1113282069.5488107     
   444274453.63237798        68069107.528453484        1181554449.7851326     
   446338830.16504180        55611436.122445613        1248377009.1938598     
   449234186.88649386        45923698.679066017        1313749747.7749918     
   452960523.79673535        39005895.198317394        1377672665.5285306     
   1476023.6668507436       -1049764.7540095421        1115575624.3988919     
   1998712.7701397063       -1315328.2110794079        1188619323.1682403     
   2477654.5063864565       -1726716.2249570373        1259113365.9851408     
   2912848.8755917051       -2283928.7956396514        1327057752.8495924     
   3304295.8777547888       -2986965.9231291367        1392452483.7615952     
   1809860803.8397064        167363957.44846672        1346922202.8278131     
   1778218329.1211259        135416764.16394383        1364915456.7268255     
   1747885715.9387410        107835776.00007254        1385261859.2873151     
   1718862964.2925522        84620992.956854880        1407961410.5092821     
   1691150074.1825595        65772415.034290493        1433014110.3927286     
   1356238777.7777116        124181356.88411576        1354907525.0616400     
   1333027217.5721738        100097872.00659353        1374660660.4047630     
   1310760159.0261815        79162725.994221568        1396731264.0025167     
   1289437602.1397350        61375918.847001910        1421119335.8549013     
   1269059546.9128337        46737450.564935923        1447824875.9619188     
   903938684.43005407        81395336.134065419        1365157679.2952118     
   889056094.71799791        65144976.457674503        1386244442.8930197     
   874752646.78883731        50825089.390934527        1409612994.3386135     
   861028340.64257228        38435674.933846295        1435263333.6319926     
   847883176.27920187        27976733.086407840        1463195460.7731564     
   452960523.79673535        39005895.198317394        1377672665.5285306     
   446304960.55860049        30558077.517191082        1399666804.1915994     
   439863179.22670984        22822866.190212414        1423907050.2956059     
   433635179.80106443        15800261.217385009        1450393403.8405530     
   427620962.28166467        9490262.5987090319        1479125864.8264387     
   3304295.8777547888       -2986965.9231291367        1392452483.7615952     
   4773815.0939787272       -3662824.8148625530        1414927744.3004985     
   6091756.3397983909       -4843943.6079440750        1439613431.8734953     
   7258119.6152121481       -6530322.3023783546        1466509546.4805832     
   8272904.9202214601       -8721960.8981607929        1495616088.1217651     
   1691150074.1825595        65772415.034290493        1433014110.3927286     
   1640725843.1140676        44643671.190065861        1427192139.1707611     
   1591980697.5638199        29111879.073320627        1420551717.8526781     
   1544914637.5318136        19177038.684047043        1413092846.4384785     
   1499527663.0180466        14839150.022241116        1404815524.9281647     
   1269059546.9128337        46737450.564935923        1447824875.9619188     
   1220591312.5022693        26823632.496651709        1445394133.4073098     
   1173256623.0050471        10688297.472843409        1445006086.2758496     
   1127055478.4211719       -1668554.5064749718        1446660734.5675399     
   1081987878.7506404       -10246923.441314161        1450358078.2823803     
   847883176.27920187        27976733.086407840        1463195460.7731564     
   809545640.01017880        11730251.239143163        1463519482.8468575     
   771796108.04960310       -2556216.2466303408        1468747345.8629746     
   734634580.39747536       -14882669.370910972        1478879049.8215077     
   698061057.05379438       -25249108.133702368        1493914594.7224562     
   427620962.28166467        9490262.5987090319        1479125864.8264387     
   407588825.63779998       -636472.58245101571        1481568187.4894032     
   387599152.69748652       -10621662.085106641        1491775496.6140509     
   367651943.46072125       -20465305.909268811        1509747792.2003808     
   347747197.92750931       -30167404.054920167        1535485074.2483916     
   8272904.9202214601       -8721960.8981607929        1495616088.1217651     
   14720869.385132555       -10276538.968128454        1499540247.3349483     
   20665756.948695697       -13508040.042589989        1514090538.5290811     
   26107567.610913724       -18416464.121534709        1539266961.7041585     
   31046301.371783651       -25001811.204973452        1575069516.8601856     
   1499527663.0180466        14839150.022241116        1404815524.9281647     
   1442858816.5793581        10115984.209795773        1383869367.3853786     
   1386488434.7939658        6387700.5750076771        1373790018.9467239     
   1330416517.6618748        3654299.1178880930        1374577479.6122057     
   1274643065.1830781        1915779.8384182453        1386231749.3818209     
   1081987878.7506404       -10246923.441314161        1450358078.2823803     
   1050932522.1292918       -12339630.421445072        1440248034.2325399     
   1020248228.7528111       -13195459.918681502        1438366836.5921390     
   989934998.62119853       -12814411.933024883        1444714485.3611810     
   959992831.73445106       -11196486.464484513        1459290980.5396619     
   698061057.05379438       -25249108.133702368        1493914594.7224562     
   685082153.97923470       -26972467.162680596        1494725362.5223942     
   672546912.74111307       -27216953.403533876        1501127014.0370784     
   660455333.33942771       -25982566.856266171        1513119549.2665091     
   648807415.77417982       -23269307.520872176        1530702968.2106905     
   347747197.92750931       -30167404.054920167        1535485074.2483916     
   345307712.12918562       -33782526.013918340        1547301352.2549376     
   343384486.75887138       -35676779.879550904        1562070551.2815373     
   341977521.81656295       -35850165.651832357        1579792671.3281915     
   341086817.30225986       -34302683.330761895        1600467712.3948989     
   31046301.371783651       -25001811.204973452        1575069516.8601856     
   31609196.579147123       -32769806.975145407        1597976003.4301715     
   32760950.806088030       -38574939.346726261        1621197448.3255177     
   34501564.052602634       -42417208.319727764        1644733851.5462244     
   36831036.318695650       -44296613.894134954        1668585213.0922935     
   1274643065.1830781        1915779.8384182453        1386231749.3818209     
   1233968852.1919894        5754871.3258415461        1391909916.4533498     
   1193687057.3523870        10902023.318215728        1402505301.9787674     
   1153797680.6642661        17357235.815530539        1418017905.9580691     
   1114300722.1276298        25120508.817793190        1438447728.3912604     
   959992831.73445106       -11196486.464484513        1459290980.5396619     
   930856315.88239074       -9165116.4756257534        1465989288.7680500     
   901461978.02275980       -7993153.1786707044        1477062696.6876264     
   871809818.15555942       -7680596.5736127496        1492511204.2983944     
   841899836.28079426       -8227446.6604371071        1512334811.6003468     
   648807415.77417982       -23269307.520872176        1530702968.2106905     
   629659686.31057608       -23510332.255766958        1537662804.0770438     
   609603894.68035424       -26778230.879390627        1548455620.8718867     
   588640040.88351309       -33073003.391744614        1563081418.5952187     
   566768124.92005169       -42394649.792832732        1581540197.2470446     
   341086817.30225986       -34302683.330761895        1600467712.3948989     
   330378963.47655332       -37280776.014559388        1606930462.3803232     
   318112807.32517290       -45453209.783936635        1616684074.5315413     
   304288348.84812158       -58819984.638883382        1629728548.8485520     
   288905588.04539835       -77381100.579403296        1646063885.3313544     
   36831036.318695650       -44296613.894134954        1668585213.0922935     
   33014147.380313281       -50476447.752030298        1673792263.6778960     
   26988715.957208641       -64018089.892332517        1681748057.6665950     
   18754742.049381502       -84921540.315043747        1692452595.0583899     
   8312225.6568358913       -113186799.02014989        1705905875.8532765     
   1114300722.1276298        25120508.817793190        1438447728.3912604     
   1068692099.0420791        22102855.853357077        1413406230.2479722     
   1016791655.6498692       -1887531.4666121602        1371164416.5886264     
   958599391.95100331       -46850653.142098784        1311722287.4132197     
   894115307.94547033       -112786509.17314219        1235079842.7217455     
   841899836.28079426       -8227446.6604371071        1512334811.6003468     
   758796013.21671224       -28956877.305527955        1486015663.5191143     
   673164674.88450527       -58111358.844368428        1452141702.7429168     
   585005821.28416657       -95690891.276979953        1410712929.2717564     
   494319452.41570711       -141695474.60332721        1361729343.1056254     
   566768124.92005169       -42394649.792832732        1581540197.2470446     
   473727681.36627829       -72568284.271935672        1558335088.4394903     
   381924027.58291769       -98619286.183001369        1537220669.7580667     
   291357163.56995958       -120547655.52605544        1518196941.2027740     
   202027089.32741284       -138353392.30107331        1501263902.7736070     
   288905588.04539835       -77381100.579403296        1646063885.3313544     
   213487103.49078354       -108731365.04585536        1630364505.0091002     
   143069713.74510920       -123411313.48250246        1626401317.6340747     
   77653418.808376610       -121420945.88934544        1634174323.2062721     
   17238218.680589400       -102760262.26637062        1653683521.7256944     
   8312225.6568358913       -113186799.02014989        1705905875.8532765     
  -21925720.409780279       -137446119.62730578        1702103913.2279468     
  -43398266.628918819       -132487440.74287023        1719683646.3709400     
  -56105413.000585601       -98310762.366861075        1758645075.2822526     
  -60047159.524769984       -34916084.499245383        1818988199.9618859     
   894115307.94547033       -112786509.17314219        1235079842.7217455     
   861473818.46370840       -119717464.29495871        1255523574.8572185     
   867729944.37788486        3010298.5696884394        1361739653.1173475     
   912883685.68799484        255396779.42078197        1553728077.5021243     
   996935042.39404845        637441978.25834358        1831488848.0115626     
   494319452.41570711       -141695474.60332721        1361729343.1056254     
   645134896.75453568       -100227627.16264921        1428945141.7391071     
   808382397.11193430       -17319592.993401945        1540340358.1339717     
   984061953.48789394        107028627.90438795        1695914992.2902019     
   1172173565.8824301        272817035.53075182        1895669044.2078288     
   202027089.32741284       -138353392.30107331        1501263902.7736070     
   417462529.30605108       -84137823.752124965        1584375281.9648325     
   618864465.92588353       -76700599.732529461        1670073150.5541568     
   806232899.18691778       -116041720.24226552        1758357508.5415919     
   979567829.08914363       -202161185.28135371        1849228355.9271276     
   17238218.680589400       -102760262.26637062        1653683521.7256944     
   178456716.11825344       -71448054.063395530        1721813995.5343933     
   299176150.81973720       -175132721.64768869        1750938030.3779240     
   379396522.78505701       -413814265.01919270        1741055626.2562826     
   419117832.01420140       -787492684.17795253        1692166783.1694782     
  -60047159.524769984       -34916084.499245383        1818988199.9618859     
  -71882542.808861300       -62158318.096471190        1841261282.4477930     
  -150682548.20649841       -312615958.73884898        1782934997.6052573     
  -296447175.71767616       -786289006.42635989        1644009345.4342723     
  -509176425.34240413       -1483177461.1590436        1424484325.9348528     
   903061.11257418885        270918.33377225668        656577762.63354027     
   1042068.0550100415       -73364.758617587970        771311200.88694668     
   1183897.4615346841       -408239.63737783028        886055323.93230736     
   1328549.3321483061       -733706.30250846513        1000810131.7696224     
   1476023.6668507436       -1049764.7540095421        1115575624.3988919     
  -446823457.85588890       -134047037.35676667        657909728.93932140     
  -446235520.60421538       -125438234.96085024        774218686.88236451     
  -444911804.98900580       -114376838.01981333        888796194.38941169     
  -442852311.01025981       -100862846.53365591        1001642251.4604627     
  -440057038.66797775       -84896260.502377510        1112756858.0955181     
  -888790728.76483619       -266637218.62945086        662205832.40460515     
  -892731390.42664003       -250568589.51204270        780945425.25330675     
  -895203317.82546031       -229604179.51802301        896211432.43806207     
  -896206510.96129739       -203743988.64739206        1008003853.9588710     
  -895740969.83415067       -172988016.90014926        1116322689.8157341     
  -1324998751.6142678       -397499625.48428035        669466073.02939153     
  -1338445541.4122639       -375464428.41219497        791491415.99977314     
  -1349690641.0478294       -346090264.13200700        908301038.07825863     
  -1358734050.5209639       -309377132.64371693        1019894939.2648476     
  -1365575769.8316681       -265325033.94732440        1126273119.5595398     
  -1755447526.4041839       -526634257.92125511        679690450.81368029     
  -1783377973.5610871       -500125751.66130698        805856659.12176430     
  -1808373774.6561124       -463835091.86176533        925065011.31000161     
  -1830434929.6892602       -417762278.52263093        1037315507.3783920     
  -1849561438.6605299       -361907311.64390236        1142608147.3269358     
   1476023.6668507436       -1049764.7540095421        1115575624.3988919     
   1998712.7701397063       -1315328.2110794079        1188619323.1682403     
   2477654.5063864565       -1726716.2249570373        1259113365.9851408     
   2912848.8755917051       -2283928.7956396514        1327057752.8495924     
   3304295.8777547888       -2986965.9231291367        1392452483.7615952     
  -440057038.66797775       -84896260.502377510        1112756858.0955181     
  -440277155.13258851       -70041689.042229936        1180832591.5480742     
  -441369795.84803009       -58095531.751518503        1247397330.1507208     
  -443334960.81430167       -49057788.630239189        1312451073.9034586     
  -446172650.03140378       -42928459.678395972        1375993822.8062873     
  -895740969.83415067       -172988016.90014926        1116322689.8157341     
  -893736288.71654785       -142123029.57774976        1178463551.5870776     
  -893432908.73356473       -116929046.03741455        1240132079.6110513     
  -894830829.88519931       -97406066.279139638        1301328273.8876555     
  -897930052.17145395       -83554090.302929908        1362052134.4168906     
  -1365575769.8316681       -265325033.94732440        1126273119.5595398     
  -1358378687.9817388       -217559349.81763947        1181512203.2852504     
  -1353711684.1502168       -178227259.08264542        1237317614.3661315     
  -1351574758.3371027       -147328761.74234313        1293689352.8021824     
  -1351967910.5423954       -124863857.79673094        1350627418.5934033     
  -1849561438.6605299       -361907311.64390236        1142608147.3269358     
  -1834204352.9281607       -296350649.76189733        1189978546.6425941     
  -1822206122.0979877       -241990170.88721347        1238953934.4159620     
  -1813566746.1700091       -198825875.01984501        1289534310.6470401     
  -1808286225.1442282       -166857762.15979981        1341719675.3358274     
   3304295.8777547888       -2986965.9231291367        1392452483.7615952     
   4773815.0939787272       -3662824.8148625530        1414927744.3004985     
   6091756.3397983909       -4843943.6079440750        1439613431.8734953     
   7258119.6152121481       -6530322.3023783546        1466509546.4805832     
   8272904.9202214601       -8721960.8981607929        1495616088.1217651     
  -446172650.03140378       -42928459.678395972        1375993822.8062873     
  -436578956.34219539       -35085256.866221651        1397247554.3772974     
  -427441666.54164755       -28763400.349582255        1420574286.5771470     
  -418760780.62976038       -23962890.128478080        1445974019.4058363     
  -410536298.60653400       -20683726.202909917        1473446752.8633659     
  -897930052.17145395       -83554090.302929908        1362052134.4168906     
  -880604830.88141203       -67309619.848491639        1381728706.7820418     
  -864040839.39828718       -53602582.083776057        1403340853.3707798     
  -848238077.72207928       -42432977.008782506        1426888574.1831040     
  -833196545.85278690       -33800804.623508692        1452371869.2190156     
  -1351967910.5423954       -124863857.79673094        1350627418.5934033     
  -1327303808.5236723       -100335913.76167524        1368371201.5147312     
  -1303705762.2301221       -79361488.810529530        1387913132.2543926     
  -1281173771.6617441       -61940582.943291187        1409253210.8123877     
  -1259707836.8185365       -48073196.159953773        1432391437.1887169     
  -1808286225.1442282       -166857762.15979981        1341719675.3358274     
  -1776675889.2689753       -134164138.60577285        1357175038.5753665     
  -1746436435.0371506       -106040120.52984017        1374291123.2279866     
  -1717567862.4487538       -82485707.932000935        1393067929.2936864     
  -1690070171.5037851       -63500900.812252820        1413505456.7724679     
   8272904.9202214601       -8721960.8981607929        1495616088.1217651     
   14720869.385132555       -10276538.968128454        1499540247.3349483     
   20665756.948695697       -13508040.042589989        1514090538.5290811     
   26107567.610913724       -18416464.121534709        1539266961.7041585     
   31046301.371783651       -25001811.204973452        1575069516.8601856     
  -410536298.60653400       -20683726.202909917        1473446752.8633659     
  -378020611.45203269       -11255085.374123752        1473690793.6327107     
  -345798774.01513028       -2805943.6040010303        1480826207.8210814     
  -313870786.29582781        4663699.1074557453        1494852995.4284759     
  -282236648.29412812        11153842.760235906        1515771156.4548967     
  -833196545.85278690       -33800804.623508692        1452371869.2190156     
  -785283874.75704455       -16590166.520468026        1449179889.9255607     
  -737455826.19515741        338396.46972414851        1449144525.4892082     
  -689712400.16712308        16984884.347073376        1452265775.9099569     
  -642053596.67294288        33349297.111572713        1458543641.1878085     
  -1259707836.8185365       -48073196.159953773        1432391437.1887169     
  -1207068920.5299063       -26281782.407169819        1426007536.2134993     
  -1154305399.5913823       -4075019.8214066029        1419045491.5334601     
  -1101417274.0029671        18547091.597328901        1411505303.1486008     
  -1048404543.7646587        41584551.849039137        1403386971.0589187     
  -1690070171.5037851       -63500900.812252820        1413505456.7724679     
  -1643375748.7706151       -40329933.034222305        1404173732.4965236     
  -1596347494.2038088       -16046192.477402329        1390529105.9538372     
  -1548985407.8033612        9350320.8582234383        1372571577.1444068     
  -1501289489.5692770        35859606.972634971        1350301146.0682309     
   31046301.371783651       -25001811.204973452        1575069516.8601856     
   31609196.579147123       -32769806.975145407        1597976003.4301715     
   32760950.806088030       -38574939.346726261        1621197448.3255177     
   34501564.052602634       -42417208.319727764        1644733851.5462244     
   36831036.318695650       -44296613.894134954        1668585213.0922935     
  -282236648.29412812        11153842.760235906        1515771156.4548967     
  -276679663.66046703        9327523.3002782911        1523636186.8226821     
  -271154093.33271563        7396489.4872894585        1533656710.0445144     
  -265659937.31087875        5360741.3212517649        1545832726.1203978     
  -260197195.59495252        3220278.8021783680        1560164235.0503299     
  -642053596.67294288        33349297.111572713        1458543641.1878085     
  -626243852.53101528        39042254.986426353        1450643563.1403227     
  -611085796.02048707        42562920.756616145        1446739512.4755738     
  -596579427.14136064        43911294.422132671        1446831489.1935635     
  -582724745.89363396        43087375.982983381        1450919493.2942910     
  -1048404543.7646587        41584551.849039137        1403386971.0589187     
  -1017083370.0324990        56374388.083291471        1378998132.3830929     
  -987034157.25722682        66924354.461251676        1360445855.6186931     
  -958256905.43884516        73234450.982910335        1347730140.7657199     
  -930751614.57735062        75304677.648276985        1340850987.8241699     
  -1501289489.5692770        35859606.972634971        1350301146.0682309     
  -1449198216.1649170        61323922.590877175        1308699894.5509942     
  -1398999177.0429339        80480790.601198196        1274775739.4738719     
  -1350692372.2033293        93330211.003590107        1248528680.8368635     
  -1304277801.6460998        99872183.798064172        1229958718.6399724     
   36831036.318695650       -44296613.894134954        1668585213.0922935     
   33014147.380313281       -50476447.752030298        1673792263.6778960     
   26988715.957208641       -64018089.892332517        1681748057.6665950     
   18754742.049381502       -84921540.315043747        1692452595.0583899     
   8312225.6568358913       -113186799.02014989        1705905875.8532765     
  -260197195.59495252        3220278.8021783680        1560164235.0503299     
  -254852254.98803383       -725636.18839770555        1555012997.7244041     
  -250643006.97990033       -8457193.1749223471        1553645058.4454646     
  -247569451.57055676       -19974392.157416008        1556060417.2135117     
  -245631588.75999960       -35277233.135861322        1562259074.0285418     
  -582724745.89363396        43087375.982983381        1450919493.2942910     
  -565262105.33029461        42262140.983067453        1436661626.2570903     
  -547862307.47980809        41227430.273641527        1427221611.9107697     
  -530525352.34217519        39983243.854704350        1422599450.2553265     
  -513251239.91739327        38529581.726263136        1422795141.2907608     
  -930751614.57735062        75304677.648276985        1340850987.8241699     
  -898215403.64647293        78486883.762350678        1318738149.2759562     
  -864669185.54251325        85035780.453366160        1302477718.0625100     
  -830112960.26547205        94951367.721319497        1292069694.1838343     
  -794546727.81534767        108233645.56621605        1287514077.6399281     
  -1304277801.6460998        99872183.798064172        1229958718.6399724     
  -1253712149.9365652        107948592.14946479        1201242566.7809985     
  -1201063641.1680126        122967857.36425924        1179413376.9006860     
  -1146332275.3404474        144929979.44242948        1164471148.9990361     
  -1089518052.4538615        173834958.38400114        1156415883.0760448     
   8312225.6568358913       -113186799.02014989        1705905875.8532765     
  -21925720.409780279       -137446119.62730578        1702103913.2279468     
  -43398266.628918819       -132487440.74287023        1719683646.3709400     
  -56105413.000585601       -98310762.366861075        1758645075.2822526     
  -60047159.524769984       -34916084.499245383        1818988199.9618859     
  -245631588.75999960       -35277233.135861322        1562259074.0285418     
  -222105026.52865973       -36135117.597287565        1559107750.0917943     
  -192188916.73757666       -15694510.192902490        1570531713.0438313     
  -155883259.38675281        26044589.077285051        1596530962.8846507     
  -113188054.47618386        89082180.213289067        1637105499.6142571     
  -513251239.91739327        38529581.726263136        1422795141.2907608     
  -455407051.90106124        55239068.656674027        1417522628.3735702     
  -393549168.61271954        85327539.827116847        1420018993.4656286     
  -327677590.05236804        128794995.23759359        1430284236.5669315     
  -257792316.22000873        185641434.88809526        1448318357.6774840     
  -794546727.81534767        108233645.56621605        1287514077.6399281     
  -721831796.52698290        136676439.13458288        1277348548.0732715     
  -647479022.25434840        170578709.31718513        1268145487.6363297     
  -571488404.99743140        209940456.11405930        1259904896.3290989     
  -493859944.75624090        254761679.52518174        1252626774.1515734     
  -1089518052.4538615        173834958.38400114        1156415883.0760448     
  -1021379260.4064301        208176993.83642238        1138585509.1909053     
  -953978477.66245806        240058998.27731669        1114911195.5559359     
  -887315704.22194040        269480971.70669812        1085392942.1711428     
  -821390940.08488345        296442914.12453836        1050030749.0365243     
  -60047159.524769984       -34916084.499245383        1818988199.9618859     
  -71882542.808861300       -62158318.096471190        1841261282.4477930     
  -150682548.20649841       -312615958.73884898        1782934997.6052573     
  -296447175.71767616       -786289006.42635989        1644009345.4342723     
  -509176425.34240413       -1483177461.1590436        1424484325.9348528     
  -113188054.47618386        89082180.213289067        1637105499.6142571     
  -286966121.42439735        39778622.725363970        1587205279.6790724     
  -498385933.99804521       -134997420.18067899        1498424206.6900933     
  -747447492.19712555       -435245948.50482655        1370762280.6473136     
  -1034150796.0216405       -860966962.24708915        1204219501.5507371     
  -257792316.22000873        185641434.88809526        1448318357.6774840     
  -474317311.76192617        150035280.03059968        1360454857.8906729     
  -699161176.44117105        86699561.382014394        1275429019.3247077     
  -932323910.25773203       -4365721.0576285720        1193240841.9796004     
  -1173805513.2116170       -123160567.28834996        1113890325.8553250     
  -493859944.75624090        254761679.52518174        1252626774.1515734     
  -633936113.82144904        268611653.81923133        1161010017.0825994     
  -753008275.53586781        352474985.94924456        1113949435.5091159     
  -851076429.89950049        506351675.91521496        1111445029.4311287     
  -928140576.91234040        730241723.71715844        1153496798.8486369     
  -821390940.08488345        296442914.12453836        1050030749.0365243     
  -765822527.60295904        395507744.09128350        988870757.25484490     
  -659927231.28214872        662328853.52098465        1013985455.2433094     
  -503705051.12242818        1096906242.4137204        1125374843.0019076     
  -297155987.12380767        1699239910.7694504        1323038920.5306520     
  -1755447526.4041839       -526634257.92125511        679690450.81368029     
  -1783377973.5610871       -500125751.66130698        805856659.12176430     
  -1808373774.6561124       -463835091.86176533        925065011.31000161     
  -1830434929.6892602       -417762278.52263093        1037315507.3783920     
  -1849561438.6605299       -361907311.64390236        1142608147.3269358     
  -2201909708.6809440       -660572912.60428321        695979533.64176488     
  -2238142217.1436133       -614043397.12427628        813292058.18038309     
  -2272309144.6001692       -560628611.62389112        926556004.93747604     
  -2304410491.0506105       -500328556.10312736        1035771373.9130442     
  -2334446256.4949398       -433143230.56198567        1140938165.1070874     
  -2686157953.9909105       -805847386.19727314        721433889.39793837     
  -2722380299.9355693       -736803194.35007477        828878820.93536544     
  -2757406129.9298773       -663770616.00171232        935184453.02958906     
  -2791235443.9738388       -586749651.15218699        1040350785.6806093     
  -2823868242.0674491       -505740299.80149764        1144377818.8884265     
  -3208192262.3340816       -962457678.70022452        756053518.08220077     
  -3236092221.9369526       -868405143.33870137        852616947.38671148     
  -3263664730.6452389       -773261104.99522924        950950355.58634043     
  -3290909788.4589405       -677025563.66980851        1051053742.6810883     
  -3317827395.3780580       -579698519.36244011        1152927108.6709545     
  -3768012633.7104583       -1130403790.1131375        799838419.69455194     
  -3779277983.1477652       -1008849244.0901567        884506437.53442109     
  -3791084946.7462525       -889100078.60444236        973853712.60773051     
  -3803433524.5059199       -771156293.65599430        1067880244.9144799     
  -3816323716.4267669       -655017889.24481213        1166586034.4546702     
  -1849561438.6605299       -361907311.64390236        1142608147.3269358     
  -1834204352.9281607       -296350649.76189733        1189978546.6425941     
  -1822206122.0979877       -241990170.88721347        1238953934.4159620     
  -1813566746.1700091       -198825875.01984501        1289534310.6470401     
  -1808286225.1442282       -166857762.15979981        1341719675.3358274     
  -2334446256.4949398       -433143230.56198567        1140938165.1070874     
  -2312254781.2825017       -352478215.94682002        1181994928.5680509     
  -2293571842.9814582       -283508324.36963505        1223217383.3098590     
  -2278397441.5918074       -226233555.83042455        1264605529.3325114     
  -2266731577.1135488       -180653910.32919347        1306159366.6360087     
  -2823868242.0674491       -505740299.80149764        1144377818.8884265     
  -2798954655.0231299       -411200615.74762887        1178946317.4839656     
  -2777699286.8994017       -328854994.76239729        1212241210.1834834     
  -2760102137.6962643       -258703436.84580183        1244262496.9869804     
  -2746163207.4137187       -200745941.99784255        1275010177.8944561     
  -3317827395.3780580       -579698519.36244011        1152927108.6709545     
  -3294303974.1500440       -472517849.16432369        1180832713.3903379     
  -3274588453.8518176       -378030182.06550157        1206025415.0368342     
  -3258680834.4833817       -296235518.06597590        1228505213.6104453     
  -3246581116.0447321       -227133857.16574359        1248272109.1111693     
  -3816323716.4267669       -655017889.24481213        1166586034.4546702     
  -3798302738.6632442       -536429916.19690418        1187654116.2871675     
  -3784239343.8387079       -431033886.27894902        1204569997.8699129     
  -3774133531.9531593       -338829799.49094951        1217333679.2029071     
  -3767985303.0065947       -259817655.83290136        1225945160.2861488     
  -1808286225.1442282       -166857762.15979981        1341719675.3358274     
  -1776675889.2689753       -134164138.60577285        1357175038.5753665     
  -1746436435.0371506       -106040120.52984017        1374291123.2279866     
  -1717567862.4487538       -82485707.932000935        1393067929.2936864     
  -1690070171.5037851       -63500900.812252820        1413505456.7724679     
  -2266731577.1135488       -180653910.32919347        1306159366.6360087     
  -2224807125.4398150       -135587013.42400229        1312706472.4036708     
  -2185697427.9017286       -99902630.304305673        1322671421.2145071     
  -2149402484.4992938       -73600760.970112324        1336054213.0685194     
  -2115922295.2325082       -56681405.421414733        1352854847.9657054     
  -2746163207.4137187       -200745941.99784255        1275010177.8944561     
  -2688904292.4269443       -141799667.48711610        1270964508.2826481     
  -2635904004.0680428       -97048815.069293857        1272093803.3441091     
  -2587162342.3370137       -66493384.744377732        1278398063.0788412     
  -2542679307.2338538       -50133376.512364030        1289877287.4868412     
  -3246581116.0447321       -227133857.16574359        1248272109.1111693     
  -3168967390.2303653       -152802100.79511881        1231949146.2122993     
  -3097056163.5360928       -97478674.824803114        1222558269.6167941     
  -3030847435.9619107       -61163579.254793644        1220099479.3246527     
  -2970341207.5078239       -43856814.085099578        1224572775.3358748     
  -3767985303.0065947       -259817655.83290136        1225945160.2861488     
  -3664996418.8500786       -168594313.34800851        1195660386.1926260     
  -3569153906.3058767       -101192209.57082951        1174064820.0325608     
  -3480457765.3739901       -57611344.501369953        1161158461.8059545     
  -3398907996.0544190       -37851718.139624834        1156941311.5128071     
  -1690070171.5037851       -63500900.812252820        1413505456.7724679     
  -1643375748.7706151       -40329933.034222305        1404173732.4965236     
  -1596347494.2038088       -16046192.477402329        1390529105.9538372     
  -1548985407.8033612        9350320.8582234383        1372571577.1444068     
  -1501289489.5692770        35859606.972634971        1350301146.0682309     
  -2115922295.2325082       -56681405.421414733        1352854847.9657054     
  -2077008121.2773597       -42724972.005236030        1345660218.6681113     
  -2038307622.3331754       -29480788.625600815        1338920115.8915176     
  -1999820798.3999512       -16948855.282502890        1332634539.6359246     
  -1961547649.4776897       -5129171.9759447575        1326803489.9013329     
  -2542679307.2338538       -50133376.512364030        1289877287.4868412     
  -2497924156.9488850       -41305109.925682306        1284180995.1822283     
  -2453930188.5194802       -35014116.190880775        1283706658.1863596     
  -2410697401.9456387       -31260395.307956576        1288454276.4992380     
  -2368225797.2273588       -30043947.276907086        1298423850.1208606     
  -2970341207.5078239       -43856814.085099578        1224572775.3358748     
  -2906123855.7851920       -36070346.795562267        1219736062.0388751     
  -2843215192.7627263       -32646175.173245430        1224888732.8383641     
  -2781615218.4404202       -33584299.218132854        1240030787.7343445     
  -2721323932.8182817       -38884718.930242658        1265162226.7268150     
  -3398907996.0544190       -37851718.139624834        1156941311.5128071     
  -3301607217.7862806       -27020682.614878535        1152325419.2380521     
  -3206162635.0629086       -22376965.572684646        1162466339.8475313     
  -3112574247.8843031       -23920567.013047218        1187364073.3412466     
  -3020842056.2504606       -31651486.935955048        1227018619.7191958     
  -1501289489.5692770        35859606.972634971        1350301146.0682309     
  -1449198216.1649170        61323922.590877175        1308699894.5509942     
  -1398999177.0429339        80480790.601198196        1274775739.4738719     
  -1350692372.2033293        93330211.003590107        1248528680.8368635     
  -1304277801.6460998        99872183.798064172        1229958718.6399724     
  -1961547649.4776897       -5129171.9759447575        1326803489.9013329     
  -1894932048.1419449        12880837.414361358        1300855990.5320377     
  -1829627437.4921370        26520877.851542234        1280124179.1839881     
  -1765633817.5282655        35790949.335605383        1264608055.8571808     
  -1702951188.2503283        40691051.866547823        1254307620.5516181     
  -2368225797.2273588       -30043947.276907086        1298423850.1208606     
  -2294118463.4427171       -21598022.759286404        1288808220.4286885     
  -2220740876.7475719       -15584588.539986372        1281946870.3388925     
  -2148093037.1419230       -12003644.619004011        1277839799.8514669     
  -2076174944.6257653       -10855190.996332645        1276487008.9664156     
  -2721323932.8182817       -38884718.930242658        1265162226.7268150     
  -2646757462.0672326       -42112657.930054545        1272556584.2409484     
  -2572339494.8092384       -45835608.573384523        1280243812.9385870     
  -2498070031.0442972       -50053570.860227704        1288223912.8197253     
  -2423949070.7724080       -54766544.790575862        1296496883.8843675     
  -3020842056.2504606       -31651486.935955048        1227018619.7191958     
  -2952849044.0154905       -48663068.097943664        1252101081.9688168     
  -2884423291.6771340       -64232182.248650670        1275015006.9830689     
  -2815564799.2353883       -78358829.388062835        1295760394.7619531     
  -2746273566.6902552       -91043009.516176939        1314337245.3054688     
  -1304277801.6460998        99872183.798064172        1229958718.6399724     
  -1253712149.9365652        107948592.14946479        1201242566.7809985     
  -1201063641.1680126        122967857.36425924        1179413376.9006860     
  -1146332275.3404474        144929979.44242948        1164471148.9990361     
  -1089518052.4538615        173834958.38400114        1156415883.0760448     
  -1702951188.2503283        40691051.866547823        1254307620.5516181     
  -1635706035.2364039        47151989.454222798        1236267091.2232785     
  -1567023246.7436099        58405045.304793417        1224542786.4805174     
  -1496902822.7719493        74450219.418247521        1219134706.3233325     
  -1425344763.3214247        95287511.794587970        1220042850.7517209     
  -2076174944.6257653       -10855190.996332645        1276487008.9664156     
  -1993880968.5733993       -6498927.6521552801        1268369343.6585352     
  -1910794578.6223166        498715.35440802574        1265997165.5431468     
  -1826915774.7725217        10137738.023347616        1269370474.6202517     
  -1742244557.0240109        22418140.354672909        1278489270.8898489     
  -2423949070.7724080       -54766544.790575862        1296496883.8843675     
  -2328236949.9475551       -53004159.169683456        1297549324.0867667     
  -2232377636.8041377       -50751132.486908078        1303776514.0885751     
  -2136371131.3421612       -48007464.742274046        1315178453.8897913     
  -2040217433.5616219       -44773155.935755491        1331755143.4904177     
  -2746273566.6902552       -91043009.516176939        1314337245.3054688     
  -2638773979.3588748       -92363705.098371029        1323807032.5079737     
  -2531772421.2890792       -95344498.219178200        1337880832.1168022     
  -2425268892.4808736       -99985388.878618360        1356558644.1319556     
  -2319263392.9342551       -106286377.07668388        1379840468.5534334     
  -1089518052.4538615        173834958.38400114        1156415883.0760448     
  -1021379260.4064301        208176993.83642238        1138585509.1909053     
  -953978477.66245806        240058998.27731669        1114911195.5559359     
  -887315704.22194040        269480971.70669812        1085392942.1711428     
  -821390940.08488345        296442914.12453836        1050030749.0365243     
  -1425344763.3214247        95287511.794587970        1220042850.7517209     
  -1368717721.6376023        110976441.08196127        1210879066.7807231     
  -1313969452.4165723        120402795.49335438        1203008592.9333251     
  -1261099955.6583424        123566575.02875078        1196431429.2095265     
  -1210109231.3629045        120467779.68816650        1191147575.6093326     
  -1742244557.0240109        22418140.354672909        1278489270.8898489     
  -1676737123.2082903        25571606.225641489        1276661186.4804306     
  -1614249225.0147035        18659953.356166542        1283263662.0680408     
  -1554780862.4432480        1683181.7462555766        1298296697.6526785     
  -1498332035.4939246       -25358708.604101837        1321760293.2343438     
  -2040217433.5616219       -44773155.935755491        1331755143.4904177     
  -1945437465.1184950       -48037510.732528090        1335931868.2900209     
  -1854817795.4568439       -65169528.134218812        1355676402.9600768     
  -1768358424.5766573       -96169208.140789032        1390988747.5005925     
  -1686059352.4779406       -141036550.75226384        1441868901.9115605     
  -2319263392.9342551       -106286377.07668388        1379840468.5534334     
  -2174818747.3682184       -109850909.79255831        1388691112.2094972     
  -2035675163.7429926       -131085648.97779906        1420246815.6094420     
  -1901832642.0585701       -169990594.63238531        1474507578.7532697     
  -1773291182.3149586       -226565746.75634313        1551473401.6409788     
  -821390940.08488345        296442914.12453836        1050030749.0365243     
  -765822527.60295904        395507744.09128350        988870757.25484490     
  -659927231.28214872        662328853.52098465        1013985455.2433094     
  -503705051.12242818        1096906242.4137204        1125374843.0019076     
  -297155987.12380767        1699239910.7694504        1323038920.5306520     
  -1210109231.3629045        120467779.68816650        1191147575.6093326     
  -996322882.37542498        206317191.32825094        1187144260.8285198     
  -754211923.84402013        386581968.11474717        1221622073.2033808     
  -483776355.76868594        661262110.04767394        1294581012.7339125     
  -185016178.14942551        1030357617.1270202        1406021079.4201200     
  -1498332035.4939246       -25358708.604101837        1321760293.2343438     
  -1262880786.0422180        6309373.8969355226        1349244335.4435923     
  -1021107201.3415596        59051907.227810144        1367415942.1940477     
  -773011281.39194953        132868891.38852438        1376275113.4857073     
  -518593026.19338465        227760326.37908736        1375821849.3185687     
  -1686059352.4779406       -141036550.75226384        1441868901.9115605     
  -1565496238.6033442       -204515708.20267081        1475170981.1000688     
  -1460613063.7747760       -320261329.13984036        1451367062.2153165     
  -1371409827.9922199       -488273413.56371981        1370457145.2572968     
  -1297886531.2556925       -708551961.47435331        1232441230.2260239     
  -1773291182.3149586       -226565746.75634313        1551473401.6409788     
  -1904169240.0588088       -426158054.97059870        1564924197.7979469     
  -2072729511.1436582       -751357740.98818135        1473475433.2671802     
  -2278971995.5695024       -1202164804.8090854        1277127108.0486805     
  -2522896693.3363390       -1778579246.4332891        975879222.14245832     
  -3768012633.7104583       -1130403790.1131375        799838419.69455194     
  -3779277983.1477652       -1008849244.0901567        884506437.53442109     
  -3791084946.7462525       -889100078.60444236        973853712.60773051     
  -3803433524.5059199       -771156293.65599430        1067880244.9144799     
  -3816323716.4267669       -655017889.24481213        1166586034.4546702     
  -4338963414.4274559       -1301689024.3282368        857990328.20423937     
  -4335283268.4497490       -1125665054.1593211        941900932.46871543     
  -4332733495.3574104       -953408993.60829973        1020058947.3237770     
  -4331314095.1504393       -784920842.67517257        1092464372.7694244     
  -4331025067.8288355       -620200601.35993958        1159117208.8056579     
  -4894388950.7924900       -1468316685.2377470        935710977.58051002     
  -4905568585.5222101       -1246764873.7596288        1018177283.0913731     
  -4918467351.8614864       -1030943500.9800329        1084459152.5499668     
  -4933085249.8103209       -820852566.89895940        1134556585.9562926     
  -4949422279.3687105       -616492071.51640940        1168469583.3103490     
  -5434289242.8055611       -1630286772.8416684        1033000367.8233641     
  -5490133934.3651485       -1372148702.8910797        1113335489.4023941     
  -5548286516.2584820       -1121703600.7196419        1167054328.2863009     
  -5608746988.4855614       -878951466.32735455        1194156884.4750841     
  -5671515351.0463848       -643892299.71421838        1194643157.9687445     
  -5958664290.4666691       -1787599287.1400006        1149858498.9328015     
  -6088979314.9785662       -1501816541.5536737        1227375551.4017785     
  -6222190988.5483980       -1225689292.8271267        1267844474.5327778     
  -6358299311.1761637       -959217540.96035790        1271265268.3257997     
  -6497304282.8618650       -702401285.95337009        1237637932.7808437     
  -3816323716.4267669       -655017889.24481213        1166586034.4546702     
  -3798302738.6632442       -536429916.19690418        1187654116.2871675     
  -3784239343.8387079       -431033886.27894902        1204569997.8699129     
  -3774133531.9531593       -338829799.49094951        1217333679.2029071     
  -3767985303.0065947       -259817655.83290136        1225945160.2861488     
  -4331025067.8288355       -620200601.35993958        1159117208.8056579     
  -4298640607.4640532       -463671596.15681684        1140687544.3326173     
  -4276875136.4282279       -342539222.05022371        1128703290.0744801     
  -4265728654.7213616       -256803479.04016018        1123164446.0312467     
  -4265201162.3434553       -206464367.12662888        1124071012.2029171     
  -4949422279.3687105       -616492071.51640940        1168469583.3103490     
  -4872395449.3607922       -412938368.04550815        1102770531.7434688     
  -4812649015.0718050       -266985983.63771343        1054114500.8561474     
  -4770182976.5017500       -178634918.29302740        1022501490.6483842     
  -4744997333.6506271       -147885172.01144958        1007931501.1201811     
  -5671515351.0463848       -643892299.71421838        1194643157.9687445     
  -5519567264.3534603       -384230231.86297798        1073903078.5197220     
  -5391560979.7694387       -204374171.04142165        980803630.21491444     
  -5287496497.2943249       -104324117.24955273        915344813.05431998     
  -5207373816.9281149       -84080070.487364054        877526627.03794098     
  -6497304282.8618650       -702401285.95337009        1237637932.7808437     
  -6240156052.4420586       -377547187.60922790        1054085184.6613774     
  -6013611030.5211315       -154703784.26134706        908770678.15078056     
  -5817669217.0990829       -33871075.909728765        801694413.24905348     
  -5652330612.1759129       -15049062.554373980        732856389.95619667     
  -3767985303.0065947       -259817655.83290136        1225945160.2861488     
  -3664996418.8500786       -168594313.34800851        1195660386.1926260     
  -3569153906.3058767       -101192209.57082951        1174064820.0325608     
  -3480457765.3739901       -57611344.501369953        1161158461.8059545     
  -3398907996.0544190       -37851718.139624834        1156941311.5128071     
  -4265201162.3434553       -206464367.12662888        1124071012.2029171     
  -4149901887.4345284       -144278561.37032580        1092618388.0599272     
  -4038874727.0976553       -96333137.520865202        1068647057.3457764     
  -3932119681.3328333       -62628095.578245163        1052157020.0604647     
  -3829636750.1400642       -43163435.542467356        1043148276.2039925     
  -4744997333.6506271       -147885172.01144958        1007931501.1201811     
  -4620838852.2882042       -115772258.27341008        978664326.80803037     
  -4498078228.4575701       -88318869.641339302        955670531.42009938     
  -4376715462.1587267       -65525006.115236998        938950114.95638812     
  -4256750553.3916736       -47390667.695103645        928503077.41689682     
  -5207373816.9281149       -84080070.487364054        877526627.03794098     
  -5077807313.4111032       -83075404.057262659        853798202.43693471     
  -4946764410.3856220       -77149405.932255507        835135242.25552928     
  -4814245107.8516693       -66302076.112340450        821537746.49372506     
  -4680249405.8092451       -50533414.597527742        813005715.15152133     
  -5652330612.1759129       -15049062.554373980        732856389.95619667     
  -5520807270.8032284       -46187998.721881151        718020014.94664085     
  -5384933272.8818111       -62824746.393611431        707041189.85206747     
  -5244708618.4116583       -64959305.569561720        699919914.67247510     
  -5100133307.3927755       -52591676.249737263        696656189.40786386     
  -3398907996.0544190       -37851718.139624834        1156941311.5128071     
  -3301607217.7862806       -27020682.614878535        1152325419.2380521     
  -3206162635.0629086       -22376965.572684646        1162466339.8475313     
  -3112574247.8843031       -23920567.013047218        1187364073.3412466     
  -3020842056.2504606       -31651486.935955048        1227018619.7191958     
  -3829636750.1400642       -43163435.542467356        1043148276.2039925     
  -3696527327.7994423       -23528846.383248329        1035738382.1520251     
  -3565091736.9664884       -9473695.5829308033        1039085196.7405483     
  -3435329977.6412029       -997983.14150714874        1053188719.9695621     
  -3307242049.8235893        1898290.9410145283        1078048951.8390675     
  -4256750553.3916736       -47390667.695103645        928503077.41689682     
  -4099261356.2464032       -22381185.681757450        918511939.63099504     
  -3943263626.5717077       -2343261.9036602974        915277406.24183893     
  -3788757364.3675847        12723103.639187574        918799477.24943101     
  -3635742569.6340394        22817910.946784735        929078152.65376925     
  -4680249405.8092451       -50533414.597527742        813005715.15152133     
  -4509809303.1271658       -23577700.510402679        800646091.67496240     
  -4340678303.8785686       -985664.53488302231        791042968.35140550     
  -4172856408.0634513        17242693.329035759        784196345.18085217     
  -4006343615.6818109        31107373.081361532        780106222.16330302     
  -5100133307.3927755       -52591676.249737263        696656189.40786386     
  -4928171168.4417315       -27118390.869199038        682140838.28392684     
  -4757335768.8870716       -5400903.4766054153        666381883.06924784     
  -4587627108.7287941        12560785.928043365        649379323.76382577     
  -4419045187.9669056        26766677.344735861        631133160.36766505     
  -3020842056.2504606       -31651486.935955048        1227018619.7191958     
  -2952849044.0154905       -48663068.097943664        1252101081.9688168     
  -2884423291.6771340       -64232182.248650670        1275015006.9830689     
  -2815564799.2353883       -78358829.388062835        1295760394.7619531     
  -2746273566.6902552       -91043009.516176939        1314337245.3054688     
  -3307242049.8235893        1898290.9410145283        1078048951.8390675     
  -3241650995.4216318       -15745962.591036677        1090253746.0762103     
  -3175567295.6152205       -31748064.774916649        1102925418.9933414     
  -3108990950.4043579       -46108015.610612869        1116063970.5904593     
  -3041921959.7890387       -58825815.098127604        1129669400.8675647     
  -3635742569.6340394        22817910.946784735        929078152.65376925     
  -3565023713.3069329        6799912.9721198082        928475168.39634550     
  -3493752306.2743106       -7376249.3174822330        930974478.73426628     
  -3421928348.5361671       -19710575.922013521        936576083.66752934     
  -3349551840.0925031       -30203066.841479182        945279983.19613588     
  -4006343615.6818109        31107373.081361532        780106222.16330302     
  -3922967197.6714001        18974558.591534615        766765348.92922235     
  -3838978323.6544046        8883264.1236512661        759162186.20584106     
  -3754376993.6308227        833489.67773127556        757296733.99316132     
  -3669163207.6006494       -5174764.7462337017        761168992.29117715     
  -4419045187.9669056        26766677.344735861        631133160.36766505     
  -4315481448.5150309        20777974.267192602        605124287.67484045     
  -4211245347.7555017        17030475.548484325        587488541.40807080     
  -4106336885.6883206        15524181.188621759        578225921.56735623     
  -4000756062.3134856        16259091.187601566        577336428.15269506     
  -2746273566.6902552       -91043009.516176939        1314337245.3054688     
  -2638773979.3588748       -92363705.098371029        1323807032.5079737     
  -2531772421.2890792       -95344498.219178200        1337880832.1168022     
  -2425268892.4808736       -99985388.878618360        1356558644.1319556     
  -2319263392.9342551       -106286377.07668388        1379840468.5534334     
  -3041921959.7890387       -58825815.098127604        1129669400.8675647     
  -2920990668.1042762       -56765548.885755420        1134008681.2769401     
  -2801462323.7718472       -59381773.847820401        1143295807.5992286     
  -2683336926.7917514       -66674489.984339833        1157530779.8344333     
  -2566614477.1639857       -78643697.295280576        1176713597.9825513     
  -3349551840.0925031       -30203066.841479182        945279983.19613588     
  -3214206462.6069641       -24467124.400340676        943433019.03984451     
  -3081168950.5644989       -26424066.769443631        946877734.30305922     
  -2950439303.9651089       -36073893.948798418        955614128.98578119     
  -2822017522.8087902       -53416605.938396335        969642203.08800793     
  -3669163207.6006494       -5174764.7462337017        761168992.29117715     
  -3518421362.8669314        4531568.3578994274        752080045.79669046     
  -3370892301.6670303        3528623.0159752369        748626612.22830057     
  -3226576024.0009432       -8183600.7720018625        750808691.58600402     
  -3085472529.8686762       -30605103.006033182        758626283.86980736     
  -4000756062.3134856        16259091.187601566        577336428.15269506     
  -3833635368.8841844        30230529.388950348        559949761.54747808     
  -3670632377.0794420        30476295.508431196        548542441.37494588     
  -3511747086.8992600        16996389.546044588        543114467.63510537     
  -3356979498.3436384       -10209188.498202801        543665840.32794654     
  -2319263392.9342551       -106286377.07668388        1379840468.5534334     
  -2174818747.3682184       -109850909.79255831        1388691112.2094972     
  -2035675163.7429926       -131085648.97779906        1420246815.6094420     
  -1901832642.0585701       -169990594.63238531        1474507578.7532697     
  -1773291182.3149586       -226565746.75634313        1551473401.6409788     
  -2566614477.1639857       -78643697.295280576        1176713597.9825513     
  -2372234438.9476447       -72212223.574036002        1173936324.1362193     
  -2179679977.9137368       -71866007.127565265        1184559060.3299816     
  -1988951094.0622575       -77605047.955857396        1208581806.5638318     
  -1800047787.3932045       -89429346.058903813        1246004562.8377821     
  -2822017522.8087902       -53416605.938396335        969642203.08800793     
  -2604287948.2386889       -44964882.668999910        959291743.95738804     
  -2384908466.0926466       -31013467.479781508        953036245.16307545     
  -2163879076.3706541       -11562360.370732427        950875706.70505929     
  -1941199779.0727093        13388438.658146143        952810128.58335102     
  -3085472529.8686762       -30605103.006033182        758626283.86980736     
  -2870979275.2413616       -28108887.077450275        744757371.67301166     
  -2651360628.2797203       -8528030.0344450474        725678370.10872555     
  -2426616588.9837565        28137468.122979164        701389279.17695212     
  -2196747157.3534608        81887607.394831181        671890098.87768757     
  -3356979498.3436384       -10209188.498202801        543665840.32794654     
  -3172308419.9556546       -21644236.799393415        530333207.28307736     
  -2979036464.4749632       -4409694.7915658951        502485435.16693062     
  -2777163631.9015741        41494437.525267243        460122523.97950602     
  -2566689922.2354751        116068160.15112424        403244473.72080451     
  -1773291182.3149586       -226565746.75634313        1551473401.6409788     
  -1904169240.0588088       -426158054.97059870        1564924197.7979469     
  -2072729511.1436582       -751357740.98818135        1473475433.2671802     
  -2278971995.5695024       -1202164804.8090854        1277127108.0486805     
  -2522896693.3363390       -1778579246.4332891        975879222.14245832     
  -1800047787.3932045       -89429346.058903813        1246004562.8377821     
  -2143195455.9008329       -297167000.73159623        1208737059.1092072     
  -2508450336.6875410       -578595363.00122905        1114964495.4327857     
  -2895812429.7533312       -933714432.86779940        964686871.80852377     
  -3305281735.0982084       -1362524210.3313127        757904188.23642373     
  -1941199779.0727093        13388438.658146143        952810128.58335102     
  -2358347056.2301407       -161013561.83877206        882995159.54146624     
  -2782026544.6047492       -357189599.72627020        805069631.29162574     
  -3212238244.1965222       -575139675.00432909        719033543.83383536     
  -3648982155.0054684       -814863787.67295361        624886897.16808486     
  -2196747157.3534608        81887607.394831181        671890098.87768757     
  -2549624041.0467386       -17697738.292141795        587698499.09472907     
  -2893458134.8952713       -87140451.163307667        543790840.84370041     
  -3228249438.8990602       -126440531.21865582        540167124.12460840     
  -3553997953.0581150       -135597978.45821393        576827348.93744326     
  -2566689922.2354751        116068160.15112424        403244473.72080451     
  -2717026410.3506198        132780469.90830684        322847077.76899725     
  -2842745107.5591149        231552082.68765342        331128124.08901107     
  -2943846013.8609605        412382998.48919404        428087612.68084842     
  -3020329129.2561364        675273217.31292009        613725543.54450428     
  -5958664290.4666691       -1787599287.1400006        1149858498.9328015     
  -6088979314.9785662       -1501816541.5536737        1227375551.4017785     
  -6222190988.5483980       -1225689292.8271267        1267844474.5327778     
  -6358299311.1761637       -959217540.96035790        1271265268.3257997     
  -6497304282.8618650       -702401285.95337009        1237637932.7808437     
  -6812092736.3201780       -2043627820.8960536        1353811659.9868467     
  -6829447756.4774923       -1395543900.9109125        1202559817.3536768     
  -6898228385.9343281       -918878678.59083652        1091640451.7776690     
  -7018434624.6906796       -613632153.93582296        1021053563.2588224     
  -7190066472.7465544       -479804326.94587469        990799151.79713845     
  -8339153222.9104586       -2501745966.8731375        1712386140.0635240     
  -8022460791.8699341       -1425034638.4362059        1275748282.0463576     
  -7805722930.3705139       -681505208.46962261        956823507.48149240     
  -7688939638.4121981       -271157676.97338915        755611816.36892855     
  -7672110915.9949875       -193992043.94750309        672113208.70866680     
  -10539845750.237507       -3161953725.0712519        2225581939.1628342     
  -9668018421.1558876       -1590288754.1295519        1446940945.4798212     
  -8944674621.8569546       -513568882.46348524        863393641.64424932     
  -8369814352.3407164        68205889.926946163        474940027.65611732     
  -7943437612.6071644        155035563.04174328        281580103.51542771     
  -13414170318.301325       -4024251095.4903975        2893399057.2847762     
  -11766120644.335350       -1891306247.9909518        1716137807.6540668     
  -10315083460.393658       -415069700.57242680        811350854.26593816     
  -9061058766.4762344        404458546.76518011        179038197.12039122     
  -8004046562.5830898        567278494.02186871       -180800163.78257686     
  -6497304282.8618650       -702401285.95337009        1237637932.7808437     
  -6240156052.4420586       -377547187.60922790        1054085184.6613774     
  -6013611030.5211315       -154703784.26134706        908770678.15078056     
  -5817669217.0990829       -33871075.909728765        801694413.24905348     
  -5652330612.1759129       -15049062.554373980        732856389.95619667     
  -7190066472.7465544       -479804326.94587469        990799151.79713845     
  -6901176650.9820957       -305044344.44044018        847038651.03762889     
  -6624965183.9383011       -172545544.33722019        724093621.05099165     
  -6361432071.6151733       -82307926.636218071        621964061.83722746     
  -6110577314.0127077       -34331491.337430954        540649973.39633405     
  -7672110915.9949875       -193992043.94750309        672113208.70866680     
  -7401258848.1315832       -184259980.85448742        589057284.71703017     
  -7125160281.2106304       -157039587.56964207        509394060.66226882     
  -6843815215.2321272       -112330864.09296846        433123536.54438114     
  -6557223650.1960783       -50133810.424461126        360245712.36337012     
  -7943437612.6071644        155035563.04174328        281580103.51542771     
  -7740402643.8905191       -15194096.851368427        280141085.69958097     
  -7514196322.3381166       -108185913.95861053        264671996.98461133     
  -7264818647.9499493       -123939888.27997446        235172837.37051827     
  -6992269620.7260208       -62456019.815466881        191643606.85730389     
  -8004046562.5830898        567278494.02186871       -180800163.78257686     
  -7918608038.2589149        202153307.56890869       -79709946.014720410     
  -7792073307.3207645       -25984523.504128456       -10072569.981982317     
  -7624442369.7686348       -117134999.19724417        28111964.315633032     
  -7415715225.6025305       -71298119.510436535        34843656.878132656     
  -5652330612.1759129       -15049062.554373980        732856389.95619667     
  -5520807270.8032284       -46187998.721881151        718020014.94664085     
  -5384933272.8818111       -62824746.393611431        707041189.85206747     
  -5244708618.4116583       -64959305.569561720        699919914.67247510     
  -5100133307.3927755       -52591676.249737263        696656189.40786386     
  -6110577314.0127077       -34331491.337430954        540649973.39633405     
  -5960619842.4058867       -35288074.300378084        532378840.13061917     
  -5810289839.6804047       -35002886.867795706        527465098.69820684     
  -5659587305.8362637       -33475929.039680958        525908749.09909624     
  -5508512240.8734655       -30707200.816037655        527709791.33328736     
  -6557223650.1960783       -50133810.424461126        360245712.36337012     
  -6390261071.4456272       -21336747.109998226        353898674.50640666     
  -6226904087.0065937       -4558331.5002579689        350408870.40106976     
  -6067152696.8789730        201436.40477371216        349776300.04735363     
  -5911006901.0627699       -7057443.3949253559        352000963.44526130     
  -6992269620.7260208       -62456019.815466881        191643606.85730389     
  -6809730957.9224491       -4334017.1507482529        182579518.07400456     
  -6634776014.8603745        28508919.709004879        175872504.96065259     
  -6467404791.5397911        36072790.763785362        171522567.51724538     
  -6307617287.9606886        18357596.013607025        169529705.74378484     
  -7415715225.6025305       -71298119.510436535        34843656.878132656     
  -7219029501.8363600        15720115.577384472        18421370.833414387     
  -7033905623.2417526        64198866.759980679        3856002.3769627274     
  -6860343589.8187056        74138134.037379742       -8852448.4912213963     
  -6698343401.5672293        45537917.409547806       -19703981.771144271     
  -5100133307.3927755       -52591676.249737263        696656189.40786386     
  -4928171168.4417315       -27118390.869199038        682140838.28392684     
  -4757335768.8870716       -5400903.4766054153        666381883.06924784     
  -4587627108.7287941        12560785.928043365        649379323.76382577     
  -4419045187.9669056        26766677.344735861        631133160.36766505     
  -5508512240.8734655       -30707200.816037655        527709791.33328736     
  -5342666454.2985067       -22289692.176598549        515706790.32280916     
  -5176390409.4363995       -12437989.246665478        504178455.43864584     
  -5009684106.2871437       -1152092.0262339115        493124786.68079728     
  -4842547544.8507347        11567999.484706402        482545784.04925859     
  -5911006901.0627699       -7057443.3949253559        352000963.44526130     
  -5746368123.3865995       -14222908.453402996        344326809.84569991     
  -5579742089.7397385       -14764186.942927599        338845592.58950585     
  -5411128800.1221972       -8681278.8635139465        335557311.67668319     
  -5240528254.5339699        4025815.7848556042        334461967.10723281     
  -6307617287.9606886        18357596.013607025        169529705.74378484     
  -6139276175.7059994       -2918039.6995956898        168000896.85259512     
  -5967390809.7970886       -12379496.565394640        170383294.52183017     
  -5791961190.2339621       -10026774.583813190        176676898.75149053     
  -5612987317.0166159        4140126.2451763153        186881709.54158100     
  -6698343401.5672293        45537917.409547806       -19703981.771144271     
  -6521390611.2567167        11624914.084821224       -13270948.656507891     
  -6339336569.6084480       -5283918.1140608788       -1208438.7643839917     
  -6152181276.6224308       -5188579.1871197224        16483547.905218940     
  -5959924732.2986593        11910930.865684271        39805011.352302022     
  -4419045187.9669056        26766677.344735861        631133160.36766505     
  -4315481448.5150309        20777974.267192602        605124287.67484045     
  -4211245347.7555017        17030475.548484325        587488541.40807080     
  -4106336885.6883206        15524181.188621759        578225921.56735623     
  -4000756062.3134856        16259091.187601566        577336428.15269506     
  -4842547544.8507347        11567999.484706402        482545784.04925859     
  -4716021485.7078161        12155220.933080435        465329827.81206483     
  -4589892532.7912951        11418754.960147381        455886546.94363678     
  -4464160686.1011591        9358601.5659127235        454215941.44396955     
  -4338825945.6374216        5974760.7503638268        460318011.31306690     
  -5240528254.5339699        4025815.7848556042        334461967.10723281     
  -5092755450.1494160        10674289.424329519        324791215.20261812     
  -4946449219.5253010        12434183.862342834        322292687.60947537     
  -4801609562.6616201        9305499.0989136696        326966384.32780629     
  -4658236479.5583773        1288235.1340250969        338812305.35760444     
  -5612987317.0166159        4140126.2451763153        186881709.54158100     
  -5445683341.8398256        16335179.740930080        183508449.84649315     
  -5280915407.9575253        20076762.255076408        186706963.40558863     
  -5118683515.3697033        15364873.787630081        196477250.21885848     
  -4958987664.0763578        2199514.3385760784        212819310.28631184     
  -5959924732.2986593        11910930.865684271        39805011.352302022     
  -5774805160.7790480        29137891.882894516        41481531.743689515     
  -5593291098.0879641        34346490.138343573        49129374.331967130     
  -5415382544.2253981        27536725.632068872        62748539.117139280     
  -5241079499.1913662        8708598.3640122414        82339026.099188268     
  -4000756062.3134856        16259091.187601566        577336428.15269506     
  -3833635368.8841844        30230529.388950348        559949761.54747808     
  -3670632377.0794420        30476295.508431196        548542441.37494588     
  -3511747086.8992600        16996389.546044588        543114467.63510537     
  -3356979498.3436384       -10209188.498202801        543665840.32794654     
  -4338825945.6374216        5974760.7503638268        460318011.31306690     
  -4160478631.5475130        14102354.275245190        444615283.37218875     
  -3984630258.0976524        13900145.666640282        432917650.58596617     
  -3811280825.2878418        5368134.9245395660        425225112.95439935     
  -3640430333.1180696       -11493677.951033592        421537670.47748876     
  -4658236479.5583773        1288235.1340250969        338812305.35760444     
  -4474303262.7450953        1879768.6012690067        326682070.56299931     
  -4291250225.5873475       -462630.11659908295        316582679.64501959     
  -4109077368.0851359       -5738961.0195796490        308514132.60366166     
  -3927784690.2384472       -13949224.107651949        302476429.43893164     
  -4958987664.0763578        2199514.3385760784        212819310.28631184     
  -4775109262.4769344       -6437227.6329867840        206150123.11991248     
  -4590492279.5485373       -12612031.841290236        199537528.55210564     
  -4405136715.2911453       -16324898.286296368        192981526.58289108     
  -4219042569.7047868       -17575826.968060255        186482117.21227071     
  -5241079499.1913662        8708598.3640122414        82339026.099188268     
  -5062896630.7430305       -10848634.427516222        83019441.042924821     
  -4882356419.9812078       -22548059.507424355        81782197.307224944     
  -4699458866.9058857       -26389676.875659704        78627294.892089128     
  -4514203971.5170670       -22373486.532250643        73554733.797512099     
  -3356979498.3436384       -10209188.498202801        543665840.32794654     
  -3172308419.9556546       -21644236.799393415        530333207.28307736     
  -2979036464.4749632       -4409694.7915658951        502485435.16693062     
  -2777163631.9015741        41494437.525267243        460122523.97950602     
  -2566689922.2354751        116068160.15112424        403244473.72080451     
  -3640430333.1180696       -11493677.951033592        421537670.47748876     
  -3486079413.3336945       -26502269.798138857        419196143.97728103     
  -3324743997.2538161       -18229207.326909065        408871221.51770371     
  -3156424084.8784509        13325509.462617636        390562903.09876889     
  -2981119676.2075801        68161880.570490241        364271188.72047019     
  -3927784690.2384472       -13949224.107651949        302476429.43893164     
  -3785091805.8807769       -26932722.547595263        309240231.88663411     
  -3637030806.0248203       -22022502.659910917        314552381.48689270     
  -3483601690.6705766        781435.55539321899        318412878.23969585     
  -3324804459.8180399        41479092.098332882        320821722.14505935     
  -4219042569.7047868       -17575826.968060255        186482117.21227071     
  -4069345597.5969129       -22935595.047755241        200465471.01114804     
  -3915896890.7879744       -15789580.790554523        219528915.07449234     
  -3758696449.2779412        3862215.8036136627        243672449.40230212     
  -3597744273.0668435        36019794.734674215        272896073.99458158     
  -4514203971.5170670       -22373486.532250643        73554733.797512099     
  -4338840788.4821062       -14510887.298672676        92871861.350817099     
  -4161342251.5432725        469558.28116393089        123800822.28050371     
  -3981708360.7005711        22567850.207211018        166341616.58657402     
  -3799939115.9539952        51783988.479517937        220494244.26902565     
  -2566689922.2354751        116068160.15112424        403244473.72080451     
  -2717026410.3506198        132780469.90830684        322847077.76899725     
  -2842745107.5591149        231552082.68765342        331128124.08901107     
  -2943846013.8609605        412382998.48919404        428087612.68084842     
  -3020329129.2561364        675273217.31292009        613725543.54450428     
  -2981119676.2075801        68161880.570490241        364271188.72047019     
  -2930444986.4891539        109596446.23697698        313927413.76395935     
  -2870939115.9820118        180468281.19918954        323824043.50546497     
  -2802602064.6861644        280777385.45709229        393961077.94497669     
  -2725433832.6015983        410523759.01069689        524338517.08249587     
  -3324804459.8180399        41479092.098332882        320821722.14505935     
  -3154370128.1912098        83260452.896615386        282113856.37958580     
  -2990891225.8936172        101857049.26411915        275208357.73830742     
  -2834367752.9252558        97268881.200820923        300105226.22122359     
  -2684799709.2861433        69495948.706735492        356804461.82833999     
  -3597744273.0668435        36019794.734674215        272896073.99458158     
  -3388801835.4567976        53772489.887185097        227406405.61586949     
  -3202601437.2939281       -4281613.1175861359        185281066.78753424     
  -3039143078.5782475       -138142514.27962542        146520057.50958681     
  -2898426759.3097391       -347810213.59892476        111123377.78202760     
  -3799939115.9539952        51783988.479517937        220494244.26902565     
  -3633740108.2859130        21132557.208669662        149805061.47280407     
  -3506069750.1829505       -137947705.94588637        54042170.653150454     
  -3416928041.6451130       -425456800.98422253       -66794428.189925864     
  -3366314982.6724167       -841394727.90632915       -212704735.05643997     
 </DataArray>
 <DataArray  type="Float64" Name="VM" NumberOfComponents="1" format="ascii">
   12932619217.815102     
   11339410393.650774     
   10210085954.489092     
   9273919844.3330708     
   8306843318.6332254     
   10129433774.980631     
   9321452316.9598274     
   8825856461.2975044     
   8443169922.4998064     
   8035700363.7753868     
   7982671289.2712946     
   7734826214.3713207     
   7668465568.3074522     
   7668397151.4764671     
   7664700582.7436485     
   6492246254.3113117     
   6586797257.7918644     
   6756727792.9140596     
   6959917878.3607683     
   7169690423.0109615     
   5657714623.9848528     
   5890489171.5690832     
   6115812976.5534163     
   6331151685.0639515     
   6536194452.8918266     
   8306843318.6332254     
   8021829920.0297890     
   7778492015.9774389     
   7566353120.8823624     
   7380462409.7144022     
   8035700363.7753868     
   7746928668.3525753     
   7473742798.8110647     
   7214198328.9168339     
   6968257073.0408030     
   7664700582.7436485     
   7380442934.0244160     
   7101597986.4363956     
   6828230115.3626862     
   6560527546.6383657     
   7169690423.0109615     
   6909843672.2965822     
   6657875936.8711710     
   6409991266.9411802     
   6163080065.8592224     
   6536194452.8918266     
   6327520410.6417027     
   6140867277.4193583     
   5962534631.4924440     
   5783542840.7316723     
   7380462409.7144022     
   7226280608.1957445     
   7064977870.1576090     
   6895945880.2020140     
   6719016665.9798517     
   6968257073.0408030     
   6814318924.3079672     
   6655831865.9262190     
   6492521275.3083429     
   6324319986.5080185     
   6560527546.6383657     
   6408423192.2237272     
   6254558817.8302326     
   6098892816.3377819     
   5941447449.9645777     
   6163080065.8592224     
   6013475073.1786547     
   5865073976.6067667     
   5717923620.8479805     
   5572094559.6102257     
   5783542840.7316723     
   5635799391.1250458     
   5492387141.5944815     
   5353251438.4918699     
   5218444039.4461594     
   6719016665.9798517     
   6523403664.1567278     
   6331185770.4301748     
   6142347842.0477018     
   5957013124.1413279     
   6324319986.5080185     
   6142967442.6092119     
   5964193959.3693056     
   5788000439.7572355     
   5614459859.8555984     
   5941447449.9645777     
   5770636035.1647291     
   5601441791.5644169     
   5433881824.8879480     
   5268000349.5085640     
   5572094559.6102257     
   5408566079.5417595     
   5245533211.0526676     
   5083009756.3550358     
   4921014467.9570198     
   5218444039.4461594     
   5059573906.1169052     
   4899920271.5963764     
   4739449807.8665876     
   4578136000.3133221     
   5957013124.1413279     
   5788212548.3156080     
   5617093913.2498722     
   5443654769.3322630     
   5267951597.9872847     
   5614459859.8555984     
   5452061347.3882694     
   5288507360.6635494     
   5123844347.1287756     
   4958185372.6558275     
   5268000349.5085640     
   5119179882.0435066     
   4970939320.6964273     
   4823425443.3933334     
   4676912925.8447580     
   4921014467.9570198     
   4792381145.7983570     
   4666735283.5983801     
   4544322405.5830688     
   4425624616.9416208     
   4578136000.3133221     
   4475362999.9570141     
   4378798485.4404955     
   4288698896.1216640     
   4205702255.1219811     
   5267951597.9872847     
   5074415879.9391155     
   4883415146.5031967     
   4694961443.3131008     
   4509138182.8307886     
   4958185372.6558275     
   4765658694.4910145     
   4574089342.9382839     
   4383467197.0359573     
   4193790449.8834047     
   4676912925.8447580     
   4489677629.3091059     
   4302154900.6627865     
   4114368589.9291887     
   3926360817.1297250     
   4425624616.9416208     
   4249076368.9947429     
   4071573989.2862406     
   3893308792.7306900     
   3714604736.1409140     
   4205702255.1219811     
   4046370847.9559894     
   3886253272.8869610     
   3725911273.2224259     
   3566276132.0111790     
   4509138182.8307886     
   4315067831.3365650     
   4120609499.5580945     
   3927757926.6505194     
   3740441232.4657531     
   4193790449.8834047     
   4044407014.7129583     
   3898643157.1966395     
   3757443748.2178211     
   3622314397.8523583     
   3926360817.1297250     
   3791107498.8203158     
   3660037516.3716726     
   3533177808.9380641     
   3410842800.0318155     
   3714604736.1409140     
   3561997070.8878040     
   3409907614.3306465     
   3258141356.9536152     
   3107784391.1578608     
   3566276132.0111790     
   3365420433.5690022     
   3156532448.0107265     
   2939811717.2489400     
   2719423556.0846057     
   3740441232.4657531     
   3621228405.2481227     
   3493433233.9554248     
   3365377197.1694465     
   3253347418.4522624     
   3622314397.8523583     
   3433256010.2791252     
   3234198595.5512013     
   3026401866.5645075     
   2813074535.2630916     
   3410842800.0318155     
   3239122480.8912258     
   3063326114.9352999     
   2884356168.1436162     
   2708050753.5942297     
   3107784391.1578608     
   3039634600.8873463     
   2981325661.2456384     
   2941090553.9385519     
   2942985918.6178050     
   2719423556.0846057     
   2836100574.5438757     
   2986872375.9811435     
   3188646588.5839520     
   3482549147.5688062     
   5657714623.9848528     
   5890489171.5690832     
   6115812976.5534163     
   6331151685.0639515     
   6536194452.8918266     
   5150448352.0709143     
   5310696937.1187658     
   5467674226.9911118     
   5618437660.6069736     
   5761470619.0238647     
   4642092346.6284418     
   4754890030.5242634     
   4868825202.4373198     
   4981235652.9469709     
   5090172023.0370760     
   4132909911.3230066     
   4223912943.6507802     
   4320770843.9306736     
   4421809477.4026470     
   4525561968.2437716     
   3624421376.3317099     
   3719600408.3948455     
   3825883313.4310336     
   3943188526.3075485     
   4071405025.5996704     
   6536194452.8918266     
   6327520410.6417027     
   6140867277.4193583     
   5962534631.4924440     
   5783542840.7316723     
   5761470619.0238647     
   5650850124.0948439     
   5556157937.7788553     
   5468425865.4674435     
   5382103019.0911102     
   5090172023.0370760     
   5052742217.1043396     
   5025875090.7208481     
   5004387910.0162315     
   4985067621.4099922     
   4525561968.2437716     
   4537768818.5454865     
   4554884072.9685068     
   4574417401.0173407     
   4594638110.9348936     
   4071405025.5996704     
   4111226482.3886981     
   4148918271.2458878     
   4183563211.3855391     
   4214406884.4449515     
   5783542840.7316723     
   5635799391.1250458     
   5492387141.5944815     
   5353251438.4918699     
   5218444039.4461594     
   5382103019.0911102     
   5247523376.1806984     
   5116221604.8431044     
   4988228436.3878679     
   4863627330.4172268     
   4985067621.4099922     
   4865657736.3207684     
   4749167360.4901896     
   4635548826.0564308     
   4524828642.6020288     
   4594638110.9348936     
   4492974109.7957458     
   4394670473.3916578     
   4299411658.3076887     
   4207076531.4314413     
   4214406884.4449515     
   4133561557.2573977     
   4057474387.5954409     
   3985329288.3240895     
   3916754700.6416512     
   5218444039.4461594     
   5059573906.1169052     
   4899920271.5963764     
   4739449807.8665876     
   4578136000.3133221     
   4863627330.4172268     
   4710231042.0022545     
   4557844294.4797678     
   4406543794.6588917     
   4256443640.1823988     
   4524828642.6020288     
   4384320980.6418142     
   4247334319.7420578     
   4114160117.7127028     
   3985202327.9421220     
   4207076531.4314413     
   4086376986.3484769     
   3972473337.2397919     
   3865918559.5593739     
   3767475659.6186175     
   3916754700.6416512     
   3821801732.9789476     
   3737689344.3499732     
   3665174244.1837392     
   3605311281.3648796     
   4578136000.3133221     
   4475362999.9570141     
   4378798485.4404955     
   4288698896.1216640     
   4205702255.1219811     
   4256443640.1823988     
   4182469232.0838261     
   4113326602.4387460     
   4049176611.5538092     
   3990318433.2546763     
   3985202327.9421220     
   3929178225.2425284     
   3875245740.0261741     
   3823469002.5466762     
   3773928594.6197696     
   3767475659.6186175     
   3719876399.7984257     
   3670150028.7705917     
   3618211500.1223826     
   3563986550.3589449     
   3605311281.3648796     
   3558571128.0158129     
   3504114200.1665072     
   3441543083.9379091     
   3370554399.1740985     
   4205702255.1219811     
   4046370847.9559894     
   3886253272.8869610     
   3725911273.2224259     
   3566276132.0111790     
   3990318433.2546763     
   3842952200.1871314     
   3697142625.9721470     
   3553521833.2974262     
   3413012731.4016843     
   3773928594.6197696     
   3639177243.1018424     
   3508446866.4718914     
   3382400442.6466107     
   3261932083.5523725     
   3563986550.3589449     
   3441214321.3232565     
   3325088140.2082772     
   3216236743.1426768     
   3115480578.2001171     
   3370554399.1740985     
   3257377603.5789456     
   3153698715.3880558     
   3060033875.8983250     
   2977075690.1678724     
   3566276132.0111790     
   3365420433.5690022     
   3156532448.0107265     
   2939811717.2489400     
   2719423556.0846057     
   3413012731.4016843     
   3170825326.9278326     
   2927108452.5162911     
   2681908980.7261400     
   2436403497.5224404     
   3261932083.5523725     
   3019369370.1645942     
   2786775558.0906363     
   2566197211.2655110     
   2360499879.7913213     
   3115480578.2001171     
   2911245335.4708529     
   2732339499.3219495     
   2583903361.2569518     
   2472999844.7935319     
   2977075690.1678724     
   2845227158.1265087     
   2756427481.8080378     
   2717955901.1635766     
   2740000270.7719283     
   2719423556.0846057     
   2836100574.5438757     
   2986872375.9811435     
   3188646588.5839520     
   3482549147.5688062     
   2436403497.5224404     
   2725081147.7647409     
   3048258502.1205025     
   3405938826.4426360     
   3803446538.9046440     
   2360499879.7913213     
   2700934604.3628392     
   3048728515.6127706     
   3400953791.5852737     
   3755831869.7752228     
   2472999844.7935319     
   2763940825.0912614     
   3000900536.0352874     
   3191460114.1507282     
   3349330544.5823541     
   2740000270.7719283     
   2906686935.2806954     
   2930657124.1758242     
   2823189385.5938635     
   2623692055.3972292     
   3624421376.3317099     
   3719600408.3948455     
   3825883313.4310336     
   3943188526.3075485     
   4071405025.5996704     
   3138165102.4237976     
   3255723569.9687982     
   3382631214.8854122     
   3518410354.7938204     
   3662596068.0636110     
   2695373534.4554529     
   2830950842.6238718     
   2973861283.2263622     
   3123025484.0314426     
   3277535096.6175075     
   2299548289.9243484     
   2450067847.2180915     
   2605429006.6319480     
   2763727651.3340578     
   2923546174.3901520     
   1955927131.7632840     
   2120018956.7804134     
   2285689676.5383263     
   2450020886.1913605     
   2611078857.6897459     
   4071405025.5996704     
   4111226482.3886981     
   4148918271.2458878     
   4183563211.3855391     
   4214406884.4449515     
   3662596068.0636110     
   3701693627.7552657     
   3739717979.1557040     
   3775761801.7356400     
   3809070028.0916805     
   3277535096.6175075     
   3321173601.5946040     
   3365107766.6929231     
   3408504385.6218257     
   3450681341.0261254     
   2923546174.3901520     
   2977057338.8994503     
   3032543376.8607979     
   3089301145.1465511     
   3146783927.8583598     
   2611078857.6897459     
   2679383199.0414286     
   2751594389.2623186     
   2827171505.3110723     
   2905735641.5163150     
   4214406884.4449515     
   4133561557.2573977     
   4057474387.5954409     
   3985329288.3240895     
   3916754700.6416512     
   3809070028.0916805     
   3755744730.5276136     
   3707314699.9043736     
   3663324164.0277066     
   3623638802.3184662     
   3450681341.0261254     
   3422466073.9569468     
   3399119030.3780556     
   3380437885.1799407     
   3366417213.7159066     
   3146783927.8583598     
   3141274626.7844682     
   3140247564.4921312     
   3143646593.8206882     
   3151505124.8297892     
   2905735641.5163150     
   2920373292.2295671     
   2938554010.8051400     
   2960281188.0158019     
   2985577311.2041001     
   3916754700.6416512     
   3821801732.9789476     
   3737689344.3499732     
   3665174244.1837392     
   3605311281.3648796     
   3623638802.3184662     
   3554058286.2798238     
   3493307508.0981374     
   3441820075.6567788     
   3400181563.8684535     
   3366417213.7159066     
   3315230952.9506569     
   3270198116.7397299     
   3231529195.9316425     
   3199499939.0389137     
   3151505124.8297892     
   3112739634.5208426     
   3076714983.9707270     
   3043494787.3383245     
   3013169674.1201715     
   2985577311.2041001     
   2954887228.1220999     
   2922807903.8224549     
   2889289927.6936626     
   2854307564.6841750     
   3605311281.3648796     
   3558571128.0158129     
   3504114200.1665072     
   3441543083.9379091     
   3370554399.1740985     
   3400181563.8684535     
   3338949652.9992361     
   3274627423.1263380     
   3207051794.4942384     
   3136070695.7060637     
   3199499939.0389137     
   3132887626.9496765     
   3068762288.3683667     
   3007281106.5099788     
   2948614136.8193498     
   3013169674.1201715     
   2948315314.5789847     
   2892457703.1887856     
   2846003931.4985633     
   2809416586.9297538     
   2854307564.6841750     
   2795108448.4639702     
   2752350188.1186562     
   2726453642.8910375     
   2717938937.3804545     
   3370554399.1740985     
   3257377603.5789456     
   3153698715.3880558     
   3060033875.8983250     
   2977075690.1678724     
   3136070695.7060637     
   3049448808.5317287     
   2972456310.2228289     
   2905591497.7521067     
   2849469578.8017673     
   2948614136.8193498     
   2888036367.7517385     
   2836955934.9399319     
   2795801907.3018799     
   2765065765.3931322     
   2809416586.9297538     
   2774171744.5216870     
   2747956006.2483616     
   2731094691.8840919     
   2723936100.5800924     
   2717938937.3804545     
   2707000288.3862138     
   2704266519.2441339     
   2709953499.2261057     
   2724279893.8661704     
   2977075690.1678724     
   2845227158.1265087     
   2756427481.8080378     
   2717955901.1635766     
   2740000270.7719283     
   2849469578.8017673     
   2782000584.2179403     
   2743920898.4775548     
   2737468223.5478082     
   2765809674.8316064     
   2765065765.3931322     
   2727548520.5160894     
   2703917754.3668289     
   2694406350.6872249     
   2699366332.1108332     
   2723936100.5800924     
   2687163129.9301395     
   2645966813.2820148     
   2600353641.5498528     
   2550443695.9071293     
   2724279893.8661704     
   2666856146.5677977     
   2583807971.1882138     
   2475452456.3103418     
   2342919925.7823644     
   2740000270.7719283     
   2906686935.2806954     
   2930657124.1758242     
   2823189385.5938635     
   2623692055.3972292     
   2765809674.8316064     
   2750810766.3380685     
   2657027354.7782154     
   2478873764.3491902     
   2215510140.6325302     
   2699366332.1108332     
   2606897882.1701822     
   2510072785.3863602     
   2409151136.5956283     
   2305502838.8966312     
   2550443695.9071293     
   2477141056.6918507     
   2468181247.9844880     
   2536277398.3936596     
   2696641998.5305114     
   2342919925.7823644     
   2364026483.2115092     
   2512639417.1614738     
   2812054302.7613568     
   3290558875.0169125     
   1955927131.7632840     
   2120018956.7804134     
   2285689676.5383263     
   2450020886.1913605     
   2611078857.6897459     
   1654291655.1760156     
   1821110155.4980044     
   1989726643.7434502     
   2157474283.9316030     
   2322614111.1837807     
   1394176635.9265511     
   1572022583.9188974     
   1750844953.2092385     
   1928658152.6418669     
   2104224461.1744454     
   1207711236.0258856     
   1400066606.0081067     
   1591846408.0567791     
   1782280805.0656981     
   1970916222.5241437     
   1137226327.2607179     
   1335950625.4275575     
   1534693507.7705352     
   1733454942.5039785     
   1932234911.0262082     
   2611078857.6897459     
   2679383199.0414286     
   2751594389.2623186     
   2827171505.3110723     
   2905735641.5163150     
   2322614111.1837807     
   2409573162.6666470     
   2498725402.1401539     
   2589666207.7923121     
   2682108921.0671973     
   2104224461.1744454     
   2207850296.9456630     
   2311530434.3131442     
   2415023370.8126326     
   2518158140.5673890     
   1970916222.5241437     
   2088057609.6972907     
   2202912824.2055855     
   2315406021.5585489     
   2425483969.2918410     
   1932234911.0262082     
   2058751087.4632490     
   2180851394.2344408     
   2298535880.0665631     
   2411804608.3290758     
   2905735641.5163150     
   2920373292.2295671     
   2938554010.8051400     
   2960281188.0158019     
   2985577311.2041001     
   2682108921.0671973     
   2706034691.7133179     
   2733709980.2082610     
   2765143109.4648628     
   2800352572.3416605     
   2518158140.5673890     
   2549856473.5114541     
   2585409519.3474650     
   2624822929.2073808     
   2668106153.4694953     
   2425483969.2918410     
   2462455112.4045854     
   2503296911.0402527     
   2548011115.7556381     
   2596599986.3740668     
   2411804608.3290758     
   2450737696.2903342     
   2493501670.5630884     
   2540097138.5020251     
   2590524873.1978836     
   2985577311.2041001     
   2954887228.1220999     
   2922807903.8224549     
   2889289927.6936626     
   2854307564.6841750     
   2800352572.3416605     
   2779445011.0203595     
   2761925595.5677295     
   2747839011.2649188     
   2737244139.9842634     
   2668106153.4694953     
   2659261814.5499988     
   2658816455.1790886     
   2666850673.7601128     
   2683448271.3338017     
   2596599986.3740668     
   2598368980.2521286     
   2613550318.4358206     
   2642182067.5209417     
   2684301036.7470822     
   2590524873.1978836     
   2597371065.3213515     
   2622651172.2145352     
   2666370176.5698924     
   2728533878.4747462     
   2854307564.6841750     
   2795108448.4639702     
   2752350188.1186562     
   2726453642.8910375     
   2717938937.3804545     
   2737244139.9842634     
   2709339910.7164483     
   2694668937.5263820     
   2693403196.3567686     
   2705744009.0833464     
   2683448271.3338017     
   2681632927.0969810     
   2689147025.9529438     
   2706035657.0245810     
   2732351469.5921893     
   2684301036.7470822     
   2704527401.5911651     
   2729767355.0433550     
   2760023272.3218436     
   2795301017.6649985     
   2728533878.4747462     
   2768337181.6749663     
   2808677367.8913560     
   2849544062.6141796     
   2890930653.8699074     
   2717938937.3804545     
   2707000288.3862138     
   2704266519.2441339     
   2709953499.2261057     
   2724279893.8661704     
   2705744009.0833464     
   2706008623.6158309     
   2713861776.4786577     
   2729391224.2415991     
   2752682229.8150177     
   2732351469.5921893     
   2739534314.7781458     
   2753507313.4684849     
   2774298033.5260081     
   2801938531.8830314     
   2795301017.6649985     
   2805268869.9450717     
   2821120910.4116740     
   2842884952.7616649     
   2870607784.0195608     
   2890930653.8699074     
   2900007908.3399339     
   2913997951.4513741     
   2932975187.3313723     
   2957053558.9662275     
   2724279893.8661704     
   2666856146.5677977     
   2583807971.1882138     
   2475452456.3103418     
   2342919925.7823644     
   2752682229.8150177     
   2687621608.4382052     
   2611856178.6702499     
   2525411093.7615972     
   2428454769.9308629     
   2801938531.8830314     
   2747596480.6734009     
   2698592033.6395950     
   2655053486.0597100     
   2617114375.8807344     
   2870607784.0195608     
   2838111564.9080048     
   2826464125.8266478     
   2835803062.0966225     
   2866467477.8615994     
   2957053558.9662275     
   2950903550.1187434     
   2980876068.7102718     
   3047260172.6606288     
   3151012916.1000896     
   2342919925.7823644     
   2364026483.2115092     
   2512639417.1614738     
   2812054302.7613568     
   3290558875.0169125     
   2428454769.9308629     
   2572267016.9440145     
   2790291773.1039853     
   3082676310.9452167     
   3450987461.8087549     
   2617114375.8807344     
   2783381689.2006826     
   2967115850.3638492     
   3167411751.6735125     
   3384876571.9162889     
   2866467477.8615994     
   2990590629.7440119     
   3061033376.4314547     
   3092896335.4464164     
   3117072661.5611978     
   3151012916.1000896     
   3189873350.0300016     
   3099983841.2121449     
   2929392148.2093620     
   2791297870.1843143     
   1137226327.2607179     
   1335950625.4275575     
   1534693507.7705352     
   1733454942.5039785     
   1932234911.0262082     
   1206756016.8759739     
   1398974488.6562936     
   1590602714.4843423     
   1780866569.4621401     
   1969309993.6408396     
   1392698593.1806307     
   1570251820.5252981     
   1748756538.5452542     
   1926218145.1725981     
   2101393187.4818079     
   1652723692.9740810     
   1819133667.1520417     
   1987299885.3531010     
   2154545949.1703901     
   2319126244.6941957     
   1954583889.4683390     
   2118221985.4601769     
   2283376296.3796182     
   2447120976.1292191     
   2607516969.1929417     
   1932234911.0262082     
   2058751087.4632490     
   2180851394.2344408     
   2298535880.0665631     
   2411804608.3290758     
   1969309993.6408396     
   2085907208.8014276     
   2200122967.5427265     
   2311879535.2432418     
   2421122959.0570388     
   2101393187.4818079     
   2204148821.5560451     
   2306774638.1343760     
   2409027611.7128401     
   2510735347.7702413     
   2319126244.6941957     
   2405183985.8997316     
   2493169988.8079772     
   2582678973.5706034     
   2673420946.4207811     
   2607516969.1929417     
   2675202513.5562000     
   2746462994.1351051     
   2820756687.6965384     
   2897697198.3830910     
   2411804608.3290758     
   2450737696.2903342     
   2493501670.5630884     
   2540097138.5020251     
   2590524873.1978836     
   2421122959.0570388     
   2456301459.5494123     
   2495061712.0158076     
   2537404714.9224381     
   2583333592.3138628     
   2510735347.7702413     
   2539339468.0761328     
   2571229597.1295228     
   2606405213.4287171     
   2644872096.0097618     
   2673420946.4207811     
   2693686264.3316255     
   2716871641.8280411     
   2742967381.3766036     
   2771976257.5430069     
   2897697198.3830910     
   2908948830.3042150     
   2922690656.3760614     
   2938891495.0971365     
   2957539788.3479137     
   2590524873.1978836     
   2597371065.3213515     
   2622651172.2145352     
   2666370176.5698924     
   2728533878.4747462     
   2583333592.3138628     
   2579547493.4739432     
   2587885845.0250373     
   2608401206.3541322     
   2641139252.9108944     
   2644872096.0097618     
   2627600629.3621826     
   2616132704.9321375     
   2610542858.9142537     
   2610901318.0362964     
   2771976257.5430069     
   2743442120.4554310     
   2714554119.0135427     
   2685318185.1684785     
   2655741660.4522352     
   2957539788.3479137     
   2924234042.3344359     
   2885079043.4415002     
   2840032558.9347773     
   2789073546.7482834     
   2728533878.4747462     
   2768337181.6749663     
   2808677367.8913560     
   2849544062.6141796     
   2890930653.8699074     
   2641139252.9108944     
   2653982114.5535970     
   2670560531.3458605     
   2690878021.2929273     
   2714937969.6956148     
   2610901318.0362964     
   2594466394.9496174     
   2584649434.5475602     
   2581471646.9300466     
   2584963222.1234584     
   2655741660.4522352     
   2607658270.0177336     
   2568503591.3598447     
   2538292062.9800577     
   2517082324.3325939     
   2789073546.7482834     
   2707562160.7707911     
   2636556081.8414068     
   2575968248.5096016     
   2525820947.3295135     
   2890930653.8699074     
   2900007908.3399339     
   2913997951.4513741     
   2932975187.3313723     
   2957053558.9662275     
   2714937969.6956148     
   2705357931.5271692     
   2702260647.6119928     
   2705682284.8289490     
   2715671998.0339699     
   2584963222.1234584     
   2556792210.5931420     
   2536794109.2175326     
   2525002083.4448838     
   2521452906.9132013     
   2517082324.3325939     
   2469951446.7530322     
   2432643895.3448610     
   2405255897.7909555     
   2387905612.4566097     
   2525820947.3295135     
   2459214229.7351303     
   2403833381.7945671     
   2359915140.0169201     
   2327779540.3727136     
   2957053558.9662275     
   2950903550.1187434     
   2980876068.7102718     
   3047260172.6606288     
   3151012916.1000896     
   2715671998.0339699     
   2708331871.7375450     
   2726513556.0791612     
   2770518213.7932549     
   2840981073.4632211     
   2521452906.9132013     
   2502741377.9468532     
   2499020637.1570549     
   2510637962.6673756     
   2538041518.9063416     
   2387905612.4566097     
   2352283344.0914369     
   2320205001.6528749     
   2291884284.1537738     
   2267562403.4036140     
   2327779540.3727136     
   2277786601.8501325     
   2219413277.9071946     
   2152509551.1983204     
   2076957082.7219918     
   3151012916.1000896     
   3189873350.0300016     
   3099983841.2121449     
   2929392148.2093620     
   2791297870.1843143     
   2840981073.4632211     
   2766407202.5415487     
   2633468689.1821923     
   2461658178.2853241     
   2295821450.6756248     
   2538041518.9063416     
   2423048511.5365472     
   2331762784.2312727     
   2266417390.4944420     
   2229501363.3971357     
   2267562403.4036140     
   2165211912.0821114     
   2163175141.9378476     
   2262210698.8929358     
   2462545324.4898949     
   2076957082.7219918     
   1994842195.0992022     
   2096609600.6723502     
   2410154540.6609626     
   2954987855.1014214     
   1954583889.4683390     
   2118221985.4601769     
   2283376296.3796182     
   2447120976.1292191     
   2607516969.1929417     
   2298565544.4732289     
   2448743625.4430919     
   2603706945.6343408     
   2761546852.5290771     
   2920842768.6760445     
   2694735936.5638280     
   2830105164.6253567     
   2972760453.5475874     
   3121618699.5830479     
   3275769055.5270824     
   3137821515.6972575     
   3255310769.9454198     
   3382113976.6383934     
   3517749664.9322786     
   3661749871.8504043     
   3624304163.1493511     
   3719549979.3417244     
   3825878103.0963120     
   3943203210.2202978     
   4071410537.6070075     
   2607516969.1929417     
   2675202513.5562000     
   2746462994.1351051     
   2820756687.6965384     
   2897697198.3830910     
   2920842768.6760445     
   2974404084.7944074     
   3029749883.9629397     
   3086180163.7760229     
   3143146644.3806944     
   3275769055.5270824     
   3319946458.6343384     
   3364355050.6119523     
   3408168254.9294243     
   3450707613.8428011     
   3661749871.8504043     
   3701647208.2789240     
   3740512664.9160309     
   3777445491.0140548     
   3811695163.0206580     
   4071410537.6070075     
   4112043826.3152890     
   4150673303.3205609     
   4186383224.4214821     
   4218418418.9579034     
   2897697198.3830910     
   2908948830.3042150     
   2922690656.3760614     
   2938891495.0971365     
   2957539788.3479137     
   3143146644.3806944     
   3136254211.3332677     
   3133253249.4635711     
   3134050579.4692178     
   3138639069.8389010     
   3450707613.8428011     
   3422729911.7667966     
   3399450685.6926937     
   3380636921.9198217     
   3366245470.2738547     
   3811695163.0206580     
   3759597588.0846701     
   3712587804.9264026     
   3670194532.2408142     
   3632260460.5582967     
   4218418418.9579034     
   4139026034.6305079     
   4064875582.9684563     
   3995154364.0383468     
   3929490222.1044574     
   2957539788.3479137     
   2924234042.3344359     
   2885079043.4415002     
   2840032558.9347773     
   2789073546.7482834     
   3138639069.8389010     
   3107965945.3678799     
   3077920953.2098804     
   3048511155.4326553     
   3019744505.2167072     
   3366245470.2738547     
   3329491952.1223707     
   3298603570.3810668     
   3273747560.5484767     
   3255143422.0503197     
   3632260460.5582967     
   3578449416.0022750     
   3534568647.9930172     
   3501160035.5303216     
   3478966000.4459834     
   3929490222.1044574     
   3846516641.3968759     
   3776535363.7947168     
   3720717192.8572741     
   3680706247.7153177     
   2789073546.7482834     
   2707562160.7707911     
   2636556081.8414068     
   2575968248.5096016     
   2525820947.3295135     
   3019744505.2167072     
   2948223298.6971269     
   2883212962.1594129     
   2824825319.3744216     
   2773239298.6026449     
   3255143422.0503197     
   3193270652.9894452     
   3134882282.2164373     
   3080143909.0614991     
   3029247466.3648281     
   3478966000.4459834     
   3428386986.2703109     
   3379082611.4597139     
   3331123603.7299066     
   3284583636.7091966     
   3680706247.7153177     
   3644346612.9376984     
   3607733429.7795377     
   3570701035.5115304     
   3533090078.8698659     
   2525820947.3295135     
   2459214229.7351303     
   2403833381.7945671     
   2359915140.0169201     
   2327779540.3727136     
   2773239298.6026449     
   2709234818.1851940     
   2654997208.4045725     
   2610856935.2002907     
   2577211406.3827429     
   3029247466.3648281     
   2964612595.3548145     
   2908665601.6968961     
   2861843640.1860266     
   2824638206.8947620     
   3284583636.7091966     
   3217295951.4823465     
   3157893204.9093337     
   3106912882.9863691     
   3064940476.5908694     
   3533090078.8698659     
   3461983160.6267114     
   3398138749.1190395     
   3342183252.0647464     
   3294791728.1990242     
   2327779540.3727136     
   2277786601.8501325     
   2219413277.9071946     
   2152509551.1983204     
   2076957082.7219918     
   2577211406.3827429     
   2536983195.9822798     
   2498180772.9475074     
   2460856780.3341322     
   2425108997.6937389     
   2824638206.8947620     
   2782906664.6305680     
   2752556529.6132731     
   2734352992.4819884     
   2729248432.3567848     
   3064940476.5908694     
   3007943222.5613165     
   2972758659.8753800     
   2961558287.7912154     
   2976885829.8880548     
   3294791728.1990242     
   3207551558.9999733     
   3153666448.9839497     
   3137688374.9586453     
   3164701528.0970664     
   2076957082.7219918     
   1994842195.0992022     
   2096609600.6723502     
   2410154540.6609626     
   2954987855.1014214     
   2425108997.6937389     
   2338529259.2106895     
   2342419143.3747249     
   2453371172.4860945     
   2686482172.1198597     
   2729248432.3567848     
   2657866908.8575220     
   2591510071.1749916     
   2529883258.0670004     
   2473375364.3916535     
   2976885829.8880548     
   2949716062.0126638     
   2843866911.0383816     
   2661580591.5956330     
   2413228012.5414648     
   3164701528.0970664     
   3216046852.5014997     
   3133173195.8929381     
   2965193855.4891958     
   2810373806.1075730     
   3624304163.1493511     
   3719549979.3417244     
   3825878103.0963120     
   3943203210.2202978     
   4071410537.6070075     
   4132972173.1643233     
   4224128082.3901005     
   4321141277.2032146     
   4422338637.8668365     
   4526254597.7623529     
   4642321534.5330524     
   4755311781.4571772     
   4869461839.1568089     
   4982112932.1456537     
   5091318815.5232286     
   5150840120.1748323     
   5311273882.9083729     
   5468474804.4374380     
   5619503008.7574520     
   5762842652.1275873     
   5658269258.5829887     
   5891175128.8554115     
   6116681363.5127859     
   6332252548.5633764     
   6537572835.9281549     
   4071410537.6070075     
   4112043826.3152890     
   4150673303.3205609     
   4186383224.4214821     
   4218418418.9579034     
   4526254597.7623529     
   4539124264.7498541     
   4556962795.5775042     
   4577273221.2388554     
   4598321797.4520473     
   5091318815.5232286     
   5054410452.5127125     
   5028064674.3338737     
   5007091242.6502647     
   4988279533.7092695     
   5762842652.1275873     
   5652634298.5546474     
   5558302805.5000629     
   5470873577.9723206     
   5384805856.6100636     
   6537572835.9281549     
   6329251361.6877718     
   6142858857.2563429     
   5964688881.2745056     
   5785779205.2205849     
   4218418418.9579034     
   4139026034.6305079     
   4064875582.9684563     
   3995154364.0383468     
   3929490222.1044574     
   4598321797.4520473     
   4497244148.3909588     
   4399855822.5899954     
   4305848288.5536880     
   4215110368.6164055     
   4988279533.7092695     
   4868669382.8247175     
   4752174374.0352535     
   4638753001.7056217     
   4528442866.2141819     
   5384805856.6100636     
   5249390617.2105007     
   5117337476.2386971     
   4988680214.7409945     
   4863508406.6476336     
   5785779205.2205849     
   5636764092.8997583     
   5492073193.9201250     
   5351650141.2667351     
   5215543175.6026983     
   3929490222.1044574     
   3846516641.3968759     
   3776535363.7947168     
   3720717192.8572741     
   3680706247.7153177     
   4215110368.6164055     
   4098311220.1151371     
   3989396995.5758376     
   3889175245.4036875     
   3798776160.1516733     
   4528442866.2141819     
   4386763135.2113714     
   4248916522.0345216     
   4115291779.9601874     
   3986434921.2177119     
   4863508406.6476336     
   4706984960.4357891     
   4551313831.1887302     
   4396574907.7577200     
   4242885906.3959370     
   5215543175.6026983     
   5054691956.0277510     
   4892726573.0516653     
   4729607275.7167444     
   4565298148.3551207     
   3680706247.7153177     
   3644346612.9376984     
   3607733429.7795377     
   3570701035.5115304     
   3533090078.8698659     
   3798776160.1516733     
   3744791835.1556606     
   3692390947.8797789     
   3641620193.6604633     
   3592529055.2741127     
   3986434921.2177119     
   3914061903.0921159     
   3844571398.5761881     
   3778102464.5050516     
   3714822439.4299455     
   4242885906.3959370     
   4150693380.6028218     
   4062132175.9857054     
   3977307075.0735459     
   3896400014.1492524     
   4565298148.3551207     
   4451067852.7496948     
   4340740177.1899147     
   4234268152.3396978     
   4131744684.7109509     
   3533090078.8698659     
   3461983160.6267114     
   3398138749.1190395     
   3342183252.0647464     
   3294791728.1990242     
   3592529055.2741127     
   3496787702.9871073     
   3406866222.1236367     
   3323471821.4603868     
   3247431497.1262112     
   3714822439.4299455     
   3594895967.8015327     
   3478881379.1657805     
   3367425525.2647982     
   3261366529.6759901     
   3896400014.1492524     
   3753948131.5762153     
   3613329127.3267288     
   3474995809.2092223     
   3339638860.1223998     
   4131744684.7109509     
   3969155837.1426687     
   3806446447.7051611     
   3643797946.6406837     
   3481646332.0051022     
   3294791728.1990242     
   3207551558.9999733     
   3153666448.9839497     
   3137688374.9586453     
   3164701528.0970664     
   3247431497.1262112     
   3097706570.0719318     
   2968006929.6582637     
   2861748818.8998022     
   2782943524.4309325     
   3261366529.6759901     
   3070498006.1970882     
   2887840057.7998915     
   2714770823.5609708     
   2553030922.2804227     
   3339638860.1223998     
   3134741249.9491191     
   2930358735.0269856     
   2726422453.8387022     
   2523212027.8054395     
   3481646332.0051022     
   3292279897.2607737     
   3101453836.2134399     
   2909421708.9902039     
   2717921681.8034744     
   3164701528.0970664     
   3216046852.5014997     
   3133173195.8929381     
   2965193855.4891958     
   2810373806.1075730     
   2782943524.4309325     
   2903074896.9150071     
   2984150705.1111107     
   3057049671.1437349     
   3162449914.4989681     
   2553030922.2804227     
   2747187962.3481827     
   2969504418.3881807     
   3217577075.2095294     
   3489570352.1762338     
   2523212027.8054395     
   2737141201.8960495     
   3002445940.4092765     
   3302232826.3890448     
   3628438051.7890220     
   2717921681.8034744     
   2841359167.3921523     
   3020264420.1198425     
   3255773049.4379997     
   3570421048.5469337     
   5658269258.5829887     
   5891175128.8554115     
   6116681363.5127859     
   6332252548.5633764     
   6537572835.9281549     
   6492923680.1496191     
   6587606213.0051727     
   6757684110.2899961     
   6961026000.7074270     
   7170947771.9213371     
   7983393094.0068016     
   7735691139.2166548     
   7669462344.6088152     
   7669501410.7369785     
   7665885391.6831121     
   10130125377.824062     
   9322315798.2637062     
   8826867863.4992161     
   8444289138.9449749     
   8036890848.9561234     
   12933207139.898531     
   11340224150.169012     
   10211102862.770950     
   9275093496.8071594     
   8308137928.7751570     
   6537572835.9281549     
   6329251361.6877718     
   6142858857.2563429     
   5964688881.2745056     
   5785779205.2205849     
   7170947771.9213371     
   6911334874.0908213     
   6659561708.2153168     
   6411826120.1439848     
   6165018711.3180647     
   7665885391.6831121     
   7381720254.6540136     
   7102963125.3576603     
   6829673582.2568521     
   6562033808.9709129     
   8036890848.9561234     
   7748025077.8103075     
   7474762482.0983858     
   7215155511.9912481     
   6969161189.8061218     
   8308137928.7751570     
   8022783373.3746386     
   7779133157.3717556     
   7566711561.4850063     
   7380571212.3075180     
   5785779205.2205849     
   5636764092.8997583     
   5492073193.9201250     
   5351650141.2667351     
   5215543175.6026983     
   6165018711.3180647     
   6014164700.6256781     
   5864467119.5505152     
   5715971413.8806648     
   5568745991.6990051     
   6562033808.9709129     
   6408999707.3657694     
   6254145035.3732491     
   6097425228.1986485     
   5938859303.7810621     
   6969161189.8061218     
   6814906224.8492355     
   6656050573.4683075     
   6492317251.7367315     
   6323637126.3760452     
   7380571212.3075180     
   7226972816.4185762     
   7066226941.3978624     
   6897728524.9147396     
   6721314705.9586124     
   5215543175.6026983     
   5054691956.0277510     
   4892726573.0516653     
   4729607275.7167444     
   4565298148.3551207     
   5568745991.6990051     
   5405863091.3435564     
   5243412651.2242022     
   5081405388.3454523     
   4919854716.4897671     
   5938859303.7810621     
   5770173453.9592113     
   5603196268.2718010     
   5437941785.8499908     
   5274452049.0239925     
   6323637126.3760452     
   6144711443.9141331     
   5968511073.6186171     
   5795039642.2966452     
   5624380548.8092003     
   6721314705.9586124     
   6527251305.3366413     
   6336696608.5025015     
   6149654902.8465776     
   5966287476.5784369     
   4565298148.3551207     
   4451067852.7496948     
   4340740177.1899147     
   4234268152.3396978     
   4131744684.7109509     
   4919854716.4897671     
   4790399381.2721338     
   4662955322.5091124     
   4537569049.6484318     
   4414413635.5673323     
   5274452049.0239925     
   5129044897.5946684     
   4984038250.1332912     
   4839518923.1427622     
   4695694943.0003386     
   5624380548.8092003     
   5463123297.8384504     
   5300855853.1687107     
   5137666285.9315042     
   4973765880.2248621     
   5966287476.5784369     
   5789874909.0589752     
   5611188465.3024273     
   5430291006.2313156     
   5247377607.7712088     
   4131744684.7109509     
   3969155837.1426687     
   3806446447.7051611     
   3643797946.6406837     
   3481646332.0051022     
   4414413635.5673323     
   4238101239.2580523     
   4061417428.1128497     
   3884430332.2168155     
   3707304304.2029490     
   4695694943.0003386     
   4510872133.0812788     
   4325912300.3352175     
   4140834556.9208322     
   3955676121.2127032     
   4973765880.2248621     
   4785234065.4334478     
   4597208791.5437422     
   4409683456.0660410     
   4222653513.2092810     
   5247377607.7712088     
   5059524795.3281221     
   4873180680.7273493     
   4688298157.1465769     
   4504860761.9094696     
   3481646332.0051022     
   3292279897.2607737     
   3101453836.2134399     
   2909421708.9902039     
   2717921681.8034744     
   3707304304.2029490     
   3547990875.2137184     
   3390453440.3227472     
   3234635941.7475562     
   3081071207.5455780     
   3955676121.2127032     
   3809539484.7824531     
   3666771216.7647338     
   3527373504.9173636     
   3391568193.8751187     
   4222653513.2092810     
   4072754103.3886256     
   3926480132.8265042     
   3784238311.6217794     
   3646651627.4284668     
   4504860761.9094696     
   4334589377.5362358     
   4167097728.4521618     
   4003420784.2312551     
   3845107021.2792277     
   2717921681.8034744     
   2841359167.3921523     
   3020264420.1198425     
   3255773049.4379997     
   3570421048.5469337     
   3081071207.5455780     
   3035842028.1063628     
   3017873371.9856515     
   3030831164.2473927     
   3088716127.4524822     
   3391568193.8751187     
   3233942203.8747725     
   3080205749.4684887     
   2930697359.7980433     
   2789532244.0681434     
   3646651627.4284668     
   3438638494.0898037     
   3216511964.7179122     
   2983294072.3215809     
   2747870522.5645528     
   3845107021.2792277     
   3653577513.8332973     
   3440445036.9721613     
   3227389028.9837203     
   3056689693.8955045     
 </DataArray>
 <DataArray  type="Float64" Name="strain" NumberOfComponents="3" format="ascii">
  0.20343686408327880        0.0000000000000000       0.12538238123905149     
  0.18663130499938183       -2.7304983960242564E-002   7.4365588019985773E-002
  0.16982574591548485       -4.4651950868764563E-002   3.5157924059345882E-002
  0.15302018683158786       -5.2040900725565983E-002   7.7593893571317810E-003
  0.13621462774769089       -4.9471833530646825E-002  -7.8300160866564966E-003
  0.15983977922031811        0.0000000000000000        9.6448248608801884E-002
  0.15316631154496257       -2.1831640225762981E-002   6.2704406274132207E-002
  0.14649284386960704       -3.6158015354259193E-002   3.7415617498119599E-002
  0.13981937619425150       -4.2979125385488662E-002   2.0581882280764019E-002
  0.13314590851889596       -4.2294970319451376E-002   1.2203200622065577E-002
  0.12646104201714420        0.0000000000000000        7.4213835690258773E-002
  0.12656559005056134       -1.6358296491283390E-002   5.5290192285531344E-002
  0.12667013808397851       -2.7664079839753841E-002   4.1467526739692201E-002
  0.12677468611739565       -3.3917350045411347E-002   3.2745839052741393E-002
  0.12687923415081279       -3.5118107108255914E-002   2.9125129224678914E-002
  0.10330065247375704        0.0000000000000000        5.8679142483422153E-002
  0.10682914051617812       -1.0884952756803802E-002   5.2122946054183140E-002
  0.11035762855859921       -1.9170144325248481E-002   4.7313651784063687E-002
  0.11388611660102026       -2.4855574705334036E-002   4.4251259673063786E-002
  0.11741460464344135       -2.7941243897060465E-002   4.2935769721183403E-002
   9.0358610590156624E-002   0.0000000000000000        4.9844168988292040E-002
   9.3956962941812897E-002  -5.4116090223242158E-003   5.3202667580087612E-002
   9.7555315293469155E-002  -1.0676208810743125E-002   5.4953992631233996E-002
  0.10115366764512541       -1.5793799365256721E-002   5.5098144141731177E-002
  0.10475201999678169       -2.0764380685865023E-002   5.3635122111579177E-002
  0.13621462774769089       -4.9471833530646825E-002  -7.8300160866564966E-003
  0.13297070435746317       -4.2961392324388642E-002  -3.4504328222306549E-003
  0.12972678096723542       -3.8526220147173072E-002  -4.3868149710374685E-004
  0.12648285757700764       -3.6166316999000012E-002   1.2052378887240818E-003
  0.12323893418677992       -3.5881682879869509E-002   1.4813253352530253E-003
  0.13314590851889596       -4.2294970319451376E-002   1.2203200622065577E-002
  0.12891233798265855       -3.8443580636102079E-002   1.2139981094649872E-002
  0.12467876744642117       -3.5762986815395699E-002   1.1465299214513711E-002
  0.12044519691018377       -3.4253188857332049E-002   1.0179154981657387E-002
  0.11621162637394639       -3.3914186761911297E-002   8.2815483960807096E-003
  0.12687923415081279       -3.5118107108255914E-002   2.9125129224678914E-002
  0.12241238605514439       -3.3925768947815557E-002   2.5523580071821234E-002
  0.11794553795947603       -3.2999753483618291E-002   2.2066938152822010E-002
  0.11347868986380763       -3.2340060715664136E-002   1.8755203467681093E-002
  0.10901184176813924       -3.1946690643953071E-002   1.5588376016398460E-002
  0.11741460464344135       -2.7941243897060465E-002   4.2935769721183403E-002
  0.11347084857492065       -2.9407957259529015E-002   3.6700364109283630E-002
  0.10952709250639993       -3.0236520151840932E-002   3.1366235317820901E-002
  0.10558333643787923       -3.0426932573996184E-002   2.6933383346795146E-002
  0.10163958036935851       -2.9979194525994825E-002   2.3401808196206450E-002
  0.10475201999678169       -2.0764380685865023E-002   5.3635122111579177E-002
  0.10208772554198732       -2.4890145571242469E-002   4.5670333207036992E-002
   9.9423431087192968E-002  -2.7473286820063562E-002   3.9363190709510498E-002
   9.6759136632398601E-002  -2.8513804432328260E-002   3.4713694618999674E-002
   9.4094842177604235E-002  -2.8011698408036592E-002   3.1721844935504617E-002
  0.12323893418677992       -3.5881682879869509E-002   1.4813253352530253E-003
  0.12038669142288885       -3.6343492659571111E-002   7.8224666675091870E-004
  0.11753444865899772       -3.6222921207894034E-002   1.8068974711442365E-004
  0.11468220589510658       -3.5519968524838567E-002  -3.2334542365598101E-004
  0.11182996313121552       -3.4234634610404491E-002  -7.2985884556076019E-004
  0.11621162637394639       -3.3914186761911297E-002   8.2815483960807096E-003
  0.11346524052157697       -3.3970049873692773E-002   7.9000514370692748E-003
  0.11071885466920764       -3.3644847537235886E-002   7.6327465522357252E-003
  0.10797246881683824       -3.2938579752540637E-002   7.4796337415797172E-003
  0.10522608296446889       -3.1851246519607107E-002   7.4407130051013792E-003
  0.10901184176813924       -3.1946690643953071E-002   1.5588376016398460E-002
  0.10638798315260345       -3.1596607087814456E-002   1.5323144983737713E-002
  0.10376412453706768       -3.1066773866577680E-002   1.5188776350566546E-002
  0.10114026592153186       -3.0357190980242778E-002   1.5185270116884924E-002
   9.8516407305996118E-002  -2.9467858428809751E-002   1.5312626282692782E-002
  0.10163958036935851       -2.9979194525994825E-002   2.3401808196206450E-002
   9.9154919315968232E-002  -2.9223164301936156E-002   2.3051527306756196E-002
   9.6670258262577913E-002  -2.8488700195919502E-002   2.2848779142107204E-002
   9.4185597209187580E-002  -2.7775802207944941E-002   2.2793563702259757E-002
   9.1700936155797261E-002  -2.7084470338012354E-002   2.2885880987213635E-002
   9.4094842177604235E-002  -2.8011698408036592E-002   3.1721844935504617E-002
   9.1766049011671263E-002  -2.6849721516057863E-002   3.1085198406124601E-002
   8.9437255845738278E-002  -2.5910626525261358E-002   3.0612754926857673E-002
   8.7108462679805279E-002  -2.5194413435647045E-002   3.0304514497704254E-002
   8.4779669513872336E-002  -2.4701082247215039E-002   3.0160477118664014E-002
  0.11182996313121552       -3.4234634610404491E-002  -7.2985884556076019E-004
  0.10868369446013432       -3.2782894240911215E-002  -4.9221798441137499E-004
  0.10553742578905312       -3.1580722192678296E-002  -3.6250891073064118E-005
  0.10239115711797192       -3.0628118465705546E-002   6.3804243445340914E-004
   9.9244888446890722E-002  -2.9925083059993252E-002   1.5306619921688358E-003
  0.10522608296446889       -3.1851246519607107E-002   7.4407130051013792E-003
  0.10227123610184063       -3.0657878435577601E-002   7.3363719171355979E-003
   9.9316389239212433E-002  -2.9633506097594735E-002   7.3965482138874106E-003
   9.6361542376584272E-002  -2.8778129505658515E-002   7.6212418953562552E-003
   9.3406695513955973E-002  -2.8091748659768934E-002   8.0104529615428466E-003
   9.8516407305996118E-002  -2.9467858428809751E-002   1.5312626282692782E-002
   9.5699173404349649E-002  -2.8532862630244030E-002   1.4946875820825607E-002
   9.2881939502703126E-002  -2.7686290002511285E-002   1.4691833896204556E-002
   9.0064705601056672E-002  -2.6928140545611424E-002   1.4547500508829643E-002
   8.7247471699410162E-002  -2.6258414259544477E-002   1.4513875658700812E-002
   9.1700936155797261E-002  -2.7084470338012354E-002   2.2885880987213635E-002
   8.8967506367661292E-002  -2.6407846824910382E-002   2.2339293726658702E-002
   8.6234076579525309E-002  -2.5739073907427752E-002   2.1849606155878745E-002
   8.3500646791389299E-002  -2.5078151585564319E-002   2.1416818274873552E-002
   8.0767217003253344E-002  -2.4425079859320145E-002   2.1040930083643005E-002
   8.4779669513872336E-002  -2.4701082247215039E-002   3.0160477118664014E-002
   8.2076234991775562E-002  -2.4282831019576859E-002   2.9513625634634832E-002
   7.9372800469678817E-002  -2.3791857812344254E-002   2.8869864992909444E-002
   7.6669365947582030E-002  -2.3228162625517294E-002   2.8229195193487593E-002
   7.3965931425485271E-002  -2.2591745459095758E-002   2.7591616236369326E-002
   9.9244888446890722E-002  -2.9925083059993252E-002   1.5306619921688358E-003
   9.6388964348581241E-002  -2.9258976546623294E-002   1.5416498975232562E-003
   9.3533040250271704E-002  -2.8417159496678515E-002   1.5987390391878353E-003
   9.0677116151962195E-002  -2.7399631910158168E-002   1.7019294171622817E-003
   8.7821192053652686E-002  -2.6206393787062687E-002   1.8512210314471922E-003
   9.3406695513955973E-002  -2.8091748659768934E-002   8.0104529615428466E-003
   9.0663613159692347E-002  -2.7429750155826021E-002   7.9151212923861125E-003
   8.7920530805428665E-002  -2.6647520589730134E-002   7.9993718750108189E-003
   8.5177448451164983E-002  -2.5745059961481451E-002   8.2632047094173683E-003
   8.2434366096901357E-002  -2.4722368271079542E-002   8.7066197956052749E-003
   8.7247471699410162E-002  -2.6258414259544477E-002   1.4513875658700812E-002
   8.4750712104663894E-002  -2.5600523765028610E-002   1.4256744940610577E-002
   8.2253952509917586E-002  -2.4877881682782078E-002   1.4312677489773641E-002
   7.9757192915171304E-002  -2.4090488012804674E-002   1.4681673306189535E-002
   7.7260433320425037E-002  -2.3238342755096508E-002   1.5363732389858942E-002
   8.0767217003253344E-002  -2.4425079859320145E-002   2.1040930083643005E-002
   7.8650261183495968E-002  -2.3771297374231240E-002   2.0566520842197192E-002
   7.6533305363738549E-002  -2.3108242775833916E-002   2.0538655883475893E-002
   7.4416349543981172E-002  -2.2435916064127873E-002   2.0957335207479565E-002
   7.2299393724223768E-002  -2.1754317239113308E-002   2.1822558814207749E-002
   7.3965931425485271E-002  -2.2591745459095758E-002   2.7591616236369326E-002
   7.2362260396188371E-002  -2.1942070983433884E-002   2.6844448997145526E-002
   7.0758589366891458E-002  -2.1338603868885697E-002   2.6677307056118038E-002
   6.9154918337594545E-002  -2.0781344115451142E-002   2.7090190413286905E-002
   6.7551247308297563E-002  -2.0270291723130218E-002   2.8083099068651751E-002
   8.7821192053652686E-002  -2.6206393787062687E-002   1.8512210314471922E-003
   8.4653849023491212E-002  -2.5014898048828782E-002   1.0262586768924331E-003
   8.1486505993329739E-002  -2.4002597616893162E-002   1.8496375560222988E-004
   7.8319162963168265E-002  -2.3169492491256050E-002  -6.7266373242391708E-004
   7.5151819933006792E-002  -2.2515582671917556E-002  -1.5466237871855082E-003
   8.2434366096901357E-002  -2.4722368271079542E-002   8.7066197956052749E-003
   7.9273096719384872E-002  -2.3671258717225918E-002   7.9956615199325842E-003
   7.6111827341868443E-002  -2.2683544498621477E-002   7.3131831162857319E-003
   7.2950557964352014E-002  -2.1759225615266262E-002   6.6591845846644127E-003
   6.9789288586835529E-002  -2.0898302067160368E-002   6.0336659250688762E-003
   7.7260433320425037E-002  -2.3238342755096508E-002   1.5363732389858942E-002
   7.4150050034315032E-002  -2.2327619385622915E-002   1.4882578164117255E-002
   7.1039666748205027E-002  -2.1364491380349571E-002   1.4474716249162661E-002
   6.7929283462094994E-002  -2.0348958739276363E-002   1.4140146644995334E-002
   6.4818900175985017E-002  -1.9281021462403347E-002   1.3878869351615031E-002
   7.2299393724223768E-002  -2.1754317239113308E-002   2.1822558814207749E-002
   6.9284708968281622E-002  -2.0983980054020038E-002   2.1687008609446209E-002
   6.6270024212339435E-002  -2.0045438262077664E-002   2.1669563154233115E-002
   6.3255339456397261E-002  -1.8938691863286408E-002   2.1770222448568851E-002
   6.0240654700455087E-002  -1.7663740857646187E-002   2.1988986492452858E-002
   6.7551247308297563E-002  -2.0270291723130218E-002   2.8083099068651751E-002
   6.4677073521284656E-002  -1.9640340722417049E-002   2.8408952855919434E-002
   6.1802899734271735E-002  -1.8726385143805827E-002   2.8897723831497218E-002
   5.8928725947258793E-002  -1.7528424987296416E-002   2.9549411995384897E-002
   5.6054552160245907E-002  -1.6046460252889139E-002   3.0364017347582484E-002
   7.5151819933006792E-002  -2.2515582671917556E-002  -1.5466237871855082E-003
   7.1828625040349592E-002  -2.1932489965933388E-002  -1.1199296480851606E-003
   6.8505430147692337E-002  -2.1311836180358978E-002   3.9555864627471848E-004
   6.5182235255035081E-002  -2.0653621315195367E-002   2.9998410958937127E-003
   6.1859040362377882E-002  -1.9957845370441540E-002   6.6929177007718499E-003
   6.9789288586835529E-002  -2.0898302067160368E-002   6.0336659250688762E-003
   6.7276352379453341E-002  -2.0138219969488780E-002   6.5236042864913468E-003
   6.4763416172071098E-002  -1.9516425437435925E-002   7.5452658632044756E-003
   6.2250479964688771E-002  -1.9032918471002441E-002   9.0986506552086649E-003
   5.9737543757306610E-002  -1.8687699070187858E-002   1.1183758662503318E-002
   6.4818900175985017E-002  -1.9281021462403347E-002   1.3878869351615031E-002
   6.2559151713909328E-002  -1.8343949973044310E-002   1.4256203290150482E-002
   6.0299403251833694E-002  -1.7721014694513010E-002   1.4608189504008301E-002
   5.8039654789758033E-002  -1.7412215626809412E-002   1.4934827993188696E-002
   5.5779906327682344E-002  -1.7417552769933897E-002   1.5236118757691458E-002
   6.0240654700455087E-002  -1.7663740857646187E-002   2.1988986492452858E-002
   5.7677023043717655E-002  -1.6549679976599826E-002   2.2077867362892717E-002
   5.5113391386980251E-002  -1.5925603951589914E-002   2.1584329568686396E-002
   5.2549759730242805E-002  -1.5791512782616656E-002   2.0508373109834329E-002
   4.9986128073505415E-002  -1.6147406469679965E-002   1.8849997986336235E-002
   5.6054552160245907E-002  -1.6046460252889139E-002   3.0364017347582484E-002
   5.2629966368878289E-002  -1.4755409980155260E-002   2.9988596504717691E-002
   4.9205380577510727E-002  -1.4130193208667055E-002   2.8473686057238684E-002
   4.5780794786143164E-002  -1.4170809938423682E-002   2.5819286005145228E-002
   4.2356208994775546E-002  -1.4877260169426199E-002   2.2025396348437531E-002
   6.1859040362377882E-002  -1.9957845370441540E-002   6.6929177007718499E-003
   5.9975720219683670E-002  -1.9070645650975937E-002   5.9986406266351322E-003
   5.8092400076989514E-002  -1.7838159461675468E-002   3.2379369204152408E-003
   5.6209079934295358E-002  -1.6260386802541223E-002  -1.5891934178886569E-003
   5.4325759791601147E-002  -1.4337327673572098E-002  -8.4827503882758393E-003
   5.9737543757306610E-002  -1.8687699070187858E-002   1.1183758662503318E-002
   5.6576777287256019E-002  -1.8118423549538798E-002   9.9081642061021880E-003
   5.3416010817205373E-002  -1.6962748223601970E-002   8.1441037270719718E-003
   5.0255244347154726E-002  -1.5220673092377311E-002   5.8915772254126419E-003
   4.7094477877104191E-002  -1.2892198155864509E-002   3.1505847011241706E-003
   5.5779906327682344E-002  -1.7417552769933897E-002   1.5236118757691458E-002
   5.2919654139729849E-002  -1.7166201448101548E-002   1.3620320254479040E-002
   5.0059401951777327E-002  -1.6087336985528014E-002   1.3094016338092304E-002
   4.7199149763824888E-002  -1.4180959382213174E-002   1.3657207008530799E-002
   4.4338897575872283E-002  -1.1447068638157365E-002   1.5309892265794045E-002
   4.9986128073505415E-002  -1.6147406469679965E-002   1.8849997986336235E-002
   4.9004350777105361E-002  -1.6213979346664353E-002   1.7135108771766445E-002
   4.8022573480705225E-002  -1.5211925747454176E-002   1.8087674753476068E-002
   4.7040796184305220E-002  -1.3141245672049594E-002   2.1707695931465480E-002
   4.6059018887905104E-002  -1.0001939120450110E-002   2.7995172305734117E-002
   4.2356208994775546E-002  -1.4877260169426199E-002   2.2025396348437531E-002
   4.4830867199382368E-002  -1.5261757245227159E-002   2.0452529757963300E-002
   4.7305525403989163E-002  -1.4336514509380491E-002   2.3125078973223162E-002
   4.9780183608595957E-002  -1.2101531961885580E-002   3.0043043994216770E-002
   5.2254841813202835E-002  -8.5568096027428542E-003   4.1206424820944720E-002
   9.0358610590156624E-002   0.0000000000000000        4.9844168988292040E-002
   9.3956962941812897E-002  -5.4116090223242158E-003   5.3202667580087612E-002
   9.7555315293469155E-002  -1.0676208810743125E-002   5.4953992631233996E-002
  0.10115366764512541       -1.5793799365256721E-002   5.5098144141731177E-002
  0.10475201999678169       -2.0764380685865023E-002   5.3635122111579177E-002
   8.2407903517205366E-002   0.0000000000000000        4.4783215776767811E-002
   8.4625512768701144E-002  -4.5781620886076709E-003   4.8264602082680214E-002
   8.6843122020196936E-002  -9.0390627868874932E-003   5.0591675728920829E-002
   8.9060731271692714E-002  -1.3382702094839471E-002   5.1764436715489665E-002
   9.1278340523188506E-002  -1.7609080012463606E-002   5.1782885042386734E-002
   7.4221518405765630E-002   0.0000000000000000        4.0570583420748853E-002
   7.5511245438078356E-002  -3.7447151548911247E-003   4.4145109597200603E-002
   7.6800972470391068E-002  -7.4019167630318614E-003   4.7018183994957989E-002
   7.8090699502703795E-002  -1.0971604824422212E-002   4.9189806614021038E-002
   7.9380426535016521E-002  -1.4453779339062178E-002   5.0659977454389750E-002
   6.5799455255837414E-002   0.0000000000000000        3.7206271920235179E-002
   6.6614160949944504E-002  -2.9112682211745794E-003   4.0844190123648809E-002
   6.7428866644051580E-002  -5.7647707391762296E-003   4.4233517429345531E-002
   6.8243572338158684E-002  -8.5605075540049549E-003   4.7374253837325325E-002
   6.9058278032265760E-002  -1.1298478665660753E-002   5.0266399347588177E-002
   5.7141714067420739E-002   0.0000000000000000        3.4690281275226775E-002
   5.7934259304299608E-002  -2.0778212874580336E-003   3.8361843662024844E-002
   5.8726804541178478E-002  -4.1276247153205978E-003   4.2237676032083421E-002
   5.9519349778057347E-002  -6.1494102835877029E-003   4.6317778385402478E-002
   6.0311895014936209E-002  -8.1431779922593352E-003   5.0602150721982042E-002
  0.10475201999678169       -2.0764380685865023E-002   5.3635122111579177E-002
  0.10208772554198732       -2.4890145571242469E-002   4.5670333207036992E-002
   9.9423431087192968E-002  -2.7473286820063562E-002   3.9363190709510498E-002
   9.6759136632398601E-002  -2.8513804432328260E-002   3.4713694618999674E-002
   9.4094842177604235E-002  -2.8011698408036592E-002   3.1721844935504617E-002
   9.1278340523188506E-002  -1.7609080012463606E-002   5.1782885042386734E-002
   9.0041342897579965E-002  -2.1173176937368428E-002   4.6538474161269487E-002
   8.8804345271971452E-002  -2.3529973267162500E-002   4.2491010531508271E-002
   8.7567347646362911E-002  -2.4679469001845832E-002   3.9640494153102938E-002
   8.6330350020754398E-002  -2.4621664141418420E-002   3.7986925026053657E-002
   7.9380426535016521E-002  -1.4453779339062178E-002   5.0659977454389750E-002
   7.9110026582934118E-002  -1.7456208303494383E-002   4.7800621555251804E-002
   7.8839626630851728E-002  -1.9586659714261465E-002   4.5677513751810159E-002
   7.8569226678769338E-002  -2.0845133571363417E-002   4.4290654044064771E-002
   7.8298826726686935E-002  -2.1231629874800241E-002   4.3640042432015663E-002
   6.9058278032265760E-002  -1.1298478665660753E-002   5.0266399347588177E-002
   6.9293776598049805E-002  -1.3739239669620339E-002   4.9456775388983923E-002
   6.9529275163833865E-002  -1.5643346161360410E-002   4.8922700370416239E-002
   6.9764773729617896E-002  -1.7010798140880988E-002   4.8664174291885173E-002
   7.0000272295401941E-002  -1.7841595608182072E-002   4.8681197153390671E-002
   6.0311895014936209E-002  -8.1431779922593352E-003   5.0602150721982042E-002
   6.0592592942926987E-002  -1.0022271035746287E-002   5.1506935662465829E-002
   6.0873290870917772E-002  -1.1700032608459376E-002   5.2226570387326518E-002
   6.1153988798908550E-002  -1.3176462710398573E-002   5.2761054896564082E-002
   6.1434686726899335E-002  -1.4451561341563890E-002   5.3110389190178575E-002
   9.4094842177604235E-002  -2.8011698408036592E-002   3.1721844935504617E-002
   9.1766049011671263E-002  -2.6849721516057863E-002   3.1085198406124601E-002
   8.9437255845738278E-002  -2.5910626525261358E-002   3.0612754926857673E-002
   8.7108462679805279E-002  -2.5194413435647045E-002   3.0304514497704254E-002
   8.4779669513872336E-002  -2.4701082247215039E-002   3.0160477118664014E-002
   8.6330350020754398E-002  -2.4621664141418420E-002   3.7986925026053657E-002
   8.4189884801883788E-002  -2.3997405469842865E-002   3.6958734819406709E-002
   8.2049419583013178E-002  -2.3447539771081913E-002   3.6142997456771311E-002
   7.9908954364142568E-002  -2.2972067045135477E-002   3.5539712938147394E-002
   7.7768489145271985E-002  -2.2570987292003603E-002   3.5148881263534909E-002
   7.8298826726686935E-002  -2.1231629874800241E-002   4.3640042432015663E-002
   7.6394939248776939E-002  -2.1145089423627948E-002   4.2368797476469572E-002
   7.4491051770866956E-002  -2.0984453016902493E-002   4.1358255158833214E-002
   7.2587164292956974E-002  -2.0749720654623882E-002   4.0608415479106555E-002
   7.0683276815046978E-002  -2.0440892336792180E-002   4.0119278437289567E-002
   7.0000272295401941E-002  -1.7841595608182072E-002   4.8681197153390671E-002
   6.8381212352350743E-002  -1.8292773377412960E-002   4.7315386377313043E-002
   6.6762152409299558E-002  -1.8521366262723049E-002   4.6258528033043443E-002
   6.5143092466248401E-002  -1.8527374264112325E-002   4.5510622120581698E-002
   6.3524032523197202E-002  -1.8310797381580778E-002   4.5071668639927932E-002
   6.1434686726899335E-002  -1.4451561341563890E-002   5.3110389190178575E-002
   6.0148704112605207E-002  -1.5440457331198039E-002   5.1798501521937178E-002
   5.8862721498311080E-002  -1.6058279508543626E-002   5.0843816079401929E-002
   5.7576738884016952E-002  -1.6305027873600712E-002   5.0246332862572872E-002
   5.6290756269722811E-002  -1.6180702426369348E-002   5.0006051871449908E-002
   8.4779669513872336E-002  -2.4701082247215039E-002   3.0160477118664014E-002
   8.2076234991775562E-002  -2.4282831019576859E-002   2.9513625634634832E-002
   7.9372800469678817E-002  -2.3791857812344254E-002   2.8869864992909444E-002
   7.6669365947582030E-002  -2.3228162625517294E-002   2.8229195193487593E-002
   7.3965931425485271E-002  -2.2591745459095758E-002   2.7591616236369326E-002
   7.7768489145271985E-002  -2.2570987292003603E-002   3.5148881263534909E-002
   7.5131303642916911E-002  -2.2177612605590237E-002   3.4557008404805113E-002
   7.2494118140561808E-002  -2.1725255079799347E-002   3.4094542743255164E-002
   6.9856932638206748E-002  -2.1213914714630921E-002   3.3761484278884937E-002
   6.7219747135851660E-002  -2.0643591510085046E-002   3.3557833011694418E-002
   7.0683276815046978E-002  -2.0440892336792180E-002   4.0119278437289567E-002
   6.8238656687309676E-002  -2.0072394191603594E-002   3.9568645063642341E-002
   6.5794036559572389E-002  -1.9658652347254408E-002   3.9273735242050814E-002
   6.3349416431835115E-002  -1.9199666803744655E-002   3.9234548972515181E-002
   6.0904796304097848E-002  -1.8695437561074252E-002   3.9451086255035447E-002
   6.3524032523197202E-002  -1.8310797381580778E-002   4.5071668639927932E-002
   6.1398294124953866E-002  -1.7967175777616962E-002   4.4548535611146051E-002
   5.9272555726710530E-002  -1.7592049614709455E-002   4.4407442489296275E-002
   5.7146817328467187E-002  -1.7185418892858337E-002   4.4648389274378503E-002
   5.5021078930223830E-002  -1.6747283612063513E-002   4.5271375966392587E-002
   5.6290756269722811E-002  -1.6180702426369348E-002   5.0006051871449908E-002
   5.4610215955849528E-002  -1.5861957363630330E-002   4.9496680047316721E-002
   5.2929675641976225E-002  -1.5525446882164562E-002   4.9495664484991528E-002
   5.1249135328102921E-002  -1.5171170981972015E-002   5.0003005184474550E-002
   4.9568595014229638E-002  -1.4799129663052718E-002   5.1018702145765732E-002
   7.3965931425485271E-002  -2.2591745459095758E-002   2.7591616236369326E-002
   7.2362260396188371E-002  -2.1942070983433884E-002   2.6844448997145526E-002
   7.0758589366891458E-002  -2.1338603868885697E-002   2.6677307056118038E-002
   6.9154918337594545E-002  -2.0781344115451142E-002   2.7090190413286905E-002
   6.7551247308297563E-002  -2.0270291723130218E-002   2.8083099068651751E-002
   6.7219747135851660E-002  -2.0643591510085046E-002   3.3557833011694418E-002
   6.6079253410152361E-002  -2.0058511975066681E-002   3.3087212465978746E-002
   6.4938759684453090E-002  -1.9502902618480908E-002   3.2962921229262247E-002
   6.3798265958753819E-002  -1.8976763440327848E-002   3.3184959301544789E-002
   6.2657772233054521E-002  -1.8480094440607220E-002   3.3753326682826407E-002
   6.0904796304097848E-002  -1.8695437561074252E-002   3.9451086255035447E-002
   5.9993783892799017E-002  -1.8174952966699388E-002   3.9273749585509055E-002
   5.9082771481500221E-002  -1.7667201368076119E-002   3.9209046235784500E-002
   5.8171759070201431E-002  -1.7172182765204359E-002   3.9256976205861785E-002
   5.7260746658902635E-002  -1.6689897158084166E-002   3.9417539495741061E-002
   5.5021078930223830E-002  -1.6747283612063513E-002   4.5271375966392587E-002
   5.4105851844128333E-002  -1.6291393958332113E-002   4.5404060355736367E-002
   5.3190624758032871E-002  -1.5831500117671302E-002   4.5415682075684798E-002
   5.2275397671937389E-002  -1.5367602090080940E-002   4.5306241126237989E-002
   5.1360170585841886E-002  -1.4899699875561168E-002   4.5075737507396060E-002
   4.9568595014229638E-002  -1.4799129663052718E-002   5.1018702145765732E-002
   4.8415457264140330E-002  -1.4407834949964837E-002   5.1478144776660628E-002
   4.7262319514050993E-002  -1.3995798867266547E-002   5.1582828748963125E-002
   4.6109181763961685E-002  -1.3563021414957565E-002   5.1332754062673257E-002
   4.4956044013872348E-002  -1.3109502593038114E-002   5.0727920717790920E-002
   6.7551247308297563E-002  -2.0270291723130218E-002   2.8083099068651751E-002
   6.4677073521284656E-002  -1.9640340722417049E-002   2.8408952855919434E-002
   6.1802899734271735E-002  -1.8726385143805827E-002   2.8897723831497218E-002
   5.8928725947258793E-002  -1.7528424987296416E-002   2.9549411995384897E-002
   5.6054552160245907E-002  -1.6046460252889139E-002   3.0364017347582484E-002
   6.2657772233054521E-002  -1.8480094440607220E-002   3.3753326682826407E-002
   5.9970684781763844E-002  -1.7896327055417202E-002   3.3843634882232479E-002
   5.7283597330473196E-002  -1.7108892720855640E-002   3.4145198564773188E-002
   5.4596509879182589E-002  -1.6117791436922713E-002   3.4658017730448396E-002
   5.1909422427891871E-002  -1.4923023203618102E-002   3.5382092379258351E-002
   5.7260746658902635E-002  -1.6689897158084166E-002   3.9417539495741061E-002
   5.4809083838158919E-002  -1.6152313388417383E-002   3.9191964478758862E-002
   5.2357421017415182E-002  -1.5491400297905557E-002   3.9225983239735883E-002
   4.9905758196671451E-002  -1.4707157886548897E-002   3.9519595778672367E-002
   4.7454095375927735E-002  -1.3799586154347177E-002   4.0072802095567947E-002
   5.1360170585841886E-002  -1.4899699875561168E-002   4.5075737507396060E-002
   4.9192270690469754E-002  -1.4408299721417578E-002   4.4453941645498887E-002
   4.7024370795097623E-002  -1.3873907874955505E-002   4.4140077856385844E-002
   4.4856470899725512E-002  -1.3296524336175026E-002   4.4134146140056577E-002
   4.2688571004353353E-002  -1.2676149105076279E-002   4.4436146496511314E-002
   4.4956044013872348E-002  -1.3109502593038114E-002   5.0727920717790920E-002
   4.3120245338696461E-002  -1.2664286054417717E-002   4.9629566382452361E-002
   4.1284446663520574E-002  -1.2256415452005301E-002   4.8887482414722655E-002
   3.9448647988344701E-002  -1.1885890785801354E-002   4.8501668814601342E-002
   3.7612849313168800E-002  -1.1552712055805270E-002   4.8472125582088632E-002
   5.6054552160245907E-002  -1.6046460252889139E-002   3.0364017347582484E-002
   5.2629966368878289E-002  -1.4755409980155260E-002   2.9988596504717691E-002
   4.9205380577510727E-002  -1.4130193208667055E-002   2.8473686057238684E-002
   4.5780794786143164E-002  -1.4170809938423682E-002   2.5819286005145228E-002
   4.2356208994775546E-002  -1.4877260169426199E-002   2.2025396348437531E-002
   5.1909422427891871E-002  -1.4923023203618102E-002   3.5382092379258351E-002
   4.7689320843696703E-002  -1.3831621775600073E-002   3.4502330997975172E-002
   4.3469219259501549E-002  -1.3150620907526625E-002   3.3171027635651038E-002
   3.9249117675306339E-002  -1.2880020599397749E-002   3.1388182292286258E-002
   3.5029016091111170E-002  -1.3019820851213282E-002   2.9153794967880176E-002
   4.7454095375927735E-002  -1.3799586154347177E-002   4.0072802095567947E-002
   4.3126425622478370E-002  -1.2907833571044872E-002   3.8944133117167254E-002
   3.8798755869029006E-002  -1.2171048606386299E-002   3.8051869781299118E-002
   3.4471086115579641E-002  -1.1589231260371482E-002   3.7396012087963393E-002
   3.0143416362130290E-002  -1.1162381533000282E-002   3.6976560037160336E-002
   4.2688571004353353E-002  -1.2676149105076279E-002   4.4436146496511314E-002
   3.8941280705223305E-002  -1.1984045366489705E-002   4.3314002862293907E-002
   3.5193990406093272E-002  -1.1191476305246032E-002   4.3116212494182307E-002
   3.1446700106963210E-002  -1.0298441921345325E-002   4.3842775392177021E-002
   2.7699409807833190E-002  -9.3049422147874344E-003   4.5493691556277457E-002
   3.7612849313168800E-002  -1.1552712055805270E-002   4.8472125582088632E-002
   3.5133886091931493E-002  -1.1060257161934484E-002   4.7611940233355243E-002
   3.2654922870694200E-002  -1.0211904004105585E-002   4.8364055774301223E-002
   3.0175959649456900E-002  -9.0076525823192082E-003   5.0728472204926781E-002
   2.7696996428219600E-002  -7.4475028965743650E-003   5.4705189525231845E-002
   4.2356208994775546E-002  -1.4877260169426199E-002   2.2025396348437531E-002
   4.4830867199382368E-002  -1.5261757245227159E-002   2.0452529757963300E-002
   4.7305525403989163E-002  -1.4336514509380491E-002   2.3125078973223162E-002
   4.9780183608595957E-002  -1.2101531961885580E-002   3.0043043994216770E-002
   5.2254841813202835E-002  -8.5568096027428542E-003   4.1206424820944720E-002
   3.5029016091111170E-002  -1.3019820851213282E-002   2.9153794967880176E-002
   4.0627523650861336E-002  -1.3031276055425395E-002   2.9889370334898635E-002
   4.6226031210611529E-002  -1.2375640604486399E-002   3.2627228606469716E-002
   5.1824538770361861E-002  -1.1052914498395912E-002   3.7367369782593376E-002
   5.7423046330111860E-002  -9.0630977371541910E-003   4.4109793863270075E-002
   3.0143416362130290E-002  -1.1162381533000282E-002   3.6976560037160336E-002
   3.6622640375842598E-002  -1.0800794865623686E-002   3.9377928205174578E-002
   4.3101864389554864E-002  -1.0414766699592369E-002   4.1538446376560199E-002
   4.9581088403267116E-002  -1.0004297034906356E-002   4.3458114551317109E-002
   5.6060312416979369E-002  -9.5693858715656388E-003   4.5136932729445522E-002
   2.7699409807833190E-002  -9.3049422147874344E-003   4.5493691556277457E-002
   3.2816217374326155E-002  -8.5703136758218945E-003   4.8918203368791123E-002
   3.7933024940819113E-002  -8.4538927946984192E-003   4.9858732283494543E-002
   4.3049832507312147E-002  -8.9556795714167449E-003   4.8315278300388148E-002
   4.8166640073805077E-002  -1.0075674005977087E-002   4.4287841419471952E-002
   2.7696996428219600E-002  -7.4475028965743650E-003   5.4705189525231845E-002
   2.9208254646311965E-002  -6.3398324860200472E-003   5.8510195825747902E-002
   3.0719512864404330E-002  -6.4930188898042196E-003   5.7588086327272914E-002
   3.2230771082496668E-002  -7.9070621079271250E-003   5.1938861029806632E-002
   3.3742029300589060E-002  -1.0581962140388423E-002   4.1562519933348918E-002
   5.7141714067420739E-002   0.0000000000000000        3.4690281275226775E-002
   5.7934259304299608E-002  -2.0778212874580336E-003   3.8361843662024844E-002
   5.8726804541178478E-002  -4.1276247153205978E-003   4.2237676032083421E-002
   5.9519349778057347E-002  -6.1494102835877029E-003   4.6317778385402478E-002
   6.0311895014936209E-002  -8.1431779922593352E-003   5.0602150721982042E-002
   4.8653441670479552E-002   0.0000000000000000        3.2796120181080544E-002
   4.9587286485809276E-002  -1.7045972960385370E-003   3.6985231389304332E-002
   5.0521131301138993E-002  -3.4254052420807698E-003   4.1252671771169314E-002
   5.1454976116468709E-002  -5.1624238381267097E-003   4.5598441326675510E-002
   5.2388820931798433E-002  -6.9156530841763464E-003   5.0022540055822899E-002
   4.0739784894977843E-002   0.0000000000000000        3.1297297333153402E-002
   4.1688988479139120E-002  -1.3313733046190386E-003   3.5959728853203726E-002
   4.2638192063300391E-002  -2.7231857688409453E-003   4.0574548737275951E-002
   4.3587395647461669E-002  -4.1754373926657269E-003   4.5141756985370103E-002
   4.4536599231622946E-002  -5.6881281760933714E-003   4.9661353597486149E-002
   3.3400743740915596E-002   0.0000000000000000        3.0193812731445342E-002
   3.4239365284289142E-002  -9.5814931319954024E-004   3.5285336053723033E-002
   3.5077986827662680E-002  -2.0209662956011190E-003   4.0203306930403346E-002
   3.5916608371036218E-002  -3.1884509472047363E-003   4.4947725361486279E-002
   3.6755229914409764E-002  -4.4606032680103895E-003   4.9518591346971820E-002
   2.6636318208292823E-002   0.0000000000000000        2.9485666375956357E-002
   2.7238416901259339E-002  -5.8492532178004361E-004   3.4962052990862254E-002
   2.7840515594225852E-002  -1.3187468223612910E-003   4.0138946350551478E-002
   2.8442614287192369E-002  -2.2014645017437526E-003   4.5016346455024031E-002
   2.9044712980158885E-002  -3.2330783599274094E-003   4.9594253304279891E-002
   6.0311895014936209E-002  -8.1431779922593352E-003   5.0602150721982042E-002
   6.0592592942926987E-002  -1.0022271035746287E-002   5.1506935662465829E-002
   6.0873290870917772E-002  -1.1700032608459376E-002   5.2226570387326518E-002
   6.1153988798908550E-002  -1.3176462710398573E-002   5.2761054896564082E-002
   6.1434686726899335E-002  -1.4451561341563890E-002   5.3110389190178575E-002
   5.2388820931798433E-002  -6.9156530841763464E-003   5.0022540055822899E-002
   5.2517531545748383E-002  -8.5796536439708589E-003   5.1229340027495206E-002
   5.2646242159698355E-002  -1.0048986181251411E-002   5.2317315586709032E-002
   5.2774952773648340E-002  -1.1323650696017977E-002   5.3286466733464335E-002
   5.2903663387598304E-002  -1.2403647188270604E-002   5.4136793467761117E-002
   4.4536599231622946E-002  -5.6881281760933714E-003   4.9661353597486149E-002
   4.4579648334696700E-002  -7.1370362521954341E-003   5.1163505152087084E-002
   4.4622697437770462E-002  -8.3979397540434441E-003   5.2613158097394114E-002
   4.4665746540844216E-002  -9.4708386816374085E-003   5.4010312433407218E-002
   4.4708795643917963E-002  -1.0355733034977319E-002   5.5354968160126410E-002
   3.6755229914409764E-002  -4.4606032680103895E-003   4.9518591346971820E-002
   3.6778943309771911E-002  -5.6944188604199971E-003   5.1309431036241443E-002
   3.6802656705134058E-002  -6.7468933268354887E-003   5.3114097919381757E-002
   3.6826370100496199E-002  -7.6180266672568366E-003   5.4932591996392770E-002
   3.6850083495858353E-002  -8.3078188816840468E-003   5.6764913267274453E-002
   2.9044712980158885E-002  -3.2330783599274094E-003   4.9594253304279891E-002
   2.9115416470974025E-002  -4.2518014686445792E-003   5.1667117679958297E-002
   2.9186119961789166E-002  -5.0958468996275142E-003   5.3820135052671990E-002
   2.9256823452604299E-002  -5.7652146528762585E-003   5.6053305422420985E-002
   2.9327526943419439E-002  -6.2599047283907541E-003   5.8366628789205240E-002
   6.1434686726899335E-002  -1.4451561341563890E-002   5.3110389190178575E-002
   6.0148704112605207E-002  -1.5440457331198039E-002   5.1798501521937178E-002
   5.8862721498311080E-002  -1.6058279508543626E-002   5.0843816079401929E-002
   5.7576738884016952E-002  -1.6305027873600712E-002   5.0246332862572872E-002
   5.6290756269722811E-002  -1.6180702426369348E-002   5.0006051871449908E-002
   5.2903663387598304E-002  -1.2403647188270604E-002   5.4136793467761117E-002
   5.1942978942713394E-002  -1.3238879392450147E-002   5.3462124521803850E-002
   5.0982294497828484E-002  -1.3779251042997544E-002   5.3080849688958903E-002
   5.0021610052943595E-002  -1.4024762139912696E-002   5.2992968969226228E-002
   4.9060925608058692E-002  -1.3975412683195659E-002   5.3198482362605826E-002
   4.4708795643917963E-002  -1.0355733034977319E-002   5.5354968160126410E-002
   4.4009601255848421E-002  -1.1037301453702301E-002   5.5241304677796962E-002
   4.3310406867778886E-002  -1.1500222577451393E-002   5.5357227195985917E-002
   4.2611212479709344E-002  -1.1744496406224627E-002   5.5702735714693336E-002
   4.1912018091639816E-002  -1.1770122940021985E-002   5.6277830233919190E-002
   3.6850083495858353E-002  -8.3078188816840468E-003   5.6764913267274453E-002
   3.6348571052010316E-002  -8.8357235149544248E-003   5.7136041989916501E-002
   3.5847058608162286E-002  -9.2211941119052562E-003   5.7672948600483102E-002
   3.5345546164314241E-002  -9.4642306725365843E-003   5.8375633098974242E-002
   3.4844033720466218E-002  -9.5648331968483449E-003   5.9244095485390016E-002
   2.9327526943419439E-002  -6.2599047283907541E-003   5.8366628789205240E-002
   2.8959888331199047E-002  -6.6341455762065661E-003   5.9146336458162439E-002
   2.8592249718978655E-002  -6.9421656463591625E-003   6.0028013902450328E-002
   2.8224611106758262E-002  -7.1839649388485138E-003   6.1011661122068891E-002
   2.7856972494537870E-002  -7.3595434536746218E-003   6.2097278117018234E-002
   5.6290756269722811E-002  -1.6180702426369348E-002   5.0006051871449908E-002
   5.4610215955849528E-002  -1.5861957363630330E-002   4.9496680047316721E-002
   5.2929675641976225E-002  -1.5525446882164562E-002   4.9495664484991528E-002
   5.1249135328102921E-002  -1.5171170981972015E-002   5.0003005184474550E-002
   4.9568595014229638E-002  -1.4799129663052718E-002   5.1018702145765732E-002
   4.9060925608058692E-002  -1.3975412683195659E-002   5.3198482362605826E-002
   4.7820763751913534E-002  -1.3761360029990038E-002   5.2728211508673781E-002
   4.6580601895768396E-002  -1.3512761537439411E-002   5.2630341308389963E-002
   4.5340440039623231E-002  -1.3229617205543553E-002   5.2904871761754194E-002
   4.4100278183478087E-002  -1.2911927034302800E-002   5.3551802868766762E-002
   4.1912018091639816E-002  -1.1770122940021985E-002   5.6277830233919190E-002
   4.0976279085062857E-002  -1.1660762696349775E-002   5.5863440770806599E-002
   4.0040540078485912E-002  -1.1500076192714176E-002   5.5685496353182318E-002
   3.9104801071908959E-002  -1.1288063429115147E-002   5.5743996981046248E-002
   3.8169062065332035E-002  -1.1024724405552813E-002   5.6038942654398370E-002
   3.4844033720466218E-002  -9.5648331968483449E-003   5.9244095485390016E-002
   3.4076761955297519E-002  -9.5601653627094829E-003   5.8902367833715330E-002
   3.3309490190128792E-002  -9.4873908479888858E-003   5.8661129619368792E-002
   3.2542218424960093E-002  -9.3465096526867408E-003   5.8520380842350637E-002
   3.1774946659791387E-002  -9.1375217768028330E-003   5.8480121502660687E-002
   2.7856972494537870E-002  -7.3595434536746218E-003   6.2097278117018234E-002
   2.7122212362617464E-002  -7.4595680290692398E-003   6.1844992697399653E-002
   2.6387452230697061E-002  -7.4747055032637552E-003   6.1557241106949379E-002
   2.5652692098776658E-002  -7.4049558762582842E-003   6.1234023345667403E-002
   2.4917931966856238E-002  -7.2503191480528806E-003   6.0875339413553803E-002
   4.9568595014229638E-002  -1.4799129663052718E-002   5.1018702145765732E-002
   4.8415457264140330E-002  -1.4407834949964837E-002   5.1478144776660628E-002
   4.7262319514050993E-002  -1.3995798867266547E-002   5.1582828748963125E-002
   4.6109181763961685E-002  -1.3563021414957565E-002   5.1332754062673257E-002
   4.4956044013872348E-002  -1.3109502593038114E-002   5.0727920717790920E-002
   4.4100278183478087E-002  -1.2911927034302800E-002   5.3551802868766762E-002
   4.2695588489767781E-002  -1.2567299798990378E-002   5.3671587756442901E-002
   4.1290898796057490E-002  -1.2203344274879811E-002   5.3643027415469516E-002
   3.9886209102347185E-002  -1.1820060461970974E-002   5.3466121845846593E-002
   3.8481519408636894E-002  -1.1417448360264038E-002   5.3140871047574145E-002
   3.8169062065332035E-002  -1.1024724405552813E-002   5.6038942654398370E-002
   3.6719233857943637E-002  -1.0726764648015835E-002   5.5817656718043389E-002
   3.5269405650555218E-002  -1.0410889682493100E-002   5.5654438982981946E-002
   3.3819577443166826E-002  -1.0077099508984382E-002   5.5549289449213710E-002
   3.2369749235778428E-002  -9.7253941274899613E-003   5.5502208116738852E-002
   3.1774946659791387E-002  -9.1375217768028330E-003   5.8480121502660687E-002
   3.0486393368667795E-002  -8.8862294970413758E-003   5.7916351661462369E-002
   2.9197840077544189E-002  -8.6184350901064594E-003   5.7617063451500229E-002
   2.7909286786420580E-002  -8.3341385559978463E-003   5.7582256872774448E-002
   2.6620733495296992E-002  -8.0333398947158852E-003   5.7811931925284790E-002
   2.4917931966856238E-002  -7.2503191480528806E-003   6.0875339413553803E-002
   2.3997067021940321E-002  -7.0456943460668608E-003   5.9967672586699744E-002
   2.3076202077024391E-002  -6.8259804977197011E-003   5.9530900821024704E-002
   2.2155337132108474E-002  -6.5911776030112400E-003   5.9565024116528913E-002
   2.1234472187192543E-002  -6.3412856619417535E-003   6.0070042473212237E-002
   4.4956044013872348E-002  -1.3109502593038114E-002   5.0727920717790920E-002
   4.3120245338696461E-002  -1.2664286054417717E-002   4.9629566382452361E-002
   4.1284446663520574E-002  -1.2256415452005301E-002   4.8887482414722655E-002
   3.9448647988344701E-002  -1.1885890785801354E-002   4.8501668814601342E-002
   3.7612849313168800E-002  -1.1552712055805270E-002   4.8472125582088632E-002
   3.8481519408636894E-002  -1.1417448360264038E-002   5.3140871047574145E-002
   3.6984092238410413E-002  -1.1016696975528900E-002   5.2357174452478727E-002
   3.5486665068183904E-002  -1.0638995313535113E-002   5.1893950499673325E-002
   3.3989237897957408E-002  -1.0284343374283089E-002   5.1751199189158215E-002
   3.2491810727730885E-002  -9.9527411577726710E-003   5.1928920520933342E-002
   3.2369749235778428E-002  -9.7253941274899613E-003   5.5502208116738852E-002
   3.1174895845182959E-002  -9.3691078966401387E-003   5.5047465475352844E-002
   2.9980042454587463E-002  -9.0215751750651399E-003   5.4877397750938715E-002
   2.8785189063991981E-002  -8.6827959627651542E-003   5.4992004943496292E-002
   2.7590335673396492E-002  -8.3527702597400999E-003   5.5391287053025776E-002
   2.6620733495296992E-002  -8.0333398947158852E-003   5.7811931925284790E-002
   2.5692656159014150E-002  -7.7215188177512661E-003   5.7700439451075045E-002
   2.4764578822731288E-002  -7.4041550365950039E-003   5.7837824168518653E-002
   2.3836501486448454E-002  -7.0812485512471096E-003   5.8224086077615790E-002
   2.2908424150165613E-002  -6.7527993617075149E-003   5.8859225178366240E-002
   2.1234472187192543E-002  -6.3412856619417535E-003   6.0070042473212237E-002
   2.0537373179903951E-002  -6.0739297388625879E-003   6.0316096379645162E-002
   1.9840274172615371E-002  -5.7867348981250066E-003   6.0775229752413257E-002
   1.9143175165326785E-002  -5.4797011397291553E-003   6.1447442591516327E-002
   1.8446076158038199E-002  -5.1528284636749300E-003   6.2332734896954622E-002
   3.7612849313168800E-002  -1.1552712055805270E-002   4.8472125582088632E-002
   3.5133886091931493E-002  -1.1060257161934484E-002   4.7611940233355243E-002
   3.2654922870694200E-002  -1.0211904004105585E-002   4.8364055774301223E-002
   3.0175959649456900E-002  -9.0076525823192082E-003   5.0728472204926781E-002
   2.7696996428219600E-002  -7.4475028965743650E-003   5.4705189525231845E-002
   3.2491810727730885E-002  -9.9527411577726710E-003   5.1928920520933342E-002
   3.1330442409251161E-002  -9.5389627625310780E-003   5.1265242888462348E-002
   3.0169074090771381E-002  -8.9377822870858603E-003   5.1624454171826928E-002
   2.9007705772291607E-002  -8.1491997314369069E-003   5.3006554371027081E-002
   2.7846337453811834E-002  -7.1732150955839957E-003   5.5411543486062920E-002
   2.7590335673396492E-002  -8.3527702597400999E-003   5.5391287053025776E-002
   2.7157150283830402E-002  -8.0176683631277834E-003   5.4755620953062994E-002
   2.6723964894264342E-002  -7.6636605700659208E-003   5.4553431795091929E-002
   2.6290779504698270E-002  -7.2907468805546074E-003   5.4784719579112684E-002
   2.5857594115132193E-002  -6.8989272945937374E-003   5.5449484305125002E-002
   2.2908424150165613E-002  -6.7527993617075149E-003   5.8859225178366240E-002
   2.2614009715669355E-002  -6.4963739637245166E-003   5.8083074427157502E-002
   2.2319595281173058E-002  -6.3895388530459778E-003   5.7150988644096588E-002
   2.2025180846676779E-002  -6.4322940296723625E-003   5.6062967829183415E-002
   2.1730766412180504E-002  -6.6246394936033681E-003   5.4819011982418238E-002
   1.8446076158038199E-002  -5.1528284636749300E-003   6.2332734896954622E-002
   1.7701020704767867E-002  -4.9750795643211110E-003   6.1247603310745469E-002
   1.6955965251497548E-002  -5.1154171360262152E-003   5.9417124718840475E-002
   1.6210909798227216E-002  -5.5738411787899962E-003   5.6841299121239516E-002
   1.5465854344956884E-002  -6.3503516926130543E-003   5.3520126517942301E-002
   2.7696996428219600E-002  -7.4475028965743650E-003   5.4705189525231845E-002
   2.9208254646311965E-002  -6.3398324860200472E-003   5.8510195825747902E-002
   3.0719512864404330E-002  -6.4930188898042196E-003   5.7588086327272914E-002
   3.2230771082496668E-002  -7.9070621079271250E-003   5.1938861029806632E-002
   3.3742029300589060E-002  -1.0581962140388423E-002   4.1562519933348918E-002
   2.7846337453811834E-002  -7.1732150955839957E-003   5.5411543486062920E-002
   2.5685969555962043E-002  -6.3305394054904429E-003   5.7276516712326031E-002
   2.3525601658112218E-002  -5.9418836871186487E-003   5.6525353505696291E-002
   2.1365233760262451E-002  -6.0072479404688559E-003   5.3158053866173283E-002
   1.9204865862412601E-002  -6.5266321655408355E-003   4.7174617793757312E-002
   2.5857594115132193E-002  -6.8989272945937374E-003   5.5449484305125002E-002
   2.2136579467438411E-002  -6.3212463249606998E-003   5.6181261299751789E-002
   1.8415564819744656E-002  -5.3907484844327586E-003   5.6407881227583542E-002
   1.4694550172050902E-002  -4.1074337730103681E-003   5.6129344088620976E-002
   1.0973535524357134E-002  -2.4713021906931365E-003   5.5345649882863113E-002
   2.1730766412180504E-002  -6.6246394936033681E-003   5.4819011982418238E-002
   1.8560084380741020E-002  -6.3119532444309151E-003   5.5224429588025266E-002
   1.5389402349301563E-002  -4.8396132817471946E-003   5.7235669492935751E-002
   1.2218720317862128E-002  -2.2076196055521562E-003   6.0852731697149512E-002
   9.0480382864226265E-003   1.5840277841545070E-003   6.6075616200666529E-002
   1.5465854344956884E-002  -6.3503516926130543E-003   5.3520126517942301E-002
   1.4956484295869932E-002  -6.3026601639011859E-003   5.4406021577146135E-002
   1.4447114246782973E-002  -4.2884780790612836E-003   5.9008718301751723E-002
   1.3937744197696004E-002  -3.0780543809360780E-004   6.7328216691758716E-002
   1.3428374148609090E-002   5.6393577590021504E-003   7.9364516747167713E-002
   2.6636318208292823E-002   0.0000000000000000        2.9485666375956357E-002
   2.7238416901259339E-002  -5.8492532178004361E-004   3.4962052990862254E-002
   2.7840515594225852E-002  -1.3187468223612910E-003   4.0138946350551478E-002
   2.8442614287192369E-002  -2.2014645017437526E-003   4.5016346455024031E-002
   2.9044712980158885E-002  -3.2330783599274094E-003   4.9594253304279891E-002
   2.0114566055526868E-002   0.0000000000000000        2.9038185743640345E-002
   2.0454666026135219E-002  -4.4030226289803499E-004   3.4332531709632866E-002
   2.0794765996743562E-002  -9.9224098708696178E-004   3.9402373486125714E-002
   2.1134865967351910E-002  -1.6558161725667812E-003   4.4247711073118902E-002
   2.1474965937960260E-002  -2.4310278193374960E-003   4.8868544470612424E-002
   1.3503545041035089E-002   0.0000000000000000        2.8716698311451180E-002
   1.3656635355002274E-002  -2.9567920401602638E-004   3.3866263346040634E-002
   1.3809725668969460E-002  -6.6573515181263167E-004   3.8866313256847439E-002
   1.3962815982936645E-002  -1.1101678433898159E-003   4.3716848043871583E-002
   1.4115906296903829E-002  -1.6289772787475782E-003   4.8417867707113052E-002
   6.8032551648174785E-003   0.0000000000000000        2.8521204079388868E-002
   6.8443248878605079E-003  -1.5105614513401819E-004   3.3563247900085580E-002
   6.8853946109035374E-003  -3.3922931653830113E-004   3.8530765662716633E-002
   6.9264643339465685E-003  -5.6451951421284926E-004   4.3423757367282038E-002
   6.9675340569895971E-003  -8.2692673815766256E-004   4.8242223013781803E-002
   1.3696426874041864E-005   0.0000000000000000        2.8451703047453411E-002
   1.7734624709921966E-005  -6.4330862520100077E-006   3.3423485371767689E-002
   2.1772822545800550E-005  -1.2723481263970590E-005   3.8395730703733318E-002
   2.5811020381680760E-005  -1.8871185035882615E-005   4.3368439043350304E-002
   2.9849218217560102E-005  -2.4876197567746082E-005   4.8341610390618649E-002
   2.9044712980158885E-002  -3.2330783599274094E-003   4.9594253304279891E-002
   2.9115416470974025E-002  -4.2518014686445792E-003   5.1667117679958297E-002
   2.9186119961789166E-002  -5.0958468996275142E-003   5.3820135052671990E-002
   2.9256823452604299E-002  -5.7652146528762585E-003   5.6053305422420985E-002
   2.9327526943419439E-002  -6.2599047283907541E-003   5.8366628789205240E-002
   2.1474965937960260E-002  -2.4310278193374960E-003   4.8868544470612424E-002
   2.1601992664772175E-002  -3.1968300266589384E-003   5.1280832995356330E-002
   2.1729019391584104E-002  -3.8321768937909246E-003   5.3725614995058527E-002
   2.1856046118396023E-002  -4.3370684207335013E-003   5.6202890469718970E-002
   2.1983072845207948E-002  -4.7115046074866287E-003   5.8712659419337732E-002
   1.4115906296903829E-002  -1.6289772787475782E-003   4.8417867707113052E-002
   1.4251596737635517E-002  -2.1418585846732984E-003   5.1125358043377700E-002
   1.4387287178367203E-002  -2.5685068879543688E-003   5.3817682332523625E-002
   1.4522977619098893E-002  -2.9089221885907697E-003   5.6494840574550780E-002
   1.4658668059830574E-002  -3.1631044865825138E-003   5.9156832769459183E-002
   6.9675340569895971E-003  -8.2692673815766256E-004   4.8242223013781803E-002
   7.0642286895640323E-003  -1.0868871426876650E-003   5.1200692824022412E-002
   7.1609233221384683E-003  -1.3048368821177822E-003   5.4096337065067258E-002
   7.2576179547129017E-003  -1.4807759564480357E-003   5.6929155736916308E-002
   7.3543125872873360E-003  -1.6147043656783867E-003   5.9699148839569657E-002
   2.9849218217560102E-005  -2.4876197567746082E-005   4.8341610390618649E-002
   3.9888520557725474E-005  -3.1915700702021994E-005   5.1506837337290418E-002
   4.9927822897892797E-005  -4.1166876281216241E-005   5.4561579192689433E-002
   5.9967125238060011E-005  -5.2629724305286050E-005   5.7505835956815674E-002
   7.0006427578225491E-005  -6.6304244774259558E-005   6.0339607629669126E-002
   2.9327526943419439E-002  -6.2599047283907541E-003   5.8366628789205240E-002
   2.8959888331199047E-002  -6.6341455762065661E-003   5.9146336458162439E-002
   2.8592249718978655E-002  -6.9421656463591625E-003   6.0028013902450328E-002
   2.8224611106758262E-002  -7.1839649388485138E-003   6.1011661122068891E-002
   2.7856972494537870E-002  -7.3595434536746218E-003   6.2097278117018234E-002
   2.1983072845207948E-002  -4.7115046074866287E-003   5.8712659419337732E-002
   2.1716630932836597E-002  -4.9968382210843106E-003   5.9568628617539726E-002
   2.1450189020465249E-002  -5.2344220285605470E-003   6.0525021440109059E-002
   2.1183747108093905E-002  -5.4242560299153086E-003   6.1581837887045729E-002
   2.0917305195722546E-002  -5.5663402251485694E-003   6.2739077958349820E-002
   1.4658668059830574E-002  -3.1631044865825138E-003   5.9156832769459183E-002
   1.4491876696344927E-002  -3.3595308659620810E-003   6.0070592525364189E-002
   1.4325085332859281E-002  -3.5266784107619445E-003   6.1083229754673257E-002
   1.4158293969373639E-002  -3.6645471209820896E-003   6.2194744457386347E-002
   1.3991502605887990E-002  -3.7731369966225448E-003   6.3405136633503445E-002
   7.3543125872873360E-003  -1.6147043656783867E-003   5.9699148839569657E-002
   7.2856256217240529E-003  -1.7222235108398177E-003   6.0652228181635973E-002
   7.2169386561607689E-003  -1.8189347929633425E-003   6.1702638846142924E-002
   7.1482516905974824E-003  -1.9048382120489052E-003   6.2850380833090636E-002
   7.0795647250341993E-003  -1.9799337680965062E-003   6.4095454142479011E-002
   7.0006427578225491E-005  -6.6304244774259558E-005   6.0339607629669126E-002
   9.7877708973958220E-005  -8.4916155717602859E-005   6.1313535586354939E-002
   1.2574899036969355E-004  -1.1119117516472654E-004   6.2383248714518127E-002
   1.5362027176542758E-004  -1.4512930311569999E-004   6.3548747014158607E-002
   1.8149155316116161E-004  -1.8673053957045382E-004   6.4810030485276490E-002
   2.7856972494537870E-002  -7.3595434536746218E-003   6.2097278117018234E-002
   2.7122212362617464E-002  -7.4595680290692398E-003   6.1844992697399653E-002
   2.6387452230697061E-002  -7.4747055032637552E-003   6.1557241106949379E-002
   2.5652692098776658E-002  -7.4049558762582842E-003   6.1234023345667403E-002
   2.4917931966856238E-002  -7.2503191480528806E-003   6.0875339413553803E-002
   2.0917305195722546E-002  -5.5663402251485694E-003   6.2739077958349820E-002
   2.0209070379221226E-002  -5.6558960209004833E-003   6.2633745780983421E-002
   1.9500835562719900E-002  -5.6881448238111781E-003   6.2616930405286819E-002
   1.8792600746218573E-002  -5.6630866338804424E-003   6.2688631831260069E-002
   1.8084365929717246E-002  -5.5807214511084391E-003   6.2848850058903144E-002
   1.3991502605887990E-002  -3.7731369966225448E-003   6.3405136633503445E-002
   1.3433776077307264E-002  -3.8522240127318412E-003   6.3419177590030490E-002
   1.2876049548726537E-002  -3.9015841443585213E-003   6.3645718320728906E-002
   1.2318323020145811E-002  -3.9212173915025598E-003   6.4084758825598664E-002
   1.1760596491565085E-002  -3.9111237541640115E-003   6.4736299104639766E-002
   7.0795647250341993E-003  -1.9799337680965062E-003   6.4095454142479011E-002
   6.7963294568755880E-003  -2.0485520045631835E-003   6.4201288124540803E-002
   6.5130941887169749E-003  -2.1150234649058765E-003   6.4643604853275541E-002
   6.2298589205583644E-003  -2.1793481491247531E-003   6.5422404328683167E-002
   5.9466236523997556E-003  -2.2415260572195492E-003   6.6537686550763642E-002
   1.8149155316116161E-004  -1.8673053957045382E-004   6.4810030485276490E-002
   2.9673051792618484E-004  -2.4487999639447033E-004   6.4980077384514431E-002
   4.1196948269121153E-004  -3.2846278545331162E-004   6.5610590002926850E-002
   5.2720844745623562E-004  -4.3747890674681374E-004   6.6701568340513537E-002
   6.4244741222126145E-004  -5.7192836027514238E-004   6.8253012397274715E-002
   2.4917931966856238E-002  -7.2503191480528806E-003   6.0875339413553803E-002
   2.3997067021940321E-002  -7.0456943460668608E-003   5.9967672586699744E-002
   2.3076202077024391E-002  -6.8259804977197011E-003   5.9530900821024704E-002
   2.2155337132108474E-002  -6.5911776030112400E-003   5.9565024116528913E-002
   2.1234472187192543E-002  -6.3412856619417535E-003   6.0070042473212237E-002
   1.8084365929717246E-002  -5.5807214511084391E-003   6.2848850058903144E-002
   1.7577240187595419E-002  -5.4603231176705430E-003   6.2410748150076731E-002
   1.7070114445473593E-002  -5.3211654757420804E-003   6.2329229585659354E-002
   1.6562988703351766E-002  -5.1632485253230737E-003   6.2604294365651181E-002
   1.6055862961229940E-002  -4.9865722664136636E-003   6.3235942490052016E-002
   1.1760596491565085E-002  -3.9111237541640115E-003   6.4736299104639766E-002
   1.1552898235467315E-002  -3.8749518892741835E-003   6.4771432375970411E-002
   1.1345199979369554E-002  -3.8163504537644631E-003   6.5048837274940069E-002
   1.1137501723271794E-002  -3.7353194476349083E-003   6.5568513801548725E-002
   1.0929803467174024E-002  -3.6318588708854349E-003   6.6330461955796588E-002
   5.9466236523997556E-003  -2.2415260572195492E-003   6.6537686550763642E-002
   5.9240411655560191E-003  -2.2895806608779004E-003   6.7049725264380633E-002
   5.9014586787122774E-003  -2.3115354317868719E-003   6.7689723888866613E-002
   5.8788761918685435E-003  -2.3073903699466869E-003   6.8457682424221636E-002
   5.8562937050248079E-003  -2.2771454753573311E-003   6.9353600870445620E-002
   6.4244741222126145E-004  -5.7192836027514238E-004   6.8253012397274715E-002
   6.9066897786151243E-004  -7.0420943248149237E-004   6.9245626815307437E-002
   7.3889054350176515E-004  -8.0672040980921123E-004   7.0251889427439096E-002
   7.8711210914201614E-004  -8.7946129225847589E-004   7.1271800233669719E-002
   8.3533367478226886E-004  -9.2243207982906084E-004   7.2305359233999389E-002
   2.1234472187192543E-002  -6.3412856619417535E-003   6.0070042473212237E-002
   2.0537373179903951E-002  -6.0739297388625879E-003   6.0316096379645162E-002
   1.9840274172615371E-002  -5.7867348981250066E-003   6.0775229752413257E-002
   1.9143175165326785E-002  -5.4797011397291553E-003   6.1447442591516327E-002
   1.8446076158038199E-002  -5.1528284636749300E-003   6.2332734896954622E-002
   1.6055862961229940E-002  -4.9865722664136636E-003   6.3235942490052016E-002
   1.5560097513751307E-002  -4.8070335206723824E-003   6.3526202513282171E-002
   1.5064332066272685E-002  -4.6405291097583110E-003   6.4006050189797145E-002
   1.4568566618794054E-002  -4.4870590336713433E-003   6.4675485519597092E-002
   1.4072801171315423E-002  -4.3466232924112558E-003   6.5534508502681693E-002
   1.0929803467174024E-002  -3.6318588708854349E-003   6.6330461955796588E-002
   1.0611879766455102E-002  -3.5401373024823296E-003   6.6632054843338562E-002
   1.0293956065736191E-002  -3.4943233213916153E-003   6.7099743571115089E-002
   9.9760323650172743E-003  -3.4944169276133093E-003   6.7733528139126142E-002
   9.6581086642983580E-003  -3.5404181211474706E-003   6.8533408547371930E-002
   5.8562937050248079E-003  -2.2771454753573311E-003   6.9353600870445620E-002
   5.6927199380153518E-003  -2.2732410842920894E-003   6.9633653369814003E-002
   5.5291461710058982E-003  -2.3481175330248086E-003   7.0056309896366797E-002
   5.3655724039964429E-003  -2.5017748215553307E-003   7.0621570450103921E-002
   5.2019986369869885E-003  -2.7342129498837131E-003   7.1329435031025359E-002
   8.3533367478226886E-004  -9.2243207982906084E-004   7.2305359233999389E-002
   8.0261802843203944E-004  -1.0063448661020713E-003   7.2530998092708826E-002
   7.6990238208180656E-004  -1.2019117446582517E-003   7.2875749165552450E-002
   7.3718673573157714E-004  -1.5091327154976367E-003   7.3339612452530234E-002
   7.0447108938134773E-004  -1.9280077786200112E-003   7.3922587953641983E-002
   1.8446076158038199E-002  -5.1528284636749300E-003   6.2332734896954622E-002
   1.7701020704767867E-002  -4.9750795643211110E-003   6.1247603310745469E-002
   1.6955965251497548E-002  -5.1154171360262152E-003   5.9417124718840475E-002
   1.6210909798227216E-002  -5.5738411787899962E-003   5.6841299121239516E-002
   1.5465854344956884E-002  -6.3503516926130543E-003   5.3520126517942301E-002
   1.4072801171315423E-002  -4.3466232924112558E-003   6.5534508502681693E-002
   1.2791384606806178E-002  -4.2765946878423611E-003   6.4394012085828289E-002
   1.1509968042296929E-002  -4.3343460218286667E-003   6.2926140452193066E-002
   1.0228551477787675E-002  -4.5198772943704987E-003   6.1130893601776114E-002
   8.9471349132784206E-003  -4.8331885054673229E-003   5.9008271534577106E-002
   9.6581086642983580E-003  -3.5404181211474706E-003   6.8533408547371930E-002
   8.2583027774643172E-003  -3.5781098113636528E-003   6.7527853832377915E-002
   6.8584968906303008E-003  -3.5532749076312778E-003   6.6612895689516227E-002
   5.4586910037962705E-003  -3.4659134099507220E-003   6.5788534118786879E-002
   4.0588851169622471E-003  -3.3160253183216193E-003   6.5054769120189634E-002
   5.2019986369869885E-003  -2.7342129498837131E-003   7.1329435031025359E-002
   4.1017752167423361E-003  -2.8796249348848404E-003   7.0649128550394347E-002
   3.0015517964976654E-003  -2.7722037934339201E-003   7.0477390430809903E-002
   1.9013283762530043E-003  -2.4119495255309738E-003   7.0814220672271791E-002
   8.0110495600834320E-004  -1.7988621311757907E-003   7.1659619274780095E-002
   7.0447108938134773E-004  -1.9280077786200112E-003   7.3922587953641983E-002
   3.2180192464019083E-004  -2.1811400584061946E-003   7.3757836239877694E-002
  -6.0867240100962589E-005  -1.9911326792365763E-003   7.4519624676074064E-002
  -4.4353640484212122E-004  -1.3579856411114234E-003   7.6207953262230940E-002
  -8.2620556958327290E-004  -2.8169894403023976E-004   7.8822821998348391E-002
   1.5465854344956884E-002  -6.3503516926130543E-003   5.3520126517942301E-002
   1.4956484295869932E-002  -6.3026601639011859E-003   5.4406021577146135E-002
   1.4447114246782973E-002  -4.2884780790612836E-003   5.9008718301751723E-002
   1.3937744197696004E-002  -3.0780543809360780E-004   6.7328216691758716E-002
   1.3428374148609090E-002   5.6393577590021504E-003   7.9364516747167713E-002
   8.9471349132784206E-003  -4.8331885054673229E-003   5.9008271534577106E-002
   1.1253386415055508E-002  -4.8961349364834983E-003   6.1920956142027972E-002
   1.3559637916832581E-002  -4.3305718687830369E-003   6.6748082185805441E-002
   1.5865889418609627E-002  -3.1364993023663378E-003   7.3489649665908749E-002
   1.8172140920386742E-002  -1.3139172372329533E-003   8.2145658582339243E-002
   4.0588851169622471E-003  -3.3160253183216193E-003   6.5054769120189634E-002
   7.3783979405281433E-003  -3.4896097090656719E-003   6.8656262218476080E-002
   1.0697910764094038E-002  -4.3726656585049081E-003   7.2369836524013464E-002
   1.4017423587659956E-002  -5.9651931666390139E-003   7.6195492036802315E-002
   1.7336936411225828E-002  -8.2671922334682790E-003   8.0133228756842201E-002
   8.0110495600834320E-004  -1.7988621311757907E-003   7.1659619274780095E-002
   3.3315188722878681E-003  -2.0830844816478594E-003   7.4611939806490377E-002
   5.8619327885673974E-003  -4.4147594482268314E-003   7.5873981316376710E-002
   8.3923467048469137E-003  -8.7938870309118289E-003   7.5445743804438914E-002
   1.0922760621126452E-002  -1.5220467229703549E-002   7.3327227270677392E-002
  -8.2620556958327290E-004  -2.8169894403023976E-004   7.8822821998348391E-002
  -8.8725078966533227E-004  -6.7655925423021346E-004   7.9787988906071028E-002
  -9.4829600974739511E-004  -4.4568532379483244E-003   7.7260516562894482E-002
  -1.0093412298294701E-003  -1.1622580895184285E-002   7.1240404968818463E-002
  -1.0703864499115173E-003  -2.2173742225938708E-002   6.1727654123843623E-002
   1.3696426874041864E-005   0.0000000000000000        2.8451703047453411E-002
   1.7734624709921966E-005  -6.4330862520100077E-006   3.3423485371767689E-002
   2.1772822545800550E-005  -1.2723481263970590E-005   3.8395730703733318E-002
   2.5811020381680760E-005  -1.8871185035882615E-005   4.3368439043350304E-002
   2.9849218217560102E-005  -2.4876197567746082E-005   4.8341610390618649E-002
  -6.7768224441476484E-003   0.0000000000000000        2.8509421587370597E-002
  -6.8100675019326720E-003   1.4054035367357283E-004   3.3549476431569129E-002
  -6.8433125597176965E-003   3.1827839128147333E-004   3.8514501756874507E-002
  -6.8765576175027175E-003   5.3321411282370064E-004   4.3404497563286716E-002
  -6.9098026752877420E-003   7.8534751830026343E-004   4.8219463850805784E-002
  -1.3479992719600016E-002   0.0000000000000000        2.8695586070866225E-002
  -1.3626013559550454E-002   2.8751379359915523E-004   3.3840968427643295E-002
  -1.3772034399500890E-002   6.4928026382691812E-004   3.8835828738982690E-002
  -1.3918055239451329E-002   1.0852994106832856E-003   4.3680167004884411E-002
  -1.4064076079401765E-002   1.5955712341682656E-003   4.8373983225348485E-002
  -2.0095814399483061E-002   0.0000000000000000        2.9010196497940299E-002
  -2.0430103548143425E-002   4.3448723352473742E-004   3.4297961359990171E-002
  -2.0764392696803788E-002   9.8028213637236334E-004   3.9359711650057874E-002
  -2.1098681845464148E-002   1.6373847085428715E-003   4.4195447368143397E-002
  -2.1432970994124514E-002   2.4057949500362677E-003   4.8805168514246725E-002
  -2.6624287483796787E-002   0.0000000000000000        2.9453252868592815E-002
  -2.7222337467711584E-002   5.8146067345032047E-004   3.4920455228609787E-002
  -2.7820387451626384E-002   1.3112840089178068E-003   4.0086150490100073E-002
  -2.8418437435541184E-002   2.1894700064024521E-003   4.4950338653063651E-002
  -2.9016487419455988E-002   3.2160186659042772E-003   4.9513019717500550E-002
   2.9849218217560102E-005  -2.4876197567746082E-005   4.8341610390618649E-002
   3.9888520557725474E-005  -3.1915700702021994E-005   5.1506837337290418E-002
   4.9927822897892797E-005  -4.1166876281216241E-005   5.4561579192689433E-002
   5.9967125238060011E-005  -5.2629724305286050E-005   5.7505835956815674E-002
   7.0006427578225491E-005  -6.6304244774259558E-005   6.0339607629669126E-002
  -6.9098026752877420E-003   7.8534751830026343E-004   4.8219463850805784E-002
  -6.9877441403319923E-003   1.0340242916257771E-003   5.1169412300416550E-002
  -7.0656856053762426E-003   1.2385901167148424E-003   5.4053884306531241E-002
  -7.1436270704204980E-003   1.3990449935675216E-003   5.6872879869149878E-002
  -7.2215685354647492E-003   1.5153889221837524E-003   5.9626398988272454E-002
  -1.4064076079401765E-002   1.5955712341682656E-003   4.8373983225348485E-002
  -1.4184989664053717E-002   2.0999642839535765E-003   5.1066753902106694E-002
  -1.4305903248705672E-002   2.5183471097109146E-003   5.3739056783145556E-002
  -1.4426816833357625E-002   2.8507197114403362E-003   5.6390891868465076E-002
  -1.4547730418009584E-002   3.0970820891417714E-003   5.9022259158065263E-002
  -2.1432970994124514E-002   2.4057949500362677E-003   4.8805168514246725E-002
  -2.1551848050607447E-002   3.1659042762813691E-003   5.1198862142360857E-002
  -2.1670725107090387E-002   3.7981041027069940E-003   5.3617096622532369E-002
  -2.1789602163573327E-002   4.3023944293131269E-003   5.6059871954761240E-002
  -2.1908479220056266E-002   4.6787752560997938E-003   5.8527188139047483E-002
  -2.9016487419455988E-002   3.2160186659042772E-003   4.9513019717500550E-002
  -2.9088319299993191E-002   4.2318442686091820E-003   5.1565737021179080E-002
  -2.9160151180530395E-002   5.0778610957030474E-003   5.3688003824691688E-002
  -2.9231983061067595E-002   5.7540691471859619E-003   5.5879820128038403E-002
  -2.9303814941604802E-002   6.2604684230578092E-003   5.8141185931219190E-002
   7.0006427578225491E-005  -6.6304244774259558E-005   6.0339607629669126E-002
   9.7877708973958220E-005  -8.4916155717602859E-005   6.1313535586354939E-002
   1.2574899036969355E-004  -1.1119117516472654E-004   6.2383248714518127E-002
   1.5362027176542758E-004  -1.4512930311569999E-004   6.3548747014158607E-002
   1.8149155316116161E-004  -1.8673053957045382E-004   6.4810030485276490E-002
  -7.2215685354647492E-003   1.5153889221837524E-003   5.9626398988272454E-002
  -7.1008896547054817E-003   1.5981405006072827E-003   6.0547394023016225E-002
  -6.9802107739462150E-003   1.6578183268818672E-003   6.1558219085009705E-002
  -6.8595318931869501E-003   1.6944224010075008E-003   6.2658874174252907E-002
  -6.7388530124276834E-003   1.7079527229841712E-003   6.3849359290745852E-002
  -1.4547730418009584E-002   3.0970820891417714E-003   5.9022259158065263E-002
  -1.4340199082114409E-002   3.2811971569321995E-003   5.9874910627221813E-002
  -1.4132667746219241E-002   3.4268278289285026E-003   6.0811436979400460E-002
  -1.3925136410324074E-002   3.5339741051306876E-003   6.1831838214601177E-002
  -1.3717605074428905E-002   3.6026359855387893E-003   6.2936114332824006E-002
  -2.1908479220056266E-002   4.6787752560997938E-003   5.8527188139047483E-002
  -2.1620050573252829E-002   4.9642538132571076E-003   5.9296085398971680E-002
  -2.1331621926449384E-002   5.1958373309751171E-003   6.0142902397690351E-002
  -2.1043193279645947E-002   5.3735258092538676E-003   6.1067639135203466E-002
  -2.0754764632842506E-002   5.4973192480934525E-003   6.2070295611511069E-002
  -2.9303814941604802E-002   6.2604684230578092E-003   5.8141185931219190E-002
  -2.8940444128120722E-002   6.6473104695819948E-003   5.8810918338265877E-002
  -2.8577073314636645E-002   6.9648468330217508E-003   5.9552615339879419E-002
  -2.8213702501152561E-002   7.2130775133770874E-003   6.0366276936059747E-002
  -2.7850331687668491E-002   7.3920025106480464E-003   6.1251903126806936E-002
   1.8149155316116161E-004  -1.8673053957045382E-004   6.4810030485276490E-002
   2.9673051792618484E-004  -2.4487999639447033E-004   6.4980077384514431E-002
   4.1196948269121153E-004  -3.2846278545331162E-004   6.5610590002926850E-002
   5.2720844745623562E-004  -4.3747890674681374E-004   6.6701568340513537E-002
   6.4244741222126145E-004  -5.7192836027514238E-004   6.8253012397274715E-002
  -6.7388530124276834E-003   1.7079527229841712E-003   6.3849359290745852E-002
  -6.2440680973299264E-003   1.7025183010247677E-003   6.3859934390750800E-002
  -5.7492831822321660E-003   1.6822281433423007E-003   6.4169135672246858E-002
  -5.2544982671344090E-003   1.6470822499367347E-003   6.4776963135233956E-002
  -4.7597133520366486E-003   1.5970806208079058E-003   6.5683416779712192E-002
  -1.3717605074428905E-002   3.6026359855387893E-003   6.2936114332824006E-002
  -1.3005113746681736E-002   3.6499165984440890E-003   6.2797795230107631E-002
  -1.2292622418934578E-002   3.6929190721378558E-003   6.2796262771199027E-002
  -1.1580131091187417E-002   3.7316434066201718E-003   6.2931516956098138E-002
  -1.0867639763440245E-002   3.7660896018909262E-003   6.3203557784805034E-002
  -2.0754764632842506E-002   5.4973192480934525E-003   6.2070295611511069E-002
  -1.9986406430129257E-002   5.5973148958633687E-003   6.1793659902584966E-002
  -1.9218048227416004E-002   5.7036100009334673E-003   6.1491971299783274E-002
  -1.8449690024702762E-002   5.8162045633036504E-003   6.1165229803106035E-002
  -1.7681331821989509E-002   5.9350985829739467E-003   6.0813435412553143E-002
  -2.7850331687668491E-002   7.3920025106480464E-003   6.1251903126806936E-002
  -2.7187946147672476E-002   7.5447131932827038E-003   6.0847528408182694E-002
  -2.6525560607676472E-002   7.7143009297290059E-003   6.0256261257999606E-002
  -2.5863175067680468E-002   7.9007657199871954E-003   5.9478101676257625E-002
  -2.5200789527684456E-002   8.1041075640569671E-003   5.8513049662956673E-002
   6.4244741222126145E-004  -5.7192836027514238E-004   6.8253012397274715E-002
   6.9066897786151243E-004  -7.0420943248149237E-004   6.9245626815307437E-002
   7.3889054350176515E-004  -8.0672040980921123E-004   7.0251889427439096E-002
   7.8711210914201614E-004  -8.7946129225847589E-004   7.1271800233669719E-002
   8.3533367478226886E-004  -9.2243207982906084E-004   7.2305359233999389E-002
  -4.7597133520366486E-003   1.5970806208079058E-003   6.5683416779712192E-002
  -4.6579653441758424E-003   1.5388570399736401E-003   6.6024234762316225E-002
  -4.5562173363150413E-003   1.4790452914517360E-003   6.6458457435262297E-002
  -4.4544693284542377E-003   1.4176453752419230E-003   6.6986084798550574E-002
  -4.3527213205934341E-003   1.3546572913444022E-003   6.7607116852180960E-002
  -1.0867639763440245E-002   3.7660896018909262E-003   6.3203557784805034E-002
  -1.0632608817115719E-002   3.7819235124288489E-003   6.2861221069413983E-002
  -1.0397577870791198E-002   3.7648109927127041E-003   6.2692045540608199E-002
  -1.0162546924466675E-002   3.7147520427423478E-003   6.2696031198387750E-002
  -9.9275159781421502E-003   3.6317466625178929E-003   6.2873178042752609E-002
  -1.7681331821989509E-002   5.9350985829739467E-003   6.0813435412553143E-002
  -1.7233261440958107E-002   6.0249899848840195E-003   5.9756585736600691E-002
  -1.6785191059926704E-002   6.0505766939736617E-003   5.8952653743476698E-002
  -1.6337120678895305E-002   6.0118587102427319E-003   5.8401639433181197E-002
  -1.5889050297863895E-002   5.9088360336913698E-003   5.8103542805714024E-002
  -2.5200789527684456E-002   8.1041075640569671E-003   5.8513049662956673E-002
  -2.4459923215703002E-002   8.2680564573392040E-003   5.6710328763876411E-002
  -2.3719056903721558E-002   8.3363423952346402E-003   5.5240282043867786E-002
  -2.2978190591740104E-002   8.3089653777431490E-003   5.4102909502930750E-002
  -2.2237324279758653E-002   8.1859254048649022E-003   5.3298211141065477E-002
   8.3533367478226886E-004  -9.2243207982906084E-004   7.2305359233999389E-002
   8.0261802843203944E-004  -1.0063448661020713E-003   7.2530998092708826E-002
   7.6990238208180656E-004  -1.2019117446582517E-003   7.2875749165552450E-002
   7.3718673573157714E-004  -1.5091327154976367E-003   7.3339612452530234E-002
   7.0447108938134773E-004  -1.9280077786200112E-003   7.3922587953641983E-002
  -4.3527213205934341E-003   1.3546572913444022E-003   6.7607116852180960E-002
  -4.2439094021919088E-003   1.2621673384668741E-003   6.7383896568057516E-002
  -4.1350974837903939E-003   1.1122618153174627E-003   6.7324619199303465E-002
  -4.0262855653888660E-003   9.0494072189585030E-004   6.7429284745918847E-002
  -3.9174736469873538E-003   6.4020405820230941E-004   6.7697893207903481E-002
  -9.9275159781421502E-003   3.6317466625178929E-003   6.2873178042752609E-002
  -9.6323457937535807E-003   3.5306795430359306E-003   6.2255337137807253E-002
  -9.3371756093650095E-003   3.4264353752930660E-003   6.1846269849466687E-002
  -9.0420054249764417E-003   3.3190141592892818E-003   6.1645976177730814E-002
  -8.7468352405878705E-003   3.2084158950246855E-003   6.1654456122599635E-002
  -1.5889050297863895E-002   5.9088360336913698E-003   5.8103542805714024E-002
  -1.5362691146252969E-002   5.7991917476048760E-003   5.7145319801958104E-002
  -1.4836331994642052E-002   5.7406089352686693E-003   5.6440701116042102E-002
  -1.4309972843031132E-002   5.7330875966826855E-003   5.5989686747966158E-002
  -1.3783613691420208E-002   5.7766277318470061E-003   5.5792276697730223E-002
  -2.2237324279758653E-002   8.1859254048649022E-003   5.3298211141065477E-002
  -2.1434945459690075E-002   8.0677039521739047E-003   5.2053844560509932E-002
  -2.0632566639621507E-002   8.0547824952443836E-003   5.1107912999029725E-002
  -1.9830187819552939E-002   8.1471610340760614E-003   5.0460416456624899E-002
  -1.9027808999484364E-002   8.3448395686693266E-003   5.0111354933295271E-002
   7.0447108938134773E-004  -1.9280077786200112E-003   7.3922587953641983E-002
   3.2180192464019083E-004  -2.1811400584061946E-003   7.3757836239877694E-002
  -6.0867240100962589E-005  -1.9911326792365763E-003   7.4519624676074064E-002
  -4.4353640484212122E-004  -1.3579856411114234E-003   7.6207953262230940E-002
  -8.2620556958327290E-004  -2.8169894403023976E-004   7.8822821998348391E-002
  -3.9174736469873538E-003   6.4020405820230941E-004   6.7697893207903481E-002
  -3.5210748541578910E-003   5.0827317268850591E-004   6.7561335837311082E-002
  -3.1246760613284318E-003   6.9936941380617512E-004   6.8056374231899364E-002
  -2.7282772684989725E-003   1.2134927815551817E-003   6.9183008391668202E-002
  -2.3318784756695098E-003   2.0506432759357374E-003   7.0941238316617805E-002
  -8.7468352405878705E-003   3.2084158950246855E-003   6.1654456122599635E-002
  -7.8663128749677236E-003   3.1976864037832065E-003   6.1425980562854712E-002
  -6.9857905093475758E-003   3.3898715068488780E-003   6.1534156383510570E-002
  -6.1052681437274350E-003   3.7849712042217331E-003   6.1978983584567035E-002
  -5.2247457781072881E-003   4.3829854959016312E-003   6.2760462166024308E-002
  -1.3783613691420208E-002   5.7766277318470061E-003   5.5792276697730223E-002
  -1.2713912137789296E-002   5.8870996348779625E-003   5.5351770416508433E-002
  -1.1644210584158399E-002   6.0803735998914941E-003   5.4952971130907621E-002
  -1.0574509030527486E-002   6.3564496268881448E-003   5.4595878840927620E-002
  -9.5048074768965905E-003   6.7153277158675667E-003   5.4280493546568179E-002
  -1.9027808999484364E-002   8.3448395686693266E-003   5.0111354933295271E-002
  -1.8063872642622616E-002   8.5765128659725243E-003   4.9338705398272564E-002
  -1.7099936285760887E-002   8.7708756929342352E-003   4.8312818474090552E-002
  -1.6135999928899164E-002   8.9279280495546710E-003   4.7033694160749526E-002
  -1.5172063572037417E-002   9.0476699358333912E-003   4.5501332458249388E-002
  -8.2620556958327290E-004  -2.8169894403023976E-004   7.8822821998348391E-002
  -8.8725078966533227E-004  -6.7655925423021346E-004   7.9787988906071028E-002
  -9.4829600974739511E-004  -4.4568532379483244E-003   7.7260516562894482E-002
  -1.0093412298294701E-003  -1.1622580895184285E-002   7.1240404968818463E-002
  -1.0703864499115173E-003  -2.2173742225938708E-002   6.1727654123843623E-002
  -2.3318784756695098E-003   2.0506432759357374E-003   7.0941238316617805E-002
  -4.9816618040334423E-003   2.0978076525447198E-003   6.8778895452759808E-002
  -7.6314451323973593E-003   2.4197266697890962E-004   6.4931715623237379E-002
  -1.0281228460761294E-002  -3.5168616807614815E-003   5.9399698828050254E-002
  -1.2931011789125230E-002  -9.1786953906766167E-003   5.2182845067198613E-002
  -5.2247457781072881E-003   4.3829854959016312E-003   6.2760462166024308E-002
  -8.6554649295184343E-003   4.8721745593196253E-003   5.8953043841929162E-002
  -1.2086184080929589E-002   4.9407985719060951E-003   5.5268590837404007E-002
  -1.5516903232340723E-002   4.5888575336615178E-003   5.1707103152449349E-002
  -1.8947622383751868E-002   3.8163514445855862E-003   4.8268580787064086E-002
  -9.5048074768965905E-003   6.7153277158675667E-003   5.4280493546568179E-002
  -1.1908660166120306E-002   7.6465414660944336E-003   5.0310434073579310E-002
  -1.4312512855344021E-002   9.6396244768334159E-003   4.8271142205395023E-002
  -1.6716365544567752E-002   1.2694576748084420E-002   4.8162617942015581E-002
  -1.9120218233791467E-002   1.6811398279847678E-002   4.9984861283440929E-002
  -1.5172063572037417E-002   9.0476699358333912E-003   4.5501332458249388E-002
  -1.4741247513839068E-002   1.0420908372869520E-002   4.2851066147709949E-002
  -1.4310431455640735E-002   1.4338450381760487E-002   4.3939369727210076E-002
  -1.3879615397442405E-002   2.0800295962507480E-002   4.8766243196749326E-002
  -1.3448799339244047E-002   2.9806445115109881E-002   5.7331686556328254E-002
  -2.6624287483796787E-002   0.0000000000000000        2.9453252868592815E-002
  -2.7222337467711584E-002   5.8146067345032047E-004   3.4920455228609787E-002
  -2.7820387451626384E-002   1.3112840089178068E-003   4.0086150490100073E-002
  -2.8418437435541184E-002   2.1894700064024521E-003   4.4950338653063651E-002
  -2.9016487419455988E-002   3.2160186659042772E-003   4.9513019717500550E-002
  -3.3395630581660986E-002   0.0000000000000000        3.0159113124476479E-002
  -3.4232153300105504E-002   9.5665446698012680E-004   3.5242655854483267E-002
  -3.5068676018550030E-002   2.0177355292693260E-003   4.0150760213957297E-002
  -3.5905198736994541E-002   3.1832431868675974E-003   4.4883426202898584E-002
  -3.6741721455439073E-002   4.4531774397749396E-003   4.9440653821307121E-002
  -4.0740062302195477E-002   0.0000000000000000        3.1262135207243996E-002
  -4.1688989027175778E-002   1.3318482605099340E-003   3.5918082240532501E-002
  -4.2637915752156065E-002   2.7241870496208485E-003   4.0524659631282191E-002
  -4.3586842477136373E-002   4.1770163673327419E-003   4.5081867379493074E-002
  -4.4535769202116667E-002   5.6903362136456193E-003   4.9589705485165156E-002
  -4.8657582645400238E-002   0.0000000000000000        3.2762319116895366E-002
  -4.9592844648922371E-002   1.7070420540397412E-003   3.6946734386757496E-002
  -5.0528106652444497E-002   3.4306385699723716E-003   4.1207848742074754E-002
  -5.1463368655966631E-002   5.1707895477978924E-003   4.5545662182847162E-002
  -5.2398630659488771E-002   6.9274949875162903E-003   4.9960174709074691E-002
  -5.7148191611275281E-002   0.0000000000000000        3.4659664853430583E-002
  -5.7943720165345304E-002   2.0822358475695475E-003   3.8328612293158246E-002
  -5.8739248719415334E-002   4.1370900903238920E-003   4.2200327546334987E-002
  -5.9534777273485363E-002   6.1645627282630299E-003   4.6274810612960793E-002
  -6.0330305827555386E-002   8.1646537613869648E-003   5.0552061493035705E-002
  -2.9016487419455988E-002   3.2160186659042772E-003   4.9513019717500550E-002
  -2.9088319299993191E-002   4.2318442686091820E-003   5.1565737021179080E-002
  -2.9160151180530395E-002   5.0778610957030474E-003   5.3688003824691688E-002
  -2.9231983061067595E-002   5.7540691471859619E-003   5.5879820128038403E-002
  -2.9303814941604802E-002   6.2604684230578092E-003   5.8141185931219190E-002
  -3.6741721455439073E-002   4.4531774397749396E-003   4.9440653821307121E-002
  -3.6775188608307592E-002   5.6866369739655073E-003   5.1219780237948875E-002
  -3.6808655761176132E-002   6.7427204754133743E-003   5.3006086610093893E-002
  -3.6842122914044671E-002   7.6214279441186280E-003   5.4799572937742159E-002
  -3.6875590066913183E-002   8.3227593800811878E-003   5.6600239220893710E-002
  -4.4535769202116667E-002   5.6903362136456193E-003   4.9589705485165156E-002
  -4.4593241171647355E-002   7.1414296793218361E-003   5.1087673757638515E-002
  -4.4650713141178043E-002   8.4075798551237202E-003   5.2530452441284278E-002
  -4.4708185110708731E-002   9.4887867410512906E-003   5.3918041536102482E-002
  -4.4765657080239427E-002   1.0385050337104549E-002   5.5250441042093097E-002
  -5.2398630659488771E-002   6.9274949875162903E-003   4.9960174709074691E-002
  -5.2542476990012445E-002   8.5962223846781562E-003   5.1169417580247976E-002
  -5.2686323320536126E-002   1.0072439234834064E-002   5.2261101318262816E-002
  -5.2830169651059813E-002   1.1356145537983977E-002   5.3235225923119293E-002
  -5.2974015981583480E-002   1.2447341294127933E-002   5.4091791394817339E-002
  -6.0330305827555386E-002   8.1646537613869648E-003   5.0552061493035705E-002
  -6.0622896063402890E-002   1.0051015090034487E-002   5.1465011705777261E-002
  -6.0915486299250393E-002   1.1737298614544391E-002   5.2198033241029562E-002
  -6.1208076535097911E-002   1.3223504334916638E-002   5.2751126098792636E-002
  -6.1500666770945400E-002   1.4509632251151282E-002   5.3124290279066448E-002
  -2.9303814941604802E-002   6.2604684230578092E-003   5.8141185931219190E-002
  -2.8940444128120722E-002   6.6473104695819948E-003   5.8810918338265877E-002
  -2.8577073314636645E-002   6.9648468330217508E-003   5.9552615339879419E-002
  -2.8213702501152561E-002   7.2130775133770874E-003   6.0366276936059747E-002
  -2.7850331687668491E-002   7.3920025106480464E-003   6.1251903126806936E-002
  -3.6875590066913183E-002   8.3227593800811878E-003   5.6600239220893710E-002
  -3.6402183690210241E-002   8.8642520701323717E-003   5.6883947137492397E-002
  -3.5928777313507285E-002   9.2634433011035480E-003   5.7315761585961980E-002
  -3.5455370936804335E-002   9.5203330729945971E-003   5.7895682566302509E-002
  -3.4981964560101393E-002   9.6349213858056282E-003   5.8623710078513899E-002
  -4.4765657080239427E-002   1.0385050337104549E-002   5.5250441042093097E-002
  -4.4106073203013491E-002   1.1081193670682787E-002   5.5075128692248086E-002
  -4.3446489325787582E-002   1.1562039769185319E-002   5.5124064811578062E-002
  -4.2786905448561674E-002   1.1827588632612107E-002   5.5397249400083122E-002
  -4.2127321571335745E-002   1.1877840260963203E-002   5.5894682457763120E-002
  -5.2974015981583480E-002   1.2447341294127933E-002   5.4091791394817339E-002
  -5.2052112666530502E-002   1.3298135271233183E-002   5.3384463002532974E-002
  -5.1130209351477537E-002   1.3860636237267082E-002   5.2977525016727749E-002
  -5.0208306036424545E-002   1.4134844192229660E-002   5.2870977437401621E-002
  -4.9286402721371574E-002   1.4120759136120795E-002   5.3064820264554578E-002
  -6.1500666770945400E-002   1.4509632251151282E-002   5.3124290279066448E-002
  -6.0240302080761268E-002   1.5515076871783585E-002   5.1811950068347129E-002
  -5.8979937390577136E-002   1.6159232705348893E-002   5.0876142201410970E-002
  -5.7719572700392990E-002   1.6442099751847118E-002   5.0316866678258028E-002
  -5.6459208010208858E-002   1.6363678011278346E-002   5.0134123498888308E-002
  -2.7850331687668491E-002   7.3920025106480464E-003   6.1251903126806936E-002
  -2.7187946147672476E-002   7.5447131932827038E-003   6.0847528408182694E-002
  -2.6525560607676472E-002   7.7143009297290059E-003   6.0256261257999606E-002
  -2.5863175067680468E-002   7.9007657199871954E-003   5.9478101676257625E-002
  -2.5200789527684456E-002   8.1041075640569671E-003   5.8513049662956673E-002
  -3.4981964560101393E-002   9.6349213858056282E-003   5.8623710078513899E-002
  -3.4403177161263149E-002   9.6729577396328648E-003   5.8311942808951495E-002
  -3.3824389762424918E-002   9.7001916345725303E-003   5.8019871688632429E-002
  -3.3245602363586674E-002   9.7166230706247081E-003   5.7747496717556732E-002
  -3.2666814964748443E-002   9.7222520477893704E-003   5.7494817895724429E-002
  -4.2127321571335745E-002   1.1877840260963203E-002   5.5894682457763120E-002
  -4.1425543732853010E-002   1.1801202285983053E-002   5.5647843124563223E-002
  -4.0723765894370267E-002   1.1686082339416056E-002   5.5627288521408920E-002
  -4.0021988055887525E-002   1.1532480421262250E-002   5.5833018648300314E-002
  -3.9320210217404783E-002   1.1340396531521676E-002   5.6265033505237295E-002
  -4.9286402721371574E-002   1.4120759136120795E-002   5.3064820264554578E-002
  -4.8255045862442059E-002   1.3929446832333256E-002   5.2855229355017921E-002
  -4.7223689003512544E-002   1.3671973044259541E-002   5.3078511756329112E-002
  -4.6192332144583008E-002   1.3348337771899888E-002   5.3734667468488262E-002
  -4.5160975285653479E-002   1.2958541015254031E-002   5.4823696491495315E-002
  -5.6459208010208858E-002   1.6363678011278346E-002   5.0134123498888308E-002
  -5.4891683550030289E-002   1.6057691378683431E-002   4.9934101500315589E-002
  -5.3324159089851719E-002   1.5657863749103131E-002   5.0373541393393027E-002
  -5.1756634629673150E-002   1.5164195122537395E-002   5.1452443178120685E-002
  -5.0189110169494566E-002   1.4576685498986386E-002   5.3170806854498487E-002
  -2.5200789527684456E-002   8.1041075640569671E-003   5.8513049662956673E-002
  -2.4459923215703002E-002   8.2680564573392040E-003   5.6710328763876411E-002
  -2.3719056903721558E-002   8.3363423952346402E-003   5.5240282043867786E-002
  -2.2978190591740104E-002   8.3089653777431490E-003   5.4102909502930750E-002
  -2.2237324279758653E-002   8.1859254048649022E-003   5.3298211141065477E-002
  -3.2666814964748443E-002   9.7222520477893704E-003   5.7494817895724429E-002
  -3.1646604989437555E-002   9.6893408642824141E-003   5.6370426256388301E-002
  -3.0626395014126662E-002   9.5901518183197226E-003   5.5472047764639480E-002
  -2.9606185038815784E-002   9.4246849099014172E-003   5.4799682420477835E-002
  -2.8585975063504878E-002   9.1929401390274390E-003   5.4353330223903457E-002
  -3.9320210217404783E-002   1.1340396531521676E-002   5.6265033505237295E-002
  -3.8127317610248852E-002   1.1110625271225479E-002   5.5848356218576506E-002
  -3.6934425003092936E-002   1.0843961241404753E-002   5.5551031048018673E-002
  -3.5741532395937033E-002   1.0540404442059548E-002   5.5373057993563561E-002
  -3.4548639788781088E-002   1.0199954873189948E-002   5.5314437055211343E-002
  -4.5160975285653479E-002   1.2958541015254031E-002   5.4823696491495315E-002
  -4.3902061078136941E-002   1.2531909678168588E-002   5.5144118650441096E-002
  -4.2643146870620381E-002   1.2097770664489782E-002   5.5477231894005434E-002
  -4.1384232663103815E-002   1.1656123974217692E-002   5.5823036222188101E-002
  -4.0125318455587256E-002   1.1206969607352443E-002   5.6181531634989262E-002
  -5.0189110169494566E-002   1.4576685498986386E-002   5.3170806854498487E-002
  -4.8970835393101791E-002   1.3953194085111725E-002   5.4257713551982056E-002
  -4.7752560616708975E-002   1.3351580087574824E-002   5.5250650302599652E-002
  -4.6534285840316159E-002   1.2771843506375894E-002   5.6149617106351302E-002
  -4.5316011063923370E-002   1.2213984341514994E-002   5.6954613963236977E-002
  -2.2237324279758653E-002   8.1859254048649022E-003   5.3298211141065477E-002
  -2.1434945459690075E-002   8.0677039521739047E-003   5.2053844560509932E-002
  -2.0632566639621507E-002   8.0547824952443836E-003   5.1107912999029725E-002
  -1.9830187819552939E-002   8.1471610340760614E-003   5.0460416456624899E-002
  -1.9027808999484364E-002   8.3448395686693266E-003   5.0111354933295271E-002
  -2.8585975063504878E-002   9.1929401390274390E-003   5.4353330223903457E-002
  -2.7497527201211180E-002   8.9643966670857334E-003   5.3571573953008739E-002
  -2.6409079338917466E-002   8.8085336554646065E-003   5.3063520747489087E-002
  -2.5320631476623726E-002   8.7253511041638712E-003   5.2829170607344413E-002
  -2.4232183614330018E-002   8.7148490131835898E-003   5.2868523532574568E-002
  -3.4548639788781088E-002   1.0199954873189948E-002   5.5314437055211343E-002
  -3.3198854837962546E-002   9.8610893819977424E-003   5.4962671558536527E-002
  -3.1849069887143984E-002   9.5622848156850515E-003   5.4859877173536367E-002
  -3.0499284936325435E-002   9.3035411742517365E-003   5.5006053900210905E-002
  -2.9149499985506880E-002   9.0848584576979363E-003   5.5401201738560127E-002
  -4.0125318455587256E-002   1.1206969607352443E-002   5.6181531634989262E-002
  -3.8538928369944166E-002   1.0757782096909717E-002   5.6227137377093221E-002
  -3.6952538284301083E-002   1.0316035975905552E-002   5.6496982277171592E-002
  -3.5366148198657986E-002   9.8817312443395741E-003   5.6991066335224293E-002
  -3.3779758113014924E-002   9.4548679022121856E-003   5.7709389551251433E-002
  -4.5316011063923370E-002   1.2213984341514994E-002   5.6954613963236977E-002
  -4.3517747797156059E-002   1.1654474811821525E-002   5.7364971408678855E-002
  -4.1719484530388769E-002   1.1069787136125761E-002   5.7974836058394763E-002
  -3.9921221263621465E-002   1.0459921314427394E-002   5.8784207912384742E-002
  -3.8122957996854168E-002   9.8248773467265460E-003   5.9793086970648779E-002
  -1.9027808999484364E-002   8.3448395686693266E-003   5.0111354933295271E-002
  -1.8063872642622616E-002   8.5765128659725243E-003   4.9338705398272564E-002
  -1.7099936285760887E-002   8.7708756929342352E-003   4.8312818474090552E-002
  -1.6135999928899164E-002   8.9279280495546710E-003   4.7033694160749526E-002
  -1.5172063572037417E-002   9.0476699358333912E-003   4.5501332458249388E-002
  -2.4232183614330018E-002   8.7148490131835898E-003   5.2868523532574568E-002
  -2.3366844232703181E-002   8.6931959595540342E-003   5.2471426227164664E-002
  -2.2501504851076312E-002   8.5765605203054346E-003   5.2130372360444086E-002
  -2.1636165469449461E-002   8.3649426954375584E-003   5.1845361932412813E-002
  -2.0770826087822575E-002   8.0583424849506313E-003   5.1616394943071076E-002
  -2.9149499985506880E-002   9.0848584576979363E-003   5.5401201738560127E-002
  -2.8073476751266379E-002   8.8098790531354748E-003   5.5321984747485328E-002
  -2.6997453517025892E-002   8.3822453476762940E-003   5.5608092022948440E-002
  -2.5921430282785412E-002   7.8019573413204996E-003   5.6259523564949399E-002
  -2.4845407048544904E-002   7.0690150340679270E-003   5.7276279373488226E-002
  -3.3779758113014924E-002   9.4548679022121856E-003   5.7709389551251433E-002
  -3.2183770198312277E-002   8.9265621467170056E-003   5.7890380959234239E-002
  -3.0587782283609640E-002   8.1879301750472401E-003   5.8745977461603330E-002
  -2.8991794368907010E-002   7.2389719872034694E-003   6.0276179058359011E-002
  -2.7395806454204360E-002   6.0796875831853059E-003   6.2480985749500957E-002
  -3.8122957996854168E-002   9.8248773467265460E-003   5.9793086970648779E-002
  -3.5697724573840850E-002   9.0432452402984531E-003   6.0176614862411548E-002
  -3.3272491150827546E-002   7.9936150024183111E-003   6.1544028676409152E-002
  -3.0847257727814242E-002   6.6759866330864288E-003   6.3895328412641686E-002
  -2.8422024304800925E-002   5.0903601323024072E-003   6.7230514071109082E-002
  -1.5172063572037417E-002   9.0476699358333912E-003   4.5501332458249388E-002
  -1.4741247513839068E-002   1.0420908372869520E-002   4.2851066147709949E-002
  -1.4310431455640735E-002   1.4338450381760487E-002   4.3939369727210076E-002
  -1.3879615397442405E-002   2.0800295962507480E-002   4.8766243196749326E-002
  -1.3448799339244047E-002   2.9806445115109881E-002   5.7331686556328254E-002
  -2.0770826087822575E-002   8.0583424849506313E-003   5.1616394943071076E-002
  -1.7636967329565007E-002   8.4202342673479758E-003   5.1442917969235863E-002
  -1.4503108571307405E-002   1.0214092421132553E-002   5.2936956505479832E-002
  -1.1369249813049803E-002   1.3439916946304663E-002   5.6098510551802871E-002
  -8.2353910547921932E-003   1.8097707842864130E-002   6.0927580108205204E-002
  -2.4845407048544904E-002   7.0690150340679270E-003   5.7276279373488226E-002
  -2.1079559970188309E-002   6.4195601618266818E-003   5.8467254535888996E-002
  -1.7313712891831711E-002   6.0897344605046339E-003   5.9254690828408729E-002
  -1.3547865813475115E-002   6.0795379301018214E-003   5.9638588251047321E-002
  -9.7820187351185146E-003   6.3889705706183797E-003   5.9618946803804640E-002
  -2.7395806454204360E-002   6.0796875831853059E-003   6.2480985749500957E-002
  -2.5069025435709047E-002   4.4188860563055404E-003   6.3924075847669654E-002
  -2.2742244417213731E-002   1.9653764998765408E-003   6.2892572695997045E-002
  -2.0415463398718400E-002  -1.2808410861008968E-003   5.9386476294482862E-002
  -1.8088682380223108E-002  -5.3197667016274264E-003   5.3405786643127701E-002
  -2.8422024304800925E-002   5.0903601323024072E-003   6.7230514071109082E-002
  -2.9605363726127154E-002   2.4182119507840660E-003   6.7813381904577696E-002
  -3.0788703147453397E-002  -2.1589814607513996E-003   6.3850602108244475E-002
  -3.1972042568779613E-002  -8.6412201023039099E-003   5.5342174682109488E-002
  -3.3155381990105870E-002  -1.7028503973873121E-002   4.2288099626173192E-002
  -5.7148191611275281E-002   0.0000000000000000        3.4659664853430583E-002
  -5.7943720165345304E-002   2.0822358475695475E-003   3.8328612293158246E-002
  -5.8739248719415334E-002   4.1370900903238920E-003   4.2200327546334987E-002
  -5.9534777273485363E-002   6.1645627282630299E-003   4.6274810612960793E-002
  -6.0330305827555386E-002   8.1646537613869648E-003   5.0552061493035705E-002
  -6.5807611785483083E-002   0.0000000000000000        3.7179580888850372E-002
  -6.6626395870032551E-002   2.9153321062600612E-003   4.0815707073644333E-002
  -6.7445179954582005E-002   5.7735175833153888E-003   4.4202554384030333E-002
  -6.8263964039131458E-002   8.5745564311659871E-003   4.7340122820008393E-002
  -6.9082748123680898E-002   1.1318448649811852E-002   5.0228412381578505E-002
  -7.4231565753686099E-002   0.0000000000000000        4.0547475695155433E-002
  -7.5525652056572037E-002   3.7484283649505739E-003   4.4121015600626166E-002
  -7.6819738359457948E-002   7.4099450763068855E-003   4.6993229943831899E-002
  -7.8113824662343873E-002   1.0984550134068943E-002   4.9164118724772679E-002
  -7.9407910965229797E-002   1.4472243538236730E-002   5.0633681943448458E-002
  -8.2420053515884342E-002   0.0000000000000000        4.4763349272345779E-002
  -8.4641488724963757E-002   4.5815246236410876E-003   4.8244537874103745E-002
  -8.6862923934043171E-002   9.0463725692983832E-003   5.0572354225739705E-002
  -8.9084359143122585E-002   1.3394543836971900E-002   5.1746798327253644E-002
  -9.1305794352201985E-002   1.7626038426661616E-002   5.1767870178645599E-002
  -9.0373075072077813E-002   0.0000000000000000        4.9827201620421396E-002
  -9.3973905875207736E-002   5.4146208823316003E-003   5.3186273894077069E-002
  -9.7574736678337673E-002   1.0682800062289879E-002   5.4939927229753709E-002
 -0.10117556748146761        1.5804537539874854E-002   5.5088161627451324E-002
 -0.10477639828459756        2.0779833315086489E-002   5.3630977087169893E-002
  -6.0330305827555386E-002   8.1646537613869648E-003   5.0552061493035705E-002
  -6.0622896063402890E-002   1.0051015090034487E-002   5.1465011705777261E-002
  -6.0915486299250393E-002   1.1737298614544391E-002   5.2198033241029562E-002
  -6.1208076535097911E-002   1.3223504334916638E-002   5.2751126098792636E-002
  -6.1500666770945400E-002   1.4509632251151282E-002   5.3124290279066448E-002
  -6.9082748123680898E-002   1.1318448649811852E-002   5.0228412381578505E-002
  -6.9325652143616801E-002   1.3765343101373317E-002   4.9429793587746747E-002
  -6.9568556163552689E-002   1.5675388647970748E-002   4.8910475903227467E-002
  -6.9811460183488550E-002   1.7048585289604134E-002   4.8670459328020686E-002
  -7.0054364203424438E-002   1.7884933026273461E-002   4.8709743862126405E-002
  -7.9407910965229797E-002   1.4472243538236730E-002   5.0633681943448458E-002
  -7.9141898982452330E-002   1.7479671112712161E-002   4.7786723042216976E-002
  -7.8875886999674849E-002   1.9613478681397133E-002   4.5678295037099720E-002
  -7.8609875016897354E-002   2.0873666244291624E-002   4.4308397928096648E-002
  -7.8343863034119873E-002   2.1260233801395644E-002   4.3677031715207849E-002
  -9.1305794352201985E-002   1.7626038426661616E-002   5.1767870178645599E-002
  -9.0071636579909450E-002   2.1193999124051000E-002   4.6535800069187949E-002
  -8.8837478807616874E-002   2.3551568714823501E-002   4.2501490642646293E-002
  -8.7603321035324325E-002   2.4698747198979080E-002   3.9664941899020534E-002
  -8.6369163263031762E-002   2.4635534576517841E-002   3.8026153838310775E-002
 -0.10477639828459756        2.0779833315086489E-002   5.3630977087169893E-002
 -0.10211486493598818        2.4908327135389832E-002   4.5677024668659687E-002
  -9.9453331587378790E-002   2.7489658748249875E-002   3.9380062719867159E-002
  -9.6791798238769405E-002   2.8523828153666601E-002   3.4740091240792317E-002
  -9.4130264890160020E-002   2.8010835351640000E-002   3.1757110231435189E-002
  -6.1500666770945400E-002   1.4509632251151282E-002   5.3124290279066448E-002
  -6.0240302080761268E-002   1.5515076871783585E-002   5.1811950068347129E-002
  -5.8979937390577136E-002   1.6159232705348893E-002   5.0876142201410970E-002
  -5.7719572700392990E-002   1.6442099751847118E-002   5.0316866678258028E-002
  -5.6459208010208858E-002   1.6363678011278346E-002   5.0134123498888308E-002
  -7.0054364203424438E-002   1.7884933026273461E-002   4.8709743862126405E-002
  -6.8443638650390506E-002   1.8344866747667211E-002   4.7346796815930181E-002
  -6.6832913097356603E-002   1.8588821343473859E-002   4.6308039151650313E-002
  -6.5222187544322671E-002   1.8616796813693416E-002   4.5593470869286806E-002
  -6.3611461991288740E-002   1.8428793158325865E-002   4.5203091968839676E-002
  -7.8343863034119873E-002   2.1260233801395644E-002   4.3677031715207849E-002
  -7.6435119580103017E-002   2.1174656623550853E-002   4.2408787495014651E-002
  -7.4526376126086147E-002   2.1018409981598863E-002   4.1412389694870974E-002
  -7.2617632672069263E-002   2.0791493875539684E-002   4.0687838314776820E-002
  -7.0708889218052379E-002   2.0493908305373308E-002   4.0235133354732194E-002
  -8.6369163263031762E-002   2.4635534576517841E-002   3.8026153838310775E-002
  -8.4214744869898744E-002   2.4004446499434472E-002   3.6997922105600503E-002
  -8.2060326476765755E-002   2.3447998619723850E-002   3.6189193831072934E-002
  -7.9905908083632793E-002   2.2966190937386010E-002   3.5599969014728089E-002
  -7.7751489690499775E-002   2.2559023452420762E-002   3.5230247656565926E-002
  -9.4130264890160020E-002   2.8010835351640000E-002   3.1757110231435189E-002
  -9.1782514519777730E-002   2.6834236375318121E-002   3.1114200647687773E-002
  -8.9434764149395468E-002   2.5877587257848868E-002   3.0638451560256259E-002
  -8.7087013779013164E-002   2.5140887999232264E-002   3.0329862969140586E-002
  -8.4739263408630902E-002   2.4624138599468257E-002   3.0188434874340767E-002
  -5.6459208010208858E-002   1.6363678011278346E-002   5.0134123498888308E-002
  -5.4891683550030289E-002   1.6057691378683431E-002   4.9934101500315589E-002
  -5.3324159089851719E-002   1.5657863749103131E-002   5.0373541393393027E-002
  -5.1756634629673150E-002   1.5164195122537395E-002   5.1452443178120685E-002
  -5.0189110169494566E-002   1.4576685498986386E-002   5.3170806854498487E-002
  -6.3611461991288740E-002   1.8428793158325865E-002   4.5203091968839676E-002
  -6.1491144564741126E-002   1.8090489199276402E-002   4.4881996559921089E-002
  -5.9370827138193485E-002   1.7667563758450262E-002   4.5027025192090425E-002
  -5.7250509711645844E-002   1.7160016835847561E-002   4.5638177865347691E-002
  -5.5130192285098231E-002   1.6567848431468191E-002   4.6715454579692922E-002
  -7.0708889218052379E-002   2.0493908305373308E-002   4.0235133354732194E-002
  -6.8209116675697928E-002   2.0123287019869388E-002   3.9802184050676453E-002
  -6.5709344133343492E-002   1.9677263767797534E-002   3.9662020937146353E-002
  -6.3209571590989014E-002   1.9155838549157717E-002   3.9814644014142010E-002
  -6.0709799048634577E-002   1.8559011363949940E-002   4.0260053281663336E-002
  -7.7751489690499775E-002   2.2559023452420762E-002   3.5230247656565926E-002
  -7.5045599882900743E-002   2.2156084840462449E-002   3.4694663972581703E-002
  -7.2339710075301725E-002   2.1686963777144790E-002   3.4278528628560907E-002
  -6.9633820267702692E-002   2.1151660262467849E-002   3.3981841624503593E-002
  -6.6927930460103660E-002   2.0550174296431745E-002   3.3804602960409796E-002
  -8.4739263408630902E-002   2.4624138599468257E-002   3.0188434874340767E-002
  -8.2000594186349543E-002   2.4188882661055344E-002   2.9559436325636831E-002
  -7.9261924964068170E-002   2.3696663786491937E-002   2.8876548266334075E-002
  -7.6523255741786783E-002   2.3147481975778025E-002   2.8139770696432451E-002
  -7.3784586519505452E-002   2.2541337228913466E-002   2.7349103615932152E-002
  -5.0189110169494566E-002   1.4576685498986386E-002   5.3170806854498487E-002
  -4.8970835393101791E-002   1.3953194085111725E-002   5.4257713551982056E-002
  -4.7752560616708975E-002   1.3351580087574824E-002   5.5250650302599652E-002
  -4.6534285840316159E-002   1.2771843506375894E-002   5.6149617106351302E-002
  -4.5316011063923370E-002   1.2213984341514994E-002   5.6954613963236977E-002
  -5.5130192285098231E-002   1.6567848431468191E-002   4.6715454579692922E-002
  -5.3948786777405347E-002   1.5945822267257548E-002   4.7244328996635776E-002
  -5.2767381269712428E-002   1.5348702065160827E-002   4.7793434823044795E-002
  -5.1585975762019565E-002   1.4776487825178240E-002   4.8362772058919902E-002
  -5.0404570254326674E-002   1.4229179547309734E-002   4.8952340704261132E-002
  -6.0709799048634577E-002   1.8559011363949940E-002   4.0260053281663336E-002
  -5.9451061453309487E-002   1.7938450449403329E-002   4.0233923963841636E-002
  -5.8192323857984438E-002   1.7345824042746850E-002   4.0342227411818206E-002
  -5.6933586262659389E-002   1.6781132143980609E-002   4.0584963625592940E-002
  -5.5674848667334326E-002   1.6244374753104529E-002   4.0962132605165888E-002
  -6.6927930460103660E-002   2.0550174296431745E-002   3.3804602960409796E-002
  -6.5477659420814335E-002   1.9931078631549241E-002   3.3226498453599637E-002
  -6.4027388381524997E-002   1.9342946020332877E-002   3.2897028068919781E-002
  -6.2577117342235700E-002   1.8785776462782969E-002   3.2816191806370326E-002
  -6.1126846302946319E-002   1.8259569958899352E-002   3.2983989665951008E-002
  -7.3784586519505452E-002   2.2541337228913466E-002   2.7349103615932152E-002
  -7.2028580679919810E-002   2.1923706813695029E-002   2.6222052465909751E-002
  -7.0272574840334112E-002   2.1340067997918911E-002   2.5457836794349736E-002
  -6.8516569000748442E-002   2.0790420781585293E-002   2.5056456601252101E-002
  -6.6760563161162773E-002   2.0274765164694120E-002   2.5017911886616784E-002
  -4.5316011063923370E-002   1.2213984341514994E-002   5.6954613963236977E-002
  -4.3517747797156059E-002   1.1654474811821525E-002   5.7364971408678855E-002
  -4.1719484530388769E-002   1.1069787136125761E-002   5.7974836058394763E-002
  -3.9921221263621465E-002   1.0459921314427394E-002   5.8784207912384742E-002
  -3.8122957996854168E-002   9.8248773467265460E-003   5.9793086970648779E-002
  -5.0404570254326674E-002   1.4229179547309734E-002   4.8952340704261132E-002
  -4.8399350057309165E-002   1.3658860859092126E-002   4.9140376188667401E-002
  -4.6394129860291691E-002   1.3017615388062231E-002   4.9542818329299909E-002
  -4.4388909663274155E-002   1.2305443134219760E-002   5.0159667126158783E-002
  -4.2383689466256688E-002   1.1522344097565251E-002   5.0990922579243897E-002
  -5.5674848667334326E-002   1.6244374753104529E-002   4.0962132605165888E-002
  -5.3447772088114368E-002   1.5663246906362477E-002   4.0882097491726596E-002
  -5.1220695508894423E-002   1.4965443639998431E-002   4.1031368486465901E-002
  -4.8993618929674493E-002   1.4150964954012238E-002   4.1409945589383851E-002
  -4.6766542350454521E-002   1.3219810848404012E-002   4.2017828800480342E-002
  -6.1126846302946319E-002   1.8259569958899352E-002   3.2983989665951008E-002
  -5.8663013889571687E-002   1.7667632953632981E-002   3.2590135317856588E-002
  -5.6199181476197048E-002   1.6913271891934738E-002   3.2440486529893023E-002
  -5.3735349062822381E-002   1.5996486773804688E-002   3.2535043302060175E-002
  -5.1271516649447776E-002   1.4917277599242829E-002   3.2873805634358322E-002
  -6.6760563161162773E-002   2.0274765164694120E-002   2.5017911886616784E-002
  -6.4045075461681159E-002   1.9672019000903429E-002   2.4264489667057382E-002
  -6.1329587762199517E-002   1.8861100143871060E-002   2.3770172459580990E-002
  -5.8614100062717889E-002   1.7842008593597043E-002   2.3534960264187901E-002
  -5.5898612363236289E-002   1.6614744350081478E-002   2.3558853080877684E-002
  -3.8122957996854168E-002   9.8248773467265460E-003   5.9793086970648779E-002
  -3.5697724573840850E-002   9.0432452402984531E-003   6.0176614862411548E-002
  -3.3272491150827546E-002   7.9936150024183111E-003   6.1544028676409152E-002
  -3.0847257727814242E-002   6.6759866330864288E-003   6.3895328412641686E-002
  -2.8422024304800925E-002   5.0903601323024072E-003   6.7230514071109082E-002
  -4.2383689466256688E-002   1.1522344097565251E-002   5.0990922579243897E-002
  -3.9176179531257231E-002   1.0657635135170956E-002   5.0870574045902839E-002
  -3.5968669596257788E-002   9.7006331041092630E-003   5.1330892614299198E-002
  -3.2761159661258338E-002   8.6513380043803309E-003   5.2371878284432717E-002
  -2.9553649726258888E-002   7.5097498359842918E-003   5.3993531056303889E-002
  -4.6766542350454521E-002   1.3219810848404012E-002   4.2017828800480342E-002
  -4.3179974723966480E-002   1.2272025030043446E-002   4.1569308904820149E-002
  -3.9593407097478536E-002   1.1407651205800208E-002   4.1298237290399935E-002
  -3.6006839470990579E-002   1.0626689375674398E-002   4.1204613957219235E-002
  -3.2420271844502552E-002   9.9291395396659821E-003   4.1288438905278543E-002
  -5.1271516649447776E-002   1.4917277599242829E-002   3.2873805634358322E-002
  -4.7709110151968777E-002   1.3886414924915970E-002   3.2272819439163838E-002
  -4.4146703654489784E-002   1.3114669307491184E-002   3.1446062704711439E-002
  -4.0584297157010840E-002   1.2602040746968437E-002   3.0393535431001258E-002
  -3.7021890659531841E-002   1.2348529243347825E-002   2.9115237618033130E-002
  -5.5898612363236289E-002   1.6614744350081478E-002   2.3558853080877684E-002
  -5.2763585815263941E-002   1.5500804819788383E-002   2.2981105648933353E-002
  -4.9628559267291553E-002   1.4821687409182049E-002   2.1774368857233661E-002
  -4.6493532719319240E-002   1.4577392118262325E-002   1.9938642705778595E-002
  -4.3358506171346872E-002   1.4767918947029446E-002   1.7473927194568195E-002
  -2.8422024304800925E-002   5.0903601323024072E-003   6.7230514071109082E-002
  -2.9605363726127154E-002   2.4182119507840660E-003   6.7813381904577696E-002
  -3.0788703147453397E-002  -2.1589814607513996E-003   6.3850602108244475E-002
  -3.1972042568779613E-002  -8.6412201023039099E-003   5.5342174682109488E-002
  -3.3155381990105870E-002  -1.7028503973873121E-002   4.2288099626173192E-002
  -2.9553649726258888E-002   7.5097498359842918E-003   5.3993531056303889E-002
  -3.4234089261355904E-002   5.7631939339775617E-003   5.2378605894732311E-002
  -3.8914528796452873E-002   2.8989956334172229E-003   4.8315128135420715E-002
  -4.3594968331549855E-002  -1.0828450656966693E-003   4.1803097778369366E-002
  -4.8275407866646913E-002  -6.1823281633641702E-003   3.2842514823578361E-002
  -3.2420271844502552E-002   9.9291395396659821E-003   4.1288438905278543E-002
  -3.8500716461308482E-002   9.1081759171711685E-003   3.8263123580130204E-002
  -4.4581161078114467E-002   7.9569727275859078E-003   3.4886350689303784E-002
  -5.0661605694920397E-002   6.4755299709104621E-003   3.1158120232799531E-002
  -5.6742050311726369E-002   4.6638476471447810E-003   2.7078432210617009E-002
  -3.7021890659531841E-002   1.2348529243347825E-002   2.9115237618033130E-002
  -4.2405245325984942E-002   1.2453157900364664E-002   2.5466934960771591E-002
  -4.7788599992437980E-002   1.3014949821754562E-002   2.3564269769893682E-002
  -5.3171954658891060E-002   1.4033905007517705E-002   2.3407242045399700E-002
  -5.8555309325344182E-002   1.5510023457653677E-002   2.4995851787289206E-002
  -4.3358506171346872E-002   1.4767918947029446E-002   1.7473927194568195E-002
  -4.5947675855385200E-002   1.5798139883558215E-002   1.3990040036656548E-002
  -4.8536845539423515E-002   1.8072926915923132E-002   1.4348885377190479E-002
  -5.1126015223461975E-002   2.1592280044124702E-002   1.8550463216170099E-002
  -5.3715184907500213E-002   2.6356199268162683E-002   2.6594773553595186E-002
  -9.0373075072077813E-002   0.0000000000000000        4.9827201620421396E-002
  -9.3973905875207736E-002   5.4146208823316003E-003   5.3186273894077069E-002
  -9.7574736678337673E-002   1.0682800062289879E-002   5.4939927229753709E-002
 -0.10117556748146761        1.5804537539874854E-002   5.5088161627451324E-002
 -0.10477639828459756        2.0779833315086489E-002   5.3630977087169893E-002
 -0.10331673983418938        0.0000000000000000        5.8665171932763362E-002
 -0.10684640977007032        1.0888173767205588E-002   5.2110925418659332E-002
 -0.11037607970595129        1.9176497286491033E-002   4.7304419577032318E-002
 -0.11390574964183221        2.4864970557856348E-002   4.4245654407882307E-002
 -0.11743541957771320        2.7953593581301527E-002   4.2934629911209332E-002
 -0.12647715721414196        0.0000000000000000        7.4203399402752709E-002
 -0.12658250667231788        1.6361726652079578E-002   5.5282425555342164E-002
 -0.12668785613049380        2.7670194510692199E-002   4.1462351990864670E-002
 -0.12679320558866969        3.3925403575837842E-002   3.2743178709320239E-002
 -0.12689855504684561        3.5127353847516550E-002   2.9124905710708898E-002
 -0.15985432721193552        0.0000000000000000        9.6441884030389474E-002
 -0.15318219658195037        2.1835279536953571E-002   6.2700774304125587E-002
 -0.14651006595196514        3.6163891734893351E-002   3.7413724471250805E-002
 -0.13983793532197999        4.2985836593819347E-002   2.0580734531765083E-002
 -0.13316580469199479        4.2301114113731546E-002   1.2201804485668533E-002
 -0.20344824982757009        0.0000000000000000       0.12538062581567364     
 -0.18664547949896776        2.7308832421827561E-002   7.4365971665009564E-002
 -0.16984270917036548        4.4657588959094503E-002   3.5158537018190654E-002
 -0.15303993884176315        5.2046269611800838E-002   7.7583218752169530E-003
 -0.13623716851316084        4.9474874379946597E-002  -7.8346737639116634E-003
 -0.10477639828459756        2.0779833315086489E-002   5.3630977087169893E-002
 -0.10211486493598818        2.4908327135389832E-002   4.5677024668659687E-002
  -9.9453331587378790E-002   2.7489658748249875E-002   3.9380062719867159E-002
  -9.6791798238769405E-002   2.8523828153666601E-002   3.4740091240792317E-002
  -9.4130264890160020E-002   2.8010835351640000E-002   3.1757110231435189E-002
 -0.11743541957771320        2.7953593581301527E-002   4.2934629911209332E-002
 -0.11349438912749939        2.9421810847569809E-002   3.6705008211630585E-002
 -0.10955335867728558        3.0249066847404502E-002   3.1377390245542973E-002
 -0.10561232822707180        3.0435361580805564E-002   2.6951776012946526E-002
 -0.10167129777685797        2.9980695047773023E-002   2.3428165513841144E-002
 -0.12689855504684561        3.5127353847516550E-002   2.9124905710708898E-002
 -0.12243301423125394        3.3935294559749786E-002   2.5525815671071306E-002
 -0.11796747341566230        3.3008474946559119E-002   2.2073742628698316E-002
 -0.11350193260007062        3.2346895007944500E-002   1.8768686583589850E-002
 -0.10903639178447901        3.1950554743906040E-002   1.5610647535746038E-002
 -0.13316580469199479        4.2301114113731546E-002   1.2201804485668533E-002
 -0.12893074024725182        3.8448778271929787E-002   1.2139447046981841E-002
 -0.12469567580250890        3.5767883045713746E-002   1.1469119869333157E-002
 -0.12046061135776595        3.4258428435083504E-002   1.0190822952722459E-002
 -0.11622554691302302        3.3920414440038994E-002   8.3045562971498354E-003
 -0.13623716851316084        4.9474874379946597E-002  -7.8346737639116634E-003
 -0.13298756717549312        4.2962261984109719E-002  -3.4540976606378844E-003
 -0.12973796583782543        3.8527291144868345E-002  -4.3647803255256711E-004
 -0.12648836450015769        3.6169961862222440E-002   1.2181851203440981E-003
 -0.12323876316248999        3.5890274136172046E-002   1.5098917980524151E-003
  -9.4130264890160020E-002   2.8010835351640000E-002   3.1757110231435189E-002
  -9.1782514519777730E-002   2.6834236375318121E-002   3.1114200647687773E-002
  -8.9434764149395468E-002   2.5877587257848868E-002   3.0638451560256259E-002
  -8.7087013779013164E-002   2.5140887999232264E-002   3.0329862969140586E-002
  -8.4739263408630902E-002   2.4624138599468257E-002   3.0188434874340767E-002
 -0.10167129777685797        2.9980695047773023E-002   2.3428165513841144E-002
  -9.9167223668596219E-002   2.9214964640356465E-002   2.3069749738993499E-002
  -9.6663149560334422E-002   2.8468067750605425E-002   2.2856820943588964E-002
  -9.4159075452072666E-002   2.7740004378519971E-002   2.2789379127627504E-002
  -9.1655001343810910E-002   2.7030774524100035E-002   2.2867424291109120E-002
 -0.10903639178447901        3.1950554743906040E-002   1.5610647535746038E-002
 -0.10639766745521047        3.1595692905394837E-002   1.5335609228610957E-002
 -0.10375894312594194        3.1058548243362006E-002   1.5184384384046356E-002
 -0.10112021879667342        3.0339120757807762E-002   1.5156973002051989E-002
  -9.8481494467404881E-002   2.9437410448731764E-002   1.5253375082627991E-002
 -0.11622554691302302        3.3920414440038994E-002   8.3045562971498354E-003
 -0.11347384587962042        3.3976421170433112E-002   7.9117791165401984E-003
 -0.11072214484621792        3.3649028736118622E-002   7.6211418816282796E-003
 -0.10797044381281544        3.2938237137095372E-002   7.4326445924139664E-003
 -0.10521874277941286        3.1844046373363563E-002   7.3462872488973428E-003
 -0.12323876316248999        3.5890274136172046E-002   1.5098917980524151E-003
 -0.12039575894182625        3.6357149435471539E-002   7.9825940278129004E-004
 -0.11755275472116244        3.6239509228875109E-002   1.6709343633505153E-004
 -0.11470975050049866        3.5537353516383187E-002  -3.8360610128626051E-004
 -0.11186674627983489        3.4250682297995272E-002  -8.5383921008291841E-004
  -8.4739263408630902E-002   2.4624138599468257E-002   3.0188434874340767E-002
  -8.2000594186349543E-002   2.4188882661055344E-002   2.9559436325636831E-002
  -7.9261924964068170E-002   2.3696663786491937E-002   2.8876548266334075E-002
  -7.6523255741786783E-002   2.3147481975778025E-002   2.8139770696432451E-002
  -7.3784586519505452E-002   2.2541337228913466E-002   2.7349103615932152E-002
  -9.1655001343810910E-002   2.7030774524100035E-002   2.2867424291109120E-002
  -8.8932992444092113E-002   2.6341837401882555E-002   2.2347294247321729E-002
  -8.6210983544373329E-002   2.5674652226404238E-002   2.1847733069007988E-002
  -8.3488974644654559E-002   2.5029218997665154E-002   2.1368740756167882E-002
  -8.0766965744935790E-002   2.4405537715665448E-002   2.0910317308801205E-002
  -9.8481494467404881E-002   2.9437410448731764E-002   1.5253375082627991E-002
  -9.5701687514176306E-002   2.8494792142709613E-002   1.4920828426646996E-002
  -9.2921880560947662E-002   2.7652640666316564E-002   1.4683309012211919E-002
  -9.0142073607719045E-002   2.6910956019552422E-002   1.4540816839322939E-002
  -8.7362266654490456E-002   2.6269738202417445E-002   1.4493351907980088E-002
 -0.10521874277941286        3.1844046373363563E-002   7.3462872488973428E-003
 -0.10230667939660201        3.0647746883536733E-002   7.2800388636124558E-003
  -9.9394616013791168E-002   2.9630629106228865E-002   7.3832760959459745E-003
  -9.6482552630980309E-002   2.8792693041439592E-002   7.6559989458979232E-003
  -9.3570489248169478E-002   2.8133938689169351E-002   8.0982074134685108E-003
 -0.11186674627983489        3.4250682297995272E-002  -8.5383921008291841E-004
 -0.10874796809136938        3.2800701624363937E-002  -5.7507444178200862E-004
 -0.10562918990290382        3.1608617546141221E-002  -5.2365679789972974E-005
 -0.10251041171443825        3.0674430063326825E-002   7.1428707589282076E-004
  -9.9391633525972745E-002   2.9998139175921368E-002   1.7248838252664211E-003
  -7.3784586519505452E-002   2.2541337228913466E-002   2.7349103615932152E-002
  -7.2028580679919810E-002   2.1923706813695029E-002   2.6222052465909751E-002
  -7.0272574840334112E-002   2.1340067997918911E-002   2.5457836794349736E-002
  -6.8516569000748442E-002   2.0790420781585293E-002   2.5056456601252101E-002
  -6.6760563161162773E-002   2.0274765164694120E-002   2.5017911886616784E-002
  -8.0766965744935790E-002   2.4405537715665448E-002   2.0910317308801205E-002
  -7.8661134199795674E-002   2.3782694444090424E-002   2.0164292538522810E-002
  -7.6555302654655655E-002   2.3139775246625596E-002   1.9755083700890928E-002
  -7.4449471109515553E-002   2.2476780123271010E-002   1.9682690795905348E-002
  -7.2343639564375506E-002   2.1793709074026502E-002   1.9947113823566232E-002
  -8.7362266654490456E-002   2.6269738202417445E-002   1.4493351907980088E-002
  -8.4932628949611927E-002   2.5641682074485909E-002   1.4074285992113453E-002
  -8.2502991244733398E-002   2.4939482495332222E-002   1.3966016463077265E-002
  -8.0073353539854911E-002   2.4163139464956667E-002   1.4168543320871608E-002
  -7.7643715834976409E-002   2.3312652983358967E-002   1.4681866565496193E-002
  -9.3570489248169478E-002   2.8133938689169351E-002   8.0982074134685108E-003
  -9.0843064929368403E-002   2.7500669704881294E-002   7.9520328266813704E-003
  -8.8115640610567481E-002   2.6739189744038903E-002   8.0906350809088409E-003
  -8.5388216291766544E-002   2.5849498806642356E-002   8.5140141761505337E-003
  -8.2660791972965511E-002   2.4831596892691390E-002   9.2221701124068460E-003
  -9.9391633525972745E-002   2.9998139175921368E-002   1.7248838252664211E-003
  -9.6392442139065282E-002   2.9359657335276818E-002   1.7975330422265456E-003
  -9.3393250752157791E-002   2.8538896992745547E-002   2.1289395543852424E-003
  -9.0394059365250315E-002   2.7535858148328141E-002   2.7191033617427023E-003
  -8.7394867978342838E-002   2.6350540802023703E-002   3.5680244642981584E-003
  -6.6760563161162773E-002   2.0274765164694120E-002   2.5017911886616784E-002
  -6.4045075461681159E-002   1.9672019000903429E-002   2.4264489667057382E-002
  -6.1329587762199517E-002   1.8861100143871060E-002   2.3770172459580990E-002
  -5.8614100062717889E-002   1.7842008593597043E-002   2.3534960264187901E-002
  -5.5898612363236289E-002   1.6614744350081478E-002   2.3558853080877684E-002
  -7.2343639564375506E-002   2.1793709074026502E-002   1.9947113823566232E-002
  -6.9411822297168121E-002   2.1037432395658320E-002   1.9266662279461513E-002
  -6.6480005029960751E-002   2.0154820384932270E-002   1.8759764858725200E-002
  -6.3548187762753394E-002   1.9145873041848199E-002   1.8426421561357306E-002
  -6.0616370495545996E-002   1.8010590366406454E-002   1.8266632387357845E-002
  -7.7643715834976409E-002   2.3312652983358967E-002   1.4681866565496193E-002
  -7.4581119888757930E-002   2.2402845790413295E-002   1.4156223057729969E-002
  -7.1518523942539464E-002   2.1448540625993419E-002   1.3718582784617517E-002
  -6.8455927996321039E-002   2.0449737490099353E-002   1.3368945746158673E-002
  -6.5393332050102532E-002   1.9406436382731374E-002   1.3107311942353705E-002
  -8.2660791972965511E-002   2.4831596892691390E-002   9.2221701124068460E-003
  -7.9552968236450639E-002   2.3768259185168228E-002   8.9331720018628741E-003
  -7.6445144499935835E-002   2.2742260867054515E-002   8.6466262372579105E-003
  -7.3337320763420935E-002   2.1753601938350787E-002   8.3625328185919466E-003
  -7.0229497026906146E-002   2.0802282399056266E-002   8.0808917458650639E-003
  -8.7394867978342838E-002   2.6350540802023703E-002   3.5680244642981584E-003
  -8.4327367340246262E-002   2.5133672579923216E-002   3.5975091118600755E-003
  -8.1259866702149686E-002   2.4035981108115639E-002   3.5438952166464144E-003
  -7.8192366064053137E-002   2.3057466386601770E-002   3.4071827786571959E-003
  -7.5124865425956533E-002   2.2198128415381158E-002   3.1873717978921912E-003
  -5.5898612363236289E-002   1.6614744350081478E-002   2.3558853080877684E-002
  -5.2763585815263941E-002   1.5500804819788383E-002   2.2981105648933353E-002
  -4.9628559267291553E-002   1.4821687409182049E-002   2.1774368857233661E-002
  -4.6493532719319240E-002   1.4577392118262325E-002   1.9938642705778595E-002
  -4.3358506171346872E-002   1.4767918947029446E-002   1.7473927194568195E-002
  -6.0616370495545996E-002   1.8010590366406454E-002   1.8266632387357845E-002
  -5.7968812206570880E-002   1.6988692570032826E-002   1.8165166239015512E-002
  -5.5321253917595722E-002   1.6319899864153928E-002   1.7717752932433828E-002
  -5.2673695628620600E-002   1.6004212248769214E-002   1.6924392467613320E-002
  -5.0026137339645449E-002   1.6041629723879403E-002   1.5785084844553710E-002
  -6.5393332050102532E-002   1.9406436382731374E-002   1.3107311942353705E-002
  -6.2950199818608304E-002   1.8476580320277297E-002   1.3400410048420811E-002
  -6.0507067587114119E-002   1.7818112319125584E-002   1.3630603197765351E-002
  -5.8063935355619906E-002   1.7431032379276103E-002   1.3797891390386820E-002
  -5.5620803124125658E-002   1.7315340500729082E-002   1.3902274626285904E-002
  -7.0229497026906146E-002   2.0802282399056266E-002   8.0808917458650639E-003
  -6.7707748651376437E-002   1.9964468070521976E-002   8.6868370771497477E-003
  -6.5186000275846798E-002   1.9316324774097296E-002   9.5129196532280011E-003
  -6.2664251900317089E-002   1.8857852509783269E-002   1.0559139474099758E-002
  -6.0142503524787429E-002   1.8589051277578789E-002   1.1825496539765203E-002
  -7.5124865425956533E-002   2.2198128415381158E-002   3.1873717978921912E-003
  -7.2241458704875083E-002   2.1452355820765989E-002   4.0244473252020740E-003
  -6.9358051983793689E-002   2.0814537229069091E-002   5.3647022988218274E-003
  -6.6474645262712240E-002   2.0284672640289707E-002   7.2081367187515413E-003
  -6.3591238541630846E-002   1.9862762054428607E-002   9.5547505849911119E-003
  -4.3358506171346872E-002   1.4767918947029446E-002   1.7473927194568195E-002
  -4.5947675855385200E-002   1.5798139883558215E-002   1.3990040036656548E-002
  -4.8536845539423515E-002   1.8072926915923132E-002   1.4348885377190479E-002
  -5.1126015223461975E-002   2.1592280044124702E-002   1.8550463216170099E-002
  -5.3715184907500213E-002   2.6356199268162683E-002   2.6594773553595186E-002
  -5.0026137339645449E-002   1.6041629723879403E-002   1.5785084844553710E-002
  -4.9388732006004119E-002   1.6478832369728719E-002   1.3603521263104906E-002
  -4.8751326672362816E-002   1.7362500266563219E-002   1.4032375218570148E-002
  -4.8113921338721541E-002   1.8692633414382362E-002   1.7071646710948990E-002
  -4.7476516005080127E-002   2.0469231813186273E-002   2.2721335740241488E-002
  -5.5620803124125658E-002   1.7315340500729082E-002   1.3902274626285904E-002
  -5.2989137734336569E-002   1.7159524855899638E-002   1.2224933776448718E-002
  -5.0357472344547544E-002   1.6652073617203403E-002   1.1925695501993322E-002
  -4.7725806954758372E-002   1.5792986784639963E-002   1.3004559802919688E-002
  -4.5094141564969395E-002   1.4582264358209640E-002   1.5461526679228066E-002
  -6.0142503524787429E-002   1.8589051277578789E-002   1.1825496539765203E-002
  -5.6748893040382553E-002   1.7840217342070405E-002   9.8542775766876783E-003
  -5.3355282555977539E-002   1.5941646967843205E-002   8.0288462274598175E-003
  -4.9961672071572663E-002   1.2893340154897482E-002   6.3492024920820955E-003
  -4.6568061587167697E-002   8.6952969032332850E-003   4.8153463705545296E-003
  -6.3591238541630846E-002   1.9862762054428607E-002   9.5547505849911119E-003
  -6.0667997924141903E-002   1.8520909828240728E-002   6.4915526638215093E-003
  -5.7744757306653072E-002   1.5231220318483313E-002   2.3418273949698531E-003
  -5.4821516689164101E-002   9.9936935251551881E-003  -2.8944252215634542E-003
  -5.1898276071675298E-002   2.8083294482565968E-003  -9.2172051857790649E-003
 </DataArray>
 </PointData>
 </Piece>
 <Piece  NumberOfPoints="          1600 "  NumberOfCells="         1024 ">
 <Points>
 <DataArray  type="Float64" NumberOfComponents="3"  format="ascii" >
  0.50000000000000000        0.0000000000000000        0.0000000000000000     
  0.53125000000000000        0.0000000000000000        0.0000000000000000     
  0.56250000000000000        0.0000000000000000        0.0000000000000000     
  0.59375000000000000        0.0000000000000000        0.0000000000000000     
  0.62500000000000000        0.0000000000000000        0.0000000000000000     
  0.50000000000000000        3.1250000000000000E-002   0.0000000000000000     
  0.53125000000000000        3.1250000000000000E-002   0.0000000000000000     
  0.56250000000000000        3.1250000000000000E-002   0.0000000000000000     
  0.59375000000000000        3.1250000000000000E-002   0.0000000000000000     
  0.62500000000000000        3.1250000000000000E-002   0.0000000000000000     
  0.50000000000000000        6.2500000000000000E-002   0.0000000000000000     
  0.53125000000000000        6.2500000000000000E-002   0.0000000000000000     
  0.56250000000000000        6.2500000000000000E-002   0.0000000000000000     
  0.59375000000000000        6.2500000000000000E-002   0.0000000000000000     
  0.62500000000000000        6.2500000000000000E-002   0.0000000000000000     
  0.50000000000000000        9.3750000000000000E-002   0.0000000000000000     
  0.53125000000000000        9.3750000000000000E-002   0.0000000000000000     
  0.56250000000000000        9.3750000000000000E-002   0.0000000000000000     
  0.59375000000000000        9.3750000000000000E-002   0.0000000000000000     
  0.62500000000000000        9.3750000000000000E-002   0.0000000000000000     
  0.50000000000000000       0.12500000000000000        0.0000000000000000     
  0.53125000000000000       0.12500000000000000        0.0000000000000000     
  0.56250000000000000       0.12500000000000000        0.0000000000000000     
  0.59375000000000000       0.12500000000000000        0.0000000000000000     
  0.62500000000000000       0.12500000000000000        0.0000000000000000     
  0.62500000000000000        0.0000000000000000        0.0000000000000000     
  0.65625000000000000        0.0000000000000000        0.0000000000000000     
  0.68750000000000000        0.0000000000000000        0.0000000000000000     
  0.71875000000000000        0.0000000000000000        0.0000000000000000     
  0.75000000000000000        0.0000000000000000        0.0000000000000000     
  0.62500000000000000        3.1250000000000000E-002   0.0000000000000000     
  0.65625000000000000        3.1250000000000000E-002   0.0000000000000000     
  0.68750000000000000        3.1250000000000000E-002   0.0000000000000000     
  0.71875000000000000        3.1250000000000000E-002   0.0000000000000000     
  0.75000000000000000        3.1250000000000000E-002   0.0000000000000000     
  0.62500000000000000        6.2500000000000000E-002   0.0000000000000000     
  0.65625000000000000        6.2500000000000000E-002   0.0000000000000000     
  0.68750000000000000        6.2500000000000000E-002   0.0000000000000000     
  0.71875000000000000        6.2500000000000000E-002   0.0000000000000000     
  0.75000000000000000        6.2500000000000000E-002   0.0000000000000000     
  0.62500000000000000        9.3750000000000000E-002   0.0000000000000000     
  0.65625000000000000        9.3750000000000000E-002   0.0000000000000000     
  0.68750000000000000        9.3750000000000000E-002   0.0000000000000000     
  0.71875000000000000        9.3750000000000000E-002   0.0000000000000000     
  0.75000000000000000        9.3750000000000000E-002   0.0000000000000000     
  0.62500000000000000       0.12500000000000000        0.0000000000000000     
  0.65625000000000000       0.12500000000000000        0.0000000000000000     
  0.68750000000000000       0.12500000000000000        0.0000000000000000     
  0.71875000000000000       0.12500000000000000        0.0000000000000000     
  0.75000000000000000       0.12500000000000000        0.0000000000000000     
  0.75000000000000000        0.0000000000000000        0.0000000000000000     
  0.78125000000000000        0.0000000000000000        0.0000000000000000     
  0.81250000000000000        0.0000000000000000        0.0000000000000000     
  0.84375000000000000        0.0000000000000000        0.0000000000000000     
  0.87500000000000000        0.0000000000000000        0.0000000000000000     
  0.75000000000000000        3.1250000000000000E-002   0.0000000000000000     
  0.78125000000000000        3.1250000000000000E-002   0.0000000000000000     
  0.81250000000000000        3.1250000000000000E-002   0.0000000000000000     
  0.84375000000000000        3.1250000000000000E-002   0.0000000000000000     
  0.87500000000000000        3.1250000000000000E-002   0.0000000000000000     
  0.75000000000000000        6.2500000000000000E-002   0.0000000000000000     
  0.78125000000000000        6.2500000000000000E-002   0.0000000000000000     
  0.81250000000000000        6.2500000000000000E-002   0.0000000000000000     
  0.84375000000000000        6.2500000000000000E-002   0.0000000000000000     
  0.87500000000000000        6.2500000000000000E-002   0.0000000000000000     
  0.75000000000000000        9.3750000000000000E-002   0.0000000000000000     
  0.78125000000000000        9.3750000000000000E-002   0.0000000000000000     
  0.81250000000000000        9.3750000000000000E-002   0.0000000000000000     
  0.84375000000000000        9.3750000000000000E-002   0.0000000000000000     
  0.87500000000000000        9.3750000000000000E-002   0.0000000000000000     
  0.75000000000000000       0.12500000000000000        0.0000000000000000     
  0.78125000000000000       0.12500000000000000        0.0000000000000000     
  0.81250000000000000       0.12500000000000000        0.0000000000000000     
  0.84375000000000000       0.12500000000000000        0.0000000000000000     
  0.87500000000000000       0.12500000000000000        0.0000000000000000     
  0.87500000000000000        0.0000000000000000        0.0000000000000000     
  0.90625000000000000        0.0000000000000000        0.0000000000000000     
  0.93750000000000000        0.0000000000000000        0.0000000000000000     
  0.96875000000000000        0.0000000000000000        0.0000000000000000     
   1.0000000000000000        0.0000000000000000        0.0000000000000000     
  0.87500000000000000        3.1250000000000000E-002   0.0000000000000000     
  0.90625000000000000        3.1250000000000000E-002   0.0000000000000000     
  0.93750000000000000        3.1250000000000000E-002   0.0000000000000000     
  0.96875000000000000        3.1250000000000000E-002   0.0000000000000000     
   1.0000000000000000        3.1250000000000000E-002   0.0000000000000000     
  0.87500000000000000        6.2500000000000000E-002   0.0000000000000000     
  0.90625000000000000        6.2500000000000000E-002   0.0000000000000000     
  0.93750000000000000        6.2500000000000000E-002   0.0000000000000000     
  0.96875000000000000        6.2500000000000000E-002   0.0000000000000000     
   1.0000000000000000        6.2500000000000000E-002   0.0000000000000000     
  0.87500000000000000        9.3750000000000000E-002   0.0000000000000000     
  0.90625000000000000        9.3750000000000000E-002   0.0000000000000000     
  0.93750000000000000        9.3750000000000000E-002   0.0000000000000000     
  0.96875000000000000        9.3750000000000000E-002   0.0000000000000000     
   1.0000000000000000        9.3750000000000000E-002   0.0000000000000000     
  0.87500000000000000       0.12500000000000000        0.0000000000000000     
  0.90625000000000000       0.12500000000000000        0.0000000000000000     
  0.93750000000000000       0.12500000000000000        0.0000000000000000     
  0.96875000000000000       0.12500000000000000        0.0000000000000000     
   1.0000000000000000       0.12500000000000000        0.0000000000000000     
   1.0000000000000000        0.0000000000000000        0.0000000000000000     
   1.0312500000000000        0.0000000000000000        0.0000000000000000     
   1.0625000000000000        0.0000000000000000        0.0000000000000000     
   1.0937500000000000        0.0000000000000000        0.0000000000000000     
   1.1250000000000000        0.0000000000000000        0.0000000000000000     
   1.0000000000000000        3.1250000000000000E-002   0.0000000000000000     
   1.0312500000000000        3.1250000000000000E-002   0.0000000000000000     
   1.0625000000000000        3.1250000000000000E-002   0.0000000000000000     
   1.0937500000000000        3.1250000000000000E-002   0.0000000000000000     
   1.1250000000000000        3.1250000000000000E-002   0.0000000000000000     
   1.0000000000000000        6.2500000000000000E-002   0.0000000000000000     
   1.0312500000000000        6.2500000000000000E-002   0.0000000000000000     
   1.0625000000000000        6.2500000000000000E-002   0.0000000000000000     
   1.0937500000000000        6.2500000000000000E-002   0.0000000000000000     
   1.1250000000000000        6.2500000000000000E-002   0.0000000000000000     
   1.0000000000000000        9.3750000000000000E-002   0.0000000000000000     
   1.0312500000000000        9.3750000000000000E-002   0.0000000000000000     
   1.0625000000000000        9.3750000000000000E-002   0.0000000000000000     
   1.0937500000000000        9.3750000000000000E-002   0.0000000000000000     
   1.1250000000000000        9.3750000000000000E-002   0.0000000000000000     
   1.0000000000000000       0.12500000000000000        0.0000000000000000     
   1.0312500000000000       0.12500000000000000        0.0000000000000000     
   1.0625000000000000       0.12500000000000000        0.0000000000000000     
   1.0937500000000000       0.12500000000000000        0.0000000000000000     
   1.1250000000000000       0.12500000000000000        0.0000000000000000     
   1.1250000000000000        0.0000000000000000        0.0000000000000000     
   1.1562500000000000        0.0000000000000000        0.0000000000000000     
   1.1875000000000000        0.0000000000000000        0.0000000000000000     
   1.2187500000000000        0.0000000000000000        0.0000000000000000     
   1.2500000000000000        0.0000000000000000        0.0000000000000000     
   1.1250000000000000        3.1250000000000000E-002   0.0000000000000000     
   1.1562500000000000        3.1250000000000000E-002   0.0000000000000000     
   1.1875000000000000        3.1250000000000000E-002   0.0000000000000000     
   1.2187500000000000        3.1250000000000000E-002   0.0000000000000000     
   1.2500000000000000        3.1250000000000000E-002   0.0000000000000000     
   1.1250000000000000        6.2500000000000000E-002   0.0000000000000000     
   1.1562500000000000        6.2500000000000000E-002   0.0000000000000000     
   1.1875000000000000        6.2500000000000000E-002   0.0000000000000000     
   1.2187500000000000        6.2500000000000000E-002   0.0000000000000000     
   1.2500000000000000        6.2500000000000000E-002   0.0000000000000000     
   1.1250000000000000        9.3750000000000000E-002   0.0000000000000000     
   1.1562500000000000        9.3750000000000000E-002   0.0000000000000000     
   1.1875000000000000        9.3750000000000000E-002   0.0000000000000000     
   1.2187500000000000        9.3750000000000000E-002   0.0000000000000000     
   1.2500000000000000        9.3750000000000000E-002   0.0000000000000000     
   1.1250000000000000       0.12500000000000000        0.0000000000000000     
   1.1562500000000000       0.12500000000000000        0.0000000000000000     
   1.1875000000000000       0.12500000000000000        0.0000000000000000     
   1.2187500000000000       0.12500000000000000        0.0000000000000000     
   1.2500000000000000       0.12500000000000000        0.0000000000000000     
   1.2500000000000000        0.0000000000000000        0.0000000000000000     
   1.2812500000000000        0.0000000000000000        0.0000000000000000     
   1.3125000000000000        0.0000000000000000        0.0000000000000000     
   1.3437500000000000        0.0000000000000000        0.0000000000000000     
   1.3750000000000000        0.0000000000000000        0.0000000000000000     
   1.2500000000000000        3.1250000000000000E-002   0.0000000000000000     
   1.2812500000000000        3.1250000000000000E-002   0.0000000000000000     
   1.3125000000000000        3.1250000000000000E-002   0.0000000000000000     
   1.3437500000000000        3.1250000000000000E-002   0.0000000000000000     
   1.3750000000000000        3.1250000000000000E-002   0.0000000000000000     
   1.2500000000000000        6.2500000000000000E-002   0.0000000000000000     
   1.2812500000000000        6.2500000000000000E-002   0.0000000000000000     
   1.3125000000000000        6.2500000000000000E-002   0.0000000000000000     
   1.3437500000000000        6.2500000000000000E-002   0.0000000000000000     
   1.3750000000000000        6.2500000000000000E-002   0.0000000000000000     
   1.2500000000000000        9.3750000000000000E-002   0.0000000000000000     
   1.2812500000000000        9.3750000000000000E-002   0.0000000000000000     
   1.3125000000000000        9.3750000000000000E-002   0.0000000000000000     
   1.3437500000000000        9.3750000000000000E-002   0.0000000000000000     
   1.3750000000000000        9.3750000000000000E-002   0.0000000000000000     
   1.2500000000000000       0.12500000000000000        0.0000000000000000     
   1.2812500000000000       0.12500000000000000        0.0000000000000000     
   1.3125000000000000       0.12500000000000000        0.0000000000000000     
   1.3437500000000000       0.12500000000000000        0.0000000000000000     
   1.3750000000000000       0.12500000000000000        0.0000000000000000     
   1.3750000000000000        0.0000000000000000        0.0000000000000000     
   1.4062500000000000        0.0000000000000000        0.0000000000000000     
   1.4375000000000000        0.0000000000000000        0.0000000000000000     
   1.4687500000000000        0.0000000000000000        0.0000000000000000     
   1.5000000000000000        0.0000000000000000        0.0000000000000000     
   1.3750000000000000        3.1250000000000000E-002   0.0000000000000000     
   1.4062500000000000        3.1250000000000000E-002   0.0000000000000000     
   1.4375000000000000        3.1250000000000000E-002   0.0000000000000000     
   1.4687500000000000        3.1250000000000000E-002   0.0000000000000000     
   1.5000000000000000        3.1250000000000000E-002   0.0000000000000000     
   1.3750000000000000        6.2500000000000000E-002   0.0000000000000000     
   1.4062500000000000        6.2500000000000000E-002   0.0000000000000000     
   1.4375000000000000        6.2500000000000000E-002   0.0000000000000000     
   1.4687500000000000        6.2500000000000000E-002   0.0000000000000000     
   1.5000000000000000        6.2500000000000000E-002   0.0000000000000000     
   1.3750000000000000        9.3750000000000000E-002   0.0000000000000000     
   1.4062500000000000        9.3750000000000000E-002   0.0000000000000000     
   1.4375000000000000        9.3750000000000000E-002   0.0000000000000000     
   1.4687500000000000        9.3750000000000000E-002   0.0000000000000000     
   1.5000000000000000        9.3750000000000000E-002   0.0000000000000000     
   1.3750000000000000       0.12500000000000000        0.0000000000000000     
   1.4062500000000000       0.12500000000000000        0.0000000000000000     
   1.4375000000000000       0.12500000000000000        0.0000000000000000     
   1.4687500000000000       0.12500000000000000        0.0000000000000000     
   1.5000000000000000       0.12500000000000000        0.0000000000000000     
  0.50000000000000000       0.12500000000000000        0.0000000000000000     
  0.53125000000000000       0.12500000000000000        0.0000000000000000     
  0.56250000000000000       0.12500000000000000        0.0000000000000000     
  0.59375000000000000       0.12500000000000000        0.0000000000000000     
  0.62500000000000000       0.12500000000000000        0.0000000000000000     
  0.50000000000000000       0.15625000000000000        0.0000000000000000     
  0.53125000000000000       0.15625000000000000        0.0000000000000000     
  0.56250000000000000       0.15625000000000000        0.0000000000000000     
  0.59375000000000000       0.15625000000000000        0.0000000000000000     
  0.62500000000000000       0.15625000000000000        0.0000000000000000     
  0.50000000000000000       0.18750000000000000        0.0000000000000000     
  0.53125000000000000       0.18750000000000000        0.0000000000000000     
  0.56250000000000000       0.18750000000000000        0.0000000000000000     
  0.59375000000000000       0.18750000000000000        0.0000000000000000     
  0.62500000000000000       0.18750000000000000        0.0000000000000000     
  0.50000000000000000       0.21875000000000000        0.0000000000000000     
  0.53125000000000000       0.21875000000000000        0.0000000000000000     
  0.56250000000000000       0.21875000000000000        0.0000000000000000     
  0.59375000000000000       0.21875000000000000        0.0000000000000000     
  0.62500000000000000       0.21875000000000000        0.0000000000000000     
  0.50000000000000000       0.25000000000000000        0.0000000000000000     
  0.53125000000000000       0.25000000000000000        0.0000000000000000     
  0.56250000000000000       0.25000000000000000        0.0000000000000000     
  0.59375000000000000       0.25000000000000000        0.0000000000000000     
  0.62500000000000000       0.25000000000000000        0.0000000000000000     
  0.62500000000000000       0.12500000000000000        0.0000000000000000     
  0.65625000000000000       0.12500000000000000        0.0000000000000000     
  0.68750000000000000       0.12500000000000000        0.0000000000000000     
  0.71875000000000000       0.12500000000000000        0.0000000000000000     
  0.75000000000000000       0.12500000000000000        0.0000000000000000     
  0.62500000000000000       0.15625000000000000        0.0000000000000000     
  0.65625000000000000       0.15625000000000000        0.0000000000000000     
  0.68750000000000000       0.15625000000000000        0.0000000000000000     
  0.71875000000000000       0.15625000000000000        0.0000000000000000     
  0.75000000000000000       0.15625000000000000        0.0000000000000000     
  0.62500000000000000       0.18750000000000000        0.0000000000000000     
  0.65625000000000000       0.18750000000000000        0.0000000000000000     
  0.68750000000000000       0.18750000000000000        0.0000000000000000     
  0.71875000000000000       0.18750000000000000        0.0000000000000000     
  0.75000000000000000       0.18750000000000000        0.0000000000000000     
  0.62500000000000000       0.21875000000000000        0.0000000000000000     
  0.65625000000000000       0.21875000000000000        0.0000000000000000     
  0.68750000000000000       0.21875000000000000        0.0000000000000000     
  0.71875000000000000       0.21875000000000000        0.0000000000000000     
  0.75000000000000000       0.21875000000000000        0.0000000000000000     
  0.62500000000000000       0.25000000000000000        0.0000000000000000     
  0.65625000000000000       0.25000000000000000        0.0000000000000000     
  0.68750000000000000       0.25000000000000000        0.0000000000000000     
  0.71875000000000000       0.25000000000000000        0.0000000000000000     
  0.75000000000000000       0.25000000000000000        0.0000000000000000     
  0.75000000000000000       0.12500000000000000        0.0000000000000000     
  0.78125000000000000       0.12500000000000000        0.0000000000000000     
  0.81250000000000000       0.12500000000000000        0.0000000000000000     
  0.84375000000000000       0.12500000000000000        0.0000000000000000     
  0.87500000000000000       0.12500000000000000        0.0000000000000000     
  0.75000000000000000       0.15625000000000000        0.0000000000000000     
  0.78125000000000000       0.15625000000000000        0.0000000000000000     
  0.81250000000000000       0.15625000000000000        0.0000000000000000     
  0.84375000000000000       0.15625000000000000        0.0000000000000000     
  0.87500000000000000       0.15625000000000000        0.0000000000000000     
  0.75000000000000000       0.18750000000000000        0.0000000000000000     
  0.78125000000000000       0.18750000000000000        0.0000000000000000     
  0.81250000000000000       0.18750000000000000        0.0000000000000000     
  0.84375000000000000       0.18750000000000000        0.0000000000000000     
  0.87500000000000000       0.18750000000000000        0.0000000000000000     
  0.75000000000000000       0.21875000000000000        0.0000000000000000     
  0.78125000000000000       0.21875000000000000        0.0000000000000000     
  0.81250000000000000       0.21875000000000000        0.0000000000000000     
  0.84375000000000000       0.21875000000000000        0.0000000000000000     
  0.87500000000000000       0.21875000000000000        0.0000000000000000     
  0.75000000000000000       0.25000000000000000        0.0000000000000000     
  0.78125000000000000       0.25000000000000000        0.0000000000000000     
  0.81250000000000000       0.25000000000000000        0.0000000000000000     
  0.84375000000000000       0.25000000000000000        0.0000000000000000     
  0.87500000000000000       0.25000000000000000        0.0000000000000000     
  0.87500000000000000       0.12500000000000000        0.0000000000000000     
  0.90625000000000000       0.12500000000000000        0.0000000000000000     
  0.93750000000000000       0.12500000000000000        0.0000000000000000     
  0.96875000000000000       0.12500000000000000        0.0000000000000000     
   1.0000000000000000       0.12500000000000000        0.0000000000000000     
  0.87500000000000000       0.15625000000000000        0.0000000000000000     
  0.90625000000000000       0.15625000000000000        0.0000000000000000     
  0.93750000000000000       0.15625000000000000        0.0000000000000000     
  0.96875000000000000       0.15625000000000000        0.0000000000000000     
   1.0000000000000000       0.15625000000000000        0.0000000000000000     
  0.87500000000000000       0.18750000000000000        0.0000000000000000     
  0.90625000000000000       0.18750000000000000        0.0000000000000000     
  0.93750000000000000       0.18750000000000000        0.0000000000000000     
  0.96875000000000000       0.18750000000000000        0.0000000000000000     
   1.0000000000000000       0.18750000000000000        0.0000000000000000     
  0.87500000000000000       0.21875000000000000        0.0000000000000000     
  0.90625000000000000       0.21875000000000000        0.0000000000000000     
  0.93750000000000000       0.21875000000000000        0.0000000000000000     
  0.96875000000000000       0.21875000000000000        0.0000000000000000     
   1.0000000000000000       0.21875000000000000        0.0000000000000000     
  0.87500000000000000       0.25000000000000000        0.0000000000000000     
  0.90625000000000000       0.25000000000000000        0.0000000000000000     
  0.93750000000000000       0.25000000000000000        0.0000000000000000     
  0.96875000000000000       0.25000000000000000        0.0000000000000000     
   1.0000000000000000       0.25000000000000000        0.0000000000000000     
   1.0000000000000000       0.12500000000000000        0.0000000000000000     
   1.0312500000000000       0.12500000000000000        0.0000000000000000     
   1.0625000000000000       0.12500000000000000        0.0000000000000000     
   1.0937500000000000       0.12500000000000000        0.0000000000000000     
   1.1250000000000000       0.12500000000000000        0.0000000000000000     
   1.0000000000000000       0.15625000000000000        0.0000000000000000     
   1.0312500000000000       0.15625000000000000        0.0000000000000000     
   1.0625000000000000       0.15625000000000000        0.0000000000000000     
   1.0937500000000000       0.15625000000000000        0.0000000000000000     
   1.1250000000000000       0.15625000000000000        0.0000000000000000     
   1.0000000000000000       0.18750000000000000        0.0000000000000000     
   1.0312500000000000       0.18750000000000000        0.0000000000000000     
   1.0625000000000000       0.18750000000000000        0.0000000000000000     
   1.0937500000000000       0.18750000000000000        0.0000000000000000     
   1.1250000000000000       0.18750000000000000        0.0000000000000000     
   1.0000000000000000       0.21875000000000000        0.0000000000000000     
   1.0312500000000000       0.21875000000000000        0.0000000000000000     
   1.0625000000000000       0.21875000000000000        0.0000000000000000     
   1.0937500000000000       0.21875000000000000        0.0000000000000000     
   1.1250000000000000       0.21875000000000000        0.0000000000000000     
   1.0000000000000000       0.25000000000000000        0.0000000000000000     
   1.0312500000000000       0.25000000000000000        0.0000000000000000     
   1.0625000000000000       0.25000000000000000        0.0000000000000000     
   1.0937500000000000       0.25000000000000000        0.0000000000000000     
   1.1250000000000000       0.25000000000000000        0.0000000000000000     
   1.1250000000000000       0.12500000000000000        0.0000000000000000     
   1.1562500000000000       0.12500000000000000        0.0000000000000000     
   1.1875000000000000       0.12500000000000000        0.0000000000000000     
   1.2187500000000000       0.12500000000000000        0.0000000000000000     
   1.2500000000000000       0.12500000000000000        0.0000000000000000     
   1.1250000000000000       0.15625000000000000        0.0000000000000000     
   1.1562500000000000       0.15625000000000000        0.0000000000000000     
   1.1875000000000000       0.15625000000000000        0.0000000000000000     
   1.2187500000000000       0.15625000000000000        0.0000000000000000     
   1.2500000000000000       0.15625000000000000        0.0000000000000000     
   1.1250000000000000       0.18750000000000000        0.0000000000000000     
   1.1562500000000000       0.18750000000000000        0.0000000000000000     
   1.1875000000000000       0.18750000000000000        0.0000000000000000     
   1.2187500000000000       0.18750000000000000        0.0000000000000000     
   1.2500000000000000       0.18750000000000000        0.0000000000000000     
   1.1250000000000000       0.21875000000000000        0.0000000000000000     
   1.1562500000000000       0.21875000000000000        0.0000000000000000     
   1.1875000000000000       0.21875000000000000        0.0000000000000000     
   1.2187500000000000       0.21875000000000000        0.0000000000000000     
   1.2500000000000000       0.21875000000000000        0.0000000000000000     
   1.1250000000000000       0.25000000000000000        0.0000000000000000     
   1.1562500000000000       0.25000000000000000        0.0000000000000000     
   1.1875000000000000       0.25000000000000000        0.0000000000000000     
   1.2187500000000000       0.25000000000000000        0.0000000000000000     
   1.2500000000000000       0.25000000000000000        0.0000000000000000     
   1.2500000000000000       0.12500000000000000        0.0000000000000000     
   1.2812500000000000       0.12500000000000000        0.0000000000000000     
   1.3125000000000000       0.12500000000000000        0.0000000000000000     
   1.3437500000000000       0.12500000000000000        0.0000000000000000     
   1.3750000000000000       0.12500000000000000        0.0000000000000000     
   1.2500000000000000       0.15625000000000000        0.0000000000000000     
   1.2812500000000000       0.15625000000000000        0.0000000000000000     
   1.3125000000000000       0.15625000000000000        0.0000000000000000     
   1.3437500000000000       0.15625000000000000        0.0000000000000000     
   1.3750000000000000       0.15625000000000000        0.0000000000000000     
   1.2500000000000000       0.18750000000000000        0.0000000000000000     
   1.2812500000000000       0.18750000000000000        0.0000000000000000     
   1.3125000000000000       0.18750000000000000        0.0000000000000000     
   1.3437500000000000       0.18750000000000000        0.0000000000000000     
   1.3750000000000000       0.18750000000000000        0.0000000000000000     
   1.2500000000000000       0.21875000000000000        0.0000000000000000     
   1.2812500000000000       0.21875000000000000        0.0000000000000000     
   1.3125000000000000       0.21875000000000000        0.0000000000000000     
   1.3437500000000000       0.21875000000000000        0.0000000000000000     
   1.3750000000000000       0.21875000000000000        0.0000000000000000     
   1.2500000000000000       0.25000000000000000        0.0000000000000000     
   1.2812500000000000       0.25000000000000000        0.0000000000000000     
   1.3125000000000000       0.25000000000000000        0.0000000000000000     
   1.3437500000000000       0.25000000000000000        0.0000000000000000     
   1.3750000000000000       0.25000000000000000        0.0000000000000000     
   1.3750000000000000       0.12500000000000000        0.0000000000000000     
   1.4062500000000000       0.12500000000000000        0.0000000000000000     
   1.4375000000000000       0.12500000000000000        0.0000000000000000     
   1.4687500000000000       0.12500000000000000        0.0000000000000000     
   1.5000000000000000       0.12500000000000000        0.0000000000000000     
   1.3750000000000000       0.15625000000000000        0.0000000000000000     
   1.4062500000000000       0.15625000000000000        0.0000000000000000     
   1.4375000000000000       0.15625000000000000        0.0000000000000000     
   1.4687500000000000       0.15625000000000000        0.0000000000000000     
   1.5000000000000000       0.15625000000000000        0.0000000000000000     
   1.3750000000000000       0.18750000000000000        0.0000000000000000     
   1.4062500000000000       0.18750000000000000        0.0000000000000000     
   1.4375000000000000       0.18750000000000000        0.0000000000000000     
   1.4687500000000000       0.18750000000000000        0.0000000000000000     
   1.5000000000000000       0.18750000000000000        0.0000000000000000     
   1.3750000000000000       0.21875000000000000        0.0000000000000000     
   1.4062500000000000       0.21875000000000000        0.0000000000000000     
   1.4375000000000000       0.21875000000000000        0.0000000000000000     
   1.4687500000000000       0.21875000000000000        0.0000000000000000     
   1.5000000000000000       0.21875000000000000        0.0000000000000000     
   1.3750000000000000       0.25000000000000000        0.0000000000000000     
   1.4062500000000000       0.25000000000000000        0.0000000000000000     
   1.4375000000000000       0.25000000000000000        0.0000000000000000     
   1.4687500000000000       0.25000000000000000        0.0000000000000000     
   1.5000000000000000       0.25000000000000000        0.0000000000000000     
  0.50000000000000000       0.25000000000000000        0.0000000000000000     
  0.53125000000000000       0.25000000000000000        0.0000000000000000     
  0.56250000000000000       0.25000000000000000        0.0000000000000000     
  0.59375000000000000       0.25000000000000000        0.0000000000000000     
  0.62500000000000000       0.25000000000000000        0.0000000000000000     
  0.50000000000000000       0.28125000000000000        0.0000000000000000     
  0.53125000000000000       0.28125000000000000        0.0000000000000000     
  0.56250000000000000       0.28125000000000000        0.0000000000000000     
  0.59375000000000000       0.28125000000000000        0.0000000000000000     
  0.62500000000000000       0.28125000000000000        0.0000000000000000     
  0.50000000000000000       0.31250000000000000        0.0000000000000000     
  0.53125000000000000       0.31250000000000000        0.0000000000000000     
  0.56250000000000000       0.31250000000000000        0.0000000000000000     
  0.59375000000000000       0.31250000000000000        0.0000000000000000     
  0.62500000000000000       0.31250000000000000        0.0000000000000000     
  0.50000000000000000       0.34375000000000000        0.0000000000000000     
  0.53125000000000000       0.34375000000000000        0.0000000000000000     
  0.56250000000000000       0.34375000000000000        0.0000000000000000     
  0.59375000000000000       0.34375000000000000        0.0000000000000000     
  0.62500000000000000       0.34375000000000000        0.0000000000000000     
  0.50000000000000000       0.37500000000000000        0.0000000000000000     
  0.53125000000000000       0.37500000000000000        0.0000000000000000     
  0.56250000000000000       0.37500000000000000        0.0000000000000000     
  0.59375000000000000       0.37500000000000000        0.0000000000000000     
  0.62500000000000000       0.37500000000000000        0.0000000000000000     
  0.62500000000000000       0.25000000000000000        0.0000000000000000     
  0.65625000000000000       0.25000000000000000        0.0000000000000000     
  0.68750000000000000       0.25000000000000000        0.0000000000000000     
  0.71875000000000000       0.25000000000000000        0.0000000000000000     
  0.75000000000000000       0.25000000000000000        0.0000000000000000     
  0.62500000000000000       0.28125000000000000        0.0000000000000000     
  0.65625000000000000       0.28125000000000000        0.0000000000000000     
  0.68750000000000000       0.28125000000000000        0.0000000000000000     
  0.71875000000000000       0.28125000000000000        0.0000000000000000     
  0.75000000000000000       0.28125000000000000        0.0000000000000000     
  0.62500000000000000       0.31250000000000000        0.0000000000000000     
  0.65625000000000000       0.31250000000000000        0.0000000000000000     
  0.68750000000000000       0.31250000000000000        0.0000000000000000     
  0.71875000000000000       0.31250000000000000        0.0000000000000000     
  0.75000000000000000       0.31250000000000000        0.0000000000000000     
  0.62500000000000000       0.34375000000000000        0.0000000000000000     
  0.65625000000000000       0.34375000000000000        0.0000000000000000     
  0.68750000000000000       0.34375000000000000        0.0000000000000000     
  0.71875000000000000       0.34375000000000000        0.0000000000000000     
  0.75000000000000000       0.34375000000000000        0.0000000000000000     
  0.62500000000000000       0.37500000000000000        0.0000000000000000     
  0.65625000000000000       0.37500000000000000        0.0000000000000000     
  0.68750000000000000       0.37500000000000000        0.0000000000000000     
  0.71875000000000000       0.37500000000000000        0.0000000000000000     
  0.75000000000000000       0.37500000000000000        0.0000000000000000     
  0.75000000000000000       0.25000000000000000        0.0000000000000000     
  0.78125000000000000       0.25000000000000000        0.0000000000000000     
  0.81250000000000000       0.25000000000000000        0.0000000000000000     
  0.84375000000000000       0.25000000000000000        0.0000000000000000     
  0.87500000000000000       0.25000000000000000        0.0000000000000000     
  0.75000000000000000       0.28125000000000000        0.0000000000000000     
  0.78125000000000000       0.28125000000000000        0.0000000000000000     
  0.81250000000000000       0.28125000000000000        0.0000000000000000     
  0.84375000000000000       0.28125000000000000        0.0000000000000000     
  0.87500000000000000       0.28125000000000000        0.0000000000000000     
  0.75000000000000000       0.31250000000000000        0.0000000000000000     
  0.78125000000000000       0.31250000000000000        0.0000000000000000     
  0.81250000000000000       0.31250000000000000        0.0000000000000000     
  0.84375000000000000       0.31250000000000000        0.0000000000000000     
  0.87500000000000000       0.31250000000000000        0.0000000000000000     
  0.75000000000000000       0.34375000000000000        0.0000000000000000     
  0.78125000000000000       0.34375000000000000        0.0000000000000000     
  0.81250000000000000       0.34375000000000000        0.0000000000000000     
  0.84375000000000000       0.34375000000000000        0.0000000000000000     
  0.87500000000000000       0.34375000000000000        0.0000000000000000     
  0.75000000000000000       0.37500000000000000        0.0000000000000000     
  0.78125000000000000       0.37500000000000000        0.0000000000000000     
  0.81250000000000000       0.37500000000000000        0.0000000000000000     
  0.84375000000000000       0.37500000000000000        0.0000000000000000     
  0.87500000000000000       0.37500000000000000        0.0000000000000000     
  0.87500000000000000       0.25000000000000000        0.0000000000000000     
  0.90625000000000000       0.25000000000000000        0.0000000000000000     
  0.93750000000000000       0.25000000000000000        0.0000000000000000     
  0.96875000000000000       0.25000000000000000        0.0000000000000000     
   1.0000000000000000       0.25000000000000000        0.0000000000000000     
  0.87500000000000000       0.28125000000000000        0.0000000000000000     
  0.90625000000000000       0.28125000000000000        0.0000000000000000     
  0.93750000000000000       0.28125000000000000        0.0000000000000000     
  0.96875000000000000       0.28125000000000000        0.0000000000000000     
   1.0000000000000000       0.28125000000000000        0.0000000000000000     
  0.87500000000000000       0.31250000000000000        0.0000000000000000     
  0.90625000000000000       0.31250000000000000        0.0000000000000000     
  0.93750000000000000       0.31250000000000000        0.0000000000000000     
  0.96875000000000000       0.31250000000000000        0.0000000000000000     
   1.0000000000000000       0.31250000000000000        0.0000000000000000     
  0.87500000000000000       0.34375000000000000        0.0000000000000000     
  0.90625000000000000       0.34375000000000000        0.0000000000000000     
  0.93750000000000000       0.34375000000000000        0.0000000000000000     
  0.96875000000000000       0.34375000000000000        0.0000000000000000     
   1.0000000000000000       0.34375000000000000        0.0000000000000000     
  0.87500000000000000       0.37500000000000000        0.0000000000000000     
  0.90625000000000000       0.37500000000000000        0.0000000000000000     
  0.93750000000000000       0.37500000000000000        0.0000000000000000     
  0.96875000000000000       0.37500000000000000        0.0000000000000000     
   1.0000000000000000       0.37500000000000000        0.0000000000000000     
   1.0000000000000000       0.25000000000000000        0.0000000000000000     
   1.0312500000000000       0.25000000000000000        0.0000000000000000     
   1.0625000000000000       0.25000000000000000        0.0000000000000000     
   1.0937500000000000       0.25000000000000000        0.0000000000000000     
   1.1250000000000000       0.25000000000000000        0.0000000000000000     
   1.0000000000000000       0.28125000000000000        0.0000000000000000     
   1.0312500000000000       0.28125000000000000        0.0000000000000000     
   1.0625000000000000       0.28125000000000000        0.0000000000000000     
   1.0937500000000000       0.28125000000000000        0.0000000000000000     
   1.1250000000000000       0.28125000000000000        0.0000000000000000     
   1.0000000000000000       0.31250000000000000        0.0000000000000000     
   1.0312500000000000       0.31250000000000000        0.0000000000000000     
   1.0625000000000000       0.31250000000000000        0.0000000000000000     
   1.0937500000000000       0.31250000000000000        0.0000000000000000     
   1.1250000000000000       0.31250000000000000        0.0000000000000000     
   1.0000000000000000       0.34375000000000000        0.0000000000000000     
   1.0312500000000000       0.34375000000000000        0.0000000000000000     
   1.0625000000000000       0.34375000000000000        0.0000000000000000     
   1.0937500000000000       0.34375000000000000        0.0000000000000000     
   1.1250000000000000       0.34375000000000000        0.0000000000000000     
   1.0000000000000000       0.37500000000000000        0.0000000000000000     
   1.0312500000000000       0.37500000000000000        0.0000000000000000     
   1.0625000000000000       0.37500000000000000        0.0000000000000000     
   1.0937500000000000       0.37500000000000000        0.0000000000000000     
   1.1250000000000000       0.37500000000000000        0.0000000000000000     
   1.1250000000000000       0.25000000000000000        0.0000000000000000     
   1.1562500000000000       0.25000000000000000        0.0000000000000000     
   1.1875000000000000       0.25000000000000000        0.0000000000000000     
   1.2187500000000000       0.25000000000000000        0.0000000000000000     
   1.2500000000000000       0.25000000000000000        0.0000000000000000     
   1.1250000000000000       0.28125000000000000        0.0000000000000000     
   1.1562500000000000       0.28125000000000000        0.0000000000000000     
   1.1875000000000000       0.28125000000000000        0.0000000000000000     
   1.2187500000000000       0.28125000000000000        0.0000000000000000     
   1.2500000000000000       0.28125000000000000        0.0000000000000000     
   1.1250000000000000       0.31250000000000000        0.0000000000000000     
   1.1562500000000000       0.31250000000000000        0.0000000000000000     
   1.1875000000000000       0.31250000000000000        0.0000000000000000     
   1.2187500000000000       0.31250000000000000        0.0000000000000000     
   1.2500000000000000       0.31250000000000000        0.0000000000000000     
   1.1250000000000000       0.34375000000000000        0.0000000000000000     
   1.1562500000000000       0.34375000000000000        0.0000000000000000     
   1.1875000000000000       0.34375000000000000        0.0000000000000000     
   1.2187500000000000       0.34375000000000000        0.0000000000000000     
   1.2500000000000000       0.34375000000000000        0.0000000000000000     
   1.1250000000000000       0.37500000000000000        0.0000000000000000     
   1.1562500000000000       0.37500000000000000        0.0000000000000000     
   1.1875000000000000       0.37500000000000000        0.0000000000000000     
   1.2187500000000000       0.37500000000000000        0.0000000000000000     
   1.2500000000000000       0.37500000000000000        0.0000000000000000     
   1.2500000000000000       0.25000000000000000        0.0000000000000000     
   1.2812500000000000       0.25000000000000000        0.0000000000000000     
   1.3125000000000000       0.25000000000000000        0.0000000000000000     
   1.3437500000000000       0.25000000000000000        0.0000000000000000     
   1.3750000000000000       0.25000000000000000        0.0000000000000000     
   1.2500000000000000       0.28125000000000000        0.0000000000000000     
   1.2812500000000000       0.28125000000000000        0.0000000000000000     
   1.3125000000000000       0.28125000000000000        0.0000000000000000     
   1.3437500000000000       0.28125000000000000        0.0000000000000000     
   1.3750000000000000       0.28125000000000000        0.0000000000000000     
   1.2500000000000000       0.31250000000000000        0.0000000000000000     
   1.2812500000000000       0.31250000000000000        0.0000000000000000     
   1.3125000000000000       0.31250000000000000        0.0000000000000000     
   1.3437500000000000       0.31250000000000000        0.0000000000000000     
   1.3750000000000000       0.31250000000000000        0.0000000000000000     
   1.2500000000000000       0.34375000000000000        0.0000000000000000     
   1.2812500000000000       0.34375000000000000        0.0000000000000000     
   1.3125000000000000       0.34375000000000000        0.0000000000000000     
   1.3437500000000000       0.34375000000000000        0.0000000000000000     
   1.3750000000000000       0.34375000000000000        0.0000000000000000     
   1.2500000000000000       0.37500000000000000        0.0000000000000000     
   1.2812500000000000       0.37500000000000000        0.0000000000000000     
   1.3125000000000000       0.37500000000000000        0.0000000000000000     
   1.3437500000000000       0.37500000000000000        0.0000000000000000     
   1.3750000000000000       0.37500000000000000        0.0000000000000000     
   1.3750000000000000       0.25000000000000000        0.0000000000000000     
   1.4062500000000000       0.25000000000000000        0.0000000000000000     
   1.4375000000000000       0.25000000000000000        0.0000000000000000     
   1.4687500000000000       0.25000000000000000        0.0000000000000000     
   1.5000000000000000       0.25000000000000000        0.0000000000000000     
   1.3750000000000000       0.28125000000000000        0.0000000000000000     
   1.4062500000000000       0.28125000000000000        0.0000000000000000     
   1.4375000000000000       0.28125000000000000        0.0000000000000000     
   1.4687500000000000       0.28125000000000000        0.0000000000000000     
   1.5000000000000000       0.28125000000000000        0.0000000000000000     
   1.3750000000000000       0.31250000000000000        0.0000000000000000     
   1.4062500000000000       0.31250000000000000        0.0000000000000000     
   1.4375000000000000       0.31250000000000000        0.0000000000000000     
   1.4687500000000000       0.31250000000000000        0.0000000000000000     
   1.5000000000000000       0.31250000000000000        0.0000000000000000     
   1.3750000000000000       0.34375000000000000        0.0000000000000000     
   1.4062500000000000       0.34375000000000000        0.0000000000000000     
   1.4375000000000000       0.34375000000000000        0.0000000000000000     
   1.4687500000000000       0.34375000000000000        0.0000000000000000     
   1.5000000000000000       0.34375000000000000        0.0000000000000000     
   1.3750000000000000       0.37500000000000000        0.0000000000000000     
   1.4062500000000000       0.37500000000000000        0.0000000000000000     
   1.4375000000000000       0.37500000000000000        0.0000000000000000     
   1.4687500000000000       0.37500000000000000        0.0000000000000000     
   1.5000000000000000       0.37500000000000000        0.0000000000000000     
  0.50000000000000000       0.37500000000000000        0.0000000000000000     
  0.53125000000000000       0.37500000000000000        0.0000000000000000     
  0.56250000000000000       0.37500000000000000        0.0000000000000000     
  0.59375000000000000       0.37500000000000000        0.0000000000000000     
  0.62500000000000000       0.37500000000000000        0.0000000000000000     
  0.50000000000000000       0.40625000000000000        0.0000000000000000     
  0.53125000000000000       0.40625000000000000        0.0000000000000000     
  0.56250000000000000       0.40625000000000000        0.0000000000000000     
  0.59375000000000000       0.40625000000000000        0.0000000000000000     
  0.62500000000000000       0.40625000000000000        0.0000000000000000     
  0.50000000000000000       0.43750000000000000        0.0000000000000000     
  0.53125000000000000       0.43750000000000000        0.0000000000000000     
  0.56250000000000000       0.43750000000000000        0.0000000000000000     
  0.59375000000000000       0.43750000000000000        0.0000000000000000     
  0.62500000000000000       0.43750000000000000        0.0000000000000000     
  0.50000000000000000       0.46875000000000000        0.0000000000000000     
  0.53125000000000000       0.46875000000000000        0.0000000000000000     
  0.56250000000000000       0.46875000000000000        0.0000000000000000     
  0.59375000000000000       0.46875000000000000        0.0000000000000000     
  0.62500000000000000       0.46875000000000000        0.0000000000000000     
  0.50000000000000000       0.50000000000000000        0.0000000000000000     
  0.53125000000000000       0.50000000000000000        0.0000000000000000     
  0.56250000000000000       0.50000000000000000        0.0000000000000000     
  0.59375000000000000       0.50000000000000000        0.0000000000000000     
  0.62500000000000000       0.50000000000000000        0.0000000000000000     
  0.62500000000000000       0.37500000000000000        0.0000000000000000     
  0.65625000000000000       0.37500000000000000        0.0000000000000000     
  0.68750000000000000       0.37500000000000000        0.0000000000000000     
  0.71875000000000000       0.37500000000000000        0.0000000000000000     
  0.75000000000000000       0.37500000000000000        0.0000000000000000     
  0.62500000000000000       0.40625000000000000        0.0000000000000000     
  0.65625000000000000       0.40625000000000000        0.0000000000000000     
  0.68750000000000000       0.40625000000000000        0.0000000000000000     
  0.71875000000000000       0.40625000000000000        0.0000000000000000     
  0.75000000000000000       0.40625000000000000        0.0000000000000000     
  0.62500000000000000       0.43750000000000000        0.0000000000000000     
  0.65625000000000000       0.43750000000000000        0.0000000000000000     
  0.68750000000000000       0.43750000000000000        0.0000000000000000     
  0.71875000000000000       0.43750000000000000        0.0000000000000000     
  0.75000000000000000       0.43750000000000000        0.0000000000000000     
  0.62500000000000000       0.46875000000000000        0.0000000000000000     
  0.65625000000000000       0.46875000000000000        0.0000000000000000     
  0.68750000000000000       0.46875000000000000        0.0000000000000000     
  0.71875000000000000       0.46875000000000000        0.0000000000000000     
  0.75000000000000000       0.46875000000000000        0.0000000000000000     
  0.62500000000000000       0.50000000000000000        0.0000000000000000     
  0.65625000000000000       0.50000000000000000        0.0000000000000000     
  0.68750000000000000       0.50000000000000000        0.0000000000000000     
  0.71875000000000000       0.50000000000000000        0.0000000000000000     
  0.75000000000000000       0.50000000000000000        0.0000000000000000     
  0.75000000000000000       0.37500000000000000        0.0000000000000000     
  0.78125000000000000       0.37500000000000000        0.0000000000000000     
  0.81250000000000000       0.37500000000000000        0.0000000000000000     
  0.84375000000000000       0.37500000000000000        0.0000000000000000     
  0.87500000000000000       0.37500000000000000        0.0000000000000000     
  0.75000000000000000       0.40625000000000000        0.0000000000000000     
  0.78125000000000000       0.40625000000000000        0.0000000000000000     
  0.81250000000000000       0.40625000000000000        0.0000000000000000     
  0.84375000000000000       0.40625000000000000        0.0000000000000000     
  0.87500000000000000       0.40625000000000000        0.0000000000000000     
  0.75000000000000000       0.43750000000000000        0.0000000000000000     
  0.78125000000000000       0.43750000000000000        0.0000000000000000     
  0.81250000000000000       0.43750000000000000        0.0000000000000000     
  0.84375000000000000       0.43750000000000000        0.0000000000000000     
  0.87500000000000000       0.43750000000000000        0.0000000000000000     
  0.75000000000000000       0.46875000000000000        0.0000000000000000     
  0.78125000000000000       0.46875000000000000        0.0000000000000000     
  0.81250000000000000       0.46875000000000000        0.0000000000000000     
  0.84375000000000000       0.46875000000000000        0.0000000000000000     
  0.87500000000000000       0.46875000000000000        0.0000000000000000     
  0.75000000000000000       0.50000000000000000        0.0000000000000000     
  0.78125000000000000       0.50000000000000000        0.0000000000000000     
  0.81250000000000000       0.50000000000000000        0.0000000000000000     
  0.84375000000000000       0.50000000000000000        0.0000000000000000     
  0.87500000000000000       0.50000000000000000        0.0000000000000000     
  0.87500000000000000       0.37500000000000000        0.0000000000000000     
  0.90625000000000000       0.37500000000000000        0.0000000000000000     
  0.93750000000000000       0.37500000000000000        0.0000000000000000     
  0.96875000000000000       0.37500000000000000        0.0000000000000000     
   1.0000000000000000       0.37500000000000000        0.0000000000000000     
  0.87500000000000000       0.40625000000000000        0.0000000000000000     
  0.90625000000000000       0.40625000000000000        0.0000000000000000     
  0.93750000000000000       0.40625000000000000        0.0000000000000000     
  0.96875000000000000       0.40625000000000000        0.0000000000000000     
   1.0000000000000000       0.40625000000000000        0.0000000000000000     
  0.87500000000000000       0.43750000000000000        0.0000000000000000     
  0.90625000000000000       0.43750000000000000        0.0000000000000000     
  0.93750000000000000       0.43750000000000000        0.0000000000000000     
  0.96875000000000000       0.43750000000000000        0.0000000000000000     
   1.0000000000000000       0.43750000000000000        0.0000000000000000     
  0.87500000000000000       0.46875000000000000        0.0000000000000000     
  0.90625000000000000       0.46875000000000000        0.0000000000000000     
  0.93750000000000000       0.46875000000000000        0.0000000000000000     
  0.96875000000000000       0.46875000000000000        0.0000000000000000     
   1.0000000000000000       0.46875000000000000        0.0000000000000000     
  0.87500000000000000       0.50000000000000000        0.0000000000000000     
  0.90625000000000000       0.50000000000000000        0.0000000000000000     
  0.93750000000000000       0.50000000000000000        0.0000000000000000     
  0.96875000000000000       0.50000000000000000        0.0000000000000000     
   1.0000000000000000       0.50000000000000000        0.0000000000000000     
   1.0000000000000000       0.37500000000000000        0.0000000000000000     
   1.0312500000000000       0.37500000000000000        0.0000000000000000     
   1.0625000000000000       0.37500000000000000        0.0000000000000000     
   1.0937500000000000       0.37500000000000000        0.0000000000000000     
   1.1250000000000000       0.37500000000000000        0.0000000000000000     
   1.0000000000000000       0.40625000000000000        0.0000000000000000     
   1.0312500000000000       0.40625000000000000        0.0000000000000000     
   1.0625000000000000       0.40625000000000000        0.0000000000000000     
   1.0937500000000000       0.40625000000000000        0.0000000000000000     
   1.1250000000000000       0.40625000000000000        0.0000000000000000     
   1.0000000000000000       0.43750000000000000        0.0000000000000000     
   1.0312500000000000       0.43750000000000000        0.0000000000000000     
   1.0625000000000000       0.43750000000000000        0.0000000000000000     
   1.0937500000000000       0.43750000000000000        0.0000000000000000     
   1.1250000000000000       0.43750000000000000        0.0000000000000000     
   1.0000000000000000       0.46875000000000000        0.0000000000000000     
   1.0312500000000000       0.46875000000000000        0.0000000000000000     
   1.0625000000000000       0.46875000000000000        0.0000000000000000     
   1.0937500000000000       0.46875000000000000        0.0000000000000000     
   1.1250000000000000       0.46875000000000000        0.0000000000000000     
   1.0000000000000000       0.50000000000000000        0.0000000000000000     
   1.0312500000000000       0.50000000000000000        0.0000000000000000     
   1.0625000000000000       0.50000000000000000        0.0000000000000000     
   1.0937500000000000       0.50000000000000000        0.0000000000000000     
   1.1250000000000000       0.50000000000000000        0.0000000000000000     
   1.1250000000000000       0.37500000000000000        0.0000000000000000     
   1.1562500000000000       0.37500000000000000        0.0000000000000000     
   1.1875000000000000       0.37500000000000000        0.0000000000000000     
   1.2187500000000000       0.37500000000000000        0.0000000000000000     
   1.2500000000000000       0.37500000000000000        0.0000000000000000     
   1.1250000000000000       0.40625000000000000        0.0000000000000000     
   1.1562500000000000       0.40625000000000000        0.0000000000000000     
   1.1875000000000000       0.40625000000000000        0.0000000000000000     
   1.2187500000000000       0.40625000000000000        0.0000000000000000     
   1.2500000000000000       0.40625000000000000        0.0000000000000000     
   1.1250000000000000       0.43750000000000000        0.0000000000000000     
   1.1562500000000000       0.43750000000000000        0.0000000000000000     
   1.1875000000000000       0.43750000000000000        0.0000000000000000     
   1.2187500000000000       0.43750000000000000        0.0000000000000000     
   1.2500000000000000       0.43750000000000000        0.0000000000000000     
   1.1250000000000000       0.46875000000000000        0.0000000000000000     
   1.1562500000000000       0.46875000000000000        0.0000000000000000     
   1.1875000000000000       0.46875000000000000        0.0000000000000000     
   1.2187500000000000       0.46875000000000000        0.0000000000000000     
   1.2500000000000000       0.46875000000000000        0.0000000000000000     
   1.1250000000000000       0.50000000000000000        0.0000000000000000     
   1.1562500000000000       0.50000000000000000        0.0000000000000000     
   1.1875000000000000       0.50000000000000000        0.0000000000000000     
   1.2187500000000000       0.50000000000000000        0.0000000000000000     
   1.2500000000000000       0.50000000000000000        0.0000000000000000     
   1.2500000000000000       0.37500000000000000        0.0000000000000000     
   1.2812500000000000       0.37500000000000000        0.0000000000000000     
   1.3125000000000000       0.37500000000000000        0.0000000000000000     
   1.3437500000000000       0.37500000000000000        0.0000000000000000     
   1.3750000000000000       0.37500000000000000        0.0000000000000000     
   1.2500000000000000       0.40625000000000000        0.0000000000000000     
   1.2812500000000000       0.40625000000000000        0.0000000000000000     
   1.3125000000000000       0.40625000000000000        0.0000000000000000     
   1.3437500000000000       0.40625000000000000        0.0000000000000000     
   1.3750000000000000       0.40625000000000000        0.0000000000000000     
   1.2500000000000000       0.43750000000000000        0.0000000000000000     
   1.2812500000000000       0.43750000000000000        0.0000000000000000     
   1.3125000000000000       0.43750000000000000        0.0000000000000000     
   1.3437500000000000       0.43750000000000000        0.0000000000000000     
   1.3750000000000000       0.43750000000000000        0.0000000000000000     
   1.2500000000000000       0.46875000000000000        0.0000000000000000     
   1.2812500000000000       0.46875000000000000        0.0000000000000000     
   1.3125000000000000       0.46875000000000000        0.0000000000000000     
   1.3437500000000000       0.46875000000000000        0.0000000000000000     
   1.3750000000000000       0.46875000000000000        0.0000000000000000     
   1.2500000000000000       0.50000000000000000        0.0000000000000000     
   1.2812500000000000       0.50000000000000000        0.0000000000000000     
   1.3125000000000000       0.50000000000000000        0.0000000000000000     
   1.3437500000000000       0.50000000000000000        0.0000000000000000     
   1.3750000000000000       0.50000000000000000        0.0000000000000000     
   1.3750000000000000       0.37500000000000000        0.0000000000000000     
   1.4062500000000000       0.37500000000000000        0.0000000000000000     
   1.4375000000000000       0.37500000000000000        0.0000000000000000     
   1.4687500000000000       0.37500000000000000        0.0000000000000000     
   1.5000000000000000       0.37500000000000000        0.0000000000000000     
   1.3750000000000000       0.40625000000000000        0.0000000000000000     
   1.4062500000000000       0.40625000000000000        0.0000000000000000     
   1.4375000000000000       0.40625000000000000        0.0000000000000000     
   1.4687500000000000       0.40625000000000000        0.0000000000000000     
   1.5000000000000000       0.40625000000000000        0.0000000000000000     
   1.3750000000000000       0.43750000000000000        0.0000000000000000     
   1.4062500000000000       0.43750000000000000        0.0000000000000000     
   1.4375000000000000       0.43750000000000000        0.0000000000000000     
   1.4687500000000000       0.43750000000000000        0.0000000000000000     
   1.5000000000000000       0.43750000000000000        0.0000000000000000     
   1.3750000000000000       0.46875000000000000        0.0000000000000000     
   1.4062500000000000       0.46875000000000000        0.0000000000000000     
   1.4375000000000000       0.46875000000000000        0.0000000000000000     
   1.4687500000000000       0.46875000000000000        0.0000000000000000     
   1.5000000000000000       0.46875000000000000        0.0000000000000000     
   1.3750000000000000       0.50000000000000000        0.0000000000000000     
   1.4062500000000000       0.50000000000000000        0.0000000000000000     
   1.4375000000000000       0.50000000000000000        0.0000000000000000     
   1.4687500000000000       0.50000000000000000        0.0000000000000000     
   1.5000000000000000       0.50000000000000000        0.0000000000000000     
  0.50000000000000000       0.50000000000000000        0.0000000000000000     
  0.53125000000000000       0.50000000000000000        0.0000000000000000     
  0.56250000000000000       0.50000000000000000        0.0000000000000000     
  0.59375000000000000       0.50000000000000000        0.0000000000000000     
  0.62500000000000000       0.50000000000000000        0.0000000000000000     
  0.50000000000000000       0.53125000000000000        0.0000000000000000     
  0.53125000000000000       0.53125000000000000        0.0000000000000000     
  0.56250000000000000       0.53125000000000000        0.0000000000000000     
  0.59375000000000000       0.53125000000000000        0.0000000000000000     
  0.62500000000000000       0.53125000000000000        0.0000000000000000     
  0.50000000000000000       0.56250000000000000        0.0000000000000000     
  0.53125000000000000       0.56250000000000000        0.0000000000000000     
  0.56250000000000000       0.56250000000000000        0.0000000000000000     
  0.59375000000000000       0.56250000000000000        0.0000000000000000     
  0.62500000000000000       0.56250000000000000        0.0000000000000000     
  0.50000000000000000       0.59375000000000000        0.0000000000000000     
  0.53125000000000000       0.59375000000000000        0.0000000000000000     
  0.56250000000000000       0.59375000000000000        0.0000000000000000     
  0.59375000000000000       0.59375000000000000        0.0000000000000000     
  0.62500000000000000       0.59375000000000000        0.0000000000000000     
  0.50000000000000000       0.62500000000000000        0.0000000000000000     
  0.53125000000000000       0.62500000000000000        0.0000000000000000     
  0.56250000000000000       0.62500000000000000        0.0000000000000000     
  0.59375000000000000       0.62500000000000000        0.0000000000000000     
  0.62500000000000000       0.62500000000000000        0.0000000000000000     
  0.62500000000000000       0.50000000000000000        0.0000000000000000     
  0.65625000000000000       0.50000000000000000        0.0000000000000000     
  0.68750000000000000       0.50000000000000000        0.0000000000000000     
  0.71875000000000000       0.50000000000000000        0.0000000000000000     
  0.75000000000000000       0.50000000000000000        0.0000000000000000     
  0.62500000000000000       0.53125000000000000        0.0000000000000000     
  0.65625000000000000       0.53125000000000000        0.0000000000000000     
  0.68750000000000000       0.53125000000000000        0.0000000000000000     
  0.71875000000000000       0.53125000000000000        0.0000000000000000     
  0.75000000000000000       0.53125000000000000        0.0000000000000000     
  0.62500000000000000       0.56250000000000000        0.0000000000000000     
  0.65625000000000000       0.56250000000000000        0.0000000000000000     
  0.68750000000000000       0.56250000000000000        0.0000000000000000     
  0.71875000000000000       0.56250000000000000        0.0000000000000000     
  0.75000000000000000       0.56250000000000000        0.0000000000000000     
  0.62500000000000000       0.59375000000000000        0.0000000000000000     
  0.65625000000000000       0.59375000000000000        0.0000000000000000     
  0.68750000000000000       0.59375000000000000        0.0000000000000000     
  0.71875000000000000       0.59375000000000000        0.0000000000000000     
  0.75000000000000000       0.59375000000000000        0.0000000000000000     
  0.62500000000000000       0.62500000000000000        0.0000000000000000     
  0.65625000000000000       0.62500000000000000        0.0000000000000000     
  0.68750000000000000       0.62500000000000000        0.0000000000000000     
  0.71875000000000000       0.62500000000000000        0.0000000000000000     
  0.75000000000000000       0.62500000000000000        0.0000000000000000     
  0.75000000000000000       0.50000000000000000        0.0000000000000000     
  0.78125000000000000       0.50000000000000000        0.0000000000000000     
  0.81250000000000000       0.50000000000000000        0.0000000000000000     
  0.84375000000000000       0.50000000000000000        0.0000000000000000     
  0.87500000000000000       0.50000000000000000        0.0000000000000000     
  0.75000000000000000       0.53125000000000000        0.0000000000000000     
  0.78125000000000000       0.53125000000000000        0.0000000000000000     
  0.81250000000000000       0.53125000000000000        0.0000000000000000     
  0.84375000000000000       0.53125000000000000        0.0000000000000000     
  0.87500000000000000       0.53125000000000000        0.0000000000000000     
  0.75000000000000000       0.56250000000000000        0.0000000000000000     
  0.78125000000000000       0.56250000000000000        0.0000000000000000     
  0.81250000000000000       0.56250000000000000        0.0000000000000000     
  0.84375000000000000       0.56250000000000000        0.0000000000000000     
  0.87500000000000000       0.56250000000000000        0.0000000000000000     
  0.75000000000000000       0.59375000000000000        0.0000000000000000     
  0.78125000000000000       0.59375000000000000        0.0000000000000000     
  0.81250000000000000       0.59375000000000000        0.0000000000000000     
  0.84375000000000000       0.59375000000000000        0.0000000000000000     
  0.87500000000000000       0.59375000000000000        0.0000000000000000     
  0.75000000000000000       0.62500000000000000        0.0000000000000000     
  0.78125000000000000       0.62500000000000000        0.0000000000000000     
  0.81250000000000000       0.62500000000000000        0.0000000000000000     
  0.84375000000000000       0.62500000000000000        0.0000000000000000     
  0.87500000000000000       0.62500000000000000        0.0000000000000000     
  0.87500000000000000       0.50000000000000000        0.0000000000000000     
  0.90625000000000000       0.50000000000000000        0.0000000000000000     
  0.93750000000000000       0.50000000000000000        0.0000000000000000     
  0.96875000000000000       0.50000000000000000        0.0000000000000000     
   1.0000000000000000       0.50000000000000000        0.0000000000000000     
  0.87500000000000000       0.53125000000000000        0.0000000000000000     
  0.90625000000000000       0.53125000000000000        0.0000000000000000     
  0.93750000000000000       0.53125000000000000        0.0000000000000000     
  0.96875000000000000       0.53125000000000000        0.0000000000000000     
   1.0000000000000000       0.53125000000000000        0.0000000000000000     
  0.87500000000000000       0.56250000000000000        0.0000000000000000     
  0.90625000000000000       0.56250000000000000        0.0000000000000000     
  0.93750000000000000       0.56250000000000000        0.0000000000000000     
  0.96875000000000000       0.56250000000000000        0.0000000000000000     
   1.0000000000000000       0.56250000000000000        0.0000000000000000     
  0.87500000000000000       0.59375000000000000        0.0000000000000000     
  0.90625000000000000       0.59375000000000000        0.0000000000000000     
  0.93750000000000000       0.59375000000000000        0.0000000000000000     
  0.96875000000000000       0.59375000000000000        0.0000000000000000     
   1.0000000000000000       0.59375000000000000        0.0000000000000000     
  0.87500000000000000       0.62500000000000000        0.0000000000000000     
  0.90625000000000000       0.62500000000000000        0.0000000000000000     
  0.93750000000000000       0.62500000000000000        0.0000000000000000     
  0.96875000000000000       0.62500000000000000        0.0000000000000000     
   1.0000000000000000       0.62500000000000000        0.0000000000000000     
   1.0000000000000000       0.50000000000000000        0.0000000000000000     
   1.0312500000000000       0.50000000000000000        0.0000000000000000     
   1.0625000000000000       0.50000000000000000        0.0000000000000000     
   1.0937500000000000       0.50000000000000000        0.0000000000000000     
   1.1250000000000000       0.50000000000000000        0.0000000000000000     
   1.0000000000000000       0.53125000000000000        0.0000000000000000     
   1.0312500000000000       0.53125000000000000        0.0000000000000000     
   1.0625000000000000       0.53125000000000000        0.0000000000000000     
   1.0937500000000000       0.53125000000000000        0.0000000000000000     
   1.1250000000000000       0.53125000000000000        0.0000000000000000     
   1.0000000000000000       0.56250000000000000        0.0000000000000000     
   1.0312500000000000       0.56250000000000000        0.0000000000000000     
   1.0625000000000000       0.56250000000000000        0.0000000000000000     
   1.0937500000000000       0.56250000000000000        0.0000000000000000     
   1.1250000000000000       0.56250000000000000        0.0000000000000000     
   1.0000000000000000       0.59375000000000000        0.0000000000000000     
   1.0312500000000000       0.59375000000000000        0.0000000000000000     
   1.0625000000000000       0.59375000000000000        0.0000000000000000     
   1.0937500000000000       0.59375000000000000        0.0000000000000000     
   1.1250000000000000       0.59375000000000000        0.0000000000000000     
   1.0000000000000000       0.62500000000000000        0.0000000000000000     
   1.0312500000000000       0.62500000000000000        0.0000000000000000     
   1.0625000000000000       0.62500000000000000        0.0000000000000000     
   1.0937500000000000       0.62500000000000000        0.0000000000000000     
   1.1250000000000000       0.62500000000000000        0.0000000000000000     
   1.1250000000000000       0.50000000000000000        0.0000000000000000     
   1.1562500000000000       0.50000000000000000        0.0000000000000000     
   1.1875000000000000       0.50000000000000000        0.0000000000000000     
   1.2187500000000000       0.50000000000000000        0.0000000000000000     
   1.2500000000000000       0.50000000000000000        0.0000000000000000     
   1.1250000000000000       0.53125000000000000        0.0000000000000000     
   1.1562500000000000       0.53125000000000000        0.0000000000000000     
   1.1875000000000000       0.53125000000000000        0.0000000000000000     
   1.2187500000000000       0.53125000000000000        0.0000000000000000     
   1.2500000000000000       0.53125000000000000        0.0000000000000000     
   1.1250000000000000       0.56250000000000000        0.0000000000000000     
   1.1562500000000000       0.56250000000000000        0.0000000000000000     
   1.1875000000000000       0.56250000000000000        0.0000000000000000     
   1.2187500000000000       0.56250000000000000        0.0000000000000000     
   1.2500000000000000       0.56250000000000000        0.0000000000000000     
   1.1250000000000000       0.59375000000000000        0.0000000000000000     
   1.1562500000000000       0.59375000000000000        0.0000000000000000     
   1.1875000000000000       0.59375000000000000        0.0000000000000000     
   1.2187500000000000       0.59375000000000000        0.0000000000000000     
   1.2500000000000000       0.59375000000000000        0.0000000000000000     
   1.1250000000000000       0.62500000000000000        0.0000000000000000     
   1.1562500000000000       0.62500000000000000        0.0000000000000000     
   1.1875000000000000       0.62500000000000000        0.0000000000000000     
   1.2187500000000000       0.62500000000000000        0.0000000000000000     
   1.2500000000000000       0.62500000000000000        0.0000000000000000     
   1.2500000000000000       0.50000000000000000        0.0000000000000000     
   1.2812500000000000       0.50000000000000000        0.0000000000000000     
   1.3125000000000000       0.50000000000000000        0.0000000000000000     
   1.3437500000000000       0.50000000000000000        0.0000000000000000     
   1.3750000000000000       0.50000000000000000        0.0000000000000000     
   1.2500000000000000       0.53125000000000000        0.0000000000000000     
   1.2812500000000000       0.53125000000000000        0.0000000000000000     
   1.3125000000000000       0.53125000000000000        0.0000000000000000     
   1.3437500000000000       0.53125000000000000        0.0000000000000000     
   1.3750000000000000       0.53125000000000000        0.0000000000000000     
   1.2500000000000000       0.56250000000000000        0.0000000000000000     
   1.2812500000000000       0.56250000000000000        0.0000000000000000     
   1.3125000000000000       0.56250000000000000        0.0000000000000000     
   1.3437500000000000       0.56250000000000000        0.0000000000000000     
   1.3750000000000000       0.56250000000000000        0.0000000000000000     
   1.2500000000000000       0.59375000000000000        0.0000000000000000     
   1.2812500000000000       0.59375000000000000        0.0000000000000000     
   1.3125000000000000       0.59375000000000000        0.0000000000000000     
   1.3437500000000000       0.59375000000000000        0.0000000000000000     
   1.3750000000000000       0.59375000000000000        0.0000000000000000     
   1.2500000000000000       0.62500000000000000        0.0000000000000000     
   1.2812500000000000       0.62500000000000000        0.0000000000000000     
   1.3125000000000000       0.62500000000000000        0.0000000000000000     
   1.3437500000000000       0.62500000000000000        0.0000000000000000     
   1.3750000000000000       0.62500000000000000        0.0000000000000000     
   1.3750000000000000       0.50000000000000000        0.0000000000000000     
   1.4062500000000000       0.50000000000000000        0.0000000000000000     
   1.4375000000000000       0.50000000000000000        0.0000000000000000     
   1.4687500000000000       0.50000000000000000        0.0000000000000000     
   1.5000000000000000       0.50000000000000000        0.0000000000000000     
   1.3750000000000000       0.53125000000000000        0.0000000000000000     
   1.4062500000000000       0.53125000000000000        0.0000000000000000     
   1.4375000000000000       0.53125000000000000        0.0000000000000000     
   1.4687500000000000       0.53125000000000000        0.0000000000000000     
   1.5000000000000000       0.53125000000000000        0.0000000000000000     
   1.3750000000000000       0.56250000000000000        0.0000000000000000     
   1.4062500000000000       0.56250000000000000        0.0000000000000000     
   1.4375000000000000       0.56250000000000000        0.0000000000000000     
   1.4687500000000000       0.56250000000000000        0.0000000000000000     
   1.5000000000000000       0.56250000000000000        0.0000000000000000     
   1.3750000000000000       0.59375000000000000        0.0000000000000000     
   1.4062500000000000       0.59375000000000000        0.0000000000000000     
   1.4375000000000000       0.59375000000000000        0.0000000000000000     
   1.4687500000000000       0.59375000000000000        0.0000000000000000     
   1.5000000000000000       0.59375000000000000        0.0000000000000000     
   1.3750000000000000       0.62500000000000000        0.0000000000000000     
   1.4062500000000000       0.62500000000000000        0.0000000000000000     
   1.4375000000000000       0.62500000000000000        0.0000000000000000     
   1.4687500000000000       0.62500000000000000        0.0000000000000000     
   1.5000000000000000       0.62500000000000000        0.0000000000000000     
  0.50000000000000000       0.62500000000000000        0.0000000000000000     
  0.53125000000000000       0.62500000000000000        0.0000000000000000     
  0.56250000000000000       0.62500000000000000        0.0000000000000000     
  0.59375000000000000       0.62500000000000000        0.0000000000000000     
  0.62500000000000000       0.62500000000000000        0.0000000000000000     
  0.50000000000000000       0.65625000000000000        0.0000000000000000     
  0.53125000000000000       0.65625000000000000        0.0000000000000000     
  0.56250000000000000       0.65625000000000000        0.0000000000000000     
  0.59375000000000000       0.65625000000000000        0.0000000000000000     
  0.62500000000000000       0.65625000000000000        0.0000000000000000     
  0.50000000000000000       0.68750000000000000        0.0000000000000000     
  0.53125000000000000       0.68750000000000000        0.0000000000000000     
  0.56250000000000000       0.68750000000000000        0.0000000000000000     
  0.59375000000000000       0.68750000000000000        0.0000000000000000     
  0.62500000000000000       0.68750000000000000        0.0000000000000000     
  0.50000000000000000       0.71875000000000000        0.0000000000000000     
  0.53125000000000000       0.71875000000000000        0.0000000000000000     
  0.56250000000000000       0.71875000000000000        0.0000000000000000     
  0.59375000000000000       0.71875000000000000        0.0000000000000000     
  0.62500000000000000       0.71875000000000000        0.0000000000000000     
  0.50000000000000000       0.75000000000000000        0.0000000000000000     
  0.53125000000000000       0.75000000000000000        0.0000000000000000     
  0.56250000000000000       0.75000000000000000        0.0000000000000000     
  0.59375000000000000       0.75000000000000000        0.0000000000000000     
  0.62500000000000000       0.75000000000000000        0.0000000000000000     
  0.62500000000000000       0.62500000000000000        0.0000000000000000     
  0.65625000000000000       0.62500000000000000        0.0000000000000000     
  0.68750000000000000       0.62500000000000000        0.0000000000000000     
  0.71875000000000000       0.62500000000000000        0.0000000000000000     
  0.75000000000000000       0.62500000000000000        0.0000000000000000     
  0.62500000000000000       0.65625000000000000        0.0000000000000000     
  0.65625000000000000       0.65625000000000000        0.0000000000000000     
  0.68750000000000000       0.65625000000000000        0.0000000000000000     
  0.71875000000000000       0.65625000000000000        0.0000000000000000     
  0.75000000000000000       0.65625000000000000        0.0000000000000000     
  0.62500000000000000       0.68750000000000000        0.0000000000000000     
  0.65625000000000000       0.68750000000000000        0.0000000000000000     
  0.68750000000000000       0.68750000000000000        0.0000000000000000     
  0.71875000000000000       0.68750000000000000        0.0000000000000000     
  0.75000000000000000       0.68750000000000000        0.0000000000000000     
  0.62500000000000000       0.71875000000000000        0.0000000000000000     
  0.65625000000000000       0.71875000000000000        0.0000000000000000     
  0.68750000000000000       0.71875000000000000        0.0000000000000000     
  0.71875000000000000       0.71875000000000000        0.0000000000000000     
  0.75000000000000000       0.71875000000000000        0.0000000000000000     
  0.62500000000000000       0.75000000000000000        0.0000000000000000     
  0.65625000000000000       0.75000000000000000        0.0000000000000000     
  0.68750000000000000       0.75000000000000000        0.0000000000000000     
  0.71875000000000000       0.75000000000000000        0.0000000000000000     
  0.75000000000000000       0.75000000000000000        0.0000000000000000     
  0.75000000000000000       0.62500000000000000        0.0000000000000000     
  0.78125000000000000       0.62500000000000000        0.0000000000000000     
  0.81250000000000000       0.62500000000000000        0.0000000000000000     
  0.84375000000000000       0.62500000000000000        0.0000000000000000     
  0.87500000000000000       0.62500000000000000        0.0000000000000000     
  0.75000000000000000       0.65625000000000000        0.0000000000000000     
  0.78125000000000000       0.65625000000000000        0.0000000000000000     
  0.81250000000000000       0.65625000000000000        0.0000000000000000     
  0.84375000000000000       0.65625000000000000        0.0000000000000000     
  0.87500000000000000       0.65625000000000000        0.0000000000000000     
  0.75000000000000000       0.68750000000000000        0.0000000000000000     
  0.78125000000000000       0.68750000000000000        0.0000000000000000     
  0.81250000000000000       0.68750000000000000        0.0000000000000000     
  0.84375000000000000       0.68750000000000000        0.0000000000000000     
  0.87500000000000000       0.68750000000000000        0.0000000000000000     
  0.75000000000000000       0.71875000000000000        0.0000000000000000     
  0.78125000000000000       0.71875000000000000        0.0000000000000000     
  0.81250000000000000       0.71875000000000000        0.0000000000000000     
  0.84375000000000000       0.71875000000000000        0.0000000000000000     
  0.87500000000000000       0.71875000000000000        0.0000000000000000     
  0.75000000000000000       0.75000000000000000        0.0000000000000000     
  0.78125000000000000       0.75000000000000000        0.0000000000000000     
  0.81250000000000000       0.75000000000000000        0.0000000000000000     
  0.84375000000000000       0.75000000000000000        0.0000000000000000     
  0.87500000000000000       0.75000000000000000        0.0000000000000000     
  0.87500000000000000       0.62500000000000000        0.0000000000000000     
  0.90625000000000000       0.62500000000000000        0.0000000000000000     
  0.93750000000000000       0.62500000000000000        0.0000000000000000     
  0.96875000000000000       0.62500000000000000        0.0000000000000000     
   1.0000000000000000       0.62500000000000000        0.0000000000000000     
  0.87500000000000000       0.65625000000000000        0.0000000000000000     
  0.90625000000000000       0.65625000000000000        0.0000000000000000     
  0.93750000000000000       0.65625000000000000        0.0000000000000000     
  0.96875000000000000       0.65625000000000000        0.0000000000000000     
   1.0000000000000000       0.65625000000000000        0.0000000000000000     
  0.87500000000000000       0.68750000000000000        0.0000000000000000     
  0.90625000000000000       0.68750000000000000        0.0000000000000000     
  0.93750000000000000       0.68750000000000000        0.0000000000000000     
  0.96875000000000000       0.68750000000000000        0.0000000000000000     
   1.0000000000000000       0.68750000000000000        0.0000000000000000     
  0.87500000000000000       0.71875000000000000        0.0000000000000000     
  0.90625000000000000       0.71875000000000000        0.0000000000000000     
  0.93750000000000000       0.71875000000000000        0.0000000000000000     
  0.96875000000000000       0.71875000000000000        0.0000000000000000     
   1.0000000000000000       0.71875000000000000        0.0000000000000000     
  0.87500000000000000       0.75000000000000000        0.0000000000000000     
  0.90625000000000000       0.75000000000000000        0.0000000000000000     
  0.93750000000000000       0.75000000000000000        0.0000000000000000     
  0.96875000000000000       0.75000000000000000        0.0000000000000000     
   1.0000000000000000       0.75000000000000000        0.0000000000000000     
   1.0000000000000000       0.62500000000000000        0.0000000000000000     
   1.0312500000000000       0.62500000000000000        0.0000000000000000     
   1.0625000000000000       0.62500000000000000        0.0000000000000000     
   1.0937500000000000       0.62500000000000000        0.0000000000000000     
   1.1250000000000000       0.62500000000000000        0.0000000000000000     
   1.0000000000000000       0.65625000000000000        0.0000000000000000     
   1.0312500000000000       0.65625000000000000        0.0000000000000000     
   1.0625000000000000       0.65625000000000000        0.0000000000000000     
   1.0937500000000000       0.65625000000000000        0.0000000000000000     
   1.1250000000000000       0.65625000000000000        0.0000000000000000     
   1.0000000000000000       0.68750000000000000        0.0000000000000000     
   1.0312500000000000       0.68750000000000000        0.0000000000000000     
   1.0625000000000000       0.68750000000000000        0.0000000000000000     
   1.0937500000000000       0.68750000000000000        0.0000000000000000     
   1.1250000000000000       0.68750000000000000        0.0000000000000000     
   1.0000000000000000       0.71875000000000000        0.0000000000000000     
   1.0312500000000000       0.71875000000000000        0.0000000000000000     
   1.0625000000000000       0.71875000000000000        0.0000000000000000     
   1.0937500000000000       0.71875000000000000        0.0000000000000000     
   1.1250000000000000       0.71875000000000000        0.0000000000000000     
   1.0000000000000000       0.75000000000000000        0.0000000000000000     
   1.0312500000000000       0.75000000000000000        0.0000000000000000     
   1.0625000000000000       0.75000000000000000        0.0000000000000000     
   1.0937500000000000       0.75000000000000000        0.0000000000000000     
   1.1250000000000000       0.75000000000000000        0.0000000000000000     
   1.1250000000000000       0.62500000000000000        0.0000000000000000     
   1.1562500000000000       0.62500000000000000        0.0000000000000000     
   1.1875000000000000       0.62500000000000000        0.0000000000000000     
   1.2187500000000000       0.62500000000000000        0.0000000000000000     
   1.2500000000000000       0.62500000000000000        0.0000000000000000     
   1.1250000000000000       0.65625000000000000        0.0000000000000000     
   1.1562500000000000       0.65625000000000000        0.0000000000000000     
   1.1875000000000000       0.65625000000000000        0.0000000000000000     
   1.2187500000000000       0.65625000000000000        0.0000000000000000     
   1.2500000000000000       0.65625000000000000        0.0000000000000000     
   1.1250000000000000       0.68750000000000000        0.0000000000000000     
   1.1562500000000000       0.68750000000000000        0.0000000000000000     
   1.1875000000000000       0.68750000000000000        0.0000000000000000     
   1.2187500000000000       0.68750000000000000        0.0000000000000000     
   1.2500000000000000       0.68750000000000000        0.0000000000000000     
   1.1250000000000000       0.71875000000000000        0.0000000000000000     
   1.1562500000000000       0.71875000000000000        0.0000000000000000     
   1.1875000000000000       0.71875000000000000        0.0000000000000000     
   1.2187500000000000       0.71875000000000000        0.0000000000000000     
   1.2500000000000000       0.71875000000000000        0.0000000000000000     
   1.1250000000000000       0.75000000000000000        0.0000000000000000     
   1.1562500000000000       0.75000000000000000        0.0000000000000000     
   1.1875000000000000       0.75000000000000000        0.0000000000000000     
   1.2187500000000000       0.75000000000000000        0.0000000000000000     
   1.2500000000000000       0.75000000000000000        0.0000000000000000     
   1.2500000000000000       0.62500000000000000        0.0000000000000000     
   1.2812500000000000       0.62500000000000000        0.0000000000000000     
   1.3125000000000000       0.62500000000000000        0.0000000000000000     
   1.3437500000000000       0.62500000000000000        0.0000000000000000     
   1.3750000000000000       0.62500000000000000        0.0000000000000000     
   1.2500000000000000       0.65625000000000000        0.0000000000000000     
   1.2812500000000000       0.65625000000000000        0.0000000000000000     
   1.3125000000000000       0.65625000000000000        0.0000000000000000     
   1.3437500000000000       0.65625000000000000        0.0000000000000000     
   1.3750000000000000       0.65625000000000000        0.0000000000000000     
   1.2500000000000000       0.68750000000000000        0.0000000000000000     
   1.2812500000000000       0.68750000000000000        0.0000000000000000     
   1.3125000000000000       0.68750000000000000        0.0000000000000000     
   1.3437500000000000       0.68750000000000000        0.0000000000000000     
   1.3750000000000000       0.68750000000000000        0.0000000000000000     
   1.2500000000000000       0.71875000000000000        0.0000000000000000     
   1.2812500000000000       0.71875000000000000        0.0000000000000000     
   1.3125000000000000       0.71875000000000000        0.0000000000000000     
   1.3437500000000000       0.71875000000000000        0.0000000000000000     
   1.3750000000000000       0.71875000000000000        0.0000000000000000     
   1.2500000000000000       0.75000000000000000        0.0000000000000000     
   1.2812500000000000       0.75000000000000000        0.0000000000000000     
   1.3125000000000000       0.75000000000000000        0.0000000000000000     
   1.3437500000000000       0.75000000000000000        0.0000000000000000     
   1.3750000000000000       0.75000000000000000        0.0000000000000000     
   1.3750000000000000       0.62500000000000000        0.0000000000000000     
   1.4062500000000000       0.62500000000000000        0.0000000000000000     
   1.4375000000000000       0.62500000000000000        0.0000000000000000     
   1.4687500000000000       0.62500000000000000        0.0000000000000000     
   1.5000000000000000       0.62500000000000000        0.0000000000000000     
   1.3750000000000000       0.65625000000000000        0.0000000000000000     
   1.4062500000000000       0.65625000000000000        0.0000000000000000     
   1.4375000000000000       0.65625000000000000        0.0000000000000000     
   1.4687500000000000       0.65625000000000000        0.0000000000000000     
   1.5000000000000000       0.65625000000000000        0.0000000000000000     
   1.3750000000000000       0.68750000000000000        0.0000000000000000     
   1.4062500000000000       0.68750000000000000        0.0000000000000000     
   1.4375000000000000       0.68750000000000000        0.0000000000000000     
   1.4687500000000000       0.68750000000000000        0.0000000000000000     
   1.5000000000000000       0.68750000000000000        0.0000000000000000     
   1.3750000000000000       0.71875000000000000        0.0000000000000000     
   1.4062500000000000       0.71875000000000000        0.0000000000000000     
   1.4375000000000000       0.71875000000000000        0.0000000000000000     
   1.4687500000000000       0.71875000000000000        0.0000000000000000     
   1.5000000000000000       0.71875000000000000        0.0000000000000000     
   1.3750000000000000       0.75000000000000000        0.0000000000000000     
   1.4062500000000000       0.75000000000000000        0.0000000000000000     
   1.4375000000000000       0.75000000000000000        0.0000000000000000     
   1.4687500000000000       0.75000000000000000        0.0000000000000000     
   1.5000000000000000       0.75000000000000000        0.0000000000000000     
  0.50000000000000000       0.75000000000000000        0.0000000000000000     
  0.53125000000000000       0.75000000000000000        0.0000000000000000     
  0.56250000000000000       0.75000000000000000        0.0000000000000000     
  0.59375000000000000       0.75000000000000000        0.0000000000000000     
  0.62500000000000000       0.75000000000000000        0.0000000000000000     
  0.50000000000000000       0.78125000000000000        0.0000000000000000     
  0.53125000000000000       0.78125000000000000        0.0000000000000000     
  0.56250000000000000       0.78125000000000000        0.0000000000000000     
  0.59375000000000000       0.78125000000000000        0.0000000000000000     
  0.62500000000000000       0.78125000000000000        0.0000000000000000     
  0.50000000000000000       0.81250000000000000        0.0000000000000000     
  0.53125000000000000       0.81250000000000000        0.0000000000000000     
  0.56250000000000000       0.81250000000000000        0.0000000000000000     
  0.59375000000000000       0.81250000000000000        0.0000000000000000     
  0.62500000000000000       0.81250000000000000        0.0000000000000000     
  0.50000000000000000       0.84375000000000000        0.0000000000000000     
  0.53125000000000000       0.84375000000000000        0.0000000000000000     
  0.56250000000000000       0.84375000000000000        0.0000000000000000     
  0.59375000000000000       0.84375000000000000        0.0000000000000000     
  0.62500000000000000       0.84375000000000000        0.0000000000000000     
  0.50000000000000000       0.87500000000000000        0.0000000000000000     
  0.53125000000000000       0.87500000000000000        0.0000000000000000     
  0.56250000000000000       0.87500000000000000        0.0000000000000000     
  0.59375000000000000       0.87500000000000000        0.0000000000000000     
  0.62500000000000000       0.87500000000000000        0.0000000000000000     
  0.62500000000000000       0.75000000000000000        0.0000000000000000     
  0.65625000000000000       0.75000000000000000        0.0000000000000000     
  0.68750000000000000       0.75000000000000000        0.0000000000000000     
  0.71875000000000000       0.75000000000000000        0.0000000000000000     
  0.75000000000000000       0.75000000000000000        0.0000000000000000     
  0.62500000000000000       0.78125000000000000        0.0000000000000000     
  0.65625000000000000       0.78125000000000000        0.0000000000000000     
  0.68750000000000000       0.78125000000000000        0.0000000000000000     
  0.71875000000000000       0.78125000000000000        0.0000000000000000     
  0.75000000000000000       0.78125000000000000        0.0000000000000000     
  0.62500000000000000       0.81250000000000000        0.0000000000000000     
  0.65625000000000000       0.81250000000000000        0.0000000000000000     
  0.68750000000000000       0.81250000000000000        0.0000000000000000     
  0.71875000000000000       0.81250000000000000        0.0000000000000000     
  0.75000000000000000       0.81250000000000000        0.0000000000000000     
  0.62500000000000000       0.84375000000000000        0.0000000000000000     
  0.65625000000000000       0.84375000000000000        0.0000000000000000     
  0.68750000000000000       0.84375000000000000        0.0000000000000000     
  0.71875000000000000       0.84375000000000000        0.0000000000000000     
  0.75000000000000000       0.84375000000000000        0.0000000000000000     
  0.62500000000000000       0.87500000000000000        0.0000000000000000     
  0.65625000000000000       0.87500000000000000        0.0000000000000000     
  0.68750000000000000       0.87500000000000000        0.0000000000000000     
  0.71875000000000000       0.87500000000000000        0.0000000000000000     
  0.75000000000000000       0.87500000000000000        0.0000000000000000     
  0.75000000000000000       0.75000000000000000        0.0000000000000000     
  0.78125000000000000       0.75000000000000000        0.0000000000000000     
  0.81250000000000000       0.75000000000000000        0.0000000000000000     
  0.84375000000000000       0.75000000000000000        0.0000000000000000     
  0.87500000000000000       0.75000000000000000        0.0000000000000000     
  0.75000000000000000       0.78125000000000000        0.0000000000000000     
  0.78125000000000000       0.78125000000000000        0.0000000000000000     
  0.81250000000000000       0.78125000000000000        0.0000000000000000     
  0.84375000000000000       0.78125000000000000        0.0000000000000000     
  0.87500000000000000       0.78125000000000000        0.0000000000000000     
  0.75000000000000000       0.81250000000000000        0.0000000000000000     
  0.78125000000000000       0.81250000000000000        0.0000000000000000     
  0.81250000000000000       0.81250000000000000        0.0000000000000000     
  0.84375000000000000       0.81250000000000000        0.0000000000000000     
  0.87500000000000000       0.81250000000000000        0.0000000000000000     
  0.75000000000000000       0.84375000000000000        0.0000000000000000     
  0.78125000000000000       0.84375000000000000        0.0000000000000000     
  0.81250000000000000       0.84375000000000000        0.0000000000000000     
  0.84375000000000000       0.84375000000000000        0.0000000000000000     
  0.87500000000000000       0.84375000000000000        0.0000000000000000     
  0.75000000000000000       0.87500000000000000        0.0000000000000000     
  0.78125000000000000       0.87500000000000000        0.0000000000000000     
  0.81250000000000000       0.87500000000000000        0.0000000000000000     
  0.84375000000000000       0.87500000000000000        0.0000000000000000     
  0.87500000000000000       0.87500000000000000        0.0000000000000000     
  0.87500000000000000       0.75000000000000000        0.0000000000000000     
  0.90625000000000000       0.75000000000000000        0.0000000000000000     
  0.93750000000000000       0.75000000000000000        0.0000000000000000     
  0.96875000000000000       0.75000000000000000        0.0000000000000000     
   1.0000000000000000       0.75000000000000000        0.0000000000000000     
  0.87500000000000000       0.78125000000000000        0.0000000000000000     
  0.90625000000000000       0.78125000000000000        0.0000000000000000     
  0.93750000000000000       0.78125000000000000        0.0000000000000000     
  0.96875000000000000       0.78125000000000000        0.0000000000000000     
   1.0000000000000000       0.78125000000000000        0.0000000000000000     
  0.87500000000000000       0.81250000000000000        0.0000000000000000     
  0.90625000000000000       0.81250000000000000        0.0000000000000000     
  0.93750000000000000       0.81250000000000000        0.0000000000000000     
  0.96875000000000000       0.81250000000000000        0.0000000000000000     
   1.0000000000000000       0.81250000000000000        0.0000000000000000     
  0.87500000000000000       0.84375000000000000        0.0000000000000000     
  0.90625000000000000       0.84375000000000000        0.0000000000000000     
  0.93750000000000000       0.84375000000000000        0.0000000000000000     
  0.96875000000000000       0.84375000000000000        0.0000000000000000     
   1.0000000000000000       0.84375000000000000        0.0000000000000000     
  0.87500000000000000       0.87500000000000000        0.0000000000000000     
  0.90625000000000000       0.87500000000000000        0.0000000000000000     
  0.93750000000000000       0.87500000000000000        0.0000000000000000     
  0.96875000000000000       0.87500000000000000        0.0000000000000000     
   1.0000000000000000       0.87500000000000000        0.0000000000000000     
   1.0000000000000000       0.75000000000000000        0.0000000000000000     
   1.0312500000000000       0.75000000000000000        0.0000000000000000     
   1.0625000000000000       0.75000000000000000        0.0000000000000000     
   1.0937500000000000       0.75000000000000000        0.0000000000000000     
   1.1250000000000000       0.75000000000000000        0.0000000000000000     
   1.0000000000000000       0.78125000000000000        0.0000000000000000     
   1.0312500000000000       0.78125000000000000        0.0000000000000000     
   1.0625000000000000       0.78125000000000000        0.0000000000000000     
   1.0937500000000000       0.78125000000000000        0.0000000000000000     
   1.1250000000000000       0.78125000000000000        0.0000000000000000     
   1.0000000000000000       0.81250000000000000        0.0000000000000000     
   1.0312500000000000       0.81250000000000000        0.0000000000000000     
   1.0625000000000000       0.81250000000000000        0.0000000000000000     
   1.0937500000000000       0.81250000000000000        0.0000000000000000     
   1.1250000000000000       0.81250000000000000        0.0000000000000000     
   1.0000000000000000       0.84375000000000000        0.0000000000000000     
   1.0312500000000000       0.84375000000000000        0.0000000000000000     
   1.0625000000000000       0.84375000000000000        0.0000000000000000     
   1.0937500000000000       0.84375000000000000        0.0000000000000000     
   1.1250000000000000       0.84375000000000000        0.0000000000000000     
   1.0000000000000000       0.87500000000000000        0.0000000000000000     
   1.0312500000000000       0.87500000000000000        0.0000000000000000     
   1.0625000000000000       0.87500000000000000        0.0000000000000000     
   1.0937500000000000       0.87500000000000000        0.0000000000000000     
   1.1250000000000000       0.87500000000000000        0.0000000000000000     
   1.1250000000000000       0.75000000000000000        0.0000000000000000     
   1.1562500000000000       0.75000000000000000        0.0000000000000000     
   1.1875000000000000       0.75000000000000000        0.0000000000000000     
   1.2187500000000000       0.75000000000000000        0.0000000000000000     
   1.2500000000000000       0.75000000000000000        0.0000000000000000     
   1.1250000000000000       0.78125000000000000        0.0000000000000000     
   1.1562500000000000       0.78125000000000000        0.0000000000000000     
   1.1875000000000000       0.78125000000000000        0.0000000000000000     
   1.2187500000000000       0.78125000000000000        0.0000000000000000     
   1.2500000000000000       0.78125000000000000        0.0000000000000000     
   1.1250000000000000       0.81250000000000000        0.0000000000000000     
   1.1562500000000000       0.81250000000000000        0.0000000000000000     
   1.1875000000000000       0.81250000000000000        0.0000000000000000     
   1.2187500000000000       0.81250000000000000        0.0000000000000000     
   1.2500000000000000       0.81250000000000000        0.0000000000000000     
   1.1250000000000000       0.84375000000000000        0.0000000000000000     
   1.1562500000000000       0.84375000000000000        0.0000000000000000     
   1.1875000000000000       0.84375000000000000        0.0000000000000000     
   1.2187500000000000       0.84375000000000000        0.0000000000000000     
   1.2500000000000000       0.84375000000000000        0.0000000000000000     
   1.1250000000000000       0.87500000000000000        0.0000000000000000     
   1.1562500000000000       0.87500000000000000        0.0000000000000000     
   1.1875000000000000       0.87500000000000000        0.0000000000000000     
   1.2187500000000000       0.87500000000000000        0.0000000000000000     
   1.2500000000000000       0.87500000000000000        0.0000000000000000     
   1.2500000000000000       0.75000000000000000        0.0000000000000000     
   1.2812500000000000       0.75000000000000000        0.0000000000000000     
   1.3125000000000000       0.75000000000000000        0.0000000000000000     
   1.3437500000000000       0.75000000000000000        0.0000000000000000     
   1.3750000000000000       0.75000000000000000        0.0000000000000000     
   1.2500000000000000       0.78125000000000000        0.0000000000000000     
   1.2812500000000000       0.78125000000000000        0.0000000000000000     
   1.3125000000000000       0.78125000000000000        0.0000000000000000     
   1.3437500000000000       0.78125000000000000        0.0000000000000000     
   1.3750000000000000       0.78125000000000000        0.0000000000000000     
   1.2500000000000000       0.81250000000000000        0.0000000000000000     
   1.2812500000000000       0.81250000000000000        0.0000000000000000     
   1.3125000000000000       0.81250000000000000        0.0000000000000000     
   1.3437500000000000       0.81250000000000000        0.0000000000000000     
   1.3750000000000000       0.81250000000000000        0.0000000000000000     
   1.2500000000000000       0.84375000000000000        0.0000000000000000     
   1.2812500000000000       0.84375000000000000        0.0000000000000000     
   1.3125000000000000       0.84375000000000000        0.0000000000000000     
   1.3437500000000000       0.84375000000000000        0.0000000000000000     
   1.3750000000000000       0.84375000000000000        0.0000000000000000     
   1.2500000000000000       0.87500000000000000        0.0000000000000000     
   1.2812500000000000       0.87500000000000000        0.0000000000000000     
   1.3125000000000000       0.87500000000000000        0.0000000000000000     
   1.3437500000000000       0.87500000000000000        0.0000000000000000     
   1.3750000000000000       0.87500000000000000        0.0000000000000000     
   1.3750000000000000       0.75000000000000000        0.0000000000000000     
   1.4062500000000000       0.75000000000000000        0.0000000000000000     
   1.4375000000000000       0.75000000000000000        0.0000000000000000     
   1.4687500000000000       0.75000000000000000        0.0000000000000000     
   1.5000000000000000       0.75000000000000000        0.0000000000000000     
   1.3750000000000000       0.78125000000000000        0.0000000000000000     
   1.4062500000000000       0.78125000000000000        0.0000000000000000     
   1.4375000000000000       0.78125000000000000        0.0000000000000000     
   1.4687500000000000       0.78125000000000000        0.0000000000000000     
   1.5000000000000000       0.78125000000000000        0.0000000000000000     
   1.3750000000000000       0.81250000000000000        0.0000000000000000     
   1.4062500000000000       0.81250000000000000        0.0000000000000000     
   1.4375000000000000       0.81250000000000000        0.0000000000000000     
   1.4687500000000000       0.81250000000000000        0.0000000000000000     
   1.5000000000000000       0.81250000000000000        0.0000000000000000     
   1.3750000000000000       0.84375000000000000        0.0000000000000000     
   1.4062500000000000       0.84375000000000000        0.0000000000000000     
   1.4375000000000000       0.84375000000000000        0.0000000000000000     
   1.4687500000000000       0.84375000000000000        0.0000000000000000     
   1.5000000000000000       0.84375000000000000        0.0000000000000000     
   1.3750000000000000       0.87500000000000000        0.0000000000000000     
   1.4062500000000000       0.87500000000000000        0.0000000000000000     
   1.4375000000000000       0.87500000000000000        0.0000000000000000     
   1.4687500000000000       0.87500000000000000        0.0000000000000000     
   1.5000000000000000       0.87500000000000000        0.0000000000000000     
  0.50000000000000000       0.87500000000000000        0.0000000000000000     
  0.53125000000000000       0.87500000000000000        0.0000000000000000     
  0.56250000000000000       0.87500000000000000        0.0000000000000000     
  0.59375000000000000       0.87500000000000000        0.0000000000000000     
  0.62500000000000000       0.87500000000000000        0.0000000000000000     
  0.50000000000000000       0.90625000000000000        0.0000000000000000     
  0.53125000000000000       0.90625000000000000        0.0000000000000000     
  0.56250000000000000       0.90625000000000000        0.0000000000000000     
  0.59375000000000000       0.90625000000000000        0.0000000000000000     
  0.62500000000000000       0.90625000000000000        0.0000000000000000     
  0.50000000000000000       0.93750000000000000        0.0000000000000000     
  0.53125000000000000       0.93750000000000000        0.0000000000000000     
  0.56250000000000000       0.93750000000000000        0.0000000000000000     
  0.59375000000000000       0.93750000000000000        0.0000000000000000     
  0.62500000000000000       0.93750000000000000        0.0000000000000000     
  0.50000000000000000       0.96875000000000000        0.0000000000000000     
  0.53125000000000000       0.96875000000000000        0.0000000000000000     
  0.56250000000000000       0.96875000000000000        0.0000000000000000     
  0.59375000000000000       0.96875000000000000        0.0000000000000000     
  0.62500000000000000       0.96875000000000000        0.0000000000000000     
  0.50000000000000000        1.0000000000000000        0.0000000000000000     
  0.53125000000000000        1.0000000000000000        0.0000000000000000     
  0.56250000000000000        1.0000000000000000        0.0000000000000000     
  0.59375000000000000        1.0000000000000000        0.0000000000000000     
  0.62500000000000000        1.0000000000000000        0.0000000000000000     
  0.62500000000000000       0.87500000000000000        0.0000000000000000     
  0.65625000000000000       0.87500000000000000        0.0000000000000000     
  0.68750000000000000       0.87500000000000000        0.0000000000000000     
  0.71875000000000000       0.87500000000000000        0.0000000000000000     
  0.75000000000000000       0.87500000000000000        0.0000000000000000     
  0.62500000000000000       0.90625000000000000        0.0000000000000000     
  0.65625000000000000       0.90625000000000000        0.0000000000000000     
  0.68750000000000000       0.90625000000000000        0.0000000000000000     
  0.71875000000000000       0.90625000000000000        0.0000000000000000     
  0.75000000000000000       0.90625000000000000        0.0000000000000000     
  0.62500000000000000       0.93750000000000000        0.0000000000000000     
  0.65625000000000000       0.93750000000000000        0.0000000000000000     
  0.68750000000000000       0.93750000000000000        0.0000000000000000     
  0.71875000000000000       0.93750000000000000        0.0000000000000000     
  0.75000000000000000       0.93750000000000000        0.0000000000000000     
  0.62500000000000000       0.96875000000000000        0.0000000000000000     
  0.65625000000000000       0.96875000000000000        0.0000000000000000     
  0.68750000000000000       0.96875000000000000        0.0000000000000000     
  0.71875000000000000       0.96875000000000000        0.0000000000000000     
  0.75000000000000000       0.96875000000000000        0.0000000000000000     
  0.62500000000000000        1.0000000000000000        0.0000000000000000     
  0.65625000000000000        1.0000000000000000        0.0000000000000000     
  0.68750000000000000        1.0000000000000000        0.0000000000000000     
  0.71875000000000000        1.0000000000000000        0.0000000000000000     
  0.75000000000000000        1.0000000000000000        0.0000000000000000     
  0.75000000000000000       0.87500000000000000        0.0000000000000000     
  0.78125000000000000       0.87500000000000000        0.0000000000000000     
  0.81250000000000000       0.87500000000000000        0.0000000000000000     
  0.84375000000000000       0.87500000000000000        0.0000000000000000     
  0.87500000000000000       0.87500000000000000        0.0000000000000000     
  0.75000000000000000       0.90625000000000000        0.0000000000000000     
  0.78125000000000000       0.90625000000000000        0.0000000000000000     
  0.81250000000000000       0.90625000000000000        0.0000000000000000     
  0.84375000000000000       0.90625000000000000        0.0000000000000000     
  0.87500000000000000       0.90625000000000000        0.0000000000000000     
  0.75000000000000000       0.93750000000000000        0.0000000000000000     
  0.78125000000000000       0.93750000000000000        0.0000000000000000     
  0.81250000000000000       0.93750000000000000        0.0000000000000000     
  0.84375000000000000       0.93750000000000000        0.0000000000000000     
  0.87500000000000000       0.93750000000000000        0.0000000000000000     
  0.75000000000000000       0.96875000000000000        0.0000000000000000     
  0.78125000000000000       0.96875000000000000        0.0000000000000000     
  0.81250000000000000       0.96875000000000000        0.0000000000000000     
  0.84375000000000000       0.96875000000000000        0.0000000000000000     
  0.87500000000000000       0.96875000000000000        0.0000000000000000     
  0.75000000000000000        1.0000000000000000        0.0000000000000000     
  0.78125000000000000        1.0000000000000000        0.0000000000000000     
  0.81250000000000000        1.0000000000000000        0.0000000000000000     
  0.84375000000000000        1.0000000000000000        0.0000000000000000     
  0.87500000000000000        1.0000000000000000        0.0000000000000000     
  0.87500000000000000       0.87500000000000000        0.0000000000000000     
  0.90625000000000000       0.87500000000000000        0.0000000000000000     
  0.93750000000000000       0.87500000000000000        0.0000000000000000     
  0.96875000000000000       0.87500000000000000        0.0000000000000000     
   1.0000000000000000       0.87500000000000000        0.0000000000000000     
  0.87500000000000000       0.90625000000000000        0.0000000000000000     
  0.90625000000000000       0.90625000000000000        0.0000000000000000     
  0.93750000000000000       0.90625000000000000        0.0000000000000000     
  0.96875000000000000       0.90625000000000000        0.0000000000000000     
   1.0000000000000000       0.90625000000000000        0.0000000000000000     
  0.87500000000000000       0.93750000000000000        0.0000000000000000     
  0.90625000000000000       0.93750000000000000        0.0000000000000000     
  0.93750000000000000       0.93750000000000000        0.0000000000000000     
  0.96875000000000000       0.93750000000000000        0.0000000000000000     
   1.0000000000000000       0.93750000000000000        0.0000000000000000     
  0.87500000000000000       0.96875000000000000        0.0000000000000000     
  0.90625000000000000       0.96875000000000000        0.0000000000000000     
  0.93750000000000000       0.96875000000000000        0.0000000000000000     
  0.96875000000000000       0.96875000000000000        0.0000000000000000     
   1.0000000000000000       0.96875000000000000        0.0000000000000000     
  0.87500000000000000        1.0000000000000000        0.0000000000000000     
  0.90625000000000000        1.0000000000000000        0.0000000000000000     
  0.93750000000000000        1.0000000000000000        0.0000000000000000     
  0.96875000000000000        1.0000000000000000        0.0000000000000000     
   1.0000000000000000        1.0000000000000000        0.0000000000000000     
   1.0000000000000000       0.87500000000000000        0.0000000000000000     
   1.0312500000000000       0.87500000000000000        0.0000000000000000     
   1.0625000000000000       0.87500000000000000        0.0000000000000000     
   1.0937500000000000       0.87500000000000000        0.0000000000000000     
   1.1250000000000000       0.87500000000000000        0.0000000000000000     
   1.0000000000000000       0.90625000000000000        0.0000000000000000     
   1.0312500000000000       0.90625000000000000        0.0000000000000000     
   1.0625000000000000       0.90625000000000000        0.0000000000000000     
   1.0937500000000000       0.90625000000000000        0.0000000000000000     
   1.1250000000000000       0.90625000000000000        0.0000000000000000     
   1.0000000000000000       0.93750000000000000        0.0000000000000000     
   1.0312500000000000       0.93750000000000000        0.0000000000000000     
   1.0625000000000000       0.93750000000000000        0.0000000000000000     
   1.0937500000000000       0.93750000000000000        0.0000000000000000     
   1.1250000000000000       0.93750000000000000        0.0000000000000000     
   1.0000000000000000       0.96875000000000000        0.0000000000000000     
   1.0312500000000000       0.96875000000000000        0.0000000000000000     
   1.0625000000000000       0.96875000000000000        0.0000000000000000     
   1.0937500000000000       0.96875000000000000        0.0000000000000000     
   1.1250000000000000       0.96875000000000000        0.0000000000000000     
   1.0000000000000000        1.0000000000000000        0.0000000000000000     
   1.0312500000000000        1.0000000000000000        0.0000000000000000     
   1.0625000000000000        1.0000000000000000        0.0000000000000000     
   1.0937500000000000        1.0000000000000000        0.0000000000000000     
   1.1250000000000000        1.0000000000000000        0.0000000000000000     
   1.1250000000000000       0.87500000000000000        0.0000000000000000     
   1.1562500000000000       0.87500000000000000        0.0000000000000000     
   1.1875000000000000       0.87500000000000000        0.0000000000000000     
   1.2187500000000000       0.87500000000000000        0.0000000000000000     
   1.2500000000000000       0.87500000000000000        0.0000000000000000     
   1.1250000000000000       0.90625000000000000        0.0000000000000000     
   1.1562500000000000       0.90625000000000000        0.0000000000000000     
   1.1875000000000000       0.90625000000000000        0.0000000000000000     
   1.2187500000000000       0.90625000000000000        0.0000000000000000     
   1.2500000000000000       0.90625000000000000        0.0000000000000000     
   1.1250000000000000       0.93750000000000000        0.0000000000000000     
   1.1562500000000000       0.93750000000000000        0.0000000000000000     
   1.1875000000000000       0.93750000000000000        0.0000000000000000     
   1.2187500000000000       0.93750000000000000        0.0000000000000000     
   1.2500000000000000       0.93750000000000000        0.0000000000000000     
   1.1250000000000000       0.96875000000000000        0.0000000000000000     
   1.1562500000000000       0.96875000000000000        0.0000000000000000     
   1.1875000000000000       0.96875000000000000        0.0000000000000000     
   1.2187500000000000       0.96875000000000000        0.0000000000000000     
   1.2500000000000000       0.96875000000000000        0.0000000000000000     
   1.1250000000000000        1.0000000000000000        0.0000000000000000     
   1.1562500000000000        1.0000000000000000        0.0000000000000000     
   1.1875000000000000        1.0000000000000000        0.0000000000000000     
   1.2187500000000000        1.0000000000000000        0.0000000000000000     
   1.2500000000000000        1.0000000000000000        0.0000000000000000     
   1.2500000000000000       0.87500000000000000        0.0000000000000000     
   1.2812500000000000       0.87500000000000000        0.0000000000000000     
   1.3125000000000000       0.87500000000000000        0.0000000000000000     
   1.3437500000000000       0.87500000000000000        0.0000000000000000     
   1.3750000000000000       0.87500000000000000        0.0000000000000000     
   1.2500000000000000       0.90625000000000000        0.0000000000000000     
   1.2812500000000000       0.90625000000000000        0.0000000000000000     
   1.3125000000000000       0.90625000000000000        0.0000000000000000     
   1.3437500000000000       0.90625000000000000        0.0000000000000000     
   1.3750000000000000       0.90625000000000000        0.0000000000000000     
   1.2500000000000000       0.93750000000000000        0.0000000000000000     
   1.2812500000000000       0.93750000000000000        0.0000000000000000     
   1.3125000000000000       0.93750000000000000        0.0000000000000000     
   1.3437500000000000       0.93750000000000000        0.0000000000000000     
   1.3750000000000000       0.93750000000000000        0.0000000000000000     
   1.2500000000000000       0.96875000000000000        0.0000000000000000     
   1.2812500000000000       0.96875000000000000        0.0000000000000000     
   1.3125000000000000       0.96875000000000000        0.0000000000000000     
   1.3437500000000000       0.96875000000000000        0.0000000000000000     
   1.3750000000000000       0.96875000000000000        0.0000000000000000     
   1.2500000000000000        1.0000000000000000        0.0000000000000000     
   1.2812500000000000        1.0000000000000000        0.0000000000000000     
   1.3125000000000000        1.0000000000000000        0.0000000000000000     
   1.3437500000000000        1.0000000000000000        0.0000000000000000     
   1.3750000000000000        1.0000000000000000        0.0000000000000000     
   1.3750000000000000       0.87500000000000000        0.0000000000000000     
   1.4062500000000000       0.87500000000000000        0.0000000000000000     
   1.4375000000000000       0.87500000000000000        0.0000000000000000     
   1.4687500000000000       0.87500000000000000        0.0000000000000000     
   1.5000000000000000       0.87500000000000000        0.0000000000000000     
   1.3750000000000000       0.90625000000000000        0.0000000000000000     
   1.4062500000000000       0.90625000000000000        0.0000000000000000     
   1.4375000000000000       0.90625000000000000        0.0000000000000000     
   1.4687500000000000       0.90625000000000000        0.0000000000000000     
   1.5000000000000000       0.90625000000000000        0.0000000000000000     
   1.3750000000000000       0.93750000000000000        0.0000000000000000     
   1.4062500000000000       0.93750000000000000        0.0000000000000000     
   1.4375000000000000       0.93750000000000000        0.0000000000000000     
   1.4687500000000000       0.93750000000000000        0.0000000000000000     
   1.5000000000000000       0.93750000000000000        0.0000000000000000     
   1.3750000000000000       0.96875000000000000        0.0000000000000000     
   1.4062500000000000       0.96875000000000000        0.0000000000000000     
   1.4375000000000000       0.96875000000000000        0.0000000000000000     
   1.4687500000000000       0.96875000000000000        0.0000000000000000     
   1.5000000000000000       0.96875000000000000        0.0000000000000000     
   1.3750000000000000        1.0000000000000000        0.0000000000000000     
   1.4062500000000000        1.0000000000000000        0.0000000000000000     
   1.4375000000000000        1.0000000000000000        0.0000000000000000     
   1.4687500000000000        1.0000000000000000        0.0000000000000000     
   1.5000000000000000        1.0000000000000000        0.0000000000000000     
 </DataArray>
 </Points>
 <Cells>
 <DataArray  type="Int32"  Name="connectivity"  format="ascii">
           0           1           6           5
           1           2           7           6
           2           3           8           7
           3           4           9           8
           5           6          11          10
           6           7          12          11
           7           8          13          12
           8           9          14          13
          10          11          16          15
          11          12          17          16
          12          13          18          17
          13          14          19          18
          15          16          21          20
          16          17          22          21
          17          18          23          22
          18          19          24          23
          25          26          31          30
          26          27          32          31
          27          28          33          32
          28          29          34          33
          30          31          36          35
          31          32          37          36
          32          33          38          37
          33          34          39          38
          35          36          41          40
          36          37          42          41
          37          38          43          42
          38          39          44          43
          40          41          46          45
          41          42          47          46
          42          43          48          47
          43          44          49          48
          50          51          56          55
          51          52          57          56
          52          53          58          57
          53          54          59          58
          55          56          61          60
          56          57          62          61
          57          58          63          62
          58          59          64          63
          60          61          66          65
          61          62          67          66
          62          63          68          67
          63          64          69          68
          65          66          71          70
          66          67          72          71
          67          68          73          72
          68          69          74          73
          75          76          81          80
          76          77          82          81
          77          78          83          82
          78          79          84          83
          80          81          86          85
          81          82          87          86
          82          83          88          87
          83          84          89          88
          85          86          91          90
          86          87          92          91
          87          88          93          92
          88          89          94          93
          90          91          96          95
          91          92          97          96
          92          93          98          97
          93          94          99          98
         100         101         106         105
         101         102         107         106
         102         103         108         107
         103         104         109         108
         105         106         111         110
         106         107         112         111
         107         108         113         112
         108         109         114         113
         110         111         116         115
         111         112         117         116
         112         113         118         117
         113         114         119         118
         115         116         121         120
         116         117         122         121
         117         118         123         122
         118         119         124         123
         125         126         131         130
         126         127         132         131
         127         128         133         132
         128         129         134         133
         130         131         136         135
         131         132         137         136
         132         133         138         137
         133         134         139         138
         135         136         141         140
         136         137         142         141
         137         138         143         142
         138         139         144         143
         140         141         146         145
         141         142         147         146
         142         143         148         147
         143         144         149         148
         150         151         156         155
         151         152         157         156
         152         153         158         157
         153         154         159         158
         155         156         161         160
         156         157         162         161
         157         158         163         162
         158         159         164         163
         160         161         166         165
         161         162         167         166
         162         163         168         167
         163         164         169         168
         165         166         171         170
         166         167         172         171
         167         168         173         172
         168         169         174         173
         175         176         181         180
         176         177         182         181
         177         178         183         182
         178         179         184         183
         180         181         186         185
         181         182         187         186
         182         183         188         187
         183         184         189         188
         185         186         191         190
         186         187         192         191
         187         188         193         192
         188         189         194         193
         190         191         196         195
         191         192         197         196
         192         193         198         197
         193         194         199         198
         200         201         206         205
         201         202         207         206
         202         203         208         207
         203         204         209         208
         205         206         211         210
         206         207         212         211
         207         208         213         212
         208         209         214         213
         210         211         216         215
         211         212         217         216
         212         213         218         217
         213         214         219         218
         215         216         221         220
         216         217         222         221
         217         218         223         222
         218         219         224         223
         225         226         231         230
         226         227         232         231
         227         228         233         232
         228         229         234         233
         230         231         236         235
         231         232         237         236
         232         233         238         237
         233         234         239         238
         235         236         241         240
         236         237         242         241
         237         238         243         242
         238         239         244         243
         240         241         246         245
         241         242         247         246
         242         243         248         247
         243         244         249         248
         250         251         256         255
         251         252         257         256
         252         253         258         257
         253         254         259         258
         255         256         261         260
         256         257         262         261
         257         258         263         262
         258         259         264         263
         260         261         266         265
         261         262         267         266
         262         263         268         267
         263         264         269         268
         265         266         271         270
         266         267         272         271
         267         268         273         272
         268         269         274         273
         275         276         281         280
         276         277         282         281
         277         278         283         282
         278         279         284         283
         280         281         286         285
         281         282         287         286
         282         283         288         287
         283         284         289         288
         285         286         291         290
         286         287         292         291
         287         288         293         292
         288         289         294         293
         290         291         296         295
         291         292         297         296
         292         293         298         297
         293         294         299         298
         300         301         306         305
         301         302         307         306
         302         303         308         307
         303         304         309         308
         305         306         311         310
         306         307         312         311
         307         308         313         312
         308         309         314         313
         310         311         316         315
         311         312         317         316
         312         313         318         317
         313         314         319         318
         315         316         321         320
         316         317         322         321
         317         318         323         322
         318         319         324         323
         325         326         331         330
         326         327         332         331
         327         328         333         332
         328         329         334         333
         330         331         336         335
         331         332         337         336
         332         333         338         337
         333         334         339         338
         335         336         341         340
         336         337         342         341
         337         338         343         342
         338         339         344         343
         340         341         346         345
         341         342         347         346
         342         343         348         347
         343         344         349         348
         350         351         356         355
         351         352         357         356
         352         353         358         357
         353         354         359         358
         355         356         361         360
         356         357         362         361
         357         358         363         362
         358         359         364         363
         360         361         366         365
         361         362         367         366
         362         363         368         367
         363         364         369         368
         365         366         371         370
         366         367         372         371
         367         368         373         372
         368         369         374         373
         375         376         381         380
         376         377         382         381
         377         378         383         382
         378         379         384         383
         380         381         386         385
         381         382         387         386
         382         383         388         387
         383         384         389         388
         385         386         391         390
         386         387         392         391
         387         388         393         392
         388         389         394         393
         390         391         396         395
         391         392         397         396
         392         393         398         397
         393         394         399         398
         400         401         406         405
         401         402         407         406
         402         403         408         407
         403         404         409         408
         405         406         411         410
         406         407         412         411
         407         408         413         412
         408         409         414         413
         410         411         416         415
         411         412         417         416
         412         413         418         417
         413         414         419         418
         415         416         421         420
         416         417         422         421
         417         418         423         422
         418         419         424         423
         425         426         431         430
         426         427         432         431
         427         428         433         432
         428         429         434         433
         430         431         436         435
         431         432         437         436
         432         433         438         437
         433         434         439         438
         435         436         441         440
         436         437         442         441
         437         438         443         442
         438         439         444         443
         440         441         446         445
         441         442         447         446
         442         443         448         447
         443         444         449         448
         450         451         456         455
         451         452         457         456
         452         453         458         457
         453         454         459         458
         455         456         461         460
         456         457         462         461
         457         458         463         462
         458         459         464         463
         460         461         466         465
         461         462         467         466
         462         463         468         467
         463         464         469         468
         465         466         471         470
         466         467         472         471
         467         468         473         472
         468         469         474         473
         475         476         481         480
         476         477         482         481
         477         478         483         482
         478         479         484         483
         480         481         486         485
         481         482         487         486
         482         483         488         487
         483         484         489         488
         485         486         491         490
         486         487         492         491
         487         488         493         492
         488         489         494         493
         490         491         496         495
         491         492         497         496
         492         493         498         497
         493         494         499         498
         500         501         506         505
         501         502         507         506
         502         503         508         507
         503         504         509         508
         505         506         511         510
         506         507         512         511
         507         508         513         512
         508         509         514         513
         510         511         516         515
         511         512         517         516
         512         513         518         517
         513         514         519         518
         515         516         521         520
         516         517         522         521
         517         518         523         522
         518         519         524         523
         525         526         531         530
         526         527         532         531
         527         528         533         532
         528         529         534         533
         530         531         536         535
         531         532         537         536
         532         533         538         537
         533         534         539         538
         535         536         541         540
         536         537         542         541
         537         538         543         542
         538         539         544         543
         540         541         546         545
         541         542         547         546
         542         543         548         547
         543         544         549         548
         550         551         556         555
         551         552         557         556
         552         553         558         557
         553         554         559         558
         555         556         561         560
         556         557         562         561
         557         558         563         562
         558         559         564         563
         560         561         566         565
         561         562         567         566
         562         563         568         567
         563         564         569         568
         565         566         571         570
         566         567         572         571
         567         568         573         572
         568         569         574         573
         575         576         581         580
         576         577         582         581
         577         578         583         582
         578         579         584         583
         580         581         586         585
         581         582         587         586
         582         583         588         587
         583         584         589         588
         585         586         591         590
         586         587         592         591
         587         588         593         592
         588         589         594         593
         590         591         596         595
         591         592         597         596
         592         593         598         597
         593         594         599         598
         600         601         606         605
         601         602         607         606
         602         603         608         607
         603         604         609         608
         605         606         611         610
         606         607         612         611
         607         608         613         612
         608         609         614         613
         610         611         616         615
         611         612         617         616
         612         613         618         617
         613         614         619         618
         615         616         621         620
         616         617         622         621
         617         618         623         622
         618         619         624         623
         625         626         631         630
         626         627         632         631
         627         628         633         632
         628         629         634         633
         630         631         636         635
         631         632         637         636
         632         633         638         637
         633         634         639         638
         635         636         641         640
         636         637         642         641
         637         638         643         642
         638         639         644         643
         640         641         646         645
         641         642         647         646
         642         643         648         647
         643         644         649         648
         650         651         656         655
         651         652         657         656
         652         653         658         657
         653         654         659         658
         655         656         661         660
         656         657         662         661
         657         658         663         662
         658         659         664         663
         660         661         666         665
         661         662         667         666
         662         663         668         667
         663         664         669         668
         665         666         671         670
         666         667         672         671
         667         668         673         672
         668         669         674         673
         675         676         681         680
         676         677         682         681
         677         678         683         682
         678         679         684         683
         680         681         686         685
         681         682         687         686
         682         683         688         687
         683         684         689         688
         685         686         691         690
         686         687         692         691
         687         688         693         692
         688         689         694         693
         690         691         696         695
         691         692         697         696
         692         693         698         697
         693         694         699         698
         700         701         706         705
         701         702         707         706
         702         703         708         707
         703         704         709         708
         705         706         711         710
         706         707         712         711
         707         708         713         712
         708         709         714         713
         710         711         716         715
         711         712         717         716
         712         713         718         717
         713         714         719         718
         715         716         721         720
         716         717         722         721
         717         718         723         722
         718         719         724         723
         725         726         731         730
         726         727         732         731
         727         728         733         732
         728         729         734         733
         730         731         736         735
         731         732         737         736
         732         733         738         737
         733         734         739         738
         735         736         741         740
         736         737         742         741
         737         738         743         742
         738         739         744         743
         740         741         746         745
         741         742         747         746
         742         743         748         747
         743         744         749         748
         750         751         756         755
         751         752         757         756
         752         753         758         757
         753         754         759         758
         755         756         761         760
         756         757         762         761
         757         758         763         762
         758         759         764         763
         760         761         766         765
         761         762         767         766
         762         763         768         767
         763         764         769         768
         765         766         771         770
         766         767         772         771
         767         768         773         772
         768         769         774         773
         775         776         781         780
         776         777         782         781
         777         778         783         782
         778         779         784         783
         780         781         786         785
         781         782         787         786
         782         783         788         787
         783         784         789         788
         785         786         791         790
         786         787         792         791
         787         788         793         792
         788         789         794         793
         790         791         796         795
         791         792         797         796
         792         793         798         797
         793         794         799         798
         800         801         806         805
         801         802         807         806
         802         803         808         807
         803         804         809         808
         805         806         811         810
         806         807         812         811
         807         808         813         812
         808         809         814         813
         810         811         816         815
         811         812         817         816
         812         813         818         817
         813         814         819         818
         815         816         821         820
         816         817         822         821
         817         818         823         822
         818         819         824         823
         825         826         831         830
         826         827         832         831
         827         828         833         832
         828         829         834         833
         830         831         836         835
         831         832         837         836
         832         833         838         837
         833         834         839         838
         835         836         841         840
         836         837         842         841
         837         838         843         842
         838         839         844         843
         840         841         846         845
         841         842         847         846
         842         843         848         847
         843         844         849         848
         850         851         856         855
         851         852         857         856
         852         853         858         857
         853         854         859         858
         855         856         861         860
         856         857         862         861
         857         858         863         862
         858         859         864         863
         860         861         866         865
         861         862         867         866
         862         863         868         867
         863         864         869         868
         865         866         871         870
         866         867         872         871
         867         868         873         872
         868         869         874         873
         875         876         881         880
         876         877         882         881
         877         878         883         882
         878         879         884         883
         880         881         886         885
         881         882         887         886
         882         883         888         887
         883         884         889         888
         885         886         891         890
         886         887         892         891
         887         888         893         892
         888         889         894         893
         890         891         896         895
         891         892         897         896
         892         893         898         897
         893         894         899         898
         900         901         906         905
         901         902         907         906
         902         903         908         907
         903         904         909         908
         905         906         911         910
         906         907         912         911
         907         908         913         912
         908         909         914         913
         910         911         916         915
         911         912         917         916
         912         913         918         917
         913         914         919         918
         915         916         921         920
         916         917         922         921
         917         918         923         922
         918         919         924         923
         925         926         931         930
         926         927         932         931
         927         928         933         932
         928         929         934         933
         930         931         936         935
         931         932         937         936
         932         933         938         937
         933         934         939         938
         935         936         941         940
         936         937         942         941
         937         938         943         942
         938         939         944         943
         940         941         946         945
         941         942         947         946
         942         943         948         947
         943         944         949         948
         950         951         956         955
         951         952         957         956
         952         953         958         957
         953         954         959         958
         955         956         961         960
         956         957         962         961
         957         958         963         962
         958         959         964         963
         960         961         966         965
         961         962         967         966
         962         963         968         967
         963         964         969         968
         965         966         971         970
         966         967         972         971
         967         968         973         972
         968         969         974         973
         975         976         981         980
         976         977         982         981
         977         978         983         982
         978         979         984         983
         980         981         986         985
         981         982         987         986
         982         983         988         987
         983         984         989         988
         985         986         991         990
         986         987         992         991
         987         988         993         992
         988         989         994         993
         990         991         996         995
         991         992         997         996
         992         993         998         997
         993         994         999         998
        1000        1001        1006        1005
        1001        1002        1007        1006
        1002        1003        1008        1007
        1003        1004        1009        1008
        1005        1006        1011        1010
        1006        1007        1012        1011
        1007        1008        1013        1012
        1008        1009        1014        1013
        1010        1011        1016        1015
        1011        1012        1017        1016
        1012        1013        1018        1017
        1013        1014        1019        1018
        1015        1016        1021        1020
        1016        1017        1022        1021
        1017        1018        1023        1022
        1018        1019        1024        1023
        1025        1026        1031        1030
        1026        1027        1032        1031
        1027        1028        1033        1032
        1028        1029        1034        1033
        1030        1031        1036        1035
        1031        1032        1037        1036
        1032        1033        1038        1037
        1033        1034        1039        1038
        1035        1036        1041        1040
        1036        1037        1042        1041
        1037        1038        1043        1042
        1038        1039        1044        1043
        1040        1041        1046        1045
        1041        1042        1047        1046
        1042        1043        1048        1047
        1043        1044        1049        1048
        1050        1051        1056        1055
        1051        1052        1057        1056
        1052        1053        1058        1057
        1053        1054        1059        1058
        1055        1056        1061        1060
        1056        1057        1062        1061
        1057        1058        1063        1062
        1058        1059        1064        1063
        1060        1061        1066        1065
        1061        1062        1067        1066
        1062        1063        1068        1067
        1063        1064        1069        1068
        1065        1066        1071        1070
        1066        1067        1072        1071
        1067        1068        1073        1072
        1068        1069        1074        1073
        1075        1076        1081        1080
        1076        1077        1082        1081
        1077        1078        1083        1082
        1078        1079        1084        1083
        1080        1081        1086        1085
        1081        1082        1087        1086
        1082        1083        1088        1087
        1083        1084        1089        1088
        1085        1086        1091        1090
        1086        1087        1092        1091
        1087        1088        1093        1092
        1088        1089        1094        1093
        1090        1091        1096        1095
        1091        1092        1097        1096
        1092        1093        1098        1097
        1093        1094        1099        1098
        1100        1101        1106        1105
        1101        1102        1107        1106
        1102        1103        1108        1107
        1103        1104        1109        1108
        1105        1106        1111        1110
        1106        1107        1112        1111
        1107        1108        1113        1112
        1108        1109        1114        1113
        1110        1111        1116        1115
        1111        1112        1117        1116
        1112        1113        1118        1117
        1113        1114        1119        1118
        1115        1116        1121        1120
        1116        1117        1122        1121
        1117        1118        1123        1122
        1118        1119        1124        1123
        1125        1126        1131        1130
        1126        1127        1132        1131
        1127        1128        1133        1132
        1128        1129        1134        1133
        1130        1131        1136        1135
        1131        1132        1137        1136
        1132        1133        1138        1137
        1133        1134        1139        1138
        1135        1136        1141        1140
        1136        1137        1142        1141
        1137        1138        1143        1142
        1138        1139        1144        1143
        1140        1141        1146        1145
        1141        1142        1147        1146
        1142        1143        1148        1147
        1143        1144        1149        1148
        1150        1151        1156        1155
        1151        1152        1157        1156
        1152        1153        1158        1157
        1153        1154        1159        1158
        1155        1156        1161        1160
        1156        1157        1162        1161
        1157        1158        1163        1162
        1158        1159        1164        1163
        1160        1161        1166        1165
        1161        1162        1167        1166
        1162        1163        1168        1167
        1163        1164        1169        1168
        1165        1166        1171        1170
        1166        1167        1172        1171
        1167        1168        1173        1172
        1168        1169        1174        1173
        1175        1176        1181        1180
        1176        1177        1182        1181
        1177        1178        1183        1182
        1178        1179        1184        1183
        1180        1181        1186        1185
        1181        1182        1187        1186
        1182        1183        1188        1187
        1183        1184        1189        1188
        1185        1186        1191        1190
        1186        1187        1192        1191
        1187        1188        1193        1192
        1188        1189        1194        1193
        1190        1191        1196        1195
        1191        1192        1197        1196
        1192        1193        1198        1197
        1193        1194        1199        1198
        1200        1201        1206        1205
        1201        1202        1207        1206
        1202        1203        1208        1207
        1203        1204        1209        1208
        1205        1206        1211        1210
        1206        1207        1212        1211
        1207        1208        1213        1212
        1208        1209        1214        1213
        1210        1211        1216        1215
        1211        1212        1217        1216
        1212        1213        1218        1217
        1213        1214        1219        1218
        1215        1216        1221        1220
        1216        1217        1222        1221
        1217        1218        1223        1222
        1218        1219        1224        1223
        1225        1226        1231        1230
        1226        1227        1232        1231
        1227        1228        1233        1232
        1228        1229        1234        1233
        1230        1231        1236        1235
        1231        1232        1237        1236
        1232        1233        1238        1237
        1233        1234        1239        1238
        1235        1236        1241        1240
        1236        1237        1242        1241
        1237        1238        1243        1242
        1238        1239        1244        1243
        1240        1241        1246        1245
        1241        1242        1247        1246
        1242        1243        1248        1247
        1243        1244        1249        1248
        1250        1251        1256        1255
        1251        1252        1257        1256
        1252        1253        1258        1257
        1253        1254        1259        1258
        1255        1256        1261        1260
        1256        1257        1262        1261
        1257        1258        1263        1262
        1258        1259        1264        1263
        1260        1261        1266        1265
        1261        1262        1267        1266
        1262        1263        1268        1267
        1263        1264        1269        1268
        1265        1266        1271        1270
        1266        1267        1272        1271
        1267        1268        1273        1272
        1268        1269        1274        1273
        1275        1276        1281        1280
        1276        1277        1282        1281
        1277        1278        1283        1282
        1278        1279        1284        1283
        1280        1281        1286        1285
        1281        1282        1287        1286
        1282        1283        1288        1287
        1283        1284        1289        1288
        1285        1286        1291        1290
        1286        1287        1292        1291
        1287        1288        1293        1292
        1288        1289        1294        1293
        1290        1291        1296        1295
        1291        1292        1297        1296
        1292        1293        1298        1297
        1293        1294        1299        1298
        1300        1301        1306        1305
        1301        1302        1307        1306
        1302        1303        1308        1307
        1303        1304        1309        1308
        1305        1306        1311        1310
        1306        1307        1312        1311
        1307        1308        1313        1312
        1308        1309        1314        1313
        1310        1311        1316        1315
        1311        1312        1317        1316
        1312        1313        1318        1317
        1313        1314        1319        1318
        1315        1316        1321        1320
        1316        1317        1322        1321
        1317        1318        1323        1322
        1318        1319        1324        1323
        1325        1326        1331        1330
        1326        1327        1332        1331
        1327        1328        1333        1332
        1328        1329        1334        1333
        1330        1331        1336        1335
        1331        1332        1337        1336
        1332        1333        1338        1337
        1333        1334        1339        1338
        1335        1336        1341        1340
        1336        1337        1342        1341
        1337        1338        1343        1342
        1338        1339        1344        1343
        1340        1341        1346        1345
        1341        1342        1347        1346
        1342        1343        1348        1347
        1343        1344        1349        1348
        1350        1351        1356        1355
        1351        1352        1357        1356
        1352        1353        1358        1357
        1353        1354        1359        1358
        1355        1356        1361        1360
        1356        1357        1362        1361
        1357        1358        1363        1362
        1358        1359        1364        1363
        1360        1361        1366        1365
        1361        1362        1367        1366
        1362        1363        1368        1367
        1363        1364        1369        1368
        1365        1366        1371        1370
        1366        1367        1372        1371
        1367        1368        1373        1372
        1368        1369        1374        1373
        1375        1376        1381        1380
        1376        1377        1382        1381
        1377        1378        1383        1382
        1378        1379        1384        1383
        1380        1381        1386        1385
        1381        1382        1387        1386
        1382        1383        1388        1387
        1383        1384        1389        1388
        1385        1386        1391        1390
        1386        1387        1392        1391
        1387        1388        1393        1392
        1388        1389        1394        1393
        1390        1391        1396        1395
        1391        1392        1397        1396
        1392        1393        1398        1397
        1393        1394        1399        1398
        1400        1401        1406        1405
        1401        1402        1407        1406
        1402        1403        1408        1407
        1403        1404        1409        1408
        1405        1406        1411        1410
        1406        1407        1412        1411
        1407        1408        1413        1412
        1408        1409        1414        1413
        1410        1411        1416        1415
        1411        1412        1417        1416
        1412        1413        1418        1417
        1413        1414        1419        1418
        1415        1416        1421        1420
        1416        1417        1422        1421
        1417        1418        1423        1422
        1418        1419        1424        1423
        1425        1426        1431        1430
        1426        1427        1432        1431
        1427        1428        1433        1432
        1428        1429        1434        1433
        1430        1431        1436        1435
        1431        1432        1437        1436
        1432        1433        1438        1437
        1433        1434        1439        1438
        1435        1436        1441        1440
        1436        1437        1442        1441
        1437        1438        1443        1442
        1438        1439        1444        1443
        1440        1441        1446        1445
        1441        1442        1447        1446
        1442        1443        1448        1447
        1443        1444        1449        1448
        1450        1451        1456        1455
        1451        1452        1457        1456
        1452        1453        1458        1457
        1453        1454        1459        1458
        1455        1456        1461        1460
        1456        1457        1462        1461
        1457        1458        1463        1462
        1458        1459        1464        1463
        1460        1461        1466        1465
        1461        1462        1467        1466
        1462        1463        1468        1467
        1463        1464        1469        1468
        1465        1466        1471        1470
        1466        1467        1472        1471
        1467        1468        1473        1472
        1468        1469        1474        1473
        1475        1476        1481        1480
        1476        1477        1482        1481
        1477        1478        1483        1482
        1478        1479        1484        1483
        1480        1481        1486        1485
        1481        1482        1487        1486
        1482        1483        1488        1487
        1483        1484        1489        1488
        1485        1486        1491        1490
        1486        1487        1492        1491
        1487        1488        1493        1492
        1488        1489        1494        1493
        1490        1491        1496        1495
        1491        1492        1497        1496
        1492        1493        1498        1497
        1493        1494        1499        1498
        1500        1501        1506        1505
        1501        1502        1507        1506
        1502        1503        1508        1507
        1503        1504        1509        1508
        1505        1506        1511        1510
        1506        1507        1512        1511
        1507        1508        1513        1512
        1508        1509        1514        1513
        1510        1511        1516        1515
        1511        1512        1517        1516
        1512        1513        1518        1517
        1513        1514        1519        1518
        1515        1516        1521        1520
        1516        1517        1522        1521
        1517        1518        1523        1522
        1518        1519        1524        1523
        1525        1526        1531        1530
        1526        1527        1532        1531
        1527        1528        1533        1532
        1528        1529        1534        1533
        1530        1531        1536        1535
        1531        1532        1537        1536
        1532        1533        1538        1537
        1533        1534        1539        1538
        1535        1536        1541        1540
        1536        1537        1542        1541
        1537        1538        1543        1542
        1538        1539        1544        1543
        1540        1541        1546        1545
        1541        1542        1547        1546
        1542        1543        1548        1547
        1543        1544        1549        1548
        1550        1551        1556        1555
        1551        1552        1557        1556
        1552        1553        1558        1557
        1553        1554        1559        1558
        1555        1556        1561        1560
        1556        1557        1562        1561
        1557        1558        1563        1562
        1558        1559        1564        1563
        1560        1561        1566        1565
        1561        1562        1567        1566
        1562        1563        1568        1567
        1563        1564        1569        1568
        1565        1566        1571        1570
        1566        1567        1572        1571
        1567        1568        1573        1572
        1568        1569        1574        1573
        1575        1576        1581        1580
        1576        1577        1582        1581
        1577        1578        1583        1582
        1578        1579        1584        1583
        1580        1581        1586        1585
        1581        1582        1587        1586
        1582        1583        1588        1587
        1583        1584        1589        1588
        1585        1586        1591        1590
        1586        1587        1592        1591
        1587        1588        1593        1592
        1588        1589        1594        1593
        1590        1591        1596        1595
        1591        1592        1597        1596
        1592        1593        1598        1597
        1593        1594        1599        1598
 </DataArray>
 <DataArray  type="Int32"  Name="offsets"  format="ascii"> 
           4
           8
          12
          16
          20
          24
          28
          32
          36
          40
          44
          48
          52
          56
          60
          64
          68
          72
          76
          80
          84
          88
          92
          96
         100
         104
         108
         112
         116
         120
         124
         128
         132
         136
         140
         144
         148
         152
         156
         160
         164
         168
         172
         176
         180
         184
         188
         192
         196
         200
         204
         208
         212
         216
         220
         224
         228
         232
         236
         240
         244
         248
         252
         256
         260
         264
         268
         272
         276
         280
         284
         288
         292
         296
         300
         304
         308
         312
         316
         320
         324
         328
         332
         336
         340
         344
         348
         352
         356
         360
         364
         368
         372
         376
         380
         384
         388
         392
         396
         400
         404
         408
         412
         416
         420
         424
         428
         432
         436
         440
         444
         448
         452
         456
         460
         464
         468
         472
         476
         480
         484
         488
         492
         496
         500
         504
         508
         512
         516
         520
         524
         528
         532
         536
         540
         544
         548
         552
         556
         560
         564
         568
         572
         576
         580
         584
         588
         592
         596
         600
         604
         608
         612
         616
         620
         624
         628
         632
         636
         640
         644
         648
         652
         656
         660
         664
         668
         672
         676
         680
         684
         688
         692
         696
         700
         704
         708
         712
         716
         720
         724
         728
         732
         736
         740
         744
         748
         752
         756
         760
         764
         768
         772
         776
         780
         784
         788
         792
         796
         800
         804
         808
         812
         816
         820
         824
         828
         832
         836
         840
         844
         848
         852
         856
         860
         864
         868
         872
         876
         880
         884
         888
         892
         896
         900
         904
         908
         912
         916
         920
         924
         928
         932
         936
         940
         944
         948
         952
         956
         960
         964
         968
         972
         976
         980
         984
         988
         992
         996
        1000
        1004
        1008
        1012
        1016
        1020
        1024
        1028
        1032
        1036
        1040
        1044
        1048
        1052
        1056
        1060
        1064
        1068
        1072
        1076
        1080
        1084
        1088
        1092
        1096
        1100
        1104
        1108
        1112
        1116
        1120
        1124
        1128
        1132
        1136
        1140
        1144
        1148
        1152
        1156
        1160
        1164
        1168
        1172
        1176
        1180
        1184
        1188
        1192
        1196
        1200
        1204
        1208
        1212
        1216
        1220
        1224
        1228
        1232
        1236
        1240
        1244
        1248
        1252
        1256
        1260
        1264
        1268
        1272
        1276
        1280
        1284
        1288
        1292
        1296
        1300
        1304
        1308
        1312
        1316
        1320
        1324
        1328
        1332
        1336
        1340
        1344
        1348
        1352
        1356
        1360
        1364
        1368
        1372
        1376
        1380
        1384
        1388
        1392
        1396
        1400
        1404
        1408
        1412
        1416
        1420
        1424
        1428
        1432
        1436
        1440
        1444
        1448
        1452
        1456
        1460
        1464
        1468
        1472
        1476
        1480
        1484
        1488
        1492
        1496
        1500
        1504
        1508
        1512
        1516
        1520
        1524
        1528
        1532
        1536
        1540
        1544
        1548
        1552
        1556
        1560
        1564
        1568
        1572
        1576
        1580
        1584
        1588
        1592
        1596
        1600
        1604
        1608
        1612
        1616
        1620
        1624
        1628
        1632
        1636
        1640
        1644
        1648
        1652
        1656
        1660
        1664
        1668
        1672
        1676
        1680
        1684
        1688
        1692
        1696
        1700
        1704
        1708
        1712
        1716
        1720
        1724
        1728
        1732
        1736
        1740
        1744
        1748
        1752
        1756
        1760
        1764
        1768
        1772
        1776
        1780
        1784
        1788
        1792
        1796
        1800
        1804
        1808
        1812
        1816
        1820
        1824
        1828
        1832
        1836
        1840
        1844
        1848
        1852
        1856
        1860
        1864
        1868
        1872
        1876
        1880
        1884
        1888
        1892
        1896
        1900
        1904
        1908
        1912
        1916
        1920
        1924
        1928
        1932
        1936
        1940
        1944
        1948
        1952
        1956
        1960
        1964
        1968
        1972
        1976
        1980
        1984
        1988
        1992
        1996
        2000
        2004
        2008
        2012
        2016
        2020
        2024
        2028
        2032
        2036
        2040
        2044
        2048
        2052
        2056
        2060
        2064
        2068
        2072
        2076
        2080
        2084
        2088
        2092
        2096
        2100
        2104
        2108
        2112
        2116
        2120
        2124
        2128
        2132
        2136
        2140
        2144
        2148
        2152
        2156
        2160
        2164
        2168
        2172
        2176
        2180
        2184
        2188
        2192
        2196
        2200
        2204
        2208
        2212
        2216
        2220
        2224
        2228
        2232
        2236
        2240
        2244
        2248
        2252
        2256
        2260
        2264
        2268
        2272
        2276
        2280
        2284
        2288
        2292
        2296
        2300
        2304
        2308
        2312
        2316
        2320
        2324
        2328
        2332
        2336
        2340
        2344
        2348
        2352
        2356
        2360
        2364
        2368
        2372
        2376
        2380
        2384
        2388
        2392
        2396
        2400
        2404
        2408
        2412
        2416
        2420
        2424
        2428
        2432
        2436
        2440
        2444
        2448
        2452
        2456
        2460
        2464
        2468
        2472
        2476
        2480
        2484
        2488
        2492
        2496
        2500
        2504
        2508
        2512
        2516
        2520
        2524
        2528
        2532
        2536
        2540
        2544
        2548
        2552
        2556
        2560
        2564
        2568
        2572
        2576
        2580
        2584
        2588
        2592
        2596
        2600
        2604
        2608
        2612
        2616
        2620
        2624
        2628
        2632
        2636
        2640
        2644
        2648
        2652
        2656
        2660
        2664
        2668
        2672
        2676
        2680
        2684
        2688
        2692
        2696
        2700
        2704
        2708
        2712
        2716
        2720
        2724
        2728
        2732
        2736
        2740
        2744
        2748
        2752
        2756
        2760
        2764
        2768
        2772
        2776
        2780
        2784
        2788
        2792
        2796
        2800
        2804
        2808
        2812
        2816
        2820
        2824
        2828
        2832
        2836
        2840
        2844
        2848
        2852
        2856
        2860
        2864
        2868
        2872
        2876
        2880
        2884
        2888
        2892
        2896
        2900
        2904
        2908
        2912
        2916
        2920
        2924
        2928
        2932
        2936
        2940
        2944
        2948
        2952
        2956
        2960
        2964
        2968
        2972
        2976
        2980
        2984
        2988
        2992
        2996
        3000
        3004
        3008
        3012
        3016
        3020
        3024
        3028
        3032
        3036
        3040
        3044
        3048
        3052
        3056
        3060
        3064
        3068
        3072
        3076
        3080
        3084
        3088
        3092
        3096
        3100
        3104
        3108
        3112
        3116
        3120
        3124
        3128
        3132
        3136
        3140
        3144
        3148
        3152
        3156
        3160
        3164
        3168
        3172
        3176
        3180
        3184
        3188
        3192
        3196
        3200
        3204
        3208
        3212
        3216
        3220
        3224
        3228
        3232
        3236
        3240
        3244
        3248
        3252
        3256
        3260
        3264
        3268
        3272
        3276
        3280
        3284
        3288
        3292
        3296
        3300
        3304
        3308
        3312
        3316
        3320
        3324
        3328
        3332
        3336
        3340
        3344
        3348
        3352
        3356
        3360
        3364
        3368
        3372
        3376
        3380
        3384
        3388
        3392
        3396
        3400
        3404
        3408
        3412
        3416
        3420
        3424
        3428
        3432
        3436
        3440
        3444
        3448
        3452
        3456
        3460
        3464
        3468
        3472
        3476
        3480
        3484
        3488
        3492
        3496
        3500
        3504
        3508
        3512
        3516
        3520
        3524
        3528
        3532
        3536
        3540
        3544
        3548
        3552
        3556
        3560
        3564
        3568
        3572
        3576
        3580
        3584
        3588
        3592
        3596
        3600
        3604
        3608
        3612
        3616
        3620
        3624
        3628
        3632
        3636
        3640
        3644
        3648
        3652
        3656
        3660
        3664
        3668
        3672
        3676
        3680
        3684
        3688
        3692
        3696
        3700
        3704
        3708
        3712
        3716
        3720
        3724
        3728
        3732
        3736
        3740
        3744
        3748
        3752
        3756
        3760
        3764
        3768
        3772
        3776
        3780
        3784
        3788
        3792
        3796
        3800
        3804
        3808
        3812
        3816
        3820
        3824
        3828
        3832
        3836
        3840
        3844
        3848
        3852
        3856
        3860
        3864
        3868
        3872
        3876
        3880
        3884
        3888
        3892
        3896
        3900
        3904
        3908
        3912
        3916
        3920
        3924
        3928
        3932
        3936
        3940
        3944
        3948
        3952
        3956
        3960
        3964
        3968
        3972
        3976
        3980
        3984
        3988
        3992
        3996
        4000
        4004
        4008
        4012
        4016
        4020
        4024
        4028
        4032
        4036
        4040
        4044
        4048
        4052
        4056
        4060
        4064
        4068
        4072
        4076
        4080
        4084
        4088
        4092
        4096
 </DataArray>
 <DataArray  type="UInt8"  Name="types"  format="ascii">
 9
 9
 9
 9
 9
 9
 9
 9
 9
 9
 9
 9
 9
 9
 9
 9
 9
 9
 9
 9
 9
 9
 9
 9
 9
 9
 9
 9
 9
 9
 9
 9
 9
 9
 9
 9
 9
 9
 9
 9
 9
 9
 9
 9
 9
 9
 9
 9
 9
 9
 9
 9
 9
 9
 9
 9
 9
 9
 9
 9
 9
 9
 9
 9
 9
 9
 9
 9
 9
 9
 9
 9
 9
 9
 9
 9
 9
 9
 9
 9
 9
 9
 9
 9
 9
 9
 9
 9
 9
 9
 9
 9
 9
 9
 9
 9
 9
 9
 9
 9
 9
 9
 9
 9
 9
 9
 9
 9
 9
 9
 9
 9
 9
 9
 9
 9
 9
 9
 9
 9
 9
 9
 9
 9
 9
 9
 9
 9
 9
 9
 9
 9
 9
 9
 9
 9
 9
 9
 9
 9
 9
 9
 9
 9
 9
 9
 9
 9
 9
 9
 9
 9
 9
 9
 9
 9
 9
 9
 9
 9
 9
 9
 9
 9
 9
 9
 9
 9
 9
 9
 9
 9
 9
 9
 9
 9
 9
 9
 9
 9
 9
 9
 9
 9
 9
 9
 9
 9
 9
 9
 9
 9
 9
 9
 9
 9
 9
 9
 9
 9
 9
 9
 9
 9
 9
 9
 9
 9
 9
 9
 9
 9
 9
 9
 9
 9
 9
 9
 9
 9
 9
 9
 9
 9
 9
 9
 9
 9
 9
 9
 9
 9
 9
 9
 9
 9
 9
 9
 9
 9
 9
 9
 9
 9
 9
 9
 9
 9
 9
 9
 9
 9
 9
 9
 9
 9
 9
 9
 9
 9
 9
 9
 9
 9
 9
 9
 9
 9
 9
 9
 9
 9
 9
 9
 9
 9
 9
 9
 9
 9
 9
 9
 9
 9
 9
 9
 9
 9
 9
 9
 9
 9
 9
 9
 9
 9
 9
 9
 9
 9
 9
 9
 9
 9
 9
 9
 9
 9
 9
 9
 9
 9
 9
 9
 9
 9
 9
 9
 9
 9
 9
 9
 9
 9
 9
 9
 9
 9
 9
 9
 9
 9
 9
 9
 9
 9
 9
 9
 9
 9
 9
 9
 9
 9
 9
 9
 9
 9
 9
 9
 9
 9
 9
 9
 9
 9
 9
 9
 9
 9
 9
 9
 9
 9
 9
 9
 9
 9
 9
 9
 9
 9
 9
 9
 9
 9
 9
 9
 9
 9
 9
 9
 9
 9
 9
 9
 9
 9
 9
 9
 9
 9
 9
 9
 9
 9
 9
 9
 9
 9
 9
 9
 9
 9
 9
 9
 9
 9
 9
 9
 9
 9
 9
 9
 9
 9
 9
 9
 9
 9
 9
 9
 9
 9
 9
 9
 9
 9
 9
 9
 9
 9
 9
 9
 9
 9
 9
 9
 9
 9
 9
 9
 9
 9
 9
 9
 9
 9
 9
 9
 9
 9
 9
 9
 9
 9
 9
 9
 9
 9
 9
 9
 9
 9
 9
 9
 9
 9
 9
 9
 9
 9
 9
 9
 9
 9
 9
 9
 9
 9
 9
 9
 9
 9
 9
 9
 9
 9
 9
 9
 9
 9
 9
 9
 9
 9
 9
 9
 9
 9
 9
 9
 9
 9
 9
 9
 9
 9
 9
 9
 9
 9
 9
 9
 9
 9
 9
 9
 9
 9
 9
 9
 9
 9
 9
 9
 9
 9
 9
 9
 9
 9
 9
 9
 9
 9
 9
 9
 9
 9
 9
 9
 9
 9
 9
 9
 9
 9
 9
 9
 9
 9
 9
 9
 9
 9
 9
 9
 9
 9
 9
 9
 9
 9
 9
 9
 9
 9
 9
 9
 9
 9
 9
 9
 9
 9
 9
 9
 9
 9
 9
 9
 9
 9
 9
 9
 9
 9
 9
 9
 9
 9
 9
 9
 9
 9
 9
 9
 9
 9
 9
 9
 9
 9
 9
 9
 9
 9
 9
 9
 9
 9
 9
 9
 9
 9
 9
 9
 9
 9
 9
 9
 9
 9
 9
 9
 9
 9
 9
 9
 9
 9
 9
 9
 9
 9
 9
 9
 9
 9
 9
 9
 9
 9
 9
 9
 9
 9
 9
 9
 9
 9
 9
 9
 9
 9
 9
 9
 9
 9
 9
 9
 9
 9
 9
 9
 9
 9
 9
 9
 9
 9
 9
 9
 9
 9
 9
 9
 9
 9
 9
 9
 9
 9
 9
 9
 9
 9
 9
 9
 9
 9
 9
 9
 9
 9
 9
 9
 9
 9
 9
 9
 9
 9
 9
 9
 9
 9
 9
 9
 9
 9
 9
 9
 9
 9
 9
 9
 9
 9
 9
 9
 9
 9
 9
 9
 9
 9
 9
 9
 9
 9
 9
 9
 9
 9
 9
 9
 9
 9
 9
 9
 9
 9
 9
 9
 9
 9
 9
 9
 9
 9
 9
 9
 9
 9
 9
 9
 9
 9
 9
 9
 9
 9
 9
 9
 9
 9
 9
 9
 9
 9
 9
 9
 9
 9
 9
 9
 9
 9
 9
 9
 9
 9
 9
 9
 9
 9
 9
 9
 9
 9
 9
 9
 9
 9
 9
 9
 9
 9
 9
 9
 9
 9
 9
 9
 9
 9
 9
 9
 9
 9
 9
 9
 9
 9
 9
 9
 9
 9
 9
 9
 9
 9
 9
 9
 9
 9
 9
 9
 9
 9
 9
 9
 9
 9
 9
 9
 9
 9
 9
 9
 9
 9
 9
 9
 9
 9
 9
 9
 9
 9
 9
 9
 9
 9
 9
 9
 9
 9
 9
 9
 9
 9
 9
 9
 9
 9
 9
 9
 9
 9
 9
 9
 9
 9
 9
 9
 9
 9
 9
 9
 9
 9
 9
 9
 9
 9
 9
 9
 9
 9
 9
 9
 9
 9
 9
 9
 9
 9
 9
 9
 9
 9
 9
 9
 9
 9
 9
 9
 9
 9
 9
 9
 9
 9
 9
 9
 9
 9
 9
 9
 9
 9
 9
 9
 9
 9
 9
 9
 9
 9
 9
 9
 9
 9
 9
 9
 9
 9
 9
 9
 9
 9
 9
 9
 9
 9
 9
 9
 9
 9
 9
 9
 9
 9
 9
 9
 9
 9
 9
 9
 9
 9
 9
 9
 9
 9
 9
 9
 9
 9
 9
 9
 9
 9
 9
 9
 9
 9
 9
 9
 9
 9
 9
 9
 9
 9
 9
 9
 9
 9
 9
 9
 9
 9
 9
 9
 9
 9
 9
 9
 9
 9
 9
 9
 9
 9
 9
 9
 9
 9
 9
 9
 9
 9
 9
 9
 9
 9
 9
 9
 9
 9
 </DataArray>
 </Cells> 
 <PointData>
 <DataArray  type="Float64" Name="disp" NumberOfComponents="3" format="ascii">
   6.5173846657191087E-002   6.2886376659821844E-002   0.0000000000000000     
   6.8452458110393105E-002   6.8216081727722547E-002   0.0000000000000000     
   7.1540779859192216E-002   7.3742577785319660E-002   0.0000000000000000     
   7.4438811903588462E-002   7.9465864832613198E-002   0.0000000000000000     
   7.7146554243581800E-002   8.5385942869603160E-002   0.0000000000000000     
   6.0142217699621289E-002   6.1934659871661385E-002   0.0000000000000000     
   6.3056752199046939E-002   6.7363833769523873E-002   0.0000000000000000     
   6.5861352808480933E-002   7.2955892196515285E-002   0.0000000000000000     
   6.8556019527923270E-002   7.8710835152635633E-002   0.0000000000000000     
   7.1140752357373910E-002   8.4628662637884919E-002   0.0000000000000000     
   5.5143703269589742E-002   6.1032618617290493E-002   0.0000000000000000     
   5.7875252736541281E-002   6.6547979945894425E-002   0.0000000000000000     
   6.0502094177505655E-002   7.2200814079200135E-002   0.0000000000000000     
   6.3024227592482870E-002   7.7991121017207662E-002   0.0000000000000000     
   6.5441652981472920E-002   8.3918900759916967E-002   0.0000000000000000     
   5.0178303367096416E-002   6.0180252896709197E-002   0.0000000000000000     
   5.2907959722876097E-002   6.5768520256834231E-002   0.0000000000000000     
   5.5463003966266390E-002   7.1477343433374252E-002   0.0000000000000000     
   5.7843436097267290E-002   7.7306722426329258E-002   0.0000000000000000     
   6.0049256115878809E-002   8.3256657235699277E-002   0.0000000000000000     
   4.5246017992141334E-002   5.9377562709917460E-002   0.0000000000000000     
   4.8154873158051392E-002   6.5025454702343249E-002   0.0000000000000000     
   5.0744082174763123E-002   7.0785480259037581E-002   0.0000000000000000     
   5.3013645042276528E-002   7.6657639380000447E-002   0.0000000000000000     
   5.4963561760591598E-002   8.2641932065231877E-002   0.0000000000000000     
   7.7146554243581800E-002   8.5385942869603160E-002   0.0000000000000000     
   7.9732065108662029E-002   9.1487494738025241E-002   0.0000000000000000     
   8.2263402728318918E-002   9.7755203279615108E-002   0.0000000000000000     
   8.4740567102552483E-002  0.10418906849437279        0.0000000000000000     
   8.7163558231362681E-002  0.11078909038229824        0.0000000000000000     
   7.1140752357373910E-002   8.4628662637884919E-002   0.0000000000000000     
   7.3632557599126833E-002   9.0719190279832551E-002   0.0000000000000000     
   7.6048441555475937E-002   9.6992233706047856E-002   0.0000000000000000     
   7.8388404226421224E-002  0.10344779291653083        0.0000000000000000     
   8.0652445611962692E-002  0.11008586791128151        0.0000000000000000     
   6.5441652981472920E-002   8.3918900759916967E-002   0.0000000000000000     
   6.7769866392647996E-002   9.0011136558600810E-002   0.0000000000000000     
   7.0024363874180331E-002   9.6294811664531910E-002   0.0000000000000000     
   7.2205145426069886E-002  0.10276992607771031        0.0000000000000000     
   7.4312211048316687E-002  0.10943647979813594        0.0000000000000000     
   6.0049256115878809E-002   8.3256657235699277E-002   0.0000000000000000     
   6.2143991489225538E-002   8.9363333574330059E-002   0.0000000000000000     
   6.4191169684432101E-002   9.5662937155067365E-002   0.0000000000000000     
   6.6190790701498484E-002  0.10215546797791118        0.0000000000000000     
   6.8142854540424666E-002  0.10884092604286152        0.0000000000000000     
   5.4963561760591598E-002   8.2641932065231877E-002   0.0000000000000000     
   5.6754932888859466E-002   8.8775781327020270E-002   0.0000000000000000     
   5.8548858986231259E-002   9.5096610177654139E-002   0.0000000000000000     
   6.0345340052706996E-002  0.10160441861713346        0.0000000000000000     
   6.2144376088286650E-002  0.10829920664545827        0.0000000000000000     
   8.7163558231362681E-002  0.11078909038229824        0.0000000000000000     
   8.9503758942808265E-002  0.11753432704324020        0.0000000000000000     
   9.1732552064947945E-002  0.12440383657704734        0.0000000000000000     
   9.3849937597781735E-002  0.13139761898371968        0.0000000000000000     
   9.5855915541309608E-002  0.13851567426325717        0.0000000000000000     
   8.0652445611962692E-002  0.11008586791128151        0.0000000000000000     
   8.2829251771017853E-002  0.11687476721970116        0.0000000000000000     
   8.4907508762504205E-002  0.12378279937119102        0.0000000000000000     
   8.6887216586421775E-002  0.13080996436575112        0.0000000000000000     
   8.8768375242770550E-002  0.13795626220338142        0.0000000000000000     
   7.4312211048316687E-002  0.10943647979813594        0.0000000000000000     
   7.6338125444217239E-002  0.11625770101704484        0.0000000000000000     
   7.8275453317068075E-002  0.12319681792567301        0.0000000000000000     
   8.0124194666869167E-002  0.13025383052402040        0.0000000000000000     
   8.1884349493620570E-002  0.13742873881208703        0.0000000000000000     
   6.8142854540424666E-002  0.10884092604286152        0.0000000000000000     
   7.0030379962406436E-002  0.11568312843527126        0.0000000000000000     
   7.1836385728639512E-002  0.12264589224049324        0.0000000000000000     
   7.3560871839123923E-002  0.12972921745852750        0.0000000000000000     
   7.5203838293859640E-002  0.13693310408937398        0.0000000000000000     
   6.2144376088286650E-002  0.10829920664545827        0.0000000000000000     
   6.3906015325585430E-002  0.11515104947438039        0.0000000000000000     
   6.5590305997218559E-002  0.12213002231565177        0.0000000000000000     
   6.7197248103186016E-002  0.12923612516927241        0.0000000000000000     
   6.8726841643487802E-002  0.13646935803524224        0.0000000000000000     
   9.5855915541309608E-002  0.13851567426325717        0.0000000000000000     
   9.7761159231514128E-002  0.14575278717071444        0.0000000000000000     
   9.9576342004377844E-002  0.15310374246114597        0.0000000000000000     
  0.10130146385990074       0.16056854013455180        0.0000000000000000     
  0.10293652479808282       0.16814718019093189        0.0000000000000000     
   8.8768375242770550E-002  0.13795626220338142        0.0000000000000000     
   9.0557861641228241E-002  0.14521859054638137        0.0000000000000000     
   9.2262552691472544E-002  0.15259384705705023        0.0000000000000000     
   9.3882448393503473E-002  0.16008203173538807        0.0000000000000000     
   9.5417548747321015E-002  0.16768314458139488        0.0000000000000000     
   8.1884349493620570E-002  0.13742873881208703        0.0000000000000000     
   8.3559153223169258E-002  0.14471831722735506        0.0000000000000000     
   8.5151841281362273E-002  0.15211934020730666        0.0000000000000000     
   8.6662413668199670E-002  0.15963180775194177        0.0000000000000000     
   8.8090870383681394E-002  0.16725571986126045        0.0000000000000000     
   7.5203838293859640E-002  0.13693310408937398        0.0000000000000000     
   7.6765033977337208E-002  0.14425196721363559        0.0000000000000000     
   7.8244207774047114E-002  0.15168022191191521        0.0000000000000000     
   7.9641359683989332E-002  0.15921786818421285        0.0000000000000000     
   8.0956489707163917E-002  0.16686490603052853        0.0000000000000000     
   6.8726841643487802E-002  0.13646935803524224        0.0000000000000000     
   7.0175503903732089E-002  0.14381954050522291        0.0000000000000000     
   7.1539652169526971E-002  0.15127649217087596        0.0000000000000000     
   7.2819286440872488E-002  0.15884021303220139        0.0000000000000000     
   7.4014406717768627E-002  0.16651070308919921        0.0000000000000000     
  0.10293652479808282       0.16814718019093189        0.0000000000000000     
  0.10448382838100238       0.17582734252205770        0.0000000000000000     
  0.10594567817073774       0.18359670701970060        0.0000000000000000     
  0.10732207416728885       0.19145527368386062        0.0000000000000000     
  0.10861301637065575       0.19940304251453772        0.0000000000000000     
   9.5417548747321015E-002  0.16768314458139488        0.0000000000000000     
   9.6867985177093524E-002  0.17538631937884233        0.0000000000000000     
   9.8233889106989283E-002  0.18318068991150208        0.0000000000000000     
   9.9515260537008307E-002  0.19106625617937412        0.0000000000000000     
  0.10071209946715060       0.19904301818245848        0.0000000000000000     
   8.8090870383681394E-002  0.16725571986126045        0.0000000000000000     
   8.9437621970690967E-002  0.17498160962146678        0.0000000000000000     
   9.0703078972111911E-002  0.18280001011876501        0.0000000000000000     
   9.1887241387944282E-002  0.19071092135315512        0.0000000000000000     
   9.2990109218188038E-002  0.19871434332463705        0.0000000000000000     
   8.0956489707163917E-002  0.16686490603052853        0.0000000000000000     
   8.2192738761794754E-002  0.17461321324993107        0.0000000000000000     
   8.3353247766105698E-002  0.18245466764148943        0.0000000000000000     
   8.4438016720096792E-002  0.19038926920520347        0.0000000000000000     
   8.5447045623768023E-002  0.19841701794107330        0.0000000000000000     
   7.4014406717768627E-002  0.16651070308919921        0.0000000000000000     
   7.5133335550404842E-002  0.17428113026423525        0.0000000000000000     
   7.6184395488970574E-002  0.18214466247967526        0.0000000000000000     
   7.7167586533465823E-002  0.19010129973551931        0.0000000000000000     
   7.8082908683890603E-002  0.19815104203176731        0.0000000000000000     
  0.10861301637065575       0.19940304251453772        0.0000000000000000     
  0.10982305096815362       0.20743626212491148        0.0000000000000000     
  0.11095672414709759       0.21555118112816149        0.0000000000000000     
  0.11201403590748776       0.22374779952428769        0.0000000000000000     
  0.11299498624932407       0.23202611731329015        0.0000000000000000     
  0.10071209946715060       0.19904301818245848        0.0000000000000000     
  0.10182989224430516       0.20710369307988560        0.0000000000000000     
  0.10287412521536099       0.21524099803078586        0.0000000000000000     
  0.10384479838031808       0.22345493303515934        0.0000000000000000     
  0.10474191173917644       0.23174549809300593        0.0000000000000000     
   9.2990109218188038E-002  0.19871434332463705        0.0000000000000000     
   9.4016141559981337E-002  0.20680083563570537        0.0000000000000000     
   9.4969797510462389E-002  0.21496095788885455        0.0000000000000000     
   9.5851077069631169E-002  0.22319471008408462        0.0000000000000000     
   9.6659980237487703E-002  0.23150209222139564        0.0000000000000000     
   8.5447045623768023E-002  0.19841701794107330        0.0000000000000000     
   8.6381798915182134E-002  0.20652768979237071        0.0000000000000000     
   8.7243741032401803E-002  0.21471106070236748        0.0000000000000000     
   8.8032871975427043E-002  0.22296713067106363        0.0000000000000000     
   8.8749191744257869E-002  0.23129589969845921        0.0000000000000000     
   7.8082908683890603E-002  0.19815104203176731        0.0000000000000000     
   7.8926864309907516E-002  0.20628425554988167        0.0000000000000000     
   7.9695955781179231E-002  0.21449130647132467        0.0000000000000000     
   8.0390183097705695E-002  0.22277219479609631        0.0000000000000000     
   8.1009546259486934E-002  0.23112692052419662        0.0000000000000000     
  0.11299498624932407       0.23202611731329015        0.0000000000000000     
  0.11392850900942174       0.24040261856334572        0.0000000000000000     
  0.11484353802459604       0.24889378734263140        0.0000000000000000     
  0.11574007329484691       0.25749962365114715        0.0000000000000000     
  0.11661811482017441       0.26622012748889301        0.0000000000000000     
  0.10474191173917644       0.23174549809300593        0.0000000000000000     
  0.10557078629078652       0.24013675546273300        0.0000000000000000     
  0.10633674303399883       0.24865276740274780        0.0000000000000000     
  0.10703978196881332       0.25729353391305032        0.0000000000000000     
  0.10767990309523003       0.26605905499364058        0.0000000000000000     
   9.6659980237487703E-002  0.23150209222139564        0.0000000000000000     
   9.7387541523689961E-002  0.23991054125142644        0.0000000000000000     
   9.8024795437895940E-002  0.24844749412481584        0.0000000000000000     
   9.8571741980105709E-002  0.25711295084156394        0.0000000000000000     
   9.9028381150319159E-002  0.26590691140167078        0.0000000000000000     
   8.8749191744257869E-002  0.23129589969845921        0.0000000000000000     
   8.9378774708132075E-002  0.23972397592942588        0.0000000000000000     
   8.9907695236287458E-002  0.24827796750883549        0.0000000000000000     
   9.0335953328724045E-002  0.25695787443668805        0.0000000000000000     
   9.0663548985441808E-002  0.26576369671298344        0.0000000000000000     
   8.1009546259486934E-002  0.23112692052419662        0.0000000000000000     
   8.1544485844112835E-002  0.23957705949673147        0.0000000000000000     
   8.1985442429173314E-002  0.24814418755480677        0.0000000000000000     
   8.2332416014668369E-002  0.25682830469842260        0.0000000000000000     
   8.2585406600597960E-002  0.26562941092757880        0.0000000000000000     
  0.11661811482017441       0.26622012748889301        0.0000000000000000     
  0.11741760583180312       0.27522015143126727        0.0000000000000000     
  0.11807848956095768       0.28466454805366825        0.0000000000000000     
  0.11860076600763808       0.29455331735609597        0.0000000000000000     
  0.11898443517184432       0.30488645933855041        0.0000000000000000     
  0.10767990309523003       0.26605905499364058        0.0000000000000000     
  0.10823796971087873       0.27508133346444463        0.0000000000000000     
  0.10869484511338921       0.28449237214538847        0.0000000000000000     
  0.10905052930276152       0.29429217103647226        0.0000000000000000     
  0.10930502227899561       0.30448073013769583        0.0000000000000000     
   9.9028381150319159E-002  0.26590691140167078        0.0000000000000000     
   9.9405675697733550E-002  0.27492730389350928        0.0000000000000000     
   9.9714588371546106E-002  0.28427205640545267        0.0000000000000000     
   9.9955119171756798E-002  0.29394116893750100        0.0000000000000000     
  0.10012726809836565       0.30393464148965410        0.0000000000000000     
   9.0663548985441808E-002  0.26576369671298344        0.0000000000000000     
   9.0920723792367597E-002  0.27475806271846126        0.0000000000000000     
   9.1137719335428316E-002  0.28400360083386084        0.0000000000000000     
   9.1314535614623923E-002  0.29350031105918223        0.0000000000000000     
   9.1451172629954461E-002  0.30324819339442527        0.0000000000000000     
   8.2585406600597960E-002  0.26562941092757880        0.0000000000000000     
   8.2783113994780860E-002  0.27457360993930058        0.0000000000000000     
   8.2964238005035856E-002  0.28368700543061293        0.0000000000000000     
   8.3128778631362893E-002  0.29296959740151585        0.0000000000000000     
   8.3276735873762026E-002  0.30242138585200939        0.0000000000000000     
   4.5246017992141334E-002   5.9377562709917460E-002   0.0000000000000000     
   4.8154873158051392E-002   6.5025454702343249E-002   0.0000000000000000     
   5.0744082174763123E-002   7.0785480259037581E-002   0.0000000000000000     
   5.3013645042276528E-002   7.6657639380000447E-002   0.0000000000000000     
   5.4963561760591598E-002   8.2641932065231877E-002   0.0000000000000000     
   4.0519198450678924E-002   5.8652333354229848E-002   0.0000000000000000     
   4.3569001002649467E-002   6.4335896169633311E-002   0.0000000000000000     
   4.6169419058648117E-002   7.0132955457187465E-002   0.0000000000000000     
   4.8320452618674882E-002   7.6043511216892304E-002   0.0000000000000000     
   5.0022101682729775E-002   8.2067563448747813E-002   0.0000000000000000     
   3.6170196048663630E-002   5.8032350126960904E-002   0.0000000000000000     
   3.9103351217252585E-002   6.3716957545916192E-002   0.0000000000000000     
   4.1563104873573606E-002   6.9527499928821165E-002   0.0000000000000000     
   4.3549457017626705E-002   7.5463977275675845E-002   0.0000000000000000     
   4.5062407649411863E-002   8.1526389586480202E-002   0.0000000000000000     
   3.2199010786095453E-002   5.7517613028110613E-002   0.0000000000000000     
   3.4757923801860754E-002   6.3168638831191878E-002   0.0000000000000000     
   3.6925139619539596E-002   6.8969113673938695E-002   0.0000000000000000     
   3.8700658239131956E-002   7.4919037556351112E-002   0.0000000000000000     
   4.0084479660637849E-002   8.1018410478429032E-002   0.0000000000000000     
   2.8605642662974381E-002   5.7108122057678984E-002   0.0000000000000000     
   3.0532718756473981E-002   6.2690940025460357E-002   0.0000000000000000     
   3.2255523296546081E-002   6.8457796692540054E-002   0.0000000000000000     
   3.3774056283190662E-002   7.4408692058918036E-002   0.0000000000000000     
   3.5088317716407746E-002   8.0543626124594342E-002   0.0000000000000000     
   5.4963561760591598E-002   8.2641932065231877E-002   0.0000000000000000     
   5.6754932888859466E-002   8.8775781327020270E-002   0.0000000000000000     
   5.8548858986231259E-002   9.5096610177654139E-002   0.0000000000000000     
   6.0345340052706996E-002  0.10160441861713346        0.0000000000000000     
   6.2144376088286650E-002  0.10829920664545827        0.0000000000000000     
   5.0022101682729775E-002   8.2067563448747813E-002   0.0000000000000000     
   5.1523360253826700E-002   8.8236867187552054E-002   0.0000000000000000     
   5.3073222334979589E-002   9.4583177468103130E-002   0.0000000000000000     
   5.4671687926188442E-002  0.10110649429040100        0.0000000000000000     
   5.6318757027453252E-002  0.10780681765444568        0.0000000000000000     
   4.5062407649411863E-002   8.1526389586480202E-002   0.0000000000000000     
   4.6369943246404213E-002   8.7734978526806062E-002   0.0000000000000000     
   4.7740050286078868E-002   9.4109985762225193E-002   0.0000000000000000     
   4.9172728768435842E-002  0.10065141129273759        0.0000000000000000     
   5.0667978693475113E-002  0.10735925511834329        0.0000000000000000     
   4.0084479660637849E-002   8.1018410478429032E-002   0.0000000000000000     
   4.1294681866591992E-002   8.7270115344782240E-002   0.0000000000000000     
   4.2549342839529103E-002   9.3677035060020328E-002   0.0000000000000000     
   4.3848462579449181E-002  0.10023916962414325        0.0000000000000000     
   4.5192041086352240E-002  0.10695651903715110        0.0000000000000000     
   3.5088317716407746E-002   8.0543626124594342E-002   0.0000000000000000     
   3.6297576114390044E-002   8.6842277641480600E-002   0.0000000000000000     
   3.7501099995330286E-002   9.3284325361488521E-002   0.0000000000000000     
   3.8698889359228487E-002   9.9869769284618021E-002   0.0000000000000000     
   3.9890944206084633E-002  0.10659860941086917        0.0000000000000000     
   6.2144376088286650E-002  0.10829920664545827        0.0000000000000000     
   6.3906015325585430E-002  0.11515104947438039        0.0000000000000000     
   6.5590305997218559E-002  0.12213002231565177        0.0000000000000000     
   6.7197248103186016E-002  0.12923612516927241        0.0000000000000000     
   6.8726841643487802E-002  0.13646935803524224        0.0000000000000000     
   5.6318757027453252E-002  0.10780681765444568        0.0000000000000000     
   5.7953313363515592E-002  0.11466308267956421        0.0000000000000000     
   5.9514240659117035E-002  0.12165422448508373        0.0000000000000000     
   6.1001538914257587E-002  0.12878024307100419        0.0000000000000000     
   6.2415208128937250E-002  0.13604113843732560        0.0000000000000000     
   5.0667978693475113E-002  0.10735925511834329        0.0000000000000000     
   5.2160555905958250E-002  0.11422084659601470        0.0000000000000000     
   5.3585216250646800E-002  0.12122351508272426        0.0000000000000000     
   5.4941959727540762E-002  0.12836726057847198        0.0000000000000000     
   5.6230786336640151E-002  0.13565208308325785        0.0000000000000000     
   4.5192041086352240E-002  0.10695651903715110        0.0000000000000000     
   4.6527742952913412E-002  0.11382434122373185        0.0000000000000000     
   4.7803232771807855E-002  0.12083789410857337        0.0000000000000000     
   4.9018510543035562E-002  0.12799717769167576        0.0000000000000000     
   5.0173576266596520E-002  0.13530219197303897        0.0000000000000000     
   3.9890944206084633E-002  0.10659860941086917        0.0000000000000000     
   4.1054874504381070E-002  0.11347356656271562        0.0000000000000000     
   4.2168290222600185E-002  0.12049736156263108        0.0000000000000000     
   4.3231191360741945E-002  0.12766999441061552        0.0000000000000000     
   4.4243577918806370E-002  0.13499146510666898        0.0000000000000000     
   6.8726841643487802E-002  0.13646935803524224        0.0000000000000000     
   7.0175503903732089E-002  0.14381954050522291        0.0000000000000000     
   7.1539652169526971E-002  0.15127649217087596        0.0000000000000000     
   7.2819286440872488E-002  0.15884021303220139        0.0000000000000000     
   7.4014406717768627E-002  0.16651070308919921        0.0000000000000000     
   6.2415208128937250E-002  0.13604113843732560        0.0000000000000000     
   6.3749106493139265E-002  0.14342170904256690        0.0000000000000000     
   6.4997092196846878E-002  0.15090675334524700        0.0000000000000000     
   6.6159165240060089E-002  0.15849627134536590        0.0000000000000000     
   6.7235325622778924E-002  0.16619026304292356        0.0000000000000000     
   5.6230786336640151E-002  0.13565208308325785        0.0000000000000000     
   5.7444385236344098E-002  0.14305914476611750        0.0000000000000000     
   5.8575445585051747E-002  0.15056960779608652        0.0000000000000000     
   5.9623967382763113E-002  0.15818347217316495        0.0000000000000000     
   6.0589950629478195E-002  0.16590073789735271        0.0000000000000000     
   5.0173576266596520E-002  0.13530219197303897        0.0000000000000000     
   5.1261340133346607E-002  0.14273184767587468        0.0000000000000000     
   5.2274712334141611E-002  0.15026505552339450        0.0000000000000000     
   5.3213692868981567E-002  0.15790181551559851        0.0000000000000000     
   5.4078281737866440E-002  0.16564212765248665        0.0000000000000000     
   4.4243577918806370E-002  0.13499146510666898        0.0000000000000000     
   4.5199971184146759E-002  0.14243981777183848        0.0000000000000000     
   4.6094892444116450E-002  0.14999309652717102        0.0000000000000000     
   4.6928341698715424E-002  0.15765130137266667        0.0000000000000000     
   4.7700318947943687E-002  0.16541443230832542        0.0000000000000000     
   7.4014406717768627E-002  0.16651070308919921        0.0000000000000000     
   7.5133335550404842E-002  0.17428113026423525        0.0000000000000000     
   7.6184395488970574E-002  0.18214466247967526        0.0000000000000000     
   7.7167586533465823E-002  0.19010129973551931        0.0000000000000000     
   7.8082908683890603E-002  0.19815104203176731        0.0000000000000000     
   6.7235325622778924E-002  0.16619026304292356        0.0000000000000000     
   6.8238482317427004E-002  0.17398278086592212        0.0000000000000000     
   6.9181544296428005E-002  0.18186787724236361        0.0000000000000000     
   7.0064511559781939E-002  0.18984555217224797        0.0000000000000000     
   7.0887384107488779E-002  0.19791580565557529        0.0000000000000000     
   6.0589950629478195E-002  0.16590073789735271        0.0000000000000000     
   6.1487249043766977E-002  0.17371558525653466        0.0000000000000000     
   6.2329716344199475E-002  0.18162219453859541        0.0000000000000000     
   6.3117352530775675E-002  0.18962056574353500        0.0000000000000000     
   6.3850157603495605E-002  0.19771069887135348        0.0000000000000000     
   5.4078281737866440E-002  0.16564212765248665        0.0000000000000000     
   5.4879635729424753E-002  0.17347954343607278        0.0000000000000000     
   5.5628911632284957E-002  0.18140761436837066        0.0000000000000000     
   5.6326109446447052E-002  0.18942634044938034        0.0000000000000000     
   5.6971229171911053E-002  0.19753572167910180        0.0000000000000000     
   4.7700318947943687E-002  0.16541443230832542        0.0000000000000000     
   4.8415642374400339E-002  0.17327465540453654        0.0000000000000000     
   4.9079130160684457E-002  0.18122413673168941        0.0000000000000000     
   4.9690782306796064E-002  0.18926287628978397        0.0000000000000000     
   5.0250598812735130E-002  0.19739087407882033        0.0000000000000000     
   7.8082908683890603E-002  0.19815104203176731        0.0000000000000000     
   7.8926864309907516E-002  0.20628425554988167        0.0000000000000000     
   7.9695955781179231E-002  0.21449130647132467        0.0000000000000000     
   8.0390183097705695E-002  0.22277219479609631        0.0000000000000000     
   8.1009546259486934E-002  0.23112692052419662        0.0000000000000000     
   7.0887384107488779E-002  0.19791580565557529        0.0000000000000000     
   7.1642134343194219E-002  0.20607002240000843        0.0000000000000000     
   7.2320734670543937E-002  0.21429958711321026        0.0000000000000000     
   7.2923185089537934E-002  0.22260449979518077        0.0000000000000000     
   7.3449485600176181E-002  0.23098476044592001        0.0000000000000000     
   6.3850157603495605E-002  0.19771069887135348        0.0000000000000000     
   6.4518405614078886E-002  0.20588447983452113        0.0000000000000000     
   6.5112370614245185E-002  0.21413379454550832        0.0000000000000000     
   6.5632052603994531E-002  0.22245864300431509        0.0000000000000000     
   6.6077451583326868E-002  0.23085902521094145        0.0000000000000000     
   5.6971229171911053E-002  0.19753572167910180        0.0000000000000000     
   5.7555678122561502E-002  0.20572762785341978        0.0000000000000000     
   5.8070863612282982E-002  0.21399392876821893        0.0000000000000000     
   5.8516785641075479E-002  0.22233462442349936        0.0000000000000000     
   5.8893444208939008E-002  0.23074971481926090        0.0000000000000000     
   5.0250598812735130E-002  0.19739087407882033        0.0000000000000000     
   5.0753951868642080E-002  0.20559946645670438        0.0000000000000000     
   5.1196213664657306E-002  0.21387998978134207        0.0000000000000000     
   5.1577384200780813E-002  0.22223244405273343        0.0000000000000000     
   5.1897463477012587E-002  0.23065682927087849        0.0000000000000000     
   8.1009546259486934E-002  0.23112692052419662        0.0000000000000000     
   8.1544485844112835E-002  0.23957705949673147        0.0000000000000000     
   8.1985442429173314E-002  0.24814418755480677        0.0000000000000000     
   8.2332416014668369E-002  0.25682830469842260        0.0000000000000000     
   8.2585406600597960E-002  0.26562941092757880        0.0000000000000000     
   7.3449485600176181E-002  0.23098476044592001        0.0000000000000000     
   7.3897973792427726E-002  0.23945470729660059        0.0000000000000000     
   7.4266987256261588E-002  0.24802867857839511        0.0000000000000000     
   7.4556525991677725E-002  0.25670667429130362        0.0000000000000000     
   7.4766589998676192E-002  0.26548869443532602        0.0000000000000000     
   6.6077451583326868E-002  0.23085902521094145        0.0000000000000000     
   6.6452537413872165E-002  0.23934183467229062        0.0000000000000000     
   6.6761279957260306E-002  0.24791396489526585        0.0000000000000000     
   6.7003679213491263E-002  0.25657541587986726        0.0000000000000000     
   6.7179735182565092E-002  0.26532618762609467        0.0000000000000000     
   5.8893444208939008E-002  0.23074971481926090        0.0000000000000000     
   5.9208176708446129E-002  0.23923844162380159        0.0000000000000000     
   5.9468320532169452E-002  0.24780004650541909        0.0000000000000000     
   5.9673875680108950E-002  0.25643452946411344        0.0000000000000000     
   5.9824842152264641E-002  0.26514189049988457        0.0000000000000000     
   5.1897463477012587E-002  0.23065682927087849        0.0000000000000000     
   5.2164891676149655E-002  0.23914452815113349        0.0000000000000000     
   5.2388108980989070E-002  0.24768692340885470        0.0000000000000000     
   5.2567115391530798E-002  0.25628401504404208        0.0000000000000000     
   5.2701910907774846E-002  0.26493580305669573        0.0000000000000000     
   8.2585406600597960E-002  0.26562941092757880        0.0000000000000000     
   8.2783113994780860E-002  0.27457360993930058        0.0000000000000000     
   8.2964238005035856E-002  0.28368700543061293        0.0000000000000000     
   8.3128778631362893E-002  0.29296959740151585        0.0000000000000000     
   8.3276735873762026E-002  0.30242138585200939        0.0000000000000000     
   7.4766589998676192E-002  0.26548869443532602        0.0000000000000000     
   7.4937666664757416E-002  0.27436829750351127        0.0000000000000000     
   7.5110243377421851E-002  0.28333904198890786        0.0000000000000000     
   7.5284320136669497E-002  0.29240092789151589        0.0000000000000000     
   7.5459896942500368E-002  0.30155395521133538        0.0000000000000000     
   6.7179735182565092E-002  0.26532618762609467        0.0000000000000000     
   6.7329202162081311E-002  0.27413647735857738        0.0000000000000000     
   6.7491834449639437E-002  0.28297648230194455        0.0000000000000000     
   6.7667632045239512E-002  0.29184620245619630        0.0000000000000000     
   6.7856594948881507E-002  0.30074563782133246        0.0000000000000000     
   5.9824842152264641E-002  0.26514189049988457        0.0000000000000000     
   5.9957720486752533E-002  0.27387814950449901        0.0000000000000000     
   6.0109011221688644E-002  0.28259932636972313        0.0000000000000000     
   6.0278714357072945E-002  0.29130542109555690        0.0000000000000000     
   6.0466829892905471E-002  0.29999643368200041        0.0000000000000000     
   5.2701910907774846E-002  0.26493580305669573        0.0000000000000000     
   5.2823221638771109E-002  0.27359331394127606        0.0000000000000000     
   5.2961773693569428E-002  0.28220757419224346        0.0000000000000000     
   5.3117567072169802E-002  0.29077858380959787        0.0000000000000000     
   5.3290601774572247E-002  0.29930634279333951        0.0000000000000000     
   2.8605642662974381E-002   5.7108122057678984E-002   0.0000000000000000     
   3.0532718756473981E-002   6.2690940025460357E-002   0.0000000000000000     
   3.2255523296546081E-002   6.8457796692540054E-002   0.0000000000000000     
   3.3774056283190662E-002   7.4408692058918036E-002   0.0000000000000000     
   3.5088317716407746E-002   8.0543626124594342E-002   0.0000000000000000     
   2.5154611707967282E-002   5.6741148306646207E-002   0.0000000000000000     
   2.6435233976803692E-002   6.2267141015081434E-002   0.0000000000000000     
   2.7704282474197303E-002   6.8006041427585873E-002   0.0000000000000000     
   2.8961757200148118E-002   7.3957849544159557E-002   0.0000000000000000     
   3.0207658154656137E-002   8.0122565364802417E-002   0.0000000000000000     
   2.1610437949741015E-002   5.6353962865992445E-002   0.0000000000000000     
   2.2472967358561319E-002   6.1880521686414863E-002   0.0000000000000000     
   2.3421443722097524E-002   6.7626340322036849E-002   0.0000000000000000     
   2.4455867040349626E-002   7.3591418772858450E-002   0.0000000000000000     
   2.5576237313317630E-002   7.9775757038879583E-002   0.0000000000000000     
   1.7973121388295578E-002   5.5946565735717720E-002   0.0000000000000000     
   1.8645918901746866E-002   6.1531082039460637E-002   0.0000000000000000     
   1.9407007040246733E-002   6.7318693375892968E-002   0.0000000000000000     
   2.0256385803795188E-002   7.3309399745014714E-002   0.0000000000000000     
   2.1194055192392220E-002   7.9503201146825880E-002   0.0000000000000000     
   1.4242662023630965E-002   5.5518956915822017E-002   0.0000000000000000     
   1.4954088606360327E-002   6.1218822074218762E-002   0.0000000000000000     
   1.5660972428644938E-002   6.7083100589154218E-002   0.0000000000000000     
   1.6363313490484796E-002   7.3111792460628391E-002   0.0000000000000000     
   1.7061111791879909E-002   7.9304897688641282E-002   0.0000000000000000     
   3.5088317716407746E-002   8.0543626124594342E-002   0.0000000000000000     
   3.6297576114390044E-002   8.6842277641480600E-002   0.0000000000000000     
   3.7501099995330286E-002   9.3284325361488521E-002   0.0000000000000000     
   3.8698889359228487E-002   9.9869769284618021E-002   0.0000000000000000     
   3.9890944206084633E-002  0.10659860941086917        0.0000000000000000     
   3.0207658154656137E-002   8.0122565364802417E-002   0.0000000000000000     
   3.1419185400421948E-002   8.6460972622486837E-002   0.0000000000000000     
   3.2573539000146146E-002   9.2933855050185130E-002   0.0000000000000000     
   3.3670718953828727E-002   9.9541212647897281E-002   0.0000000000000000     
   3.4710725261469684E-002  0.10628304541562333        0.0000000000000000     
   2.5576237313317630E-002   7.9775757038879583E-002   0.0000000000000000     
   2.6700069135311293E-002   8.6135707493386560E-002   0.0000000000000000     
   2.7744877100640379E-002   9.2627622509665525E-002   0.0000000000000000     
   2.8710661209304884E-002   9.9251502087716534E-002   0.0000000000000000     
   2.9597421461304813E-002  0.10600734622753955        0.0000000000000000     
   2.1194055192392220E-002   7.9503201146825880E-002   0.0000000000000000     
   2.2140227319058074E-002   8.5866482254179782E-002   0.0000000000000000     
   2.3015114296812994E-002   9.2365627739929734E-002   0.0000000000000000     
   2.3818716125656968E-002   9.9000637604075764E-002   0.0000000000000000     
   2.4551032805590001E-002  0.10577151184661780        0.0000000000000000     
   1.7061111791879909E-002   7.9304897688641282E-002   0.0000000000000000     
   1.7739659951662295E-002   8.5653296904866519E-002   0.0000000000000000     
   1.8384250588663983E-002   9.2147870740977744E-002   0.0000000000000000     
   1.8994883702884970E-002   9.8788619196974917E-002   0.0000000000000000     
   1.9571559294325268E-002  0.10557554227285811        0.0000000000000000     
   3.9890944206084633E-002  0.10659860941086917        0.0000000000000000     
   4.1054874504381070E-002  0.11347356656271562        0.0000000000000000     
   4.2168290222600185E-002  0.12049736156263108        0.0000000000000000     
   4.3231191360741945E-002  0.12766999441061552        0.0000000000000000     
   4.4243577918806370E-002  0.13499146510666898        0.0000000000000000     
   3.4710725261469684E-002  0.10628304541562333        0.0000000000000000     
   3.5701717467035987E-002  0.11316728528044726        0.0000000000000000     
   3.6651855114494598E-002  0.12020186416945298        0.0000000000000000     
   3.7561138203845497E-002  0.12738678208264057        0.0000000000000000     
   3.8429566735088697E-002  0.13472203902000998        0.0000000000000000     
   2.9597421461304813E-002  0.10600734622753955        0.0000000000000000     
   3.0428038747552896E-002  0.11290426004440787        0.0000000000000000     
   3.1225393958961879E-002  0.11995134865359472        0.0000000000000000     
   3.1989487095531753E-002  0.12714861205510011        0.0000000000000000     
   3.2720318157262528E-002  0.13449605024892411        0.0000000000000000     
   2.4551032805590001E-002  0.10577151184661780        0.0000000000000000     
   2.5233838345931802E-002  0.11268449085459749        0.0000000000000000     
   2.5888906756002038E-002  0.11974581501505628        0.0000000000000000     
   2.6516238035800728E-002  0.12695548432799422        0.0000000000000000     
   2.7115832185327857E-002  0.13431349879341128        0.0000000000000000     
   1.9571559294325268E-002  0.10557554227285811        0.0000000000000000     
   2.0119116262172693E-002  0.11250797771101609        0.0000000000000000     
   2.0642393505615073E-002  0.11958526325383767        0.0000000000000000     
   2.1141391024652401E-002  0.12680739890132287        0.0000000000000000     
   2.1616108819284687E-002  0.13417438465347165        0.0000000000000000     
   4.4243577918806370E-002  0.13499146510666898        0.0000000000000000     
   4.5199971184146759E-002  0.14243981777183848        0.0000000000000000     
   4.6094892444116450E-002  0.14999309652717102        0.0000000000000000     
   4.6928341698715424E-002  0.15765130137266667        0.0000000000000000     
   4.7700318947943687E-002  0.16541443230832542        0.0000000000000000     
   3.8429566735088697E-002  0.13472203902000998        0.0000000000000000     
   3.9253738608607397E-002  0.14218580220984353        0.0000000000000000     
   4.0030251724784797E-002  0.14975623888042344        0.0000000000000000     
   4.0759106083620898E-002  0.15743334903174980        0.0000000000000000     
   4.1440301685115699E-002  0.16521713266382254        0.0000000000000000     
   3.2720318157262528E-002  0.13449605024892411        0.0000000000000000     
   3.3416102626591303E-002  0.14197254814572449        0.0000000000000000     
   3.4075055985955179E-002  0.14955699065615918        0.0000000000000000     
   3.4697178235354162E-002  0.15724937778022827        0.0000000000000000     
   3.5282469374788246E-002  0.16504970951793169        0.0000000000000000     
   2.7115832185327857E-002  0.13431349879341128        0.0000000000000000     
   2.7687063238098469E-002  0.14180005557948139        0.0000000000000000     
   2.8229305227627587E-002  0.14939535185437833        0.0000000000000000     
   2.8742558153915215E-002  0.15709938761810210        0.0000000000000000     
   2.9226822016961359E-002  0.16491216287065272        0.0000000000000000     
   2.1616108819284687E-002  0.13417438465347165        0.0000000000000000     
   2.2066620443128904E-002  0.14166832451111422        0.0000000000000000     
   2.2492999449802032E-002  0.14927132247508076        0.0000000000000000     
   2.2895245839304069E-002  0.15698337854537134        0.0000000000000000     
   2.3273359611635010E-002  0.16480449272198580        0.0000000000000000     
   4.7700318947943687E-002  0.16541443230832542        0.0000000000000000     
   4.8415642374400339E-002  0.17327465540453654        0.0000000000000000     
   4.9079130160684457E-002  0.18122413673168941        0.0000000000000000     
   4.9690782306796064E-002  0.18926287628978397        0.0000000000000000     
   5.0250598812735130E-002  0.19739087407882033        0.0000000000000000     
   4.1440301685115699E-002  0.16521713266382254        0.0000000000000000     
   4.2072071098491225E-002  0.17309826082876528        0.0000000000000000     
   4.2652646892969506E-002  0.18106740457870180        0.0000000000000000     
   4.3182029068550551E-002  0.18912456391363192        0.0000000000000000     
   4.3660217625234352E-002  0.19726973883355572        0.0000000000000000     
   3.5282469374788246E-002  0.16504970951793169        0.0000000000000000     
   3.5825724021494913E-002  0.17294769937559848        0.0000000000000000     
   3.6321736792711633E-002  0.18093306085955796        0.0000000000000000     
   3.6770507688438391E-002  0.18900579396981002        0.0000000000000000     
   3.7172036708675200E-002  0.19716589870635470        0.0000000000000000     
   2.9226822016961359E-002  0.16491216287065272        0.0000000000000000     
   2.9676601143411422E-002  0.17282297104503608        0.0000000000000000     
   3.0086399859910826E-002  0.18082110557425793        0.0000000000000000     
   3.0456218166459579E-002  0.18890656645831830        0.0000000000000000     
   3.0786056063057669E-002  0.19707935369721724        0.0000000000000000     
   2.3273359611635010E-002  0.16480449272198580        0.0000000000000000     
   2.3624702464240734E-002  0.17272407583707802        0.0000000000000000     
   2.3946636094567101E-002  0.18073153872280170        0.0000000000000000     
   2.4239160502614113E-002  0.18882688137915679        0.0000000000000000     
   2.4502275688381776E-002  0.19701010380614331        0.0000000000000000     
   5.0250598812735130E-002  0.19739087407882033        0.0000000000000000     
   5.0753951868642080E-002  0.20559946645670438        0.0000000000000000     
   5.1196213664657306E-002  0.21387998978134207        0.0000000000000000     
   5.1577384200780813E-002  0.22223244405273343        0.0000000000000000     
   5.1897463477012587E-002  0.23065682927087849        0.0000000000000000     
   4.3660217625234352E-002  0.19726973883355572        0.0000000000000000     
   4.4086904467306356E-002  0.20549327231256351        0.0000000000000000     
   4.4461781499052028E-002  0.21378550732474558        0.0000000000000000     
   4.4784848720471365E-002  0.22214644387010185        0.0000000000000000     
   4.5056106131564348E-002  0.23057608194863244        0.0000000000000000     
   3.7172036708675200E-002  0.19716589870635470        0.0000000000000000     
   3.7528213533540064E-002  0.20540232208918582        0.0000000000000000     
   3.7840927843150990E-002  0.21370401113829726        0.0000000000000000     
   3.8110179637507992E-002  0.22207096585368902        0.0000000000000000     
   3.8335968916611056E-002  0.23050318623536106        0.0000000000000000     
   3.0786056063057669E-002  0.19707935369721724        0.0000000000000000     
   3.1077879067343182E-002  0.20532661578657127        0.0000000000000000     
   3.1333652696954185E-002  0.21363550122199718        0.0000000000000000     
   3.1553376951890692E-002  0.22200601000349490        0.0000000000000000     
   3.1737051832152689E-002  0.23043814213106439        0.0000000000000000     
   2.4502275688381776E-002  0.19701010380614331        0.0000000000000000     
   2.4735901068715732E-002  0.20526615340471990        0.0000000000000000     
   2.4939956060461628E-002  0.21357997757584532        0.0000000000000000     
   2.5114440663619474E-002  0.22195157631951951        0.0000000000000000     
   2.5259354878189252E-002  0.23038094963574243        0.0000000000000000     
   5.1897463477012587E-002  0.23065682927087849        0.0000000000000000     
   5.2164891676149655E-002  0.23914452815113349        0.0000000000000000     
   5.2388108980989070E-002  0.24768692340885470        0.0000000000000000     
   5.2567115391530798E-002  0.25628401504404208        0.0000000000000000     
   5.2701910907774846E-002  0.26493580305669573        0.0000000000000000     
   4.5056106131564348E-002  0.23057608194863244        0.0000000000000000     
   4.5283852419536322E-002  0.23905864132038013        0.0000000000000000     
   4.5476386271592589E-002  0.24757834174538776        0.0000000000000000     
   4.5633707687733151E-002  0.25613518322365530        0.0000000000000000     
   4.5755816667957999E-002  0.26472916575518279        0.0000000000000000     
   3.8335968916611056E-002  0.23050318623536106        0.0000000000000000     
   3.8526229041159710E-002  0.23897932819763518        0.0000000000000000     
   3.8688893371853494E-002  0.24747804765483308        0.0000000000000000     
   3.8823961908692382E-002  0.25599934460695473        0.0000000000000000     
   3.8931434651676387E-002  0.26454321905400019        0.0000000000000000     
   3.1737051832152689E-002  0.23043814213106439        0.0000000000000000     
   3.1892021541019833E-002  0.23890658878289864        0.0000000000000000     
   3.2025630281771758E-002  0.24738604113719070        0.0000000000000000     
   3.2137878054408486E-002  0.25587649919394040        0.0000000000000000     
   3.2228764858930004E-002  0.26437796295314786        0.0000000000000000     
   2.5259354878189252E-002  0.23038094963574243        0.0000000000000000     
   2.5381229919116666E-002  0.23884042307617062        0.0000000000000000     
   2.5486597001347408E-002  0.24730232219246062        0.0000000000000000     
   2.5575456124881463E-002  0.25576664698461243        0.0000000000000000     
   2.5647807289718848E-002  0.26423339745262597        0.0000000000000000     
   5.2701910907774846E-002  0.26493580305669573        0.0000000000000000     
   5.2823221638771109E-002  0.27359331394127606        0.0000000000000000     
   5.2961773693569428E-002  0.28220757419224346        0.0000000000000000     
   5.3117567072169802E-002  0.29077858380959787        0.0000000000000000     
   5.3290601774572247E-002  0.29930634279333951        0.0000000000000000     
   4.5755816667957999E-002  0.26472916575518279        0.0000000000000000     
   4.5866999637446622E-002  0.27331063379622761        0.0000000000000000     
   4.5991543021378478E-002  0.28182993180304700        0.0000000000000000     
   4.6129446819753547E-002  0.29028705977564095        0.0000000000000000     
   4.6280711032571864E-002  0.29868201771400954        0.0000000000000000     
   3.8931434651676387E-002  0.26454321905400019        0.0000000000000000     
   3.9030348502088689E-002  0.27305877219667263        0.0000000000000000     
   3.9139740361212448E-002  0.28149510523567511        0.0000000000000000     
   3.9259610229047677E-002  0.28985221817100781        0.0000000000000000     
   3.9389958105594355E-002  0.29813011100267056        0.0000000000000000     
   3.2228764858930004E-002  0.26437796295314786        0.0000000000000000     
   3.2313268232697298E-002  0.27283772914261112        0.0000000000000000     
   3.2406365713071351E-002  0.28120309449012793        0.0000000000000000     
   3.2508057300052164E-002  0.28947405899569839        0.0000000000000000     
   3.2618342993639741E-002  0.29765062265932241        0.0000000000000000     
   2.5647807289718848E-002  0.26423339745262597        0.0000000000000000     
   2.5715758829272455E-002  0.27264750463404303        0.0000000000000000     
   2.5791419076955181E-002  0.28095389956640532        0.0000000000000000     
   2.5874788032767031E-002  0.28915258224971274        0.0000000000000000     
   2.5965865696708005E-002  0.29724355268396530        0.0000000000000000     
   1.4242662023630965E-002   5.5518956915822017E-002   0.0000000000000000     
   1.4954088606360327E-002   6.1218822074218762E-002   0.0000000000000000     
   1.5660972428644938E-002   6.7083100589154218E-002   0.0000000000000000     
   1.6363313490484796E-002   7.3111792460628391E-002   0.0000000000000000     
   1.7061111791879909E-002   7.9304897688641282E-002   0.0000000000000000     
   1.0475366497681422E-002   5.5206815815638889E-002   0.0000000000000000     
   1.1258175746057260E-002   6.1004306132816204E-002   0.0000000000000000     
   1.1931918012949006E-002   6.6930603092661675E-002   0.0000000000000000     
   1.2496593298356654E-002   7.2985706695175290E-002   0.0000000000000000     
   1.2952201602280214E-002   7.9169616940357054E-002   0.0000000000000000     
   6.7275414523811881E-003   5.5145821844501883E-002   0.0000000000000000     
   7.4188795944932192E-003   6.0948098557379961E-002   0.0000000000000000     
   7.9684219188158063E-003   6.6872242017256431E-002   0.0000000000000000     
   8.3761684253489503E-003   7.2918252224131244E-002   0.0000000000000000     
   8.6421191140926522E-003   7.9086129178004450E-002   0.0000000000000000     
   2.9991868877302643E-003   5.5335975002410991E-002   0.0000000000000000     
   3.4362001516682018E-003   6.1050199347910034E-002   0.0000000000000000     
   3.7704841462453415E-003   6.6908017362938443E-002   0.0000000000000000     
   4.0020388714616818E-003   7.2909429047496269E-002   0.0000000000000000     
   4.1308643273172234E-003   7.9054434401583454E-002   0.0000000000000000     
  -7.0969719627135119E-004   5.5777275289366240E-002   0.0000000000000000     
  -6.8986258241778941E-004   6.1310608504406394E-002   0.0000000000000000     
  -6.6189530476238830E-004   6.7037929129707755E-002   0.0000000000000000     
  -6.2579536330514937E-004   7.2959237165270335E-002   0.0000000000000000     
  -5.8156275804607154E-004   7.9074532611094109E-002   0.0000000000000000     
   1.7061111791879909E-002   7.9304897688641282E-002   0.0000000000000000     
   1.7739659951662295E-002   8.5653296904866519E-002   0.0000000000000000     
   1.8384250588663983E-002   9.2147870740977744E-002   0.0000000000000000     
   1.8994883702884970E-002   9.8788619196974917E-002   0.0000000000000000     
   1.9571559294325268E-002  0.10557554227285811        0.0000000000000000     
   1.2952201602280214E-002   7.9169616940357054E-002   0.0000000000000000     
   1.3356889108254805E-002   8.5496833268623104E-002   0.0000000000000000     
   1.3768801999815556E-002   9.1981855120389630E-002   0.0000000000000000     
   1.4187940276962465E-002   9.8624682495656618E-002   0.0000000000000000     
   1.4614303939695537E-002  0.10542531539442407        0.0000000000000000     
   8.6421191140926522E-003   7.9086129178004450E-002   0.0000000000000000     
   8.8504368639664554E-003   8.5397773168625901E-002   0.0000000000000000     
   9.0852845538899069E-003   9.1875084485745537E-002   0.0000000000000000     
   9.3466621838630033E-003   9.8518063129363370E-002   0.0000000000000000     
   9.6345697538857480E-003  0.10532670909947936        0.0000000000000000     
   4.1308643273172234E-003   7.9054434401583454E-002   0.0000000000000000     
   4.2203032187972476E-003   8.5356116604874910E-002   0.0000000000000000     
   4.3336982508870346E-003   9.1827558837045464E-002   0.0000000000000000     
   4.4710494235865863E-003   9.8468761098095131E-002   0.0000000000000000     
   4.6323567368959017E-003  0.10527972338802392        0.0000000000000000     
  -5.8156275804607154E-004   7.9074532611094109E-002   0.0000000000000000     
  -5.3351182725281938E-004   8.5371863577370116E-002   0.0000000000000000     
  -4.8595690919305771E-004   9.1839278174289427E-002   0.0000000000000000     
  -4.3889800386678521E-004   9.8476776401851970E-002   0.0000000000000000     
  -3.9233511127400450E-004  0.10528435826005779        0.0000000000000000     
   1.9571559294325268E-002  0.10557554227285811        0.0000000000000000     
   2.0119116262172693E-002  0.11250797771101609        0.0000000000000000     
   2.0642393505615073E-002  0.11958526325383767        0.0000000000000000     
   2.1141391024652401E-002  0.12680739890132287        0.0000000000000000     
   2.1616108819284687E-002  0.13417438465347165        0.0000000000000000     
   1.4614303939695537E-002  0.10542531539442407        0.0000000000000000     
   1.5033729011720022E-002  0.11237542840420574        0.0000000000000000     
   1.5432051516741175E-002  0.11946669611251536        0.0000000000000000     
   1.5809271454758991E-002  0.12669911851935292        0.0000000000000000     
   1.6165388825773477E-002  0.13407269562471841        0.0000000000000000     
   9.6345697538857480E-003  0.10532670909947936        0.0000000000000000     
   9.9275331100182329E-003  0.11228755072470852        0.0000000000000000     
   1.0204078098320550E-002  0.11938711633366579        0.0000000000000000     
   1.0464204718792698E-002  0.12662540592635127        0.0000000000000000     
   1.0707912971434679E-002  0.13400241950276490        0.0000000000000000     
   4.6323567368959017E-003  0.10527972338802392        0.0000000000000000     
   4.8005285570673229E-003  0.11224434467252438        0.0000000000000000     
   4.9584732503531962E-003  0.11934652391728906        0.0000000000000000     
   5.1061908167535208E-003  0.12658626112231797        0.0000000000000000     
   5.2436812562682957E-003  0.13396355628761111        0.0000000000000000     
  -3.9233511127400450E-004  0.10528435826005779        0.0000000000000000     
  -3.4728464713270637E-004  0.11224581024765334        0.0000000000000000     
  -3.0476302716088454E-004  0.11934491886338505        0.0000000000000000     
  -2.6477025135854010E-004  0.12658168410725298        0.0000000000000000     
  -2.2730631972567349E-004  0.13395610597925706        0.0000000000000000     
   2.1616108819284687E-002  0.13417438465347165        0.0000000000000000     
   2.2066620443128904E-002  0.14166832451111422        0.0000000000000000     
   2.2492999449802032E-002  0.14927132247508076        0.0000000000000000     
   2.2895245839304069E-002  0.15698337854537134        0.0000000000000000     
   2.3273359611635010E-002  0.16480449272198580        0.0000000000000000     
   1.6165388825773477E-002  0.13407269562471841        0.0000000000000000     
   1.6500715229615735E-002  0.14157146825217923        0.0000000000000000     
   1.6815562266116878E-002  0.14917947722530278        0.0000000000000000     
   1.7109929935276900E-002  0.15689672254408904        0.0000000000000000     
   1.7383818237095804E-002  0.16472320420853800        0.0000000000000000     
   1.0707912971434679E-002  0.13400241950276490        0.0000000000000000     
   1.0935288585492080E-002  0.14150360011423266        0.0000000000000000     
   1.1146417290210486E-002  0.14911439081208044        0.0000000000000000     
   1.1341299085589904E-002  0.15683479159630839        0.0000000000000000     
   1.1519933971630328E-002  0.16466480246691645        0.0000000000000000     
   5.2436812562682957E-003  0.13396355628761111        0.0000000000000000     
   5.3703405107579398E-003  0.14146472009727443        0.0000000000000000     
   5.4855645220828683E-003  0.14907606323541384        0.0000000000000000     
   5.5893532902430839E-003  0.15679758570202937        0.0000000000000000     
   5.6817068152385866E-003  0.16462928749712105        0.0000000000000000     
  -2.2730631972567349E-004  0.13395610597925706        0.0000000000000000     
  -1.9412899458668581E-004  0.14145482820130464        0.0000000000000000     
  -1.6699603826598379E-004  0.14906449449530296        0.0000000000000000     
  -1.4590745076356162E-004  0.15678510486125205        0.0000000000000000     
  -1.3086323207942398E-004  0.16461665929915192        0.0000000000000000     
   2.3273359611635010E-002  0.16480449272198580        0.0000000000000000     
   2.3624702464240734E-002  0.17272407583707802        0.0000000000000000     
   2.3946636094567101E-002  0.18073153872280170        0.0000000000000000     
   2.4239160502614113E-002  0.18882688137915679        0.0000000000000000     
   2.4502275688381776E-002  0.19701010380614331        0.0000000000000000     
   1.7383818237095804E-002  0.16472320420853800        0.0000000000000000     
   1.7638190210939163E-002  0.17264862729043853        0.0000000000000000     
   1.7874008896172553E-002  0.18066269686157951        0.0000000000000000     
   1.8091274292795965E-002  0.18876541292196083        0.0000000000000000     
   1.8289986400809408E-002  0.19695677547158261        0.0000000000000000     
   1.1519933971630328E-002  0.16466480246691645        0.0000000000000000     
   1.1685226610463034E-002  0.17259423894383177        0.0000000000000000     
   1.1840081664219293E-002  0.18061291654698161        0.0000000000000000     
   1.1984499132899111E-002  0.18872083527636599        0.0000000000000000     
   1.2118479016502478E-002  0.19691799513198485        0.0000000000000000     
   5.6817068152385866E-003  0.16462928749712105        0.0000000000000000     
   5.7658116628123458E-003  0.17256091079725763        0.0000000000000000     
   5.8448543987073293E-003  0.18058219777900800        0.0000000000000000     
   5.9188350229235414E-003  0.18869314844237214        0.0000000000000000     
   5.9877535354609813E-003  0.19689376278734996        0.0000000000000000     
  -1.3086323207942398E-004  0.16461665929915192        0.0000000000000000     
  -1.2005463201290455E-004  0.17254864285071625        0.0000000000000000     
  -1.1167290036334242E-004  0.18057054055765867        0.0000000000000000     
  -1.0571803713073526E-004  0.18868235241997930        0.0000000000000000     
  -1.0219004231508269E-004  0.19688407843767802        0.0000000000000000     
   2.4502275688381776E-002  0.19701010380614331        0.0000000000000000     
   2.4735901068715732E-002  0.20526615340471990        0.0000000000000000     
   2.4939956060461628E-002  0.21357997757584532        0.0000000000000000     
   2.5114440663619474E-002  0.22195157631951951        0.0000000000000000     
   2.5259354878189252E-002  0.23038094963574243        0.0000000000000000     
   1.8289986400809408E-002  0.19695677547158261        0.0000000000000000     
   1.8467807360871166E-002  0.20521962691583878        0.0000000000000000     
   1.8622399313639522E-002  0.21353680966012317        0.0000000000000000     
   1.8753762259114473E-002  0.22190832370443594        0.0000000000000000     
   1.8861896197296016E-002  0.23033416904877699        0.0000000000000000     
   1.2118479016502478E-002  0.19691799513198485        0.0000000000000000     
   1.2239125767022949E-002  0.20518572829213474        0.0000000000000000     
   1.2343543836454066E-002  0.21350536693511230        0.0000000000000000     
   1.2431733224795833E-002  0.22187691106091734        0.0000000000000000     
   1.2503693932048244E-002  0.23030036066955001        0.0000000000000000     
   5.9877535354609813E-003  0.19689376278734996        0.0000000000000000     
   6.0498562871710796E-003  0.20516445753360804        0.0000000000000000     
   6.1033896289052732E-003  0.21348564940081260        0.0000000000000000     
   6.1483535606635595E-003  0.22185733838896377        0.0000000000000000     
   6.1847480824459393E-003  0.23027952449806141        0.0000000000000000     
  -1.0219004231508269E-004  0.19688407843767802        0.0000000000000000     
  -1.0000107868444086E-004  0.20515581464025845        0.0000000000000000     
  -9.8063309006863188E-005  0.21347765705722413        0.0000000000000000     
  -9.6376733282350625E-005  0.22184960568857506        0.0000000000000000     
  -9.4941351510901412E-005  0.23027166053431125        0.0000000000000000     
   2.5259354878189252E-002  0.23038094963574243        0.0000000000000000     
   2.5381229919116666E-002  0.23884042307617062        0.0000000000000000     
   2.5486597001347408E-002  0.24730232219246062        0.0000000000000000     
   2.5575456124881463E-002  0.25576664698461243        0.0000000000000000     
   2.5647807289718848E-002  0.26423339745262597        0.0000000000000000     
   1.8861896197296016E-002  0.23033416904877699        0.0000000000000000     
   1.8952229375373362E-002  0.23878528511164718        0.0000000000000000     
   1.9030190040535706E-002  0.24723261131154722        0.0000000000000000     
   1.9095778192783047E-002  0.25567614764847713        0.0000000000000000     
   1.9148993832115394E-002  0.26411589412243691        0.0000000000000000     
   1.2503693932048244E-002  0.23030036066955001        0.0000000000000000     
   1.2563395109713042E-002  0.23874562892352441        0.0000000000000000     
   1.2614805909291949E-002  0.24718262898535473        0.0000000000000000     
   1.2657926330784976E-002  0.25561136085504099        0.0000000000000000     
   1.2692756374192114E-002  0.26403182453258311        0.0000000000000000     
   6.1847480824459393E-003  0.23027952449806141        0.0000000000000000     
   6.2147271221357015E-003  0.23872145451180238        0.0000000000000000     
   6.2404446076161331E-003  0.24715237521388317        0.0000000000000000     
   6.2619005388872360E-003  0.25557228660430387        0.0000000000000000     
   6.2790949159490083E-003  0.26398118868306458        0.0000000000000000     
  -9.4941351510901412E-005  0.23027166053431125        0.0000000000000000     
  -9.3774587358653278E-005  0.23871276187648099        0.0000000000000000     
  -9.2893864491741572E-005  0.24714184999713257        0.0000000000000000     
  -9.2299182910164396E-005  0.25555892489626603        0.0000000000000000     
  -9.1990542613923105E-005  0.26396398657388132        0.0000000000000000     
   2.5647807289718848E-002  0.26423339745262597        0.0000000000000000     
   2.5715758829272455E-002  0.27264750463404303        0.0000000000000000     
   2.5791419076955181E-002  0.28095389956640532        0.0000000000000000     
   2.5874788032767031E-002  0.28915258224971274        0.0000000000000000     
   2.5965865696708005E-002  0.29724355268396530        0.0000000000000000     
   1.9148993832115394E-002  0.26411589412243691        0.0000000000000000     
   1.9199492624477808E-002  0.27249447353085432        0.0000000000000000     
   1.9256930235815366E-002  0.28075450867115720        0.0000000000000000     
   1.9321306666128062E-002  0.28889599954334566        0.0000000000000000     
   1.9392621915415905E-002  0.29691894614741943        0.0000000000000000     
   1.2692756374192114E-002  0.26403182453258311        0.0000000000000000     
   1.2726141950977019E-002  0.27238501069293081        0.0000000000000000     
   1.2764928972603331E-002  0.28061191001103375        0.0000000000000000     
   1.2809117439071059E-002  0.28871252248689183        0.0000000000000000     
   1.2858707350380194E-002  0.29668684812050516        0.0000000000000000     
   6.2790949159490083E-003  0.26398118868306458        0.0000000000000000     
   6.2957068087700794E-003  0.27231911612027238        0.0000000000000000     
   6.3154152873190813E-003  0.28052610358603458        0.0000000000000000     
   6.3382203515960113E-003  0.28860215108035142        0.0000000000000000     
   6.3641220016008712E-003  0.29654725860322245        0.0000000000000000     
  -9.1990542613923105E-005  0.26396398657388132        0.0000000000000000     
  -9.1812802143002772E-005  0.27229678981287914        0.0000000000000000     
  -9.1610820037386085E-005  0.28049708939616008        0.0000000000000000     
  -9.1384596297071580E-005  0.28856488532372421        0.0000000000000000     
  -9.1134130922062781E-005  0.29650017759557146        0.0000000000000000     
  -7.0969719627135119E-004   5.5777275289366240E-002   0.0000000000000000     
  -6.8986258241778941E-004   6.1310608504406394E-002   0.0000000000000000     
  -6.6189530476238830E-004   6.7037929129707755E-002   0.0000000000000000     
  -6.2579536330514937E-004   7.2959237165270335E-002   0.0000000000000000     
  -5.8156275804607154E-004   7.9074532611094109E-002   0.0000000000000000     
  -4.3161141776828504E-003   5.6205736135385882E-002   0.0000000000000000     
  -4.7208639595114664E-003   6.1569483865471723E-002   0.0000000000000000     
  -5.0060808621671159E-003   6.7176603727853001E-002   0.0000000000000000     
  -5.1717648856497945E-003   7.3027095722529689E-002   0.0000000000000000     
  -5.2179160299595092E-003   7.9120959849501821E-002   0.0000000000000000     
  -7.7370674345634263E-003   5.6357370970488208E-002   0.0000000000000000     
  -8.4183593313595442E-003   6.1666983269708694E-002   0.0000000000000000     
  -8.9394369539285718E-003   6.7238667567662835E-002   0.0000000000000000     
  -9.3003003022705116E-003   7.3072423864350616E-002   0.0000000000000000     
  -9.5009493763853620E-003   7.9168252159772093E-002   0.0000000000000000     
  -1.0972556966913079E-002   5.6232179794673230E-002   0.0000000000000000     
  -1.1782348697962016E-002   6.1603106717117287E-002   0.0000000000000000     
  -1.2461963580046757E-002   6.7224120649137228E-002   0.0000000000000000     
  -1.3011401613167297E-002   7.3095221590733103E-002   0.0000000000000000     
  -1.3430662797323632E-002   7.9216409541904884E-002   0.0000000000000000     
  -1.4022582774731805E-002   5.5830162607940929E-002   0.0000000000000000     
  -1.4812832059318890E-002   6.1377854207697508E-002   0.0000000000000000     
  -1.5573660740521671E-002   6.7132962972276250E-002   0.0000000000000000     
  -1.6305068818340148E-002   7.3095488901677136E-002   0.0000000000000000     
  -1.7007056292774318E-002   7.9265431995900193E-002   0.0000000000000000     
  -5.8156275804607154E-004   7.9074532611094109E-002   0.0000000000000000     
  -5.3351182725281938E-004   8.5371863577370116E-002   0.0000000000000000     
  -4.8595690919305771E-004   9.1839278174289427E-002   0.0000000000000000     
  -4.3889800386678521E-004   9.8476776401851970E-002   0.0000000000000000     
  -3.9233511127400450E-004  0.10528435826005779        0.0000000000000000     
  -5.2179160299595092E-003   7.9120959849501821E-002   0.0000000000000000     
  -5.2170811902426525E-003   8.5420300537729407E-002   0.0000000000000000     
  -5.2418072616456299E-003   9.1887222216172446E-002   0.0000000000000000     
  -5.2920942441684422E-003   9.8521724884830936E-002   0.0000000000000000     
  -5.3679421378110869E-003  0.10532380854370491        0.0000000000000000     
  -9.5009493763853620E-003   7.9168252159772093E-002   0.0000000000000000     
  -9.6364777862311627E-003   8.5476713937570614E-002   0.0000000000000000     
  -9.8019791417659416E-003   9.1948370681389668E-002   0.0000000000000000     
  -9.9974534429897108E-003   9.8583222391229200E-002   0.0000000000000000     
  -1.0222900689902465E-002  0.10538126906708922        0.0000000000000000     
  -1.3430662797323632E-002   7.9216409541904884E-002   0.0000000000000000     
  -1.3791701615218340E-002   8.5541103776893765E-002   0.0000000000000000     
  -1.4166472549553994E-002   9.2022723569941053E-002   0.0000000000000000     
  -1.4554975600330594E-002   9.8661268921046680E-002   0.0000000000000000     
  -1.4957210767548140E-002  0.10545673983021074        0.0000000000000000     
  -1.7007056292774318E-002   7.9265431995900193E-002   0.0000000000000000     
  -1.7682752677204198E-002   8.5613470055698845E-002   0.0000000000000000     
  -1.8335287485009781E-002   9.2110280881826628E-002   0.0000000000000000     
  -1.8964660716191090E-002   9.8755864474283486E-002   0.0000000000000000     
  -1.9570872370748105E-002  0.10555022083306945        0.0000000000000000     
  -3.9233511127400450E-004  0.10528435826005779        0.0000000000000000     
  -3.4728464713270637E-004  0.11224581024765334        0.0000000000000000     
  -3.0476302716088454E-004  0.11934491886338505        0.0000000000000000     
  -2.6477025135854010E-004  0.12658168410725298        0.0000000000000000     
  -2.2730631972567349E-004  0.13395610597925706        0.0000000000000000     
  -5.3679421378110869E-003  0.10532380854370491        0.0000000000000000     
  -5.4537294750909033E-003  0.11227884562966953        0.0000000000000000     
  -5.5338347885252326E-003  0.11937220857960004        0.0000000000000000     
  -5.6082580781140756E-003  0.12660389739349642        0.0000000000000000     
  -5.6769993438574298E-003  0.13397391207135864        0.0000000000000000     
  -1.0222900689902465E-002  0.10538126906708922        0.0000000000000000     
  -1.0456628899316317E-002  0.11233034899814709        0.0000000000000000     
  -1.0676946088043392E-002  0.11941830047358017        0.0000000000000000     
  -1.0883852256083676E-002  0.12664512349338836        0.0000000000000000     
  -1.1077347403437183E-002  0.13401081805757178        0.0000000000000000     
  -1.4957210767548140E-002  0.10545673983021074        0.0000000000000000     
  -1.5355982919808948E-002  0.11240032035308603        0.0000000000000000     
  -1.5734096925715348E-002  0.11948319454532540        0.0000000000000000     
  -1.6091552785267343E-002  0.12670536240692887        0.0000000000000000     
  -1.6428350498464920E-002  0.13406682393789646        0.0000000000000000     
  -1.9570872370748105E-002  0.10555022083306945        0.0000000000000000     
  -2.0151791536568799E-002  0.11248875969448630        0.0000000000000000     
  -2.0705287301541118E-002  0.11956689079483578        0.0000000000000000     
  -2.1231359665665066E-002  0.12678461413411790        0.0000000000000000     
  -2.1730008628940652E-002  0.13414192971233269        0.0000000000000000     
  -2.2730631972567349E-004  0.13395610597925706        0.0000000000000000     
  -1.9412899458668581E-004  0.14145482820130464        0.0000000000000000     
  -1.6699603826598379E-004  0.14906449449530296        0.0000000000000000     
  -1.4590745076356162E-004  0.15678510486125205        0.0000000000000000     
  -1.3086323207942398E-004  0.16461665929915192        0.0000000000000000     
  -5.6769993438574298E-003  0.13397391207135864        0.0000000000000000     
  -5.7427113663003730E-003  0.14146903150042928        0.0000000000000000     
  -5.8080469259879719E-003  0.14907603456795082        0.0000000000000000     
  -5.8730060229202309E-003  0.15679492127392325        0.0000000000000000     
  -5.9375886570971490E-003  0.16462569161834659        0.0000000000000000     
  -1.1077347403437183E-002  0.13401081805757178        0.0000000000000000     
  -1.1259998040141697E-002  0.14150243706875448        0.0000000000000000     
  -1.1434370676235010E-002  0.14910703342956053        0.0000000000000000     
  -1.1600465311717123E-002  0.15682460713998991        0.0000000000000000     
  -1.1758281946588039E-002  0.16465515820004267        0.0000000000000000     
  -1.6428350498464920E-002  0.13406682393789646        0.0000000000000000     
  -1.6745989016110650E-002  0.14155504490628018        0.0000000000000000     
  -1.7045967289007088E-002  0.14915749108013210        0.0000000000000000     
  -1.7328285317154232E-002  0.15687416245945207        0.0000000000000000     
  -1.7592943100552087E-002  0.16470505904424024        0.0000000000000000     
  -2.1730008628940652E-002  0.13414192971233269        0.0000000000000000     
  -2.2200684294207244E-002  0.14162685501300643        0.0000000000000000     
  -2.2642836764304213E-002  0.14922740751966543        0.0000000000000000     
  -2.3056466039231567E-002  0.15694358723230967        0.0000000000000000     
  -2.3441572118989302E-002  0.16477539415093920        0.0000000000000000     
  -1.3086323207942398E-004  0.16461665929915192        0.0000000000000000     
  -1.2005463201290455E-004  0.17254864285071625        0.0000000000000000     
  -1.1167290036334242E-004  0.18057054055765867        0.0000000000000000     
  -1.0571803713073526E-004  0.18868235241997930        0.0000000000000000     
  -1.0219004231508269E-004  0.19688407843767802        0.0000000000000000     
  -5.9375886570971490E-003  0.16462569161834659        0.0000000000000000     
  -6.0016998072211693E-003  0.17255723494441411        0.0000000000000000     
  -6.0652444519947359E-003  0.18057844059531897        0.0000000000000000     
  -6.1282225914178453E-003  0.18868930857106131        0.0000000000000000     
  -6.1906342254905026E-003  0.19688983887164102        0.0000000000000000     
  -1.1758281946588039E-002  0.16465515820004267        0.0000000000000000     
  -1.1908451396020902E-002  0.17258648691855780        0.0000000000000000     
  -1.2051604475188863E-002  0.18060639360437422        0.0000000000000000     
  -1.2187741184091919E-002  0.18871487825749197        0.0000000000000000     
  -1.2316861522730069E-002  0.19691194087791103        0.0000000000000000     
  -1.7592943100552087E-002  0.16470505904424024        0.0000000000000000     
  -1.7840309398412107E-002  0.17263639877314740        0.0000000000000000     
  -1.8070752969945720E-002  0.18065439958482443        0.0000000000000000     
  -1.8284273815152952E-002  0.18875906147927130        0.0000000000000000     
  -1.8480871934033780E-002  0.19695038445648805        0.0000000000000000     
  -2.3441572118989302E-002  0.16477539415093920        0.0000000000000000     
  -2.3797273814394768E-002  0.17270697050818284        0.0000000000000000     
  -2.4122689936265311E-002  0.18072245853666954        0.0000000000000000     
  -2.4417820484600939E-002  0.18882185823639930        0.0000000000000000     
  -2.4682665459401641E-002  0.19700516960737208        0.0000000000000000     
  -1.0219004231508269E-004  0.19688407843767802        0.0000000000000000     
  -1.0000107868444086E-004  0.20515581464025845        0.0000000000000000     
  -9.8063309006863188E-005  0.21347765705722413        0.0000000000000000     
  -9.6376733282350625E-005  0.22184960568857506        0.0000000000000000     
  -9.4941351510901412E-005  0.23027166053431125        0.0000000000000000     
  -6.1906342254905026E-003  0.19688983887164102        0.0000000000000000     
  -6.2486995378564867E-003  0.20516056420529369        0.0000000000000000     
  -6.2986387121595783E-003  0.21348201728025484        0.0000000000000000     
  -6.3404517483997818E-003  0.22185419809652451        0.0000000000000000     
  -6.3741386465770902E-003  0.23027710665410261        0.0000000000000000     
  -1.2316861522730069E-002  0.19691194087791103        0.0000000000000000     
  -1.2434492297657930E-002  0.20517947082192128        0.0000000000000000     
  -1.2536160315430112E-002  0.21349935744581264        0.0000000000000000     
  -1.2621865576046614E-002  0.22187160074958509        0.0000000000000000     
  -1.2691608079507437E-002  0.23029620073323859        0.0000000000000000     
  -1.8480871934033780E-002  0.19695038445648805        0.0000000000000000     
  -1.8657379358088769E-002  0.20521253449014126        0.0000000000000000     
  -1.8810628118818458E-002  0.21352967755389751        0.0000000000000000     
  -1.8940618216222851E-002  0.22190181364775685        0.0000000000000000     
  -1.9047349650301946E-002  0.23032894277171923        0.0000000000000000     
  -2.4682665459401641E-002  0.19700516960737208        0.0000000000000000     
  -2.4917360719149007E-002  0.20525975520995357        0.0000000000000000     
  -2.5122042122324623E-002  0.21357297760450950        0.0000000000000000     
  -2.5296709668928493E-002  0.22194483679103980        0.0000000000000000     
  -2.5441363358960613E-002  0.23037533276954453        0.0000000000000000     
  -9.4941351510901412E-005  0.23027166053431125        0.0000000000000000     
  -9.3774587358653278E-005  0.23871276187648099        0.0000000000000000     
  -9.2893864491741572E-005  0.24714184999713257        0.0000000000000000     
  -9.2299182910164396E-005  0.25555892489626603        0.0000000000000000     
  -9.1990542613923105E-005  0.26396398657388132        0.0000000000000000     
  -6.3741386465770902E-003  0.23027710665410261        0.0000000000000000     
  -6.4019023148194180E-003  0.23871975845708288        0.0000000000000000     
  -6.4259456612546723E-003  0.24715116900955905        0.0000000000000000     
  -6.4462686858828520E-003  0.25557133831153112        0.0000000000000000     
  -6.4628713887039564E-003  0.26398026636299898        0.0000000000000000     
  -1.2691608079507437E-002  0.23029620073323859        0.0000000000000000     
  -1.2749448356295986E-002  0.23874265169313069        0.0000000000000000     
  -1.2799446936895654E-002  0.24718044792561880        0.0000000000000000     
  -1.2841603821306450E-002  0.25560958943070294        0.0000000000000000     
  -1.2875919009528364E-002  0.26403007620838315        0.0000000000000000     
  -1.9047349650301946E-002  0.23032894277171923        0.0000000000000000     
  -1.9136412711788356E-002  0.23878144158462436        0.0000000000000000     
  -1.9213397691414693E-002  0.24722968674531182        0.0000000000000000     
  -1.9278304589180957E-002  0.25567367825378168        0.0000000000000000     
  -1.9331133405087152E-002  0.26411341611003381        0.0000000000000000     
  -2.5441363358960613E-002  0.23037533276954453        0.0000000000000000     
  -2.5562795381296525E-002  0.23883612813156391        0.0000000000000000     
  -2.5667797924811775E-002  0.24729888546863807        0.0000000000000000     
  -2.5756370989506380E-002  0.25576360478076715        0.0000000000000000     
  -2.5828514575380313E-002  0.26423028606795096        0.0000000000000000     
  -9.1990542613923105E-005  0.26396398657388132        0.0000000000000000     
  -9.1812802143002772E-005  0.27229678981287914        0.0000000000000000     
  -9.1610820037386085E-005  0.28049708939616008        0.0000000000000000     
  -9.1384596297071580E-005  0.28856488532372421        0.0000000000000000     
  -9.1134130922062781E-005  0.29650017759557146        0.0000000000000000     
  -6.4628713887039564E-003  0.26398026636299898        0.0000000000000000     
  -6.4791381584916579E-003  0.27231808470085062        0.0000000000000000     
  -6.4984533840196168E-003  0.28052492486197400        0.0000000000000000     
  -6.5208170652878393E-003  0.28860078684636919        0.0000000000000000     
  -6.5462292022963218E-003  0.29654567065403609        0.0000000000000000     
  -1.2875919009528364E-002  0.26403007620838315        0.0000000000000000     
  -1.2908990537005303E-002  0.27238305371428662        0.0000000000000000     
  -1.2947416439181157E-002  0.28060966740404070        0.0000000000000000     
  -1.2991196716055926E-002  0.28870991727764522        0.0000000000000000     
  -1.3040331367629620E-002  0.29668380333510047        0.0000000000000000     
  -1.9331133405087152E-002  0.26411341611003381        0.0000000000000000     
  -1.9381369937683940E-002  0.27249169685318697        0.0000000000000000     
  -1.9438499985522006E-002  0.28075131702235984        0.0000000000000000     
  -1.9502523548601346E-002  0.28889227661755240        0.0000000000000000     
  -1.9573440626921953E-002  0.29691457563876467        0.0000000000000000     
  -2.5828514575380313E-002  0.26423028606795096        0.0000000000000000     
  -2.5896276360527576E-002  0.27264401411755185        0.0000000000000000     
  -2.5971704023042171E-002  0.28094987371693170        0.0000000000000000     
  -2.6054797562924083E-002  0.28914786486609056        0.0000000000000000     
  -2.6145556980173325E-002  0.29723798756502851        0.0000000000000000     
  -1.4022582774731805E-002   5.5830162607940929E-002   0.0000000000000000     
  -1.4812832059318890E-002   6.1377854207697508E-002   0.0000000000000000     
  -1.5573660740521671E-002   6.7132962972276250E-002   0.0000000000000000     
  -1.6305068818340148E-002   7.3095488901677136E-002   0.0000000000000000     
  -1.7007056292774318E-002   7.9265431995900193E-002   0.0000000000000000     
  -1.7144154019406464E-002   5.5511778903368447E-002   0.0000000000000000     
  -1.7932274917811800E-002   6.1227566969387685E-002   0.0000000000000000     
  -1.8783977725468567E-002   6.7109681040955271E-002   0.0000000000000000     
  -1.9699262442376776E-002   7.3158121118071226E-002   0.0000000000000000     
  -2.0678129068536416E-002   7.9372887200735529E-002   0.0000000000000000     
  -2.0594279862323910E-002   5.5637488174032919E-002   0.0000000000000000     
  -2.1563142775822382E-002   6.1388586230126073E-002   0.0000000000000000     
  -2.2602363825002705E-002   6.7298761359049691E-002   0.0000000000000000     
  -2.3711943009864882E-002   7.3368013560803788E-002   0.0000000000000000     
  -2.4891880330408903E-002   7.9596342835388384E-002   0.0000000000000000     
  -2.4372960303484143E-002   5.6207290419934351E-002   0.0000000000000000     
  -2.5705435633350652E-002   6.1860911989912705E-002   0.0000000000000000     
  -2.7028819039124085E-002   6.7700203926559552E-002   0.0000000000000000     
  -2.8343110520804470E-002   7.3725166229874906E-002   0.0000000000000000     
  -2.9648310078391794E-002   7.9935798899858745E-002   0.0000000000000000     
  -2.8480195342887163E-002   5.7221185641072717E-002   0.0000000000000000     
  -3.0359153490396581E-002   6.2644544248747575E-002   0.0000000000000000     
  -3.2063343367832710E-002   6.8314008743484839E-002   0.0000000000000000     
  -3.3592764975195540E-002   7.4229579125284523E-002   0.0000000000000000     
  -3.4947418312485080E-002   8.0391255394146627E-002   0.0000000000000000     
  -1.7007056292774318E-002   7.9265431995900193E-002   0.0000000000000000     
  -1.7682752677204198E-002   8.5613470055698845E-002   0.0000000000000000     
  -1.8335287485009781E-002   9.2110280881826628E-002   0.0000000000000000     
  -1.8964660716191090E-002   9.8755864474283486E-002   0.0000000000000000     
  -1.9570872370748105E-002  0.10555022083306945        0.0000000000000000     
  -2.0678129068536416E-002   7.9372887200735529E-002   0.0000000000000000     
  -2.1659803428611211E-002   8.5741206047248192E-002   0.0000000000000000     
  -2.2583511347264898E-002   9.2250304415909243E-002   0.0000000000000000     
  -2.3449252824497467E-002   9.8900182306718654E-002   0.0000000000000000     
  -2.4257027860308932E-002  0.10569083971967644        0.0000000000000000     
  -2.4891880330408903E-002   7.9596342835388384E-002   0.0000000000000000     
  -2.6073026325861878E-002   8.5971705024804140E-002   0.0000000000000000     
  -2.7186231535450918E-002   9.2482055971051802E-002   0.0000000000000000     
  -2.8231495959176012E-002   9.9127395674131341E-002   0.0000000000000000     
  -2.9208819597037163E-002  0.10590772413404279        0.0000000000000000     
  -2.9648310078391794E-002   7.9935798899858745E-002   0.0000000000000000     
  -3.0922421368956197E-002   8.6304966988366663E-002   0.0000000000000000     
  -3.2143448049567848E-002   9.2805535547254264E-002   0.0000000000000000     
  -3.3311390120226707E-002   9.9437504576521535E-002   0.0000000000000000     
  -3.4426247580932823E-002  0.10620087407616847        0.0000000000000000     
  -3.4947418312485080E-002   8.0391255394146627E-002   0.0000000000000000     
  -3.6207988557894172E-002   8.6740991937935774E-002   0.0000000000000000     
  -3.7455160889615667E-002   9.3220743144516671E-002   0.0000000000000000     
  -3.8688935307649573E-002   9.9830509013889221E-002   0.0000000000000000     
  -3.9909311811995876E-002  0.10657028954605349        0.0000000000000000     
  -1.9570872370748105E-002  0.10555022083306945        0.0000000000000000     
  -2.0151791536568799E-002  0.11248875969448630        0.0000000000000000     
  -2.0705287301541118E-002  0.11956689079483578        0.0000000000000000     
  -2.1231359665665066E-002  0.12678461413411790        0.0000000000000000     
  -2.1730008628940652E-002  0.13414192971233269        0.0000000000000000     
  -2.4257027860308932E-002  0.10569083971967644        0.0000000000000000     
  -2.5018852939191850E-002  0.11262199518963514        0.0000000000000000     
  -2.5746744545638793E-002  0.11969336725144729        0.0000000000000000     
  -2.6440702679649753E-002  0.12690495590511292        0.0000000000000000     
  -2.7100727341224751E-002  0.13425676115063201        0.0000000000000000     
  -2.9208819597037163E-002  0.10590772413404279        0.0000000000000000     
  -3.0131965317274082E-002  0.11282635500581976        0.0000000000000000     
  -3.1014695988126461E-002  0.11988660194449596        0.0000000000000000     
  -3.1857011609594303E-002  0.12708846495007134        0.0000000000000000     
  -3.2658912181677609E-002  0.13443194402254594        0.0000000000000000     
  -3.4426247580932823E-002  0.10620087407616847        0.0000000000000000     
  -3.5491128670815511E-002  0.11310183914304016        0.0000000000000000     
  -3.6509141629004135E-002  0.12014659487398176        0.0000000000000000     
  -3.7480286455498696E-002  0.12733514126899320        0.0000000000000000     
  -3.8404563150299199E-002  0.13466747832807455        0.0000000000000000     
  -3.9909311811995876E-002  0.10657028954605349        0.0000000000000000     
  -4.1096342999816113E-002  0.11344844760129638        0.0000000000000000     
  -4.2230081468271806E-002  0.12047334603990469        0.0000000000000000     
  -4.3310527217362942E-002  0.12764498486187850        0.0000000000000000     
  -4.4337680247089541E-002  0.13496336406721776        0.0000000000000000     
  -2.1730008628940652E-002  0.13414192971233269        0.0000000000000000     
  -2.2200684294207244E-002  0.14162685501300643        0.0000000000000000     
  -2.2642836764304213E-002  0.14922740751966543        0.0000000000000000     
  -2.3056466039231567E-002  0.15694358723230967        0.0000000000000000     
  -2.3441572118989302E-002  0.16477539415093920        0.0000000000000000     
  -2.7100727341224751E-002  0.13425676115063201        0.0000000000000000     
  -2.7724120788960055E-002  0.14173683599926284        0.0000000000000000     
  -2.8308185281451931E-002  0.14933323346226376        0.0000000000000000     
  -2.8852920818700379E-002  0.15704595353963477        0.0000000000000000     
  -2.9358327400705410E-002  0.16487499623137583        0.0000000000000000     
  -3.2658912181677609E-002  0.13443194402254594        0.0000000000000000     
  -3.3416335414897656E-002  0.14190395647537915        0.0000000000000000     
  -3.4125219019775770E-002  0.14949141962203025        0.0000000000000000     
  -3.4785562996311935E-002  0.15719433346249939        0.0000000000000000     
  -3.5397367344506159E-002  0.16501269799678647        0.0000000000000000     
  -3.8404563150299199E-002  0.13466747832807455        0.0000000000000000     
  -3.9277328172020072E-002  0.14212821644135529        0.0000000000000000     
  -4.0093937979275754E-002  0.14970196599896496        0.0000000000000000     
  -4.0854392572066231E-002  0.15738872700090356        0.0000000000000000     
  -4.1558691950391524E-002  0.16518849944717112        0.0000000000000000     
  -4.4337680247089541E-002  0.13496336406721776        0.0000000000000000     
  -4.5307099060327281E-002  0.14240961589719128        0.0000000000000000     
  -4.6214342159951863E-002  0.14996487259306776        0.0000000000000000     
  -4.7059409545963271E-002  0.15762913415484728        0.0000000000000000     
  -4.7842301218361527E-002  0.16540240058252978        0.0000000000000000     
  -2.3441572118989302E-002  0.16477539415093920        0.0000000000000000     
  -2.3797273814394768E-002  0.17270697050818284        0.0000000000000000     
  -2.4122689936265311E-002  0.18072245853666954        0.0000000000000000     
  -2.4417820484600939E-002  0.18882185823639930        0.0000000000000000     
  -2.4682665459401641E-002  0.19700516960737208        0.0000000000000000     
  -2.9358327400705410E-002  0.16487499623137583        0.0000000000000000     
  -2.9822525401753390E-002  0.17280300756694433        0.0000000000000000     
  -3.0243635196130672E-002  0.18081263357579744        0.0000000000000000     
  -3.0621656783837266E-002  0.18890387425793537        0.0000000000000000     
  -3.0956590164873170E-002  0.19707672961335793        0.0000000000000000     
  -3.5397367344506159E-002  0.16501269799678647        0.0000000000000000     
  -3.5959244918272439E-002  0.17292931539271189        0.0000000000000000     
  -3.6469808571524827E-002  0.18092698781809605        0.0000000000000000     
  -3.6929058304263310E-002  0.18900571527293886        0.0000000000000000     
  -3.7336994116487901E-002  0.19716549775724040        0.0000000000000000     
  -4.1558691950391524E-002  0.16518849944717112        0.0000000000000000     
  -4.2207432363951941E-002  0.17308589398548571        0.0000000000000000     
  -4.2801210062447796E-002  0.18106552126356523        0.0000000000000000     
  -4.3340025045879096E-002  0.18912738128140993        0.0000000000000000     
  -4.3823877314245828E-002  0.19727147403901957        0.0000000000000000     
  -4.7842301218361527E-002  0.16540240058252978        0.0000000000000000     
  -4.8567087738791870E-002  0.17327274334526560        0.0000000000000000     
  -4.9237839668899559E-002  0.18122823391220516        0.0000000000000000     
  -4.9854557008684589E-002  0.18926887228334840        0.0000000000000000     
  -5.0417239758146964E-002  0.19739465845869536        0.0000000000000000     
  -2.4682665459401641E-002  0.19700516960737208        0.0000000000000000     
  -2.4917360719149007E-002  0.20525975520995357        0.0000000000000000     
  -2.5122042122324623E-002  0.21357297760450950        0.0000000000000000     
  -2.5296709668928493E-002  0.22194483679103980        0.0000000000000000     
  -2.5441363358960613E-002  0.23037533276954453        0.0000000000000000     
  -3.0956590164873170E-002  0.19707672961335793        0.0000000000000000     
  -3.1251564423404370E-002  0.20532171811391586        0.0000000000000000     
  -3.1509708643596847E-002  0.21362935823145987        0.0000000000000000     
  -3.1731022825450622E-002  0.22199964996598986        0.0000000000000000     
  -3.1915506968965661E-002  0.23043259331750593        0.0000000000000000     
  -3.7336994116487901E-002  0.19716549775724040        0.0000000000000000     
  -3.7697118513420592E-002  0.20539900833458574        0.0000000000000000     
  -3.8012934000283390E-002  0.21369892006855992        0.0000000000000000     
  -3.8284440577076306E-002  0.22206523295916303        0.0000000000000000     
  -3.8511638243799336E-002  0.23049794700639495        0.0000000000000000     
  -4.3823877314245828E-002  0.19727147403901957        0.0000000000000000     
  -4.4254022989197672E-002  0.20549162587196318        0.0000000000000000     
  -4.4631718192384241E-002  0.21378166311580976        0.0000000000000000     
  -4.4956962923805556E-002  0.22214158577055917        0.0000000000000000     
  -4.5229757183461609E-002  0.23057139383621156        0.0000000000000000     
  -5.0417239758146964E-002  0.19739465845869536        0.0000000000000000     
  -5.0922277850735588E-002  0.20559957072604823        0.0000000000000000     
  -5.1366061219899395E-002  0.21387758737320928        0.0000000000000000     
  -5.1748589865638364E-002  0.22222870840017847        0.0000000000000000     
  -5.2069863787952517E-002  0.23065293380695578        0.0000000000000000     
  -2.5441363358960613E-002  0.23037533276954453        0.0000000000000000     
  -2.5562795381296525E-002  0.23883612813156391        0.0000000000000000     
  -2.5667797924811775E-002  0.24729888546863807        0.0000000000000000     
  -2.5756370989506380E-002  0.25576360478076715        0.0000000000000000     
  -2.5828514575380313E-002  0.26423028606795096        0.0000000000000000     
  -3.1915506968965661E-002  0.23043259331750593        0.0000000000000000     
  -3.2070830759540363E-002  0.23890215349631541        0.0000000000000000     
  -3.2204663882573092E-002  0.24738229571272569        0.0000000000000000     
  -3.2317006338063850E-002  0.25587301996673673        0.0000000000000000     
  -3.2407858126012636E-002  0.26437432625834861        0.0000000000000000     
  -3.8511638243799336E-002  0.23049794700639495        0.0000000000000000     
  -3.8702753241239750E-002  0.23897495984124509        0.0000000000000000     
  -3.8866011810184807E-002  0.24747416909470271        0.0000000000000000     
  -3.9001413950634542E-002  0.25599557476676787        0.0000000000000000     
  -3.9108959662588913E-002  0.26453917685744061        0.0000000000000000     
  -4.5229757183461609E-002  0.23057139383621156        0.0000000000000000     
  -4.5458562826394662E-002  0.23905454716635288        0.0000000000000000     
  -4.5651841707646933E-002  0.24757450561456920        0.0000000000000000     
  -4.5809593827218414E-002  0.25613126918086054        0.0000000000000000     
  -4.5931819185109135E-002  0.26472483786522688        0.0000000000000000     
  -5.2069863787952517E-002  0.23065293380695578        0.0000000000000000     
  -5.2338259515005113E-002  0.23914091547163885        0.0000000000000000     
  -5.2562153574959448E-002  0.24768330527232515        0.0000000000000000     
  -5.2741545967815516E-002  0.25628010320901468        0.0000000000000000     
  -5.2876436693573323E-002  0.26493130928170744        0.0000000000000000     
  -2.5828514575380313E-002  0.26423028606795096        0.0000000000000000     
  -2.5896276360527576E-002  0.27264401411755185        0.0000000000000000     
  -2.5971704023042171E-002  0.28094987371693170        0.0000000000000000     
  -2.6054797562924083E-002  0.28914786486609056        0.0000000000000000     
  -2.6145556980173325E-002  0.29723798756502851        0.0000000000000000     
  -3.2407858126012636E-002  0.26437432625834861        0.0000000000000000     
  -3.2492242323404134E-002  0.27283363085982792        0.0000000000000000     
  -3.2585182007223032E-002  0.28119835004344135        0.0000000000000000     
  -3.2686677177469328E-002  0.28946848380918883        0.0000000000000000     
  -3.2796727834143016E-002  0.29764403215707042        0.0000000000000000     
  -3.9108959662588913E-002  0.26453917685744061        0.0000000000000000     
  -3.9207800344181525E-002  0.27305417243246216        0.0000000000000000     
  -3.9317087393545967E-002  0.28148975855757397        0.0000000000000000     
  -3.9436820810682234E-002  0.28984593523277608        0.0000000000000000     
  -3.9567000595590311E-002  0.29812270245806849        0.0000000000000000     
  -4.5931819185109135E-002  0.26472483786522688        0.0000000000000000     
  -4.6042950422859767E-002  0.27330563883545450        0.0000000000000000     
  -4.6167420182010997E-002  0.28182409925932966        0.0000000000000000     
  -4.6305228462562804E-002  0.29028021913685237        0.0000000000000000     
  -4.6456375264515216E-002  0.29867399846802267        0.0000000000000000     
  -5.2876436693573323E-002  0.26493130928170744        0.0000000000000000     
  -5.2997692559438848E-002  0.27358803006880489        0.0000000000000000     
  -5.3136180372618087E-002  0.28220137214870827        0.0000000000000000     
  -5.3291900133111046E-002  0.29077133552141771        0.0000000000000000     
  -5.3464851840917718E-002  0.29929792018693313        0.0000000000000000     
  -2.8480195342887163E-002   5.7221185641072717E-002   0.0000000000000000     
  -3.0359153490396581E-002   6.2644544248747575E-002   0.0000000000000000     
  -3.2063343367832710E-002   6.8314008743484839E-002   0.0000000000000000     
  -3.3592764975195540E-002   7.4229579125284523E-002   0.0000000000000000     
  -3.4947418312485080E-002   8.0391255394146627E-002   0.0000000000000000     
  -3.2768654024049555E-002   5.8326183447934207E-002   0.0000000000000000     
  -3.5184589724323090E-002   6.3520304699317312E-002   0.0000000000000000     
  -3.7262106288015469E-002   6.9016764567025379E-002   0.0000000000000000     
  -3.9001203715126685E-002   7.4815563051058437E-002   0.0000000000000000     
  -4.0401882005656753E-002   8.0916700151416512E-002   0.0000000000000000     
  -3.7091005390487888E-002   5.9169293451004981E-002   0.0000000000000000     
  -3.9842037712493047E-002   6.4269015034308541E-002   0.0000000000000000     
  -4.2181277276559251E-002   6.9685060154381057E-002   0.0000000000000000     
  -4.4108724082686512E-002   7.5417428811222501E-002   0.0000000000000000     
  -4.5624378130874811E-002   8.1466121004832900E-002   0.0000000000000000     
  -4.1447249442202169E-002   5.9750515650285045E-002   0.0000000000000000     
  -4.4331497454906450E-002   6.4890675253721289E-002   0.0000000000000000     
  -4.6820856333464063E-002   7.0318895505551815E-002   0.0000000000000000     
  -4.8915326077874993E-002   7.6035176405776644E-002   0.0000000000000000     
  -5.0614906688139255E-002   8.2039517954395777E-002   0.0000000000000000     
  -4.5837386179192391E-002   6.0069850045774399E-002   0.0000000000000000     
  -4.8652968951563319E-002   6.5385285357555556E-002   0.0000000000000000     
  -5.1180843458729905E-002   7.0918270620537724E-002   0.0000000000000000     
  -5.3421009700692176E-002   7.6668805834720938E-002   0.0000000000000000     
  -5.5373467677450085E-002   8.2636891000105142E-002   0.0000000000000000     
  -3.4947418312485080E-002   8.0391255394146627E-002   0.0000000000000000     
  -3.6207988557894172E-002   8.6740991937935774E-002   0.0000000000000000     
  -3.7455160889615667E-002   9.3220743144516671E-002   0.0000000000000000     
  -3.8688935307649573E-002   9.9830509013889221E-002   0.0000000000000000     
  -3.9909311811995876E-002  0.10657028954605349        0.0000000000000000     
  -4.0401882005656753E-002   8.0916700151416512E-002   0.0000000000000000     
  -4.1646258149594099E-002   8.7235298055115609E-002   0.0000000000000000     
  -4.2916449136927159E-002   9.3686478949171800E-002   0.0000000000000000     
  -4.4212454967655933E-002  0.10027024283358506        0.0000000000000000     
  -4.5534275641780420E-002  0.10698658970835542        0.0000000000000000     
  -4.5624378130874811E-002   8.1466121004832900E-002   0.0000000000000000     
  -4.6953760400974286E-002   8.7743403521510235E-002   0.0000000000000000     
  -4.8322391872835067E-002   9.4161543147552471E-002   0.0000000000000000     
  -4.9730272546457142E-002  0.10072053988295966        0.0000000000000000     
  -5.1177402421840511E-002  0.10742039372773175        0.0000000000000000     
  -5.0614906688139255E-002   8.2039517954395777E-002   0.0000000000000000     
  -5.2130495312034744E-002   8.8265308337119625E-002   0.0000000000000000     
  -5.3672989097339398E-002   9.4645935739658724E-002   0.0000000000000000     
  -5.5242388044053195E-002  0.10118140016201299        0.0000000000000000     
  -5.6838692152176143E-002  0.10787170160418250        0.0000000000000000     
  -5.5373467677450085E-002   8.2636891000105142E-002   0.0000000000000000     
  -5.7176462882775461E-002   8.8801012501943846E-002   0.0000000000000000     
  -5.8968240810440137E-002   9.5139656725490504E-002   0.0000000000000000     
  -6.0748801460444091E-002  0.10165282367074512        0.0000000000000000     
  -6.2518144832787323E-002  0.10834051333770764        0.0000000000000000     
  -3.9909311811995876E-002  0.10657028954605349        0.0000000000000000     
  -4.1096342999816113E-002  0.11344844760129638        0.0000000000000000     
  -4.2230081468271806E-002  0.12047334603990469        0.0000000000000000     
  -4.3310527217362942E-002  0.12764498486187850        0.0000000000000000     
  -4.4337680247089541E-002  0.13496336406721776        0.0000000000000000     
  -4.5534275641780420E-002  0.10698658970835542        0.0000000000000000     
  -4.6839267554567778E-002  0.11384332308902664        0.0000000000000000     
  -4.8084787101285151E-002  0.12084824649114245        0.0000000000000000     
  -4.9270834281932532E-002  0.12800135991470288        0.0000000000000000     
  -5.0397409096509950E-002  0.13530266335970795        0.0000000000000000     
  -5.1177402421840511E-002  0.10742039372773175        0.0000000000000000     
  -5.2611561585362350E-002  0.11426360831466929        0.0000000000000000     
  -5.3980530123399831E-002  0.12125268727657273        0.0000000000000000     
  -5.5284308035952960E-002  0.12838763061344211        0.0000000000000000     
  -5.6522895323021724E-002  0.13566843832527742        0.0000000000000000     
  -5.6838692152176143E-002  0.10787170160418250        0.0000000000000000     
  -5.8413225092199837E-002  0.11470930327822430        0.0000000000000000     
  -5.9917310534615853E-002  0.12168666839619552        0.0000000000000000     
  -6.1350948479424211E-002  0.12880379695809616        0.0000000000000000     
  -6.2714138926624877E-002  0.13606068896392620        0.0000000000000000     
  -6.2518144832787323E-002  0.10834051333770764        0.0000000000000000     
  -6.4244258075080246E-002  0.11518040797969170        0.0000000000000000     
  -6.5895128334933245E-002  0.12215018985001080        0.0000000000000000     
  -6.7470755612346292E-002  0.12924985894866503        0.0000000000000000     
  -6.8971139907319429E-002  0.13647941527565424        0.0000000000000000     
  -4.4337680247089541E-002  0.13496336406721776        0.0000000000000000     
  -4.5307099060327281E-002  0.14240961589719128        0.0000000000000000     
  -4.6214342159951863E-002  0.14996487259306776        0.0000000000000000     
  -4.7059409545963271E-002  0.15762913415484728        0.0000000000000000     
  -4.7842301218361527E-002  0.16540240058252978        0.0000000000000000     
  -5.0397409096509950E-002  0.13530266335970795        0.0000000000000000     
  -5.1460690323278255E-002  0.14273072414716556        0.0000000000000000     
  -5.2456856740498360E-002  0.15026410959808362        0.0000000000000000     
  -5.3385908348170266E-002  0.15790281971246217        0.0000000000000000     
  -5.4247845146293959E-002  0.16564685449030120        0.0000000000000000     
  -5.6522895323021724E-002  0.13566843832527742        0.0000000000000000     
  -5.7693144204331984E-002  0.14307411049555654        0.0000000000000000     
  -5.8791906899609531E-002  0.15058364720775741        0.0000000000000000     
  -5.9819183408854427E-002  0.15819704846187993        0.0000000000000000     
  -6.0774973732066612E-002  0.16591431425792419        0.0000000000000000     
  -6.2714138926624877E-002  0.13606068896392620        0.0000000000000000     
  -6.4004460703488433E-002  0.14343977494236432        0.0000000000000000     
  -6.5219492637285381E-002  0.15092348542208908        0.0000000000000000     
  -6.6359234728015748E-002  0.15851182040310055        0.0000000000000000     
  -6.7423686975679506E-002  0.16620477988539872        0.0000000000000000     
  -6.8971139907319429E-002  0.13647941527565424        0.0000000000000000     
  -7.0394639820747618E-002  0.14382771748758874        0.0000000000000000     
  -7.1739613953525877E-002  0.15128362424107869        0.0000000000000000     
  -7.3006062305654235E-002  0.15884713553612406        0.0000000000000000     
  -7.4193984877132635E-002  0.16651825137272486        0.0000000000000000     
  -4.7842301218361527E-002  0.16540240058252978        0.0000000000000000     
  -4.8567087738791870E-002  0.17327274334526560        0.0000000000000000     
  -4.9237839668899559E-002  0.18122823391220516        0.0000000000000000     
  -4.9854557008684589E-002  0.18926887228334840        0.0000000000000000     
  -5.0417239758146964E-002  0.19739465845869536        0.0000000000000000     
  -5.4247845146293959E-002  0.16564685449030120        0.0000000000000000     
  -5.5050006644186175E-002  0.17348776380558967        0.0000000000000000     
  -5.5799732351163658E-002  0.18141709753231666        0.0000000000000000     
  -5.6497022267226395E-002  0.18943485567048207        0.0000000000000000     
  -5.7141876392374391E-002  0.19754103822008598        0.0000000000000000     
  -6.0774973732066612E-002  0.16591431425792419        0.0000000000000000     
  -6.1667984681528801E-002  0.17372885569999585        0.0000000000000000     
  -6.2506923069523629E-002  0.18163408389220062        0.0000000000000000     
  -6.3291788896051124E-002  0.18962999883453860        0.0000000000000000     
  -6.4022582161111244E-002  0.19771660052700973        0.0000000000000000     
  -6.7423686975679506E-002  0.16620477988539872        0.0000000000000000     
  -6.8421021850819760E-002  0.17399601902848408        0.0000000000000000     
  -6.9359411823979492E-002  0.18187919299185717        0.0000000000000000     
  -7.0238856895158755E-002  0.18985430177551799        0.0000000000000000     
  -7.1059357064357509E-002  0.19792134537946651        0.0000000000000000     
  -7.4193984877132635E-002  0.16651825137272486        0.0000000000000000     
  -7.5309118152058999E-002  0.17428925379105448        0.0000000000000000     
  -7.6357198614531219E-002  0.18215242483128627        0.0000000000000000     
  -7.7338226264549281E-002  0.19010776449342018        0.0000000000000000     
  -7.8252201102113214E-002  0.19815527277745634        0.0000000000000000     
  -5.0417239758146964E-002  0.19739465845869536        0.0000000000000000     
  -5.0922277850735588E-002  0.20559957072604823        0.0000000000000000     
  -5.1366061219899395E-002  0.21387758737320928        0.0000000000000000     
  -5.1748589865638364E-002  0.22222870840017847        0.0000000000000000     
  -5.2069863787952517E-002  0.23065293380695578        0.0000000000000000     
  -5.7141876392374391E-002  0.19754103822008598        0.0000000000000000     
  -5.7726044608111732E-002  0.20572918303759868        0.0000000000000000     
  -5.8241276795942473E-002  0.21399282797949049        0.0000000000000000     
  -5.8687572955866629E-002  0.22233197304576136        0.0000000000000000     
  -5.9064933087884200E-002  0.23074661823641132        0.0000000000000000     
  -6.4022582161111244E-002  0.19771660052700973        0.0000000000000000     
  -6.4689484771403447E-002  0.20588680294737249        0.0000000000000000     
  -6.5282678633627106E-002  0.21413352007338540        0.0000000000000000     
  -6.5802163747782250E-002  0.22245675190504852        0.0000000000000000     
  -6.6247940113868864E-002  0.23085649844236181        0.0000000000000000     
  -7.1059357064357509E-002  0.19792134537946651        0.0000000000000000     
  -7.1812598340610725E-002  0.20607243045536952        0.0000000000000000     
  -7.2490266732953293E-002  0.21429966365489403        0.0000000000000000     
  -7.3092362241385198E-002  0.22260304497803990        0.0000000000000000     
  -7.3618884865906467E-002  0.23098257442480721        0.0000000000000000     
  -7.8252201102113214E-002  0.19815527277745634        0.0000000000000000     
  -7.9095385315733596E-002  0.20628606556158996        0.0000000000000000     
  -7.9864041093921020E-002  0.21449125872401636        0.0000000000000000     
  -8.0558168436675501E-002  0.22277085226473561        0.0000000000000000     
  -8.1177767343997065E-002  0.23112484618374757        0.0000000000000000     
  -5.2069863787952517E-002  0.23065293380695578        0.0000000000000000     
  -5.2338259515005113E-002  0.23914091547163885        0.0000000000000000     
  -5.2562153574959448E-002  0.24768330527232515        0.0000000000000000     
  -5.2741545967815516E-002  0.25628010320901468        0.0000000000000000     
  -5.2876436693573323E-002  0.26493130928170744        0.0000000000000000     
  -5.9064933087884200E-002  0.23074661823641132        0.0000000000000000     
  -5.9380414619521302E-002  0.23923533175429570        0.0000000000000000     
  -5.9641074978304016E-002  0.24779668180226991        0.0000000000000000     
  -5.9846914164232386E-002  0.25643066838033390        0.0000000000000000     
  -5.9997932177306368E-002  0.26513729148848758        0.0000000000000000     
  -6.6247940113868864E-002  0.23085649844236181        0.0000000000000000     
  -6.6623599452393392E-002  0.23933906301151620        0.0000000000000000     
  -6.6932733483862292E-002  0.24791074893870280        0.0000000000000000     
  -6.7175342208275590E-002  0.25657155622392153        0.0000000000000000     
  -6.7351425625633232E-002  0.26532148486717233        0.0000000000000000     
  -7.3618884865906467E-002  0.23098257442480721        0.0000000000000000     
  -7.4067814013621419E-002  0.23945210924330035        0.0000000000000000     
  -7.4437129091634288E-002  0.24802550668162388        0.0000000000000000     
  -7.4726830099945116E-002  0.25670276673977765        0.0000000000000000     
  -7.4936917038553874E-002  0.26548388941776185        0.0000000000000000     
  -8.1177767343997065E-002  0.23112484618374757        0.0000000000000000     
  -8.1713058303205341E-002  0.23957447044964814        0.0000000000000000     
  -8.2154261801619957E-002  0.24814095503103303        0.0000000000000000     
  -8.2501377839240969E-002  0.25682429992790229        0.0000000000000000     
  -8.2754406416068335E-002  0.26562450514025593        0.0000000000000000     
  -5.2876436693573323E-002  0.26493130928170744        0.0000000000000000     
  -5.2997692559438848E-002  0.27358803006880489        0.0000000000000000     
  -5.3136180372618087E-002  0.28220137214870827        0.0000000000000000     
  -5.3291900133111046E-002  0.29077133552141771        0.0000000000000000     
  -5.3464851840917718E-002  0.29929792018693313        0.0000000000000000     
  -5.9997932177306368E-002  0.26513729148848758        0.0000000000000000     
  -6.0130746974425268E-002  0.27387265091732210        0.0000000000000000     
  -6.0281976512488337E-002  0.28259284645742833        0.0000000000000000     
  -6.0451620791495561E-002  0.29129787810880620        0.0000000000000000     
  -6.0639679811446946E-002  0.29998774587145594        0.0000000000000000     
  -6.7351425625633232E-002  0.26532148486717233        0.0000000000000000     
  -6.7500833888325548E-002  0.27413080616581476        0.0000000000000000     
  -6.7663417148742758E-002  0.28296979141720807        0.0000000000000000     
  -6.7839175406884902E-002  0.29183844062135217        0.0000000000000000     
  -6.8028108662751968E-002  0.30073675377824727        0.0000000000000000     
  -7.4936917038553874E-002  0.26548388941776185        0.0000000000000000     
  -7.5107953301139632E-002  0.27436249581428290        0.0000000000000000     
  -7.5280502281381376E-002  0.28333220702804746        0.0000000000000000     
  -7.5454563979279105E-002  0.29239302305905551        0.0000000000000000     
  -7.5630138394832847E-002  0.30154494390730718        0.0000000000000000     
  -8.2754406416068335E-002  0.26562450514025593        0.0000000000000000     
  -8.2952105212867583E-002  0.27456771986272649        0.0000000000000000     
  -8.3133231910404171E-002  0.28368009328994659        0.0000000000000000     
  -8.3297786508678182E-002  0.29296162542191628        0.0000000000000000     
  -8.3445769007689519E-002  0.30241231625863563        0.0000000000000000     
  -4.5837386179192391E-002   6.0069850045774399E-002   0.0000000000000000     
  -4.8652968951563319E-002   6.5385285357555556E-002   0.0000000000000000     
  -5.1180843458729905E-002   7.0918270620537724E-002   0.0000000000000000     
  -5.3421009700692176E-002   7.6668805834720938E-002   0.0000000000000000     
  -5.5373467677450085E-002   8.2636891000105142E-002   0.0000000000000000     
  -5.0372064172838349E-002   6.0408974184063324E-002   0.0000000000000000     
  -5.3083220054716128E-002   6.5895534458553409E-002   0.0000000000000000     
  -5.5629466507300565E-002   7.1533669775007719E-002   0.0000000000000000     
  -5.8010803530591647E-002   7.7323380133426281E-002   0.0000000000000000     
  -6.0227231124589359E-002   8.3264665533809082E-002   0.0000000000000000     
  -5.5161931994519797E-002   6.1049565611742115E-002   0.0000000000000000     
  -5.7899018616617365E-002   6.6564111669456957E-002   0.0000000000000000     
  -6.0534953334119776E-002   7.2215577244630832E-002   0.0000000000000000     
  -6.3069736147027031E-002   7.8003962337263685E-002   0.0000000000000000     
  -6.5503367055339143E-002   8.3929266947355613E-002   0.0000000000000000     
  -6.0206989644236777E-002   6.1991624328810772E-002   0.0000000000000000     
  -6.3100364637267009E-002   6.7391016990266187E-002   0.0000000000000000     
  -6.5897303939187551E-002   7.2963993029407009E-002   0.0000000000000000     
  -6.8597807549998335E-002   7.8710552446233192E-002   0.0000000000000000     
  -7.1201875469699416E-002   8.4630695240744763E-002   0.0000000000000000     
  -6.5507237121989248E-002   6.3235150335269288E-002   0.0000000000000000     
  -6.8687258116665109E-002   6.8376250420981124E-002   0.0000000000000000     
  -7.1716518322503892E-002   7.3778917129336277E-002   0.0000000000000000     
  -7.4595017739505609E-002   7.9443150460334733E-002   0.0000000000000000     
  -7.7322756367670220E-002   8.5368950413976505E-002   0.0000000000000000     
  -5.5373467677450085E-002   8.2636891000105142E-002   0.0000000000000000     
  -5.7176462882775461E-002   8.8801012501943846E-002   0.0000000000000000     
  -5.8968240810440137E-002   9.5139656725490504E-002   0.0000000000000000     
  -6.0748801460444091E-002  0.10165282367074512        0.0000000000000000     
  -6.2518144832787323E-002  0.10834051333770764        0.0000000000000000     
  -6.0227231124589359E-002   8.3264665533809082E-002   0.0000000000000000     
  -6.2334675622956526E-002   8.9376764821669785E-002   0.0000000000000000     
  -6.4389063359355958E-002   9.5678916842522124E-002   0.0000000000000000     
  -6.6390394333787628E-002  0.10217112159636604        0.0000000000000000     
  -6.8338668546251577E-002  0.10885337908320161        0.0000000000000000     
  -6.5503367055339143E-002   8.3929266947355613E-002   0.0000000000000000     
  -6.7848146042337992E-002   9.0018814101984368E-002   0.0000000000000000     
  -7.0116373091305487E-002   9.6299926828227841E-002   0.0000000000000000     
  -7.2308048202241612E-002  0.10277260512608598        0.0000000000000000     
  -7.4423171375146382E-002  0.10943684899555878        0.0000000000000000     
  -7.1201875469699416E-002   8.4630695240744763E-002   0.0000000000000000     
  -7.3716874140919847E-002   9.0727160342887608E-002   0.0000000000000000     
  -7.6150170006288737E-002   9.7002686682607600E-002   0.0000000000000000     
  -7.8501763065806029E-002  0.10345727425990482        0.0000000000000000     
  -8.0771653319471753E-002  0.11009092307477919        0.0000000000000000     
  -7.7322756367670220E-002   8.5368950413976505E-002   0.0000000000000000     
  -7.9940859918702131E-002   9.1501803544379465E-002   0.0000000000000000     
  -8.2490454104305680E-002   9.7787196405661497E-002   0.0000000000000000     
  -8.4971538924480866E-002  0.10422512899782263        0.0000000000000000     
  -8.7384114379227690E-002  0.11081560132086281        0.0000000000000000     
  -6.2518144832787323E-002  0.10834051333770764        0.0000000000000000     
  -6.4244258075080246E-002  0.11518040797969170        0.0000000000000000     
  -6.5895128334933245E-002  0.12215018985001080        0.0000000000000000     
  -6.7470755612346292E-002  0.12924985894866503        0.0000000000000000     
  -6.8971139907319429E-002  0.13647941527565424        0.0000000000000000     
  -6.8338668546251577E-002  0.10885337908320161        0.0000000000000000     
  -7.0220002741587198E-002  0.11569117322726788        0.0000000000000000     
  -7.2020513664633967E-002  0.12264998795280399        0.0000000000000000     
  -7.3740201315391871E-002  0.12972982325980995        0.0000000000000000     
  -7.5379065693860908E-002  0.13693067914828572        0.0000000000000000     
  -7.4423171375146382E-002  0.10943684899555878        0.0000000000000000     
  -7.6455801299304349E-002  0.11625584982914926        0.0000000000000000     
  -7.8399996664000118E-002  0.12319279901936044        0.0000000000000000     
  -8.0255757469233635E-002  0.13024769656619223        0.0000000000000000     
  -8.2023083715004913E-002  0.13742054246964472        0.0000000000000000     
  -8.0771653319471753E-002  0.11009092307477919        0.0000000000000000     
  -8.2951653748231671E-002  0.11687443778533592        0.0000000000000000     
  -8.5033577333031629E-002  0.12377862304968015        0.0000000000000000     
  -8.7017424073871544E-002  0.13080347886781193        0.0000000000000000     
  -8.8903193970751471E-002  0.13794900523973122        0.0000000000000000     
  -8.7384114379227690E-002  0.11081560132086281        0.0000000000000000     
  -8.9707560088369220E-002  0.11754693709582775        0.0000000000000000     
  -9.1921255671728555E-002  0.12440746004376316        0.0000000000000000     
  -9.4025201129305652E-002  0.13139717016466898        0.0000000000000000     
  -9.6019396461100526E-002  0.13851606745854528        0.0000000000000000     
  -6.8971139907319429E-002  0.13647941527565424        0.0000000000000000     
  -7.0394639820747618E-002  0.14382771748758874        0.0000000000000000     
  -7.1739613953525877E-002  0.15128362424107869        0.0000000000000000     
  -7.3006062305654235E-002  0.15884713553612406        0.0000000000000000     
  -7.4193984877132635E-002  0.16651825137272486        0.0000000000000000     
  -7.5379065693860908E-002  0.13693067914828572        0.0000000000000000     
  -7.6936923591446840E-002  0.14424753859609540        0.0000000000000000     
  -7.8413591799555440E-002  0.15167538458110300        0.0000000000000000     
  -7.9809070318186667E-002  0.15921421710330855        0.0000000000000000     
  -8.1123359147340535E-002  0.16686403616271206        0.0000000000000000     
  -8.2023083715004913E-002  0.13742054246964472        0.0000000000000000     
  -8.3704554050923363E-002  0.14470883873274962        0.0000000000000000     
  -8.5302747126598313E-002  0.15211008735853876        0.0000000000000000     
  -8.6817662942029791E-002  0.15962428834701220        0.0000000000000000     
  -8.8249301497217797E-002  0.16725144169816983        0.0000000000000000     
  -8.8903193970751471E-002  0.13794900523973122        0.0000000000000000     
  -9.0697531199177214E-002  0.14521161789755144        0.0000000000000000     
  -9.2407079934654607E-002  0.15258773257338604        0.0000000000000000     
  -9.4031840177183662E-002  0.16007734926723491        0.0000000000000000     
  -9.5571811926764408E-002  0.16768046797909814        0.0000000000000000     
  -9.6019396461100526E-002  0.13851606745854528        0.0000000000000000     
  -9.7915855036208338E-002  0.14575587609050086        0.0000000000000000     
  -9.9726590223724237E-002  0.15310832022564469        0.0000000000000000     
 -0.10145160202364825       0.16057339986397676        0.0000000000000000     
 -0.10309089043598035       0.16815111500549701        0.0000000000000000     
  -7.4193984877132635E-002  0.16651825137272486        0.0000000000000000     
  -7.5309118152058999E-002  0.17428925379105448        0.0000000000000000     
  -7.6357198614531219E-002  0.18215242483128627        0.0000000000000000     
  -7.7338226264549281E-002  0.19010776449342018        0.0000000000000000     
  -7.8252201102113214E-002  0.19815527277745634        0.0000000000000000     
  -8.1123359147340535E-002  0.16686403616271206        0.0000000000000000     
  -8.2359243692983489E-002  0.17461525087956895        0.0000000000000000     
  -8.3519509361081920E-002  0.18245827037413467        0.0000000000000000     
  -8.4604156151635815E-002  0.19039309464640924        0.0000000000000000     
  -8.5613184064645187E-002  0.19841972369639269        0.0000000000000000     
  -8.8249301497217797E-002  0.16725144169816983        0.0000000000000000     
  -8.9598368581330162E-002  0.17498070118588960        0.0000000000000000     
  -9.0865569983534691E-002  0.18280122058404938        0.0000000000000000     
  -9.2050905703831370E-002  0.19071299989264912        0.0000000000000000     
  -9.3154375742220283E-002  0.19871603911168892        0.0000000000000000     
  -9.5571811926764408E-002  0.16768046797909814        0.0000000000000000     
  -9.7026492817098964E-002  0.17538560471001635        0.0000000000000000     
  -9.8395380481889505E-002  0.18318127546103030        0.0000000000000000     
  -9.9678474921136045E-002  0.19106748023213987        0.0000000000000000     
 -0.10087577613483856       0.19904421902334510        0.0000000000000000     
 -0.10309089043598035       0.16815111500549701        0.0000000000000000     
 -0.10464361640028993       0.17582996145194932        0.0000000000000000     
 -0.10610894085614642       0.18359843500507741        0.0000000000000000     
 -0.10748686380354973       0.19145653566488138        0.0000000000000000     
 -0.10877738524249997       0.19940426343136120        0.0000000000000000     
  -7.8252201102113214E-002  0.19815527277745634        0.0000000000000000     
  -7.9095385315733596E-002  0.20628606556158996        0.0000000000000000     
  -7.9864041093921020E-002  0.21449125872401636        0.0000000000000000     
  -8.0558168436675501E-002  0.22277085226473561        0.0000000000000000     
  -8.1177767343997065E-002  0.23112484618374757        0.0000000000000000     
  -8.5613184064645187E-002  0.19841972369639269        0.0000000000000000     
  -8.6548035719349214E-002  0.20652875700824125        0.0000000000000000     
  -8.7410153734987062E-002  0.21471079406611135        0.0000000000000000     
  -8.8199538111558812E-002  0.22296583487000296        0.0000000000000000     
  -8.8916188849064409E-002  0.23129387941991603        0.0000000000000000     
  -9.3154375742220283E-002  0.19871603911168892        0.0000000000000000     
  -9.4180739574034764E-002  0.20680155353753105        0.0000000000000000     
  -9.5134756674608259E-002  0.21496075846653792        0.0000000000000000     
  -9.6016427043940727E-002  0.22319365389870940        0.0000000000000000     
  -9.6825750682032183E-002  0.23150023983404563        0.0000000000000000     
 -0.10087577613483856       0.19904421902334510        0.0000000000000000     
 -0.10199349687979030       0.20710445514945935        0.0000000000000000     
 -0.10303784991278454       0.21524115192529600        0.0000000000000000     
 -0.10400883523382126       0.22345430935085495        0.0000000000000000     
 -0.10490645284290048       0.23174392742613636        0.0000000000000000     
 -0.10877738524249997       0.19940426343136120        0.0000000000000000     
 -0.10998630763661578       0.20743746184402614        0.0000000000000000     
 -0.11111943344951594       0.21555197444238569        0.0000000000000000     
 -0.11217676268120043       0.22374780122643970        0.0000000000000000     
 -0.11315829533166927       0.23202494219618830        0.0000000000000000     
  -8.1177767343997065E-002  0.23112484618374757        0.0000000000000000     
  -8.1713058303205341E-002  0.23957447044964814        0.0000000000000000     
  -8.2154261801619957E-002  0.24814095503103303        0.0000000000000000     
  -8.2501377839240969E-002  0.25682429992790229        0.0000000000000000     
  -8.2754406416068335E-002  0.26562450514025593        0.0000000000000000     
  -8.8916188849064409E-002  0.23129387941991603        0.0000000000000000     
  -8.9546096251185106E-002  0.23972134035358605        0.0000000000000000     
  -9.0075250621602307E-002  0.24827463030874855        0.0000000000000000     
  -9.0503651960315956E-002  0.25695374928540349        0.0000000000000000     
  -9.0831300267326068E-002  0.26575869728355084        0.0000000000000000     
  -9.6825750682032183E-002  0.23150023983404563        0.0000000000000000     
  -9.7553691787600677E-002  0.23990791267814057        0.0000000000000000     
  -9.8191214559364248E-002  0.24844406883658848        0.0000000000000000     
  -9.8738318997322883E-002  0.25710870830938920        0.0000000000000000     
  -9.9195005101476580E-002  0.26590183109654281        0.0000000000000000     
 -0.10490645284290048       0.23174392742613636        0.0000000000000000     
 -0.10573584491245203       0.24013418742331175        0.0000000000000000     
 -0.10650215361490577       0.24864927061455275        0.0000000000000000     
 -0.10720537895026169       0.25728917699985943        0.0000000000000000     
 -0.10784552091851982       0.26605390657923178        0.0000000000000000     
 -0.11315829533166927       0.23202494219618830        0.0000000000000000     
 -0.11409255562573917       0.24040016458909952        0.0000000000000000     
 -0.11500806778822691       0.24889023564264148        0.0000000000000000     
 -0.11590483181913246       0.25749515535681422        0.0000000000000000     
 -0.11678284771845586       0.26621492373161770        0.0000000000000000     
  -8.2754406416068335E-002  0.26562450514025593        0.0000000000000000     
  -8.2952105212867583E-002  0.27456771986272649        0.0000000000000000     
  -8.3133231910404171E-002  0.28368009328994659        0.0000000000000000     
  -8.3297786508678182E-002  0.29296162542191628        0.0000000000000000     
  -8.3445769007689519E-002  0.30241231625863563        0.0000000000000000     
  -9.0831300267326068E-002  0.26575869728355084        0.0000000000000000     
  -9.1088487693632245E-002  0.27475211916133990        0.0000000000000000     
  -9.1305506390234117E-002  0.28399665977692012        0.0000000000000000     
  -9.1482356357131700E-002  0.29349231913029117        0.0000000000000000     
  -9.1619037594324937E-002  0.30323909722145337        0.0000000000000000     
  -9.9195005101476580E-002  0.26590183109654281        0.0000000000000000     
  -9.9572298813556559E-002  0.27492133456031775        0.0000000000000000     
  -9.9881226075294149E-002  0.28426511606298244        0.0000000000000000     
 -0.10012178688668931       0.29393317560453691        0.0000000000000000     
 -0.10029398124774201       0.30392551318498118        0.0000000000000000     
 -0.10784552091851982       0.26605390657923178        0.0000000000000000     
 -0.10840353857264055       0.27507536605965982        0.0000000000000000     
 -0.10886039096558427       0.28448546214813364        0.0000000000000000     
 -0.10921607809735101       0.29428419484465346        0.0000000000000000     
 -0.10947059996794074       0.30447156414921894        0.0000000000000000     
 -0.11678284771845586       0.26621492373161770        0.0000000000000000     
 -0.11758220697088417       0.27521421365936621        0.0000000000000000     
 -0.11824300106110447       0.28465769803237390        0.0000000000000000     
 -0.11876522998911680       0.29454537685064075        0.0000000000000000     
 -0.11914889375492110       0.30487725011416678        0.0000000000000000     
 </DataArray>
 <DataArray  type="Float64" Name="stress" NumberOfComponents="3" format="ascii">
   6500128222.7063913        75053721.105838776        135229552.03464019     
   6165801691.4755068        178486058.51472187       -55169407.766762450     
   5807325044.5355186        201418010.22658777       -158488399.85277590     
   5424698281.8864155        143849576.24140596       -174727424.22339439     
   5017921403.5281982        5780756.5591793060       -103886480.87863781     
   5678637864.8793726       -76016361.366284609        245656570.70572549     
   5505446583.8887396        50256264.611628771        163948412.67768699     
   5313482075.1196003        113951464.66114235        113839643.60314789     
   5102744338.5719366        115069238.78225708        95330263.482118487     
   4873233374.2457533        53609586.974974632        108420272.31457569     
   5318489530.4487953       -88683836.819465399        343139268.91612911     
   5147917560.3787518        12874295.931566238        376394948.58047825     
   4963949250.4607763        69777962.522836685        385769438.43643641     
   4766584600.6948671        82027162.954341412        371262738.48401004     
   4555823611.0810404        49621897.226092815        332874848.72318947     
   5419683219.4146748        37051294.746286869        427677646.66584301     
   5093214620.9455309        66340152.474538803        582170199.94159913     
   4758726570.5590458        68897503.811666250        657300984.64708126     
   4416219068.2552261        44723348.757661819        653070000.78228605     
   4065692114.0340638       -6182312.6874759197        569477248.34721303     
   5982218931.7770081        301189033.33097267        499271703.95487845     
   5341337765.5890770        210653834.24054122        781274166.76106322     
   4697814035.4144087        111310088.52761436        928434282.23508847     
   4051647741.2529883        3157796.1921923161        940752050.37694383     
   3402838883.1048217       -113803042.76571798        818227471.18663585     
   5017921403.5281982        5780756.5591793060       -103886480.87863781     
   4892614247.4548082       -65200992.976075172       -24580029.088548779     
   4780015110.4717426       -93822678.876934290        29822000.903695781     
   4680123992.5789890       -80084301.143400908        59319609.098105483     
   4592940893.7765684       -23985859.775441647        63912795.494674563     
   4873233374.2457533        53609586.974974632        108420272.31457569     
   4710099422.5315361       -4274025.4879958630        148199022.33189416     
   4554967007.7567616       -35485848.152836800        180762012.02204609     
   4407836129.9214239       -40025881.019554615        206109241.38501960     
   4268706789.0255156       -17894124.088159084        224240710.42082337     
   4555823611.0810404        49621897.226092815        332874848.72318947     
   4405401896.4993353        19998131.667412996        327635001.12504923     
   4258275236.7061872        1357882.0705907345        332868054.67039442     
   4114443631.7015858       -6298851.5644032955        348574009.35924584     
   3973907081.4855499       -2972069.2375233173        374752865.19158715     
   4065692114.0340638       -6182312.6874759197        569477248.34721303     
   3978521669.3582053        7615478.4901456833        513727907.29090828     
   3889939797.3200135        16708511.793334246        486140128.84876060     
   3799946497.9194903        21096787.222083807        486713913.02078170     
   3708541771.1566453        20780304.776420116        515449259.80696088     
   3402838883.1048217       -113803042.76571798        818227471.18663585     
   3429458741.1081390       -41421985.019807577        706477740.82946765     
   3449960689.5982475        10566041.015407801        640578234.55713141     
   3464344728.5751395        42161035.339901209        620528952.36962485     
   3472610858.0388179        53362997.953683853        646329894.26695085     
   4592940893.7765684       -23985859.775441647        63912795.494674563     
   4389109295.6803894        9584051.4617550373        30406525.358198740     
   4180789032.1141376        28191744.465374708        7464915.1696274476     
   3967980103.0778208        31837219.235446453       -4912035.0710482812     
   3750682508.5714350        20520475.771955967       -6724325.3638092317     
   4268706789.0255156       -17894124.088159084        224240710.42082337     
   4084826735.1380320       -112964.60612392426        196171554.94835916     
   3898928407.9032621        10940617.051621675        176528639.32433656     
   3711011807.3211932        15266620.885044813        165311963.54874402     
   3521076933.3918500        12865046.894220591        162521527.62159181     
   3973907081.4855499       -2972069.2375233173        374752865.19158715     
   3803868800.0939798       -2812593.0245163441        355002948.52638394     
   3634282637.4779119       -1146054.2265005112        341540851.61016124     
   3465148593.6373467        2027547.1565241814        334366574.44289607     
   3296466668.5722709        6708211.1245136261        333480117.02460891     
   3708541771.1566453        20780304.776420116        515449259.80696088     
   3546235490.5482326        1485166.2065918446        506900706.09227717     
   3386851720.8381090       -8068269.3689384460        502501552.02709407     
   3230390462.0262599       -7880001.9502184391        502251797.61140913     
   3076851714.1127005        2049968.4627958536        506151442.84521872     
   3472610858.0388179        53362997.953683853        646329894.26695085     
   3311926806.5007968        12780313.087197065        651864827.64602768     
   3156635657.9838428       -9826028.3757210970        659410740.57513797     
   3006737412.4879537       -14456026.435092092        668967633.05427134     
   2862232070.0131316       -1109681.0909147263        680535505.08344519     
   3750682508.5714350        20520475.771955967       -6724325.3638092317     
   3575980480.2212043        14570252.252349377       -8535195.6590634231     
   3400879985.5369043        7291807.6192026138       -5502854.6836806303     
   3225381024.5185485       -1314858.1274741888        2372697.5622955910     
   3049483597.1661344       -11249744.987679720        15091461.078906234     
   3521076933.3918500        12865046.894220591        162521527.62159181     
   3358772535.2378163        14540614.946376801        160829112.11960542     
   3195709267.1192341        13686616.450036526        162070325.90443000     
   3031887129.0361123        10303051.405225277        166245168.97608474     
   2867306120.9884524        4389919.8119536638        173353641.33457607     
   3296466668.5722709        6708211.1245136261        333480117.02460891     
   3141103952.0893211        14372786.190872192        331485685.41362900     
   2984621962.0113325        18306449.273802519        330515301.10569298     
   2827020698.3383226        18509200.373312235        330568964.10079467     
   2668300161.0702882        14981039.489402294        331646674.39892942     
   3076851714.1127005        2049968.4627958536        506151442.84521872     
   2922974730.7756996        14066765.985816240        503434524.22304511     
   2767618070.2131896        21151306.090468526        499832070.92012060     
   2610781732.4251795        23303588.776789904        495344082.93642569     
   2452465717.4116588        20523614.044738054        489970560.27197039     
   2862232070.0131316       -1109681.0909147263        680535505.08344519     
   2704384871.2969723        13622554.331238747        676675628.54783392     
   2544697591.7248244        22221186.900104284        670020635.34767985     
   2383170231.2966800        24686216.615649581        660570525.48297513     
   2219802790.0125561        21017643.477932096        648325298.95371735     
   3049483597.1661344       -11249744.987679720        15091461.078906234     
   2883845771.5767007       -16471553.906746745        11948464.041096233     
   2719684564.4612651       -16771301.245797515        8630438.9298028294     
   2556999975.8198414       -12148987.004807353        5137385.7450465187     
   2395792005.6524286       -2604611.1838058233        1469304.4868119287     
   2867306120.9884524        4389919.8119536638        173353641.33457607     
   2703423813.0894089       -876440.64041686058        166648216.53997913     
   2540588613.2403932       -2652440.9260346889        161478499.16529623     
   2378800521.4414067       -938081.04487264156        157844489.21052992     
   2218059537.6924596        4266639.0030856133        155746186.67568535     
   2668300161.0702882        14981039.489402294        331646674.39892942     
   2511061186.5570297        11136472.212333441        320877726.35290939     
   2354439809.6698222        9350563.6887769699        313355221.22019899     
   2198436030.4086847        9623313.9187755585        309079159.00080103     
   2043049848.7735999        11954722.902283072        308049539.69471323     
   2452465717.4116588        20523614.044738054        489970560.27197039     
   2306757891.9795837        19567184.651596785        474636993.47990602     
   2161238153.7495909        19237712.598731160        464260605.09453309     
   2015906502.7216790        19535197.886138916        458841395.11585045     
   1870762938.8958609        20459640.513836861        458379363.54387099     
   2219802790.0125561        21017643.477932096        648325298.95371735     
   2090513929.3570597        24415696.677323699        627926017.92095315     
   1960983645.4796743        27009005.803757906        614194650.78827238     
   1831211938.3803985        28797570.857224226        607131197.55568326     
   1701198808.0592308        29781391.837723255        606735658.22317100     
   2395792005.6524286       -2604611.1838058233        1469304.4868119287     
   2252574455.3909216        8716633.3557997942       -6493614.8668665467     
   2105493303.8510935        7159206.9676690102       -11790162.806785559     
   1954548551.0329728       -7276890.3481040001       -14420339.332987381     
   1799740196.9365382       -34591658.591589689       -14384144.445442550     
   2218059537.6924596        4266639.0030856133        155746186.67568535     
   2079716361.9676986        13905478.952432990        144395239.44189340     
   1938819338.0791256        15031491.689085603        134515686.88190991     
   1795368466.0267563        7644677.2130899429        126107528.99574964     
   1649363745.8106074       -8254964.4755276442        119170765.78339659     
   2043049848.7735999        11954722.902283072        308049539.69471323     
   1906166828.3286660        18886892.484286427        294838609.88103825     
   1768039712.8344407        21672078.568662047        281904098.00127131     
   1628668502.2909276        20310281.155400395        269246004.05540103     
   1488053196.6981351        14801500.244552076        256864328.04343495     
   1870762938.8958609        20459640.513836861        458379363.54387099     
   1731925854.4738445        23660873.951434970        444836496.45059615     
   1593154428.1170537        27080967.606433630        430375070.55131072     
   1454448659.8254848        30719921.478853166        414995085.84599739     
   1315808549.5991430        34577735.568685830        398696542.33466518     
   1701198808.0592308        29781391.837723255        606735658.22317100     
   1556993440.4032302        28227423.353835583        594388899.15056467     
   1414163483.9269681        31258158.802420616        579928604.53200746     
   1272708938.6304307        38873598.183415413        563354774.36751783     
   1132629804.5136254        51073741.496861875        544667408.65708888     
   1799740196.9365382       -34591658.591589689       -14384144.445442550     
   1769289756.2505770       -17733160.035064936       -8216625.0342758242     
   1747229879.1133437        27093883.683930755       -41144229.373787284     
   1733560565.5248909        99889472.565517366       -113166957.46395002     
   1728281815.4851961        200653606.60960871       -224284809.30479863     
   1649363745.8106074       -8254964.4755276442        119170765.78339659     
   1526725029.8865230       -14376710.476561010        135249904.24988148     
   1408465279.3130131       -5901905.3090348244        124813241.95097987     
   1294584494.0901024        17169451.027167737        87860778.886731461     
   1185082674.2177687        54837358.531958818        24392515.057106797     
   1488053196.6981351        14801500.244552076        256864328.04343495     
   1309167128.3510778       -3518213.4695211053        278174887.66735655     
   1130648427.1564317       -20613370.008890569        285548969.51121145     
   952497093.11420035       -36483969.373529732        278986573.57499242     
   774713126.22437227       -51130011.563508362        258487699.85870984     
   1315808549.5991430        34577735.568685830        398696542.33466518     
   1116616051.6442573        14842330.986142874        420558325.21816313     
   913779322.64359999       -17040510.415613890        441062953.30689263     
   707298362.59718478       -61070788.636580974        460210426.60084212     
   497173171.50500953       -117248503.67673886        478000745.10003233     
   1132629804.5136254        51073741.496861875        544667408.65708888     
   949071799.76603782        40704922.890377134        562400216.90229070     
   757857965.77452302        4816673.4707841277        591355193.33802700     
   558988302.53906524       -56591006.761938035        631532337.96428525     
   352462810.05967468       -143518117.80778098        682931650.78107798     
   1728281815.4851961        200653606.60960871       -224284809.30479863     
   1457562136.5346715        185341284.60911226       -96810012.868711382     
   1154422766.0982068        61963324.322171867        59996058.079926103     
   818863704.17581832       -169480274.25118095        246133403.54111898     
   450884950.76752239       -508989511.11091471        461602023.51487237     
   1185082674.2177687        54837358.531958818        24392515.057106797     
   978026644.56981099        12274357.123259783        155589052.68124866     
   732988586.28725433       -156895406.40074739        312714972.04284900     
   449968499.37006307       -452671932.04020321        495770273.14194375     
   128966383.81827933       -875055219.79494536        704754955.97846103     
   774713126.22437227       -51130011.563508362        258487699.85870984     
   621601052.23590672       -123859600.47323257        386916585.33077824     
   424944612.46412730       -341737075.32731897        537872959.76520061     
   184743806.90903684       -704762436.12575340        711356823.16203630     
  -99001364.429331422       -1212935682.8684862        907368175.52123761     
   497173171.50500953       -117248503.67673886        478000745.10003233     
   388285359.53291261       -223060588.18047521        597172585.07988060     
   230290844.62880683       -492561682.45756191        735470021.24701786     
   23189626.792714179       -925751786.50793266        892893053.60144579     
  -233018293.97536075       -1522630900.3315792        1069441682.1431633     
   352462810.05967468       -143518117.80778098        682931650.78107798     
   278079566.46084189       -285328605.99846077        786357051.92856395     
   149027282.78133023       -609369227.79140341        905506156.48824966     
  -34694040.978878438       -1115639983.1866641        1040378964.4601512     
  -273084404.81975269       -1804140872.1841543        1190975475.8442512     
   5982218931.7770081        301189033.33097267        499271703.95487845     
   5341337765.5890770        210653834.24054122        781274166.76106322     
   4697814035.4144087        111310088.52761436        928434282.23508847     
   4051647741.2529883        3157796.1921923161        940752050.37694383     
   3402838883.1048217       -113803042.76571798        818227471.18663585     
   6483086584.6428032        653521895.75453997        804113433.29669499     
   5546554508.3510199        407809082.33532095        896898521.41248333     
   4614390347.5627232        176655987.26105309        932912398.54872680     
   3686594102.2779155       -39937389.468260765        912155064.70542085     
   2763165772.4965916       -241971047.85261321        834626519.88257337     
   6328927386.3139153        809346702.81970596        1079295585.0008905     
   5319804789.4971838        475374391.94536662        991042191.16488421     
   4322060587.6741781        179330064.38343263        924088722.70195746     
   3335694780.8448954       -78786279.866094828        878435179.61210072     
   2360707369.0093336       -298974640.80321324        854081561.89532435     
   5519741336.7903433        768663454.52646351        1324818159.0674605     
   4661088609.0275803        413349763.07067895        1063705176.0182717     
   3820824755.7487783        119332319.89475775        901963254.69477844     
   2998949776.9539323       -113388875.00131333        839592395.09698081     
   2195463672.6430454       -284813821.61752081        876592597.22487426     
   4055528436.0720849        531472150.87481833        1540681155.4964039     
   3570405966.9422088        221735195.71126735        1114887475.9726377     
   3110682851.7865210       -3337246.2049757242        866535994.52719128     
   2676359090.6050248       -143745174.87391722        795626711.16005635     
   2267434683.3977256       -199488590.29554105        902159625.87123752     
   3402838883.1048217       -113803042.76571798        818227471.18663585     
   3429458741.1081390       -41421985.019807577        706477740.82946765     
   3449960689.5982475        10566041.015407801        640578234.55713141     
   3464344728.5751395        42161035.339901209        620528952.36962485     
   3472610858.0388179        53362997.953683853        646329894.26695085     
   2763165772.4965916       -241971047.85261321        834626519.88257337     
   2889367713.9539876       -132360374.01944649        786692077.62464428     
   3009062344.8612432       -44440735.353408337        760917564.07256699     
   3122249665.2183547        21787868.145479679        757302979.22636199     
   3228929675.0253253        66325436.477231979        775848323.08601236     
   2360707369.0093336       -298974640.80321324        854081561.89532435     
   2518804835.6951838       -172440318.35048544        869508106.52687144     
   2670005590.7939677       -68895034.521309376        883404284.48531258     
   2814309634.3056822        11661210.684291720        895770095.77065122     
   2951716966.2303233        69228417.266332507        906605540.38288844     
   2195463672.6430454       -284813821.61752081        876592597.22487426     
   2317770106.3317308       -161661818.01291382        954925827.53615999     
   2432790427.3964167       -62796856.488298178        1008038395.7953683     
   2540524635.8371081        11781062.956332803        1035930302.0025097     
   2640972731.6538038        62071940.320980191        1038601546.1575761     
   2267434683.3977256       -199488590.29554105        902159625.87123752     
   2286263525.8636236       -100024873.00674343        1042945240.6525018     
   2297416854.6685991       -26146201.254355073        1134819898.0027366     
   2300894669.8126469        22147424.961606979        1177783597.9219241     
   2296696971.2957735        44856005.641167998        1171836340.4100809     
   3472610858.0388179        53362997.953683853        646329894.26695085     
   3311926806.5007968        12780313.087197065        651864827.64602768     
   3156635657.9838428       -9826028.3757210970        659410740.57513797     
   3006737412.4879537       -14456026.435092092        668967633.05427134     
   2862232070.0131316       -1109681.0909147263        680535505.08344519     
   3228929675.0253253        66325436.477231979        775848323.08601236     
   3076665777.3933172        30004969.986927032        776103659.45016587     
   2928815874.3177981        8397818.6849342585        779841468.87441206     
   2785379965.7987738        1503982.5712459087        787061751.35875201     
   2646358051.8362393        9323461.6458636522        797764506.90318727     
   2951716966.2303233        69228417.266332507        906605540.38288844     
   2812077489.6759248        38431449.303688288        900439219.85678566     
   2675873099.2134476        19084768.314100981        899226865.90083182     
   2543103794.8428850        11188374.297570944        902968478.51503062     
   2413769576.5642457        14742267.254114866        911664057.69938123     
   2640972731.6538038        62071940.320980191        1038601546.1575761     
   2518161943.3486257        38059751.037471890        1024871508.8658781     
   2397807332.6707864        22234820.511772752        1017566931.6543899     
   2279908899.6202984        14597148.743900180        1016687814.5231184     
   2164466644.1971521        15146735.733831048        1022234157.4720548     
   2296696971.2957735        44856005.641167998        1171836340.4100809     
   2194919138.4114156        28889875.188285351        1149400526.4774420     
   2094618574.6898208        17847975.277955890        1134861666.1350868     
   1995795280.1309986        11730305.910201073        1128219759.3829987     
   1898449254.7349510        10536867.085021853        1129474806.2211885     
   2862232070.0131316       -1109681.0909147263        680535505.08344519     
   2704384871.2969723        13622554.331238747        676675628.54783392     
   2544697591.7248244        22221186.900104284        670020635.34767985     
   2383170231.2966800        24686216.615649581        660570525.48297513     
   2219802790.0125561        21017643.477932096        648325298.95371735     
   2646358051.8362393        9323461.6458636522        797764506.90318727     
   2483093112.4515209        14948024.194268346        788121688.81232977     
   2318762304.5105996        17019691.555324435        779208265.22723293     
   2153365628.0134759        15538463.729045153        771024236.14789677     
   1986903082.9601469        10504340.715409875        763569601.57430351     
   2413769576.5642457        14742267.254114866        911664057.69938123     
   2255156928.4261293        14280166.503314257        897141545.73636842     
   2096252624.0315938        12845878.231117010        886872939.44941759     
   1937056663.3806458        10439402.437536359        880858238.83852947     
   1777569046.4732766        7060739.1225558519        879097443.90369821     
   2164466644.1971521        15146735.733831048        1022234157.4720548     
   2020576319.2207918        11618981.258370757        1003735199.3199581     
   1877168550.2878072        9699746.9274786711        993014658.01423085     
   1734243337.3981829        9389032.7411292791        990072533.55487466     
   1591800680.5519361        10686838.699360907        994908825.94188488     
   1898449254.7349510        10536867.085021853        1129474806.2211885     
   1779351284.8355172        6964468.4594626427        1107902649.5630951     
   1661510083.2792366        7581297.6444101334        1097633420.9216769     
   1544925650.0661092        12387354.639866889        1098667120.2969310     
   1429597985.1961346        21382639.445827603        1111003747.6888614     
   2219802790.0125561        21017643.477932096        648325298.95371735     
   2090513929.3570597        24415696.677323699        627926017.92095315     
   1960983645.4796743        27009005.803757906        614194650.78827238     
   1831211938.3803985        28797570.857224226        607131197.55568326     
   1701198808.0592308        29781391.837723255        606735658.22317100     
   1986903082.9601469        10504340.715409875        763569601.57430351     
   1874168092.8410487        19327220.459727526        750102532.72695184     
   1761008028.1645436        26733185.012698889        741449413.49714673     
   1647422888.9306154        32722234.374252558        737610243.88488078     
   1533412675.1392906        37294368.544489622        738585023.89016652     
   1777569046.4732766        7060739.1225558519        879097443.90369821     
   1676090886.0833161        19719333.169614851        872348327.35031092     
   1574003999.8004310        30348840.906919420        868559196.13193572     
   1471308387.6246099        38949262.334434211        867730050.24856138     
   1368004049.5558658        45520597.452203989        869860889.70019710     
   1591800680.5519361        10686838.699360907        994908825.94188488     
   1496282309.0838625        25592034.806982636        994663401.79102433     
   1399971560.3873382        37855973.486438751        995523998.69263637     
   1302868434.4623704        47478654.737742364        997490616.64671052     
   1204972931.3089483        54460078.560877144        1000563255.6532614     
   1429597985.1961346        21382639.445827603        1111003747.6888614     
   1334742361.8426938        36945325.371849179        1117047756.0490963     
   1238910709.9252839        49254582.751304626        1122343821.1792579     
   1142103029.4438980        58310411.584169328        1126891943.0793509     
   1044319320.3985499        64112811.870499372        1130692121.7493651     
   1701198808.0592308        29781391.837723255        606735658.22317100     
   1556993440.4032302        28227423.353835583        594388899.15056467     
   1414163483.9269681        31258158.802420616        579928604.53200746     
   1272708938.6304307        38873598.183415413        563354774.36751783     
   1132629804.5136254        51073741.496861875        544667408.65708888     
   1533412675.1392906        37294368.544489622        738585023.89016652     
   1385583664.2957289        31890412.542607248        729349942.82078648     
   1238291518.5218182        28276006.772892475        720329438.11876106     
   1091536237.8175499        26451151.235315740        711523509.78409243     
   945317822.18293464        26415845.929924846        702932157.81677258     
   1368004049.5558658        45520597.452203989        869860889.70019710     
   1223203143.8484316        38262178.429425120        862759182.83894968     
   1078100557.1005688        29998155.938522041        858200164.25834978     
   932696289.31226814        20728529.979509354        856183833.95839977     
   786990340.48353314        10453300.552367866        856710191.93909073     
   1204972931.3089483        54460078.560877144        1000563255.6532614     
   1069851879.0613421        47342721.014302850        994616619.20504797     
   933590599.66322207        36424606.299341947        993540782.95077777     
   796189093.11457801        21705734.415973663        997335746.89044571     
   657647359.41541088        3186105.3641914129        1006001511.0240495     
   1044319320.3985499        64112811.870499372        1130692121.7493651     
   925529869.93446851        59132040.297265261        1124922251.9190872     
   804761646.20977449        47555357.855324984        1126351294.1960435     
   682014649.22448254        29382764.544718027        1134979248.5802295     
   557288878.97857833        4614260.3654151559        1150806115.0716548     
   1132629804.5136254        51073741.496861875        544667408.65708888     
   949071799.76603782        40704922.890377134        562400216.90229070     
   757857965.77452302        4816673.4707841277        591355193.33802700     
   558988302.53906524       -56591006.761938035        631532337.96428525     
   352462810.05967468       -143518117.80778098        682931650.78107798     
   945317822.18293464        26415845.929924846        702932157.81677258     
   787974549.89341688        10576533.504794240        720727274.67116189     
   621874709.15629482       -34451340.412375301        748727823.79938650     
   447018299.97153580       -108667775.82165441        786933805.20143116     
   263405322.33915043       -212072772.72302401        835345218.87730789     
   786990340.48353314        10453300.552367866        856710191.93909073     
   652956840.89007866       -11727993.620012134        873283421.66504300     
   509066033.64532614       -66766979.963397652        899045347.74811208     
   355317918.74925786       -154663658.47783548        933995970.18831384     
   191712496.20188355       -275418029.16329324        978135288.98563862     
   657647359.41541088        3186105.3641914129        1006001511.0240495     
   544018672.75602818       -26208658.484008044        1020068657.8839186     
   419431939.24164242       -92130245.182217479        1042307765.1842161     
   283887158.87227225       -194578654.73038873        1072718832.9249315     
   137384331.64789164       -333553887.12857831        1111301861.1060712     
   557288878.97857833        4614260.3654151559        1150806115.0716548     
   461160045.49124241       -32865461.087261140        1161082983.3278060     
   352972425.94523394       -110541136.06885140        1178515076.1076827     
   232726020.34053960       -228412764.57939693        1203102393.4112809     
   100420828.67716274       -386480346.61888438        1234844935.2386043     
   352462810.05967468       -143518117.80778098        682931650.78107798     
   278079566.46084189       -285328605.99846077        786357051.92856395     
   149027282.78133023       -609369227.79140341        905506156.48824966     
  -34694040.978878438       -1115639983.1866641        1040378964.4601512     
  -273084404.81975269       -1804140872.1841543        1190975475.8442512     
   263405322.33915043       -212072772.72302401        835345218.87730789     
   224190176.20610544       -352390224.63240230        884837804.63343787     
   140831507.66936967       -639852751.22076643        945314522.80920196     
   13329316.728946328       -1074460352.4881072        1016775373.4045975     
  -158316396.61518449       -1656213028.4344423        1099220356.4196603     
   191712496.20188355       -275418029.16329324        978135288.98563862     
   174123816.12730604       -418304934.21357268        985974829.97355795     
   122917131.32602227       -673251855.01953959        1000058932.3885528     
   38092441.798030555       -1040258791.5811929        1020387596.2306234     
  -80350252.456665993       -1519325743.8985319        1046960821.4997641     
   137384331.64789164       -333553887.12857831        1111301861.1060712     
   127880486.22444573       -483072734.74194300        1089768127.9489355     
   95284153.751289040       -709566539.18770480        1069739385.2263124     
   39595334.228401303       -1013035300.4658891        1051215632.9382015     
  -39185972.344200671       -1393479018.5764439        1034196871.0845921     
   100420828.67716274       -386480346.61888438        1234844935.2386043     
   85460186.497521430       -546693626.21754575        1196217698.5595720     
   57932574.945147127       -748796803.72533941        1154355881.3224750     
   17837994.020048380       -992789879.14220071        1109259483.5273335     
  -34823556.277777493       -1278672852.4681687        1060928505.1741276     
   4055528436.0720849        531472150.87481833        1540681155.4964039     
   3570405966.9422088        221735195.71126735        1114887475.9726377     
   3110682851.7865210       -3337246.2049757242        866535994.52719128     
   2676359090.6050248       -143745174.87391722        795626711.16005635     
   2267434683.3977256       -199488590.29554105        902159625.87123752     
   2475502999.5002909        18658075.831009984        1419276184.4558344     
   2433278520.8084774       -48018049.241138577        1183436943.8868978     
   2402200944.7315717       -77537832.263592720        1054755306.3247559     
   2382270271.2695732       -69901273.236355543        1033231271.7694125     
   2373486500.4224849       -25108372.159418106        1118864840.2208641     
   1477700668.1102421       -319489067.65827161        1348566463.7440753     
   1677561051.0807238       -203348301.27175152        1286053802.2107990     
   1874315885.3068309       -97559364.033147931        1260414148.6128020     
   2067965170.7885616       -2122255.9424651861        1271647502.9500816     
   2258508907.5259194        82963023.000305295        1319753865.2226417     
   1062121441.9019264       -482969279.59303480        1328551993.3611178     
   1303253557.7589431       -244255560.38057250        1422738050.9443390     
   1527027673.5122969       -63401841.513642550        1483512521.3913198     
   1733443789.1619935        59591877.007760167        1510875404.7020624     
   1922501904.7080328        124725595.18363535        1504826700.8765640     
   1228765320.8753555       -471782559.97327471        1359232773.3069680     
   1310356040.8431351       -170739826.56760162        1593489690.0875227     
   1360336309.3479726        24934735.294930935        1724050424.6603184     
   1378706126.3898661        115241125.61431450        1750914977.0253561     
   1365465491.9688175        100179344.39055997        1674083347.1826363     
   2267434683.3977256       -199488590.29554105        902159625.87123752     
   2286263525.8636236       -100024873.00674343        1042945240.6525018     
   2297416854.6685991       -26146201.254355073        1134819898.0027366     
   2300894669.8126469        22147424.961606979        1177783597.9219241     
   2296696971.2957735        44856005.641167998        1171836340.4100809     
   2373486500.4224849       -25108372.159418106        1118864840.2208641     
   2272256493.4278212        3369605.8580480814        1186627460.7891541     
   2167408560.3796568        19787830.363844514        1227329402.1122031     
   2058942701.2779868        24146301.357958913        1240970664.1900125     
   1946858916.1228199        16445018.840407014        1227551247.0225813     
   2258508907.5259194        82963023.000305295        1319753865.2226417     
   2099649417.3158340        59184071.619988680        1319227343.7866077     
   1941229588.6596673        36870658.752733231        1313490421.2911351     
   1783249421.5574186        16022784.398541212        1302543097.7362194     
   1625708916.0090914       -3359551.4425814152        1286385373.1218619     
   1922501904.7080328        124725595.18363535        1504826700.8765640     
   1768442297.5276585        67418524.279063702        1440744889.6448712     
   1618879939.5086279        25102283.912301898        1393302955.5395346     
   1473814830.6509385       -2223125.9166547656        1362500898.5605528     
   1333246970.9545903       -14557705.207805634        1348338718.7079275     
   1365465491.9688175        100179344.39055997        1674083347.1826363     
   1278635134.0633006        28072963.835297465        1551180098.3639386     
   1200359612.9265437       -15517294.157429397        1466767004.8573959     
   1130638928.5585494       -30591429.587616861        1420844066.6630087     
   1069473080.9593170       -17149442.455261648        1413411283.7807736     
   2296696971.2957735        44856005.641167998        1171836340.4100809     
   2194919138.4114156        28889875.188285351        1149400526.4774420     
   2094618574.6898208        17847975.277955890        1134861666.1350868     
   1995795280.1309986        11730305.910201073        1128219759.3829987     
   1898449254.7349510        10536867.085021853        1129474806.2211885     
   1946858916.1228199        16445018.840407014        1227551247.0225813     
   1867609210.5838163        13748505.599683642        1215501414.2774639     
   1788782625.8622537        12462395.083761930        1209821737.3126225     
   1710379161.9581316        12586687.292643785        1210512216.1280499     
   1632398818.8714535        14121382.226336300        1217572850.7237527     
   1625708916.0090914       -3359551.4425814152        1286385373.1218619     
   1564625058.3582962        5904868.6917043328        1283491681.8280518     
   1502910173.1796153        13065863.733036816        1285441348.5045087     
   1440564260.4730506        18123433.681425869        1292234373.1512372     
   1377587320.2385979        21077578.536856890        1303870755.7682359     
   1333246970.9545903       -14557705.207805634        1348338718.7079275     
   1285966681.7348559        5358964.4643531442        1353371329.1292026     
   1237001216.6419070        19658381.225792348        1361720499.7107465     
   1186350575.6757503        28340545.076543629        1373386230.4525590     
   1134014758.8363769        31405456.016567767        1388368521.3546395     
   1069473080.9593170       -17149442.455261648        1413411283.7807736     
   1031634080.7134939        12110792.917618692        1425140356.1809194     
   991055756.24913144        32239947.562033474        1438659190.9313345     
   947738107.56622744        43238021.477976114        1453967788.0320141     
   901681134.66478622        45105014.665461034        1471066147.4829612     
   1898449254.7349510        10536867.085021853        1129474806.2211885     
   1779351284.8355172        6964468.4594626427        1107902649.5630951     
   1661510083.2792366        7581297.6444101334        1097633420.9216769     
   1544925650.0661092        12387354.639866889        1098667120.2969310     
   1429597985.1961346        21382639.445827603        1111003747.6888614     
   1632398818.8714535        14121382.226336300        1217572850.7237527     
   1540751579.9861884        13646632.926441252        1200122327.2091138     
   1450059654.0236893        16356260.035765469        1191769980.4596953     
   1360323040.9839566        22250263.554311514        1192515810.4754989     
   1271541740.8669944        31328643.482093334        1202359817.2565401     
   1377587320.2385979        21077578.536856890        1303870755.7682359     
   1307091523.0776432        21810691.775656641        1290190167.4065983     
   1237249583.4190681        24723330.022399426        1283403004.5587351     
   1168061501.2628779        29815493.277088583        1283509267.2246466     
   1099527276.6090717        37087181.539720774        1290508955.4043381     
   1134014758.8363769        31405456.016567767        1388368521.3546395     
   1078371114.1098776        31456645.007115066        1378106170.1555550     
   1023079871.4653752        32682507.604318321        1372532493.2187979     
   968141030.90287375        35083043.808189452        1371647490.5443616     
   913554592.42237091        38658253.618719846        1375451162.1322620     
   901681134.66478622        45105014.665461034        1471066147.4829612     
   854590353.08289123        42584492.620800555        1463870335.4559813     
   807550518.16260815        40233792.781511486        1459158446.4398818     
   760561629.90393937        38052915.147603840        1456930480.4346631     
   713623688.30688679        36041859.719083995        1457186437.4403079     
   1429597985.1961346        21382639.445827603        1111003747.6888614     
   1334742361.8426938        36945325.371849179        1117047756.0490963     
   1238910709.9252839        49254582.751304626        1122343821.1792579     
   1142103029.4438980        58310411.584169328        1126891943.0793509     
   1044319320.3985499        64112811.870499372        1130692121.7493651     
   1271541740.8669944        31328643.482093334        1202359817.2565401     
   1175481388.1379149        38766628.660850108        1203822853.6518767     
   1078823956.1352680        44214349.594379663        1206982049.3146217     
   981569444.85905218        47671806.282683134        1211837404.2447796     
   883717854.30926800        49138998.725755572        1218388918.4423535     
   1099527276.6090717        37087181.539720774        1290508955.4043381     
   1009245344.4971657        38495410.969070017        1287833127.3402448     
   918745282.40209079        39176540.454525441        1289297561.0410490     
   828027090.32384932        39130569.996089548        1294902256.5067451     
   737090768.26243746        38357499.593753874        1304647213.7373314     
   913554592.42237091        38658253.618719846        1375451162.1322620     
   836034230.92044115        36131672.296495736        1369078577.1142116     
   758674688.72574389        34141155.331710726        1369290356.3585362     
   681475965.83828247        32686702.724380165        1376086499.8652325     
   604438062.25805569        31768314.474490076        1389467007.6343169     
   713623688.30688679        36041859.719083995        1457186437.4403079     
   655848047.40774214        31675412.643125683        1447559202.9737651     
   598612175.10623276        29108194.225951731        1446960435.2670820     
   541916071.40236187        28340204.467572629        1455390134.3202565     
   485759736.29611677        29371443.367945865        1472848300.1332867     
   1044319320.3985499        64112811.870499372        1130692121.7493651     
   925529869.93446851        59132040.297265261        1124922251.9190872     
   804761646.20977449        47555357.855324984        1126351294.1960435     
   682014649.22448254        29382764.544718027        1134979248.5802295     
   557288878.97857833        4614260.3654151559        1150806115.0716548     
   883717854.30926800        49138998.725755572        1218388918.4423535     
   783212902.21937501        45705277.848014414        1214780365.3247306     
   680598498.72691917        35240052.295061171        1217680887.1502910     
   575874643.83190513        17743322.066913426        1227090483.9190354     
   469041337.53432763       -6784912.8364422917        1243009155.6309683     
   737090768.26243746        38357499.593753874        1304647213.7373314     
   652899351.22088206        35879540.413730383        1303047519.5000825     
   566467804.63481486        25934482.752009273        1307267063.0419734     
   477796128.50423324        8522326.6085671782        1317305844.3630061     
   386884322.82913882       -16356928.016574532        1333163863.4631677     
   604438062.25805569        31768314.474490076        1389467007.6343169     
   534589216.93899119        29654827.994443685        1389723714.4451623     
   462369563.93346190        19638649.226182789        1395109821.8711014     
   387779103.24146354        1719778.1696882695        1405625329.9121351     
   310817834.86300939       -24101785.174992278        1421270238.5682557     
   485759736.29611677        29371443.367945865        1472848300.1332867     
   428282499.37369651        27031140.590119198        1474808950.1599534     
   368303776.62286752        16352551.717593938        1481209163.6376662     
   305823568.04360682       -2664323.2497009635        1492048940.5664239     
   240841873.63594007       -30019484.311685309        1507328280.9462254     
   557288878.97857833        4614260.3654151559        1150806115.0716548     
   461160045.49124241       -32865461.087261140        1161082983.3278060     
   352972425.94523394       -110541136.06885140        1178515076.1076827     
   232726020.34053960       -228412764.57939693        1203102393.4112809     
   100420828.67716274       -386480346.61888438        1234844935.2386043     
   469041337.53432763       -6784912.8364422917        1243009155.6309683     
   391089393.20833826       -41265137.395902187        1241943567.4210474     
   302972351.98980075       -109629018.26384179        1247012785.5284677     
   204690213.87870950       -211876555.44029951        1258216809.9532301     
   96242978.875077784       -348007748.92522800        1275555640.6953268     
   386884322.82913882       -16356928.016574532        1333163863.4631677     
   324193787.07481384       -48712299.859737575        1322965122.8143320     
   253231843.59408182       -108639030.79092959        1317880770.2764523     
   173998492.38692933       -196137120.81018659        1317910805.8495278     
   86493733.453368679       -311206569.91747212        1323055229.5335488     
   310817834.86300939       -24101785.174992278        1421270238.5682557     
   260473227.09068274       -55206948.478754178        1404147649.5076632     
   203750900.75808278       -107571173.65009557        1391119030.3516390     
   140650855.86520126       -181194460.68903834        1382184381.1001790     
   71173092.412034720       -276076809.59560370        1377343701.7532892     
   240841873.63594007       -30019484.311685309        1507328280.9462254     
   199927713.25594068       -60749083.252950698        1485491147.5010262     
   154529523.48180139       -106425446.84134628        1466727565.7540121     
   104647304.31350866       -167048575.07692274        1451037535.7051792     
   50281055.751080438       -242618467.95961475        1438421057.3545365     
   100420828.67716274       -386480346.61888438        1234844935.2386043     
   85460186.497521430       -546693626.21754575        1196217698.5595720     
   57932574.945147127       -748796803.72533941        1154355881.3224750     
   17837994.020048380       -992789879.14220071        1109259483.5273335     
  -34823556.277777493       -1278672852.4681687        1060928505.1741276     
   96242978.875077784       -348007748.92522800        1275555640.6953268     
   79504699.821817428       -489308664.87277472        1221375844.1286390     
   51382676.398878306       -668555395.38591719        1164698823.5285146     
   11876908.606248438       -885747940.46468294        1105524578.8949316     
  -39012603.556054533       -1140886300.1090453        1043853110.2278941     
   86493733.453368679       -311206569.91747212        1323055229.5335488     
   70084550.453918010       -432963102.33566213        1254703302.2494545     
   43474848.087838799       -588721365.97595298        1184591507.4565103     
   6664626.3551223874       -778481360.83836973        1112719845.1547101     
  -40346114.744228184       -1002243086.9228905        1039088315.3440704     
   71173092.412034720       -276076809.59560370        1377343701.7532892     
   57199738.393836409       -377656938.60619754        1296200072.9220011     
   34209090.012056887       -509294715.49539810        1214033933.1064551     
   2201147.2666896880       -670990140.26321852        1130845282.3066595     
  -38824089.842272401       -862743212.90969718        1046634120.5226326     
   50281055.751080438       -242618467.95961475        1438421057.3545365     
   40850263.641563013       -323390173.68439054        1345866156.1462657     
   23585402.171508878       -430275443.94429135        1253026100.4783642     
  -1513528.6590827405       -563274278.73931706        1159900890.3508070     
  -34446528.850214243       -722386678.06947303        1066490525.7636021     
   1228765320.8753555       -471782559.97327471        1359232773.3069680     
   1310356040.8431351       -170739826.56760162        1593489690.0875227     
   1360336309.3479726        24934735.294930935        1724050424.6603184     
   1378706126.3898661        115241125.61431450        1750914977.0253561     
   1365465491.9688175        100179344.39055997        1674083347.1826363     
   1648610064.3583972        136373350.84019393        1458850493.6997132     
   1450902287.7003384        175376110.14486378        1546551974.8267121     
   1239729210.4405007        169494534.11026937        1583575404.0110576     
   1015090832.5788827        118728622.73640636        1569920781.2527444     
   776987154.11548507        23078376.023279607        1505588106.5517795     
   1649111059.0366266        618726137.01221371        1479325686.9439895     
   1323585157.9387376        441133033.87168461        1441641075.0887921     
   1002739107.1002327        279139431.59576815        1406296541.5560412     
   686572906.52111208        132745330.18446524        1373292086.3457401     
   375086556.20137316        1950729.6377704591        1342627709.4578860     
   1230268304.9100449        975275798.54279184        1420658353.0398002     
   928404651.55833340        626530944.61286616        1278756990.8737633     
   649365999.32717001        353869427.75143218        1192213837.2952759     
   393152348.21655113        157291247.95848209        1161028892.3043370     
   159763698.22648069        36796405.234026268        1185202155.9009511     
   392081801.97865283        1206022335.4319286        1282848491.9871442     
   265360768.55912614        731569842.36840665        1057899722.1816237     
   179609887.12130928        393684522.57725018        941327291.22875512     
   134829157.66520587        192366376.05847117        933131199.12854004     
   131018580.19080754        127615402.81204458        1033311445.8809757     
   1365465491.9688175        100179344.39055997        1674083347.1826363     
   1278635134.0633006        28072963.835297465        1551180098.3639386     
   1200359612.9265437       -15517294.157429397        1466767004.8573959     
   1130638928.5585494       -30591429.587616861        1420844066.6630087     
   1069473080.9593170       -17149442.455261648        1413411283.7807736     
   776987154.11548507        23078376.023279607        1505588106.5517795     
   780599500.65564227       -11122936.594286889        1448497880.2474158     
   790380967.53020477       -24760514.763834417        1413741486.3727167     
   806331554.73917854       -17834358.485347688        1401318924.9276824     
   828451262.28255928        9655532.2411652207        1411230195.9123175     
   375086556.20137316        1950729.6377704591        1342627709.4578860     
   422980684.66580653       -8193791.7985246181        1348567169.8277733     
   474658217.03029406       -5726966.9013076127        1360684139.7448378     
   530119153.29483759        9351204.3294304013        1378978619.2090814     
   589363493.45943356        37040721.893676609        1403450608.2204993     
   159763698.22648069        36796405.234026268        1185202155.9009511     
   205778686.09379596        36860398.222588554        1251387967.1050119     
   253191361.42681226        41583349.430156201        1307594964.9737599     
   302001724.22552788        50965258.856721185        1353823149.5071974     
   352209774.48994327        65006126.502284504        1390072520.7053213     
   131018580.19080754        127615402.81204458        1033311445.8809757     
   128993504.93960562        124039633.46904115        1156960272.0791309     
   125980400.71975291        117170434.23053508        1254473962.0594828     
   121979267.53124437        107007805.09651026        1325852515.8220353     
   116990105.37408303        93551746.066974714        1371095933.3667867     
   1069473080.9593170       -17149442.455261648        1413411283.7807736     
   1031634080.7134939        12110792.917618692        1425140356.1809194     
   991055756.24913144        32239947.562033474        1438659190.9313345     
   947738107.56622744        43238021.477976114        1453967788.0320141     
   901681134.66478622        45105014.665461034        1471066147.4829612     
   828451262.28255928        9655532.2411652207        1411230195.9123175     
   792917254.84311044        26265269.597667962        1421463716.6535914     
   755444431.10760498        36412285.967314750        1434599892.1302030     
   716032791.07604194        40096581.350103676        1450638722.3421562     
   674682334.74842274        37318155.746038020        1469580207.2894473     
   589363493.45943356        37040721.893676609        1403450608.2204993     
   559314171.35513544        41953868.992423236        1413122503.2124655     
   528126540.87726748        43072654.845936462        1426809945.3248448     
   495800602.02582633        40397079.454205692        1444512934.5576355     
   462336354.80081588        33927142.817245260        1466231470.9108407     
   352209774.48994327        65006126.502284504        1390072520.7053213     
   330824830.24957740        59176591.101913489        1400116715.8575466     
   309102085.55812579        52221054.197921701        1415289350.5152581     
   287041540.41558748        44139515.790308960        1435590424.6784537     
   264643194.82196423        34931975.879077412        1461019938.3471344     
   116990105.37408303        93551746.066974714        1371095933.3667867     
   107449231.52643192        77933435.926124215        1382446354.5888343     
   98371065.150179327        63857484.023268834        1400038107.7014439     
   89755606.245323569        51323890.358403876        1423871192.7046103     
   81602854.811867565        40332654.931536064        1453945609.5983350     
   901681134.66478622        45105014.665461034        1471066147.4829612     
   854590353.08289123        42584492.620800555        1463870335.4559813     
   807550518.16260815        40233792.781511486        1459158446.4398818     
   760561629.90393937        38052915.147603840        1456930480.4346631     
   713623688.30688679        36041859.719083995        1457186437.4403079     
   674682334.74842274        37318155.746038020        1469580207.2894473     
   633764699.37116790        31993988.805012435        1467858366.6267862     
   593021756.58310103        27252130.494613618        1469048171.9328978     
   552453506.38422954        23092580.814865589        1473149623.2077825     
   512059948.77453947        19515339.765723586        1480162720.4514437     
   462336354.80081588        33927142.817245260        1466231470.9108407     
   428813931.22219384        26165950.658055827        1470127971.8613319     
   395589946.16033334        19399553.554737553        1477363841.7384973     
   362664399.61524439        13627951.507324755        1487939080.5423317     
   330037291.58692145        8851144.5157986283        1501853688.2728395     
   264643194.82196423        34931975.879077412        1461019938.3471344     
   239738048.63596639        25100378.179919831        1470679151.1596196     
   215255086.89430565        16676061.961886846        1484105455.8566775     
   191194309.59699464        9659027.2250178531        1501298852.4383068     
   167555716.74402192        4049273.9692775756        1522259340.9044976     
   81602854.811867565        40332654.931536064        1453945609.5983350     
   66537051.612484284        28797271.370604105        1469511904.5216570     
   52017178.785015792        19081655.716054130        1489273014.2874424     
   38043236.329473808        11185807.967925461        1513228938.8956988     
   24615224.245846488        5109728.1261804085        1541379678.3464174     
   713623688.30688679        36041859.719083995        1457186437.4403079     
   655848047.40774214        31675412.643125683        1447559202.9737651     
   598612175.10623276        29108194.225951731        1446960435.2670820     
   541916071.40236187        28340204.467572629        1455390134.3202565     
   485759736.29611677        29371443.367945865        1472848300.1332867     
   512059948.77453947        19515339.765723586        1480162720.4514437     
   476032975.22939593        18166475.052396417        1476929279.7281709     
   440436848.29268718        18253765.700519845        1480700751.2028923     
   405271567.96443439        19777211.710162729        1491477134.8756130     
   370537134.24462402        22736813.081280172        1509258430.7463245     
   330037291.58692145        8851144.5157986283        1501853688.2728395     
   309977400.93330520        8785386.8263287693        1504886965.6387842     
   290239434.89894497        9792711.2010431439        1512901600.6408608     
   270823393.48384774        11873117.639968619        1525897593.2790692     
   251729276.68800208        15026606.143069103        1543874943.5534203     
   167555716.74402192        4049273.9692775756        1522259340.9044976     
   157681324.51947588        3532147.9649404213        1531432260.7056007     
   148019934.92500001        3725030.7275018841        1543562983.5809827     
   138571547.96059322        4627922.2569607422        1558651509.5306361     
   129336163.62625980        6240822.5533319041        1576697838.5545614     
   24615224.245846488        5109728.1261804085        1541379678.3464174     
   19144745.987908714        2406758.4682340259        1556565164.9286339     
   13778348.370852804        50724.279896624386        1572684900.0232625     
   8516031.3946836963       -1958374.4388194918        1589738883.6303048     
   3357795.0593880308       -3620537.6879574643        1607727115.7497566     
   485759736.29611677        29371443.367945865        1472848300.1332867     
   428282499.37369651        27031140.590119198        1474808950.1599534     
   368303776.62286752        16352551.717593938        1481209163.6376662     
   305823568.04360682       -2664323.2497009635        1492048940.5664239     
   240841873.63594007       -30019484.311685309        1507328280.9462254     
   370537134.24462402        22736813.081280172        1509258430.7463245     
   325224136.14547414        20359132.761896729        1507664819.7591784     
   278053667.89281183        11789885.264132962        1510997377.6946332     
   229025729.48661697       -2970929.4120671600        1519256104.5526803     
   178140320.92690745       -23923311.266654968        1532441000.3333328     
   251729276.68800208        15026606.143069103        1543874943.5534203     
   219970818.75942007        13028638.686316460        1539478423.1731749     
   186998906.35221770        6985822.9674988091        1540494677.1870770     
   152813539.46638829       -3101841.0134112760        1546923705.5951321     
   117414718.10194029       -17234353.256381661        1558765508.3973401     
   129336163.62625980        6240822.5533319041        1576697838.5545614     
   112522547.21554117        5039658.3634028770        1570249760.4019251     
   95139492.001096025        1940364.8277188800        1569701062.1149969     
   77186997.982926339       -3057058.0537122376        1575051743.6937802     
   58665065.161036164       -9952610.2808811255        1586301805.1382642     
   3357795.0593880308       -3620537.6879574643        1607727115.7497566     
   2879321.5138261700       -3607808.2068815092        1599978831.4454477     
   2475424.8394351788       -3346489.1552394554        1598616532.4784000     
   2146105.0362229515       -2836580.5329997907        1603640218.8486128     
   1891362.1041788030       -2078082.3401998605        1615049890.5560880     
   240841873.63594007       -30019484.311685309        1507328280.9462254     
   199927713.25594068       -60749083.252950698        1485491147.5010262     
   154529523.48180139       -106425446.84134628        1466727565.7540121     
   104647304.31350866       -167048575.07692274        1451037535.7051792     
   50281055.751080438       -242618467.95961475        1438421057.3545365     
   178140320.92690745       -23923311.266654968        1532441000.3333328     
   147539970.93185234       -46740395.260832913        1506685828.9353464     
   113555187.98549117       -80838922.426032335        1483964841.1475048     
   76185972.087809533       -126218892.76230000        1464278036.9698002     
   35432323.238833576       -182880306.26954728        1447625416.4022360     
   117414718.10194029       -17234353.256381661        1558765508.3973401     
   97015698.240273029       -32172666.378940754        1530375161.5632157     
   74331841.870128974       -54727101.196427286        1504979630.2511854     
   49363148.991511583       -84897657.708823577        1482578914.4612484     
   22109619.604421712       -122684335.91612600        1463173014.1934032     
   58665065.161036164       -9952610.2808811255        1586301805.1382642     
   48354895.181191415       -17045896.607316777        1556559145.3846357     
   36859485.135707252       -28089983.152553435        1529771933.0650640     
   24178835.024594635       -43084869.916549504        1505940168.1795375     
   10312944.847836550       -62030556.899365045        1485063850.7280667     
   1891362.1041788030       -2078082.3401998605        1615049890.5560880     
   1557561.7546157646       -1360085.9459276854        1585237780.3996005     
   1138117.7822362778       -927568.29437769845        1558341749.5891261     
   633030.18706532253       -780529.38546663313        1534361798.1246531     
   42298.969090729370       -918969.21923227981        1513297926.0061877     
   50281055.751080438       -242618467.95961475        1438421057.3545365     
   40850263.641563013       -323390173.68439054        1345866156.1462657     
   23585402.171508878       -430275443.94429135        1253026100.4783642     
  -1513528.6590827405       -563274278.73931706        1159900890.3508070     
  -34446528.850214243       -722386678.06947303        1066490525.7636021     
   35432323.238833576       -182880306.26954728        1447625416.4022360     
   30791969.793001935       -242756592.52989912        1347322216.7722735     
   20273063.777168572       -322228054.02358568        1246167104.5437768     
   3875605.1913277507       -421294690.75064296        1144160079.7167482     
  -18400405.964534104       -539956502.71108580        1041301142.2911648     
   22109619.604421712       -122684335.91612600        1463173014.1934032     
   20640395.854020104       -162150995.40249392        1357402952.3973720     
   15248136.324137688       -214694440.82046804        1250214219.8639114     
   5932841.0147680342       -280314672.17006344        1141606816.5930099     
  -7305490.0740826726       -359011689.45126718        1031580742.5846889     
   10312944.847836550       -62030556.899365045        1485063850.7280667     
   10395541.824593980       -81573382.302255347        1376108363.0215619     
   8510619.8124003410       -107674604.33497858        1265167446.4387436     
   4658178.8112432063       -140334222.99758500        1152241100.9796007     
  -1161781.1788637191       -179552238.29001832        1037329326.6441125     
   42298.969090729370       -918969.21923227981        1513297926.0061877     
   57407.704745981551       -1023753.2291033836        1403438448.6448431     
   60514.241969277849       -1168544.5670789252        1291026784.2682791     
   51618.580758559634       -1353343.2331699305        1176062932.8764954     
   30720.721124303644       -1578149.2273387010        1058546894.4694989     
   392081801.97865283        1206022335.4319286        1282848491.9871442     
   265360768.55912614        731569842.36840665        1057899722.1816237     
   179609887.12130928        393684522.57725018        941327291.22875512     
   134829157.66520587        192366376.05847117        933131199.12854004     
   131018580.19080754        127615402.81204458        1033311445.8809757     
  -796487460.38886392        317945615.76043254        1276339602.3080101     
  -615090202.96465242        157592713.80080757        1197183080.6862900     
  -412145295.56234622        69065311.768166214        1174179769.0677388     
  -187652738.18194601        52363409.662503250        1207329667.4523573     
   58387469.176549204        107487007.48382445        1296632775.8401461     
  -1598099309.0459282       -454043879.79792619        1366415930.0223062     
  -1257792700.3479319       -345059872.52464098        1410392070.9135070     
  -915360943.67545700       -228992038.66975927        1458298292.9583881     
  -570804039.02850235       -105840378.23327936        1510134596.1569569     
  -224121986.40706807        24395108.784796640        1565900980.5092132     
  -2012753743.9925444       -1109946151.2431521        1553077475.1300337     
  -1662746723.5907137       -776387916.60793817        1697526692.8632665     
  -1330037057.2180233       -500487528.73652232        1793682862.9006972     
  -1014624744.8744646       -282244987.62888205        1841545985.2423320     
  -716509786.56004477       -121660293.28503565        1841116059.8881717     
  -2040450765.2287080       -1649761198.5752406        1836324237.6311984     
  -1829952272.6929996       -1136391418.4490948        2058586946.5355766     
  -1656173636.1900420       -745421158.43211687        2180333478.8946729     
  -1519114855.7198365       -476850418.52431661        2201563834.7084913     
  -1418775931.2823827       -330679198.72568303        2122278013.9770243     
   131018580.19080754        127615402.81204458        1033311445.8809757     
   128993504.93960562        124039633.46904115        1156960272.0791309     
   125980400.71975291        117170434.23053508        1254473962.0594828     
   121979267.53124437        107007805.09651026        1325852515.8220353     
   116990105.37408303        93551746.066974714        1371095933.3667867     
   58387469.176549204        107487007.48382445        1296632775.8401461     
   7979473.9769942872        103050187.98557468        1352601750.5325320     
  -44608670.026248835        91346205.808362126        1397686934.5951953     
  -99376962.833184749        72375060.952174470        1431888328.0281374     
  -156325404.44380879        46136753.417026758        1455205930.8313577     
  -224121986.40706807        24395108.784796640        1565900980.5092132     
  -279337628.44617957        32169821.063929468        1552799297.2216187     
  -337925539.12401211        28703637.880657405        1544065168.8923829     
  -399885718.44057429        13996559.234953865        1539698595.5215068     
  -465218166.39585942       -11951414.873162180        1539699577.1089866     
  -716509786.56004477       -121660293.28503565        1841116059.8881717     
  -732957802.32990992       -88601467.295871019        1757552912.1463912     
  -753970206.57353675       -70757269.552580714        1693608664.9510486     
  -779546999.29092228       -68127700.055152595        1649283318.3021436     
  -809688180.48207259       -80712758.803603202        1624576872.1996799     
  -1418775931.2823827       -330679198.72568303        2122278013.9770243     
  -1352881047.6742048       -259263677.09385592        1966862595.3068488     
  -1292742672.3748200       -207036516.49133983        1846317422.7711909     
  -1238360805.3842356       -173997716.91815695        1760642496.3700519     
  -1189735446.7024474       -160147278.37429607        1709837816.1034310     
   116990105.37408303        93551746.066974714        1371095933.3667867     
   107449231.52643192        77933435.926124215        1382446354.5888343     
   98371065.150179327        63857484.023268834        1400038107.7014439     
   89755606.245323569        51323890.358403876        1423871192.7046103     
   81602854.811867565        40332654.931536064        1453945609.5983350     
  -156325404.44380879        46136753.417026758        1455205930.8313577     
  -148252510.48722991        36681447.327838458        1454420597.0627148     
  -139795115.56710014        28507811.117150269        1459520751.8563826     
  -130953219.68342188        21615844.784960054        1470506395.2123621     
  -121726822.83618674        16005548.331289649        1487377527.1306541     
  -465218166.39585942       -11951414.873162180        1539699577.1089866     
  -440548199.85861790       -15548725.477768496        1526687247.4238307     
  -415571938.86567211       -18125054.563359380        1519204562.9727371     
  -390289383.41702241       -19680402.129940316        1517251523.7557082     
  -364700533.51266634       -20214768.177497700        1520828129.7727420     
  -809688180.48207259       -80712758.803603202        1624576872.1996799     
  -769437836.58773482       -78757082.490702480        1599246305.6721895     
  -728959404.74553156       -76041113.018253624        1579089541.0505128     
  -688252884.95547628       -72564850.386293322        1564106578.3346517     
  -647318277.21756279       -68328294.594810069        1554297417.5246065     
  -1189735446.7024474       -160147278.37429607        1709837816.1034310     
  -1134921420.6745696       -152943623.71093014        1672097771.8077815     
  -1079957513.2066832       -145240364.24753708        1639175686.0897028     
  -1024843724.2987874       -137037499.98411232        1611071558.9491909     
  -969580053.95087659       -128335030.92063770        1587785390.3862507     
   81602854.811867565        40332654.931536064        1453945609.5983350     
   66537051.612484284        28797271.370604105        1469511904.5216570     
   52017178.785015792        19081655.716054130        1489273014.2874424     
   38043236.329473808        11185807.967925461        1513228938.8956988     
   24615224.245846488        5109728.1261804085        1541379678.3464174     
  -121726822.83618674        16005548.331289649        1487377527.1306541     
  -123180576.94479263        8750339.6684240401        1490308966.5367959     
  -123990832.18558782        3640127.2315905541        1498528665.4245961     
  -124157588.55857117        674911.02079892904        1512036623.7940469     
  -123680846.06374697       -145308.96396859735        1530832841.6451581     
  -364700533.51266634       -20214768.177497700        1520828129.7727420     
  -349418110.98994976       -22252563.680118442        1511238543.5735800     
  -333394621.10353357       -21820134.637072310        1508030661.4952631     
  -316630063.85341793       -18917481.048361480        1511204483.5377917     
  -299124439.23960370       -13544602.913989916        1520760009.7011573     
  -647318277.21756279       -68328294.594810069        1554297417.5246065     
  -612175550.52298725       -64211438.675022528        1532300635.6320133     
  -576194187.96882272       -57299129.889939874        1517779002.4994493     
  -539374189.55507278       -47591368.239570975        1510732518.1269157     
  -501715555.28172940       -35088153.723891959        1511161182.5144150     
  -969580053.95087659       -128335030.92063770        1587785390.3862507     
  -911452895.54390371       -117126285.31628364        1553495242.7120886     
  -852389532.78145611       -102796858.52701318        1527773688.4371510     
  -792389965.66352737       -85346750.552807689        1510620727.5614331     
  -731454194.19012272       -64775961.393680930        1502036360.0849316     
   24615224.245846488        5109728.1261804085        1541379678.3464174     
   19144745.987908714        2406758.4682340259        1556565164.9286339     
   13778348.370852804        50724.279896624386        1572684900.0232625     
   8516031.3946836963       -1958374.4388194918        1589738883.6303048     
   3357795.0593880308       -3620537.6879574643        1607727115.7497566     
  -123680846.06374697       -145308.96396859735        1530832841.6451581     
  -122692825.89374493       -477542.64020834863        1537606970.9407001     
  -122127687.22498377       -2219381.3205808550        1547867834.5187747     
  -121985430.05745018       -5370825.0050465167        1561615432.3793907     
  -122266054.39116132       -9931873.6936623268        1578849764.5225301     
  -299124439.23960370       -13544602.913989916        1520760009.7011573     
  -284385104.15560526       -9318255.6627143919        1518507992.5442238     
  -270595612.71495831       -8258053.8892797232        1522295195.4399440     
  -257755964.91766942       -10363997.593702480        1532121618.3883171     
  -245866160.76373431       -15636086.775974281        1547987261.3893447     
  -501715555.28172940       -35088153.723891959        1511161182.5144150     
  -465932088.79766554       -24115380.599262953        1499268229.7391984     
  -431625428.09908140       -18065293.426229835        1495966982.7867527     
  -398795573.18596995       -16937892.204774499        1501257441.6570837     
  -367442524.05832785       -20733176.934882402        1515139606.3501859     
  -731454194.19012272       -64775961.393680930        1502036360.0849316     
  -667333779.81994307       -44868917.449909955        1479887682.5256259     
  -605217133.37735069       -31641099.931428820        1468883196.5592105     
  -545104254.86235619       -25092508.838275135        1469022902.1856959     
  -486995144.27495140       -25223144.170419514        1480306799.4050741     
   3357795.0593880308       -3620537.6879574643        1607727115.7497566     
   2879321.5138261700       -3607808.2068815092        1599978831.4454477     
   2475424.8394351788       -3346489.1552394554        1598616532.4784000     
   2146105.0362229515       -2836580.5329997907        1603640218.8486128     
   1891362.1041788030       -2078082.3401998605        1615049890.5560880     
  -122266054.39116132       -9931873.6936623268        1578849764.5225301     
  -106452007.56420001       -9225667.8729589097        1572069116.1748927     
  -89925725.503378928       -6145344.6060559042        1571275157.4674046     
  -72687208.208716810       -690903.89301803708        1576467888.4000642     
  -54736455.680203088        7137654.2661953270        1587647308.9728820     
  -245866160.76373431       -15636086.775974281        1547987261.3893447     
  -214900438.41312295       -14578658.070278712        1542918183.7548268     
  -182584822.46598560       -9021584.0428284407        1543436500.0633507     
  -148919312.92232171        1035135.3063779175        1549542210.3149166     
  -113903909.78213112        15591499.977336660        1561235314.5095291     
  -367442524.05832785       -20733176.934882402        1515139606.3501859     
  -322465971.03295714       -19666778.798888519        1512526034.1852534     
  -275501866.04838151       -11975207.465541899        1515100560.2662477     
  -226550209.10459834        2341537.0651621521        1522863184.5931749     
  -175611000.20161363        23283454.793203324        1535813907.1660454     
  -486995144.27495140       -25223144.170419514        1480306799.4050741     
  -429148605.42369610       -24490030.058766425        1480892667.4661698     
  -368676856.25055444       -15006214.874160171        1486267338.0760911     
  -305579896.75554270        3228301.3833464682        1496430811.2348387     
  -239857726.93864563        30213518.713805154        1511383086.9424109     
   1891362.1041788030       -2078082.3401998605        1615049890.5560880     
   1557561.7546157646       -1360085.9459276854        1585237780.3996005     
   1138117.7822362778       -927568.29437769845        1558341749.5891261     
   633030.18706532253       -780529.38546663313        1534361798.1246531     
   42298.969090729370       -918969.21923227981        1513297926.0061877     
  -54736455.680203088        7137654.2661953270        1587647308.9728820     
  -45193919.665229417        15136048.084164063        1557558862.7147539     
  -34588475.622922540        26677468.659910895        1530471427.2163391     
  -22920123.553266846        41761915.993487939        1506385002.4776342     
  -10188863.456271775        60389390.084863245        1485299588.4986377     
  -113903909.78213112        15591499.977336660        1561235314.5095291     
  -94242376.220602602        30943089.573617399        1532210509.0749288     
  -72369382.981599540        53666211.428152345        1506271645.8137491     
  -48284930.065099984        83760865.541005969        1483418724.7259815     
  -21989017.471125975        121227051.91210794        1463651745.8116302     
  -175611000.20161363        23283454.793203324        1535813907.1660454     
  -145587807.91151366        46061038.522409372        1509192719.4801350     
  -112204604.29379880        80038660.010332972        1485742405.3813488     
  -75461389.348445028        125216319.25705023        1465462964.8696835     
  -35358163.075466208        181594016.26252180        1448354397.9451346     
  -239857726.93864563        30213518.713805154        1511383086.9424109     
  -199230214.73796529        60489894.930519193        1488505493.9303622     
  -154094139.55951643        105794814.40646309        1468883705.9191406     
  -104449501.40329102        166128277.14166212        1452517722.9087439     
  -50296300.269305766        241490283.13605922        1439407544.8991654     
   42298.969090729370       -918969.21923227981        1513297926.0061877     
   57407.704745981551       -1023753.2291033836        1403438448.6448431     
   60514.241969277849       -1168544.5670789252        1291026784.2682791     
   51618.580758559634       -1353343.2331699305        1176062932.8764954     
   30720.721124303644       -1578149.2273387010        1058546894.4694989     
  -10188863.456271775        60389390.084863245        1485299588.4986377     
  -10235947.140306670        79742561.209088355        1376300589.8262565     
  -8339872.8074045926        105572925.72310230        1265315640.5076184     
  -4500640.4575453252        137880483.62697116        1152344740.5427170     
   1281749.9092495441        176665234.92062849        1037387889.9315685     
  -21989017.471125975        121227051.91210794        1463651745.8116302     
  -20480475.377810009        160523523.62956482        1357794246.0794721     
  -15073615.052189574        212814389.45470768        1250517032.0700138     
  -5768436.4942404181        278099649.38760507        1141820103.7832654     
   7435060.2960149199        356379303.42820096        1031703461.2192099     
  -35358163.075466208        181594016.26252180        1448354397.9451346     
  -30676177.007778198        241319134.03228527        1347919417.4044740     
  -20140712.492402092        320555846.62767434        1246630958.9554727     
  -3751769.5293376446        419304154.04869330        1144489022.5981355     
   18490651.881423980        537564056.29536664        1041493608.3324788     
  -50296300.269305766        241490283.13605922        1439407544.8991654     
  -40823052.030198142        322129392.41729009        1346676103.8012671     
  -23541165.128048986        428797297.24199075        1253657421.1639895     
   1549360.4371821284        561493997.61029828        1160351496.9873385     
   34448524.665463567        720219493.52210808        1066758331.2713104     
  -2040450765.2287080       -1649761198.5752406        1836324237.6311984     
  -1829952272.6929996       -1136391418.4490948        2058586946.5355766     
  -1656173636.1900420       -745421158.43211687        2180333478.8946729     
  -1519114855.7198365       -476850418.52431661        2201563834.7084913     
  -1418775931.2823827       -330679198.72568303        2122278013.9770243     
  -1656751350.5740361       -681992861.72389436        1733004198.9777200     
  -1726527401.4947207       -507655478.91700178        1789879909.3230710     
  -1811602294.7160716       -384314237.11231780        1809914239.0901530     
  -1911976030.2380807       -311969136.30983549        1793107188.2789626     
  -2027648608.0607538       -290620176.50956273        1739458756.8894973     
  -1749852381.1994703        142735341.54341674        1519130863.4873164     
  -1917974987.0993834        32618723.574208736        1435610757.9610822     
  -2079975421.5678685       -57090656.290242553        1378924067.8235850     
  -2235853684.6049290       -126392798.04993904        1349070793.0748239     
  -2385609776.2105598       -175287701.70487976        1346050933.7148004     
  -2319753857.1050186        824423411.22669613        1194704231.1599882     
  -2404295029.5069861        484431189.02453315        995779492.44960463     
  -2461293016.7454453        236249584.03409052        887362965.09496534     
  -2490747818.8203845        79878596.255371928        869454649.09607255     
  -2492659435.7318063        15318225.688374519        942054544.45292258     
  -3366455778.2906647        1363071347.3259444        759724301.99573743     
  -3185487528.7175279        847781917.43398428        470386112.78863996     
  -2955555080.2487893        495706483.86070096        335230930.90429813     
  -2676658432.8844395        306845046.60610890        354258756.34271073     
  -2348797586.6244898        281197605.67019439        527469589.10387385     
  -1418775931.2823827       -330679198.72568303        2122278013.9770243     
  -1352881047.6742048       -259263677.09385592        1966862595.3068488     
  -1292742672.3748200       -207036516.49133983        1846317422.7711909     
  -1238360805.3842356       -173997716.91815695        1760642496.3700519     
  -1189735446.7024474       -160147278.37429607        1709837816.1034310     
  -2027648608.0607538       -290620176.50956273        1739458756.8894973     
  -1896698149.9747541       -225103874.65136141        1656791470.7136102     
  -1770110103.6856666       -174128945.44952822        1590658046.4108279     
  -1647884469.1935046       -137695388.90411526        1541058483.9811466     
  -1530021246.4982569       -115803205.01508534        1507992783.4245710     
  -2385609776.2105598       -175287701.70487976        1346050933.7148004     
  -2241993412.9650698       -131387520.41579580        1337758225.9637282     
  -2101345365.0046163       -97381723.410167575        1327662995.8243423     
  -1963665632.3292031       -73270310.688005805        1315765243.2966444     
  -1828954214.9388266       -59053282.249300957        1302064968.3806362     
  -2492659435.7318063        15318225.688374519        942054544.45292258     
  -2388766836.6451530        21885385.612843752        1009762861.0571918     
  -2286448456.3316607        23205149.626769423        1057332271.0117332     
  -2185704294.7913256        19277517.730174780        1084762774.3165467     
  -2086534352.0241475        10102489.923057199        1092054370.9716334     
  -2348797586.6244898        281197605.67019439        527469589.10387385     
  -2337018421.0150037        234714843.43453991        672805375.99400949     
  -2325419377.6667986        187631673.66128623        779665871.97300291     
  -2314000456.5798721        139948096.35043585        848051077.04085124     
  -2302761657.7542243        91664111.501988411        877960991.19755805     
  -1189735446.7024474       -160147278.37429607        1709837816.1034310     
  -1134921420.6745696       -152943623.71093014        1672097771.8077815     
  -1079957513.2066832       -145240364.24753708        1639175686.0897028     
  -1024843724.2987874       -137037499.98411232        1611071558.9491909     
  -969580053.95087659       -128335030.92063770        1587785390.3862507     
  -1530021246.4982569       -115803205.01508534        1507992783.4245710     
  -1464725899.1787057       -115326270.87347311        1485176769.6242111     
  -1398790043.6675422       -112714309.42648947        1467157672.2064400     
  -1332213679.9647629       -107967320.67412162        1453935491.1712511     
  -1264996808.0703726       -101085304.61637926        1445510226.5186515     
  -1828954214.9388266       -59053282.249300957        1302064968.3806362     
  -1753237666.8846922       -65321104.796565533        1294745382.9524388     
  -1676389983.8873467       -67818477.533124685        1292201671.7118425     
  -1598411165.9467793       -66545400.458946347        1294433834.6588495     
  -1519301213.0630040       -61501873.574066639        1301441871.7934585     
  -2086534352.0241475        10102489.923057199        1092054370.9716334     
  -2000456723.7925305       -2928125.4802213907        1100803611.7924650     
  -1912757333.8660920       -10552868.567429304        1114307684.6059172     
  -1823436182.2448416       -12771739.338593364        1132566589.4119864     
  -1732493268.9287705       -9584737.7936952114        1155580326.2106781     
  -2302761657.7542243        91664111.501988411        877960991.19755805     
  -2206383069.9022183        71852667.075578094        903351456.14428997     
  -2107892093.6037927        59082517.470551372        933475710.88865840     
  -2007288728.8589361        53353662.686966538        968333755.43066359     
  -1904572975.6676724        54666102.724742174        1007925589.7703054     
  -969580053.95087659       -128335030.92063770        1587785390.3862507     
  -911452895.54390371       -117126285.31628364        1553495242.7120886     
  -852389532.78145611       -102796858.52701318        1527773688.4371510     
  -792389965.66352737       -85346750.552807689        1510620727.5614331     
  -731454194.19012272       -64775961.393680930        1502036360.0849316     
  -1264996808.0703726       -101085304.61637926        1445510226.5186515     
  -1186103737.8623581       -89813717.480901182        1425533978.1937318     
  -1107266530.8457527       -78728340.983454704        1412948412.8862848     
  -1028485187.0205488       -67829175.124014556        1407753530.5963194     
  -949759706.38675475       -57116219.902602106        1409949331.3238256     
  -1519301213.0630040       -61501873.574066639        1301441871.7934585     
  -1423007689.2875023       -51177082.377525687        1294622110.6797481     
  -1327762096.2502911       -44345393.641955674        1294015122.2017660     
  -1233564433.9513736       -41006807.367362499        1299620906.3595157     
  -1140414702.3907480       -41161323.553745031        1311439463.1529968     
  -1732493268.9287705       -9584737.7936952114        1155580326.2106781     
  -1622164749.8193333       -1216380.0061495900        1160759640.1701393     
  -1513876228.9950776        351983.49746239185        1170973816.3835855     
  -1407627706.4559999       -4879647.2828540206        1186222854.8510194     
  -1303419182.2020969       -16911272.347087920        1206506755.5724375     
  -1904572975.6676724        54666102.724742174        1007925589.7703054     
  -1783574919.4578633        60068389.633203626        1023946566.6649059     
  -1665608929.0801091        55363790.434812069        1043824495.4317486     
  -1550675004.5344231        40552305.129526317        1067559376.0708340     
  -1438773145.8208015        15633933.717362463        1095151208.5821602     
  -731454194.19012272       -64775961.393680930        1502036360.0849316     
  -667333779.81994307       -44868917.449909955        1479887682.5256259     
  -605217133.37735069       -31641099.931428820        1468883196.5592105     
  -545104254.86235619       -25092508.838275135        1469022902.1856959     
  -486995144.27495140       -25223144.170419514        1480306799.4050741     
  -949759706.38675475       -57116219.902602106        1409949331.3238256     
  -863582589.96030068       -45623687.840172201        1394092150.3546929     
  -778309553.57108784       -37144755.901879430        1385999282.1162546     
  -693940597.21912110       -31679424.087737113        1385670726.6085191     
  -610475720.90438461       -29227692.397701174        1393106483.8314867     
  -1140414702.3907480       -41161323.553745031        1311439463.1529968     
  -1041837680.6571597       -40980342.397424817        1303156747.9794488     
  -943065051.07045293       -40147335.064045787        1299258466.6744061     
  -844096813.63063216       -38662301.553619772        1299744619.2378662     
  -744932968.33769310       -36525241.866132081        1304615205.6698332     
  -1303419182.2020969       -16911272.347087920        1206506755.5724375     
  -1202099051.9104989       -30938881.121601522        1207081475.3998947     
  -1099483625.8754361       -40648837.417893946        1208660750.2336586     
  -995572904.09689546       -46041141.235929728        1211244580.0737283     
  -890366886.57488251       -47115792.575723946        1214832964.9201152     
  -1438773145.8208015        15633933.717362463        1095151208.5821602     
  -1344366703.7203269       -15499304.012724817        1105866332.6160350     
  -1247565277.9860315       -38649262.963410676        1114206132.7940173     
  -1148368868.6179090       -53815943.134669304        1120170609.1161196     
  -1046777475.6159546       -60999344.526493847        1123759761.5823307     
  -486995144.27495140       -25223144.170419514        1480306799.4050741     
  -429148605.42369610       -24490030.058766425        1480892667.4661698     
  -368676856.25055444       -15006214.874160171        1486267338.0760911     
  -305579896.75554270        3228301.3833464682        1496430811.2348387     
  -239857726.93864563        30213518.713805154        1511383086.9424109     
  -610475720.90438461       -29227692.397701174        1393106483.8314867     
  -539438285.36337221       -28148485.962123662        1393059996.4912069     
  -465943556.39325672       -18878301.429532140        1398291682.7502413     
  -389991533.99403405       -1417138.7999183685        1408801542.6085889     
  -311582218.16570884        24235001.926698431        1424589576.0662503     
  -744932968.33769310       -36525241.866132081        1304615205.6698332     
  -659306433.10553813       -34680482.206226170        1303740459.8866115     
  -571390521.33705342       -25204467.425219953        1308633258.7531872     
  -481185233.03223825       -8097197.5231105685        1319293602.2695615     
  -388690568.19109428        16641327.500085071        1335721490.4357362     
  -890366886.57488251       -47115792.575723946        1214832964.9201152     
  -788753048.65019667       -44086018.791080594        1212934057.6523769     
  -685017751.08194745       -33984712.861236542        1217292066.0849261     
  -579160993.87014961       -16811874.786221504        1227906990.2177589     
  -471182777.01479489        7432495.4339754581        1244778830.0508761     
  -1046777475.6159546       -60999344.526493847        1123759761.5823307     
  -927778131.99733770       -56365095.716673106        1120640789.7885072     
  -806825245.62794578       -45219037.737599403        1124268104.7454560     
  -683918816.50776517       -27561170.589227438        1134641706.4531786     
  -559058844.63681006       -3391494.2716151774        1151761594.9116719     
  -239857726.93864563        30213518.713805154        1511383086.9424109     
  -199230214.73796529        60489894.930519193        1488505493.9303622     
  -154094139.55951643        105794814.40646309        1468883705.9191406     
  -104449501.40329102        166128277.14166212        1452517722.9087439     
  -50296300.269305766        241490283.13605922        1439407544.8991654     
  -311582218.16570884        24235001.926698431        1424589576.0662503     
  -261106708.43400687        54946428.763748229        1406674905.3328719     
  -204227330.85266361        107004081.76627141        1392979416.0178387     
  -140944085.42168880        180407960.93423176        1383503108.1211455     
  -71256972.141076311        275158066.26765108        1378245981.6428099     
  -388690568.19109428        16641327.500085071        1335721490.4357362     
  -325614556.87831306        48613556.172491193        1324980930.9982090     
  -254239372.84402108        108249693.91659081        1319422929.3965409     
  -174565016.08822787        195549740.73236591        1319047485.6307449     
  -86591486.610929951        310513696.61981797        1323854599.7008121     
  -471182777.01479489        7432495.4339754581        1244778830.0508761     
  -392753760.07087606        41491277.156747147        1243423570.9263787     
  -304130265.53357160        109531650.85746522        1248214246.0552633     
  -205312293.40290302        211553616.53606242        1259150855.4375296     
  -96299843.678869039        347557174.19255263        1276233399.0731821     
  -559058844.63681006       -3391494.2716151774        1151761594.9116719     
  -462524318.01168960        33579591.716557890        1162002825.1173766     
  -353900008.92132503        110849952.58887543        1179353365.9939883     
  -233185917.36572701        228419588.34531009        1203813217.5415106     
  -100382043.34489125        386288498.98586231        1235382379.7599323     
  -50296300.269305766        241490283.13605922        1439407544.8991654     
  -40823052.030198142        322129392.41729009        1346676103.8012671     
  -23541165.128048986        428797297.24199075        1253657421.1639895     
   1549360.4371821284        561493997.61029828        1160351496.9873385     
   34448524.665463567        720219493.52210808        1066758331.2713104     
  -71256972.141076311        275158066.26765108        1378245981.6428099     
  -57258605.788789630        376574400.57728773        1296923003.6081605     
  -34253434.942423910        508013416.53386551        1214573382.9626193     
  -2241459.6019359827        669475114.13750291        1131197119.7061853     
   38777320.232640237        860959493.38812327        1046794213.8388659     
  -86591486.610929951        310513696.61981797        1323854599.7008121     
  -70180576.635531276        432073483.61080366        1255337944.8656411     
  -43564696.334988922        587649838.35227680        1185055246.3480599     
  -6743845.7093090415        777242760.84421778        1113006504.1480660     
   40281975.241531432        1000852251.0866662        1039191718.2656674     
  -96299843.678869039        347557174.19255263        1276233399.0731821     
  -79588964.570404083        488626641.51790524        1221920927.5737057     
  -51474949.305750579        667706562.69722545        1165103011.3203008     
  -11957797.884915769        884796937.73046911        1105779650.3129590     
   38962489.692110777        1139897766.6177022        1043950844.5516902     
  -100382043.34489125        386288498.98586231        1235382379.7599323     
  -85483769.593409449        546233874.29857361        1196671951.7323618     
  -57984193.854695559        748183589.56872261        1154716677.8793366     
  -17883316.128767729        992137644.79625118        1109516558.2008746     
   34818863.584405184        1278096039.9812663        1061071592.6969528     
  -3366455778.2906647        1363071347.3259444        759724301.99573743     
  -3185487528.7175279        847781917.43398428        470386112.78863996     
  -2955555080.2487893        495706483.86070096        335230930.90429813     
  -2676658432.8844395        306845046.60610890        354258756.34271073     
  -2348797586.6244898        281197605.67019439        527469589.10387385     
  -4837828424.5962658        418834970.15609765        544650032.80263686     
  -4226227018.8634233        291623848.47950745        445918854.27497196     
  -3592402884.4322486        238488489.13068986        434704409.72847098     
  -2936356021.3027453        259428892.10963297        511006699.16313624     
  -2258086429.4749136        354445057.41634178        674825722.57896888     
  -5788016957.7958841       -369046173.08195734        444747401.23774552     
  -4936257462.5935841       -165321506.55024338        505424851.49268550     
  -4089016708.8902259        23340688.318322420        586952762.38720727     
  -3246294696.6858196        196940411.52372789        689331133.92130363     
  -2408091425.9803538        355477663.06598616        812559966.09497893     
  -6217021377.8895121       -1000572082.3882129        460016407.30105340     
  -5315578859.9080067       -523054147.65527534        648904104.44178474     
  -4445396553.6227226       -149736918.57640028        791975988.88050294     
  -3606474459.0336628        119379604.84839153        889232060.61721277     
  -2798812576.1408219        284295422.61911964        940672319.65191174     
  -6124841684.8771524       -1475742757.7626743        590457050.99257112     
  -5364191210.8066969       -781574074.83558786        876356613.12226653     
  -4661542418.6297350       -280744331.55347538        1049774089.2083639     
  -4016895308.3462734        26746472.083624601        1110709479.2508595     
  -3430249879.9563069        140898336.07575130        1059162783.2497576     
  -2348797586.6244898        281197605.67019439        527469589.10387385     
  -2337018421.0150037        234714843.43453991        672805375.99400949     
  -2325419377.6667986        187631673.66128623        779665871.97300291     
  -2314000456.5798721        139948096.35043585        848051077.04085124     
  -2302761657.7542243        91664111.501988411        877960991.19755805     
  -2258086429.4749136        354445057.41634178        674825722.57896888     
  -2335483417.5276389        261670094.97316444        747325644.80313802     
  -2409448949.9615865        180333317.92591476        800386632.09232986     
  -2479983026.7767572        110434726.27458334        834008684.44654691     
  -2547085647.9731531        51974320.019170403        848191801.86578882     
  -2408091425.9803538        355477663.06598616        812559966.09497893     
  -2520274979.1919560        232727376.96628606        816437531.17991471     
  -2625415498.9047260        133453869.19602728        819912517.30603969     
  -2723512985.1186638        57657139.755220890        822984924.47336054     
  -2814567437.8337626        5337188.6438547373        825654752.68186796     
  -2798812576.1408219        284295422.61911964        940672319.65191174     
  -2891393106.0079646        147886689.41389787        880141035.12434483     
  -2973319024.4962134        46993327.471644163        838243527.61413705     
  -3044590331.6055746       -18384663.207646370        814979797.12128890     
  -3105207027.3360462       -48247282.623957992        810349843.64579976     
  -3430249879.9563069        140898336.07575130        1059162783.2497576     
  -3448837797.9756532        7148032.3160054684        938436156.63642538     
  -3453159526.7360559       -79048307.247253060        855379663.01661563     
  -3443215066.2375069       -117690682.61401176        809993302.39033520     
  -3419004416.4800129       -108779093.78428912        802277074.75758040     
  -2302761657.7542243        91664111.501988411        877960991.19755805     
  -2206383069.9022183        71852667.075578094        903351456.14428997     
  -2107892093.6037927        59082517.470551372        933475710.88865840     
  -2007288728.8589361        53353662.686966538        968333755.43066359     
  -1904572975.6676724        54666102.724742174        1007925589.7703054     
  -2547085647.9731531        51974320.019170403        848191801.86578882     
  -2432664522.7177320        52754928.022682309        866377180.51968110     
  -2318520639.6810727        52611395.296993613        888955632.20242608     
  -2204653998.8631649        51543721.842138171        915927156.91402304     
  -2091064600.2640142        49551907.658079743        947291754.65447533     
  -2814567437.8337626        5337188.6438547373        825654752.68186796     
  -2683077251.6571674        26417806.132603168        833847142.60021746     
  -2554253938.3645110        38608847.341579318        846091888.77863157     
  -2428097497.9557800        41910312.270791173        862388991.21711862     
  -2304607930.4309859        36322200.920215130        882738449.91567504     
  -3105207027.3360462       -48247282.623957992        810349843.64579976     
  -2957621256.7205191       -7158698.5946439505        805761342.38589561     
  -2815091989.6540980        17074873.604321837        804884480.61727726     
  -2677619226.1367888        24453433.972917557        807719258.33994293     
  -2545202966.1685772        14976982.511174202        814265675.55390227     
  -3419004416.4800129       -108779093.78428912        802277074.75758040     
  -3256296537.9077864       -47974586.159070969        782119779.87671864     
  -3101034793.5498366       -11990525.914775729        765333407.71836019     
  -2953219183.4061761       -826913.05144643784        751917958.28250861     
  -2812849707.4768023       -14483747.569069862        741873431.56915700     
  -1904572975.6676724        54666102.724742174        1007925589.7703054     
  -1783574919.4578633        60068389.633203626        1023946566.6649059     
  -1665608929.0801091        55363790.434812069        1043824495.4317486     
  -1550675004.5344231        40552305.129526317        1067559376.0708340     
  -1438773145.8208015        15633933.717362463        1095151208.5821602     
  -2091064600.2640142        49551907.658079743        947291754.65447533     
  -1962302520.7688746        49224058.200022101        950917327.15235841     
  -1835167269.0832016        43473449.377082467        957980612.54360354     
  -1709658845.2069926        32300081.189259887        968481610.82821047     
  -1585777249.1402500        15703953.636551738        982420322.00617862     
  -2304607930.4309859        36322200.920215130        882738449.91567504     
  -2169279653.3044596        29904867.399455190        875608062.37653661     
  -2034172965.9648056        22748901.255807042        871496148.75188291     
  -1899287868.4120226        14854302.489251852        870402709.04170597     
  -1764624360.6460991        6221071.0998208523        872327743.24601030     
  -2545202966.1685772        14976982.511174202        814265675.55390227     
  -2404506317.0646234        2110817.2315149307        798018772.33744538     
  -2262626019.7249284       -6809853.9290245771        784371104.05658281     
  -2119562074.1495111       -11785030.970481873        773322670.71132004     
  -1975314480.3383653       -12814713.892841816        764873472.30166125     
  -2812849707.4768023       -14483747.569069862        741873431.56915700     
  -2667982512.0493464       -34158092.303786635        718149457.03507090     
  -2520526430.3635650       -45202816.177408338        696605478.45770264     
  -2370481462.4194622       -47617919.189970732        677241495.83705235     
  -2217847608.2170224       -41403401.341408372        660057509.17312527     
  -1438773145.8208015        15633933.717362463        1095151208.5821602     
  -1344366703.7203269       -15499304.012724817        1105866332.6160350     
  -1247565277.9860315       -38649262.963410676        1114206132.7940173     
  -1148368868.6179090       -53815943.134669304        1120170609.1161196     
  -1046777475.6159546       -60999344.526493847        1123759761.5823307     
  -1585777249.1402500        15703953.636551738        982420322.00617862     
  -1492803690.6731930       -9973246.6609443426        985604713.57976341     
  -1398077147.1207802       -29807163.340566218        988803125.26830566     
  -1301597618.4830024       -43797796.402304471        992015557.07181549     
  -1203365104.7598588       -51945145.846178949        995242008.99028802     
  -1764624360.6460991        6221071.0998208523        872327743.24601030     
  -1666256988.7529020       -11952082.647223294        867232404.05276632     
  -1566778630.3227985       -26421947.937916815        864540428.94533169     
  -1466189285.3557987       -37188524.772284091        864251817.92371368     
  -1364488953.8518856       -44251813.150290668        866366570.98790741     
  -1975314480.3383653       -12814713.892841816        764873472.30166125     
  -1864726597.9594419       -21435811.971548200        750749404.03504872     
  -1753669727.5920777       -28493616.755445242        741418043.82509291     
  -1642143869.2362797       -33988128.244558990        736879391.67180955     
  -1530149022.8920331       -37919346.438857019        737133447.57518554     
  -2217847608.2170224       -41403401.341408372        660057509.17312527     
  -2088212518.2928171       -38424434.633933783        636155713.52660298     
  -1958750438.9286172       -36022169.793141723        619435969.90759504     
  -1829461370.1244502       -34196606.819131494        609898278.31610084     
  -1700345311.8802977       -32947745.711831748        607542638.75212240     
  -1046777475.6159546       -60999344.526493847        1123759761.5823307     
  -927778131.99733770       -56365095.716673106        1120640789.7885072     
  -806825245.62794578       -45219037.737599403        1124268104.7454560     
  -683918816.50776517       -27561170.589227438        1134641706.4531786     
  -559058844.63681006       -3391494.2716151774        1151761594.9116719     
  -1203365104.7598588       -51945145.846178949        995242008.99028802     
  -1068902755.6966732       -44927894.237722933        991230586.61045182     
  -933361094.71865702       -34312936.246501327        991817573.32982635     
  -796740121.82579970       -20100271.872473866        997002969.14841330     
  -659039837.01811218       -2289901.1156917512        1006786774.0662069     
  -1364488953.8518856       -44251813.150290668        866366570.98790741     
  -1220700392.6343026       -36692596.730260909        860442762.04678714     
  -1076706750.3378367       -28449776.713943005        856969484.55331445     
  -932508026.96247280       -19523353.101318419        855946738.50749385     
  -788104222.50823236       -9913325.8924204111        857374523.90933013     
  -1530149022.8920331       -37919346.438857019        737133447.57518554     
  -1383171042.8102298       -31659203.194298267        728277316.09750497     
  -1236862212.4854820       -27629559.139938116        719723838.41591632     
  -1091222531.9177876       -25830414.275752127        711473014.53041780     
  -946252001.10716248       -26261768.601792037        703524844.44101501     
  -1700345311.8802977       -32947745.711831748        607542638.75212240     
  -1556314706.2244430       -29827713.629801333        594734248.76261580     
  -1413827481.1615872       -31852283.524437785        580080634.91764319     
  -1272883636.6917436       -39021455.395779967        563581797.21719539     
  -1133483172.8149037       -51335229.243800402        545237735.66128159     
  -559058844.63681006       -3391494.2716151774        1151761594.9116719     
  -462524318.01168960        33579591.716557890        1162002825.1173766     
  -353900008.92132503        110849952.58887543        1179353365.9939883     
  -233185917.36572701        228419588.34531009        1203813217.5415106     
  -100382043.34489125        386288498.98586231        1235382379.7599323     
  -659039837.01811218       -2289901.1156917512        1006786774.0662069     
  -545087608.04213965        26695355.869611114        1020821032.0505648     
  -420149216.48998111        92301154.775541365        1042987095.5576410     
  -284224662.36164790        194527495.60205221        1073284964.5874355     
  -137313945.65713376        333374378.34916228        1111714639.1399438     
  -788104222.50823236       -9913325.8924204111        857374523.90933013     
  -653812877.31908023        11962526.248735517        873914253.13509488     
  -509638989.44281387        66780187.346955925        899608282.73539174     
  -355582558.87942725        154539657.40223056        934456612.71021926     
  -191643585.62891796        275240936.41457975        978459243.05957615     
  -946252001.10716248       -26261768.601792037        703524844.44101501     
  -788700125.84251583       -10618897.146097809        721282488.37095821     
  -622369327.77981567        34287050.303125620        749216927.52724504     
  -447259606.91905934        108456073.74586958        787328161.90987325     
  -263370963.26024467        211888173.18212450        835616191.51883841     
  -1133483172.8149037       -51335229.243800402        545237735.66128159     
  -949749353.61244678       -41048914.314873040        562925737.75816607     
  -758340231.50099802       -5178256.3559721708        591813029.93320119     
  -559255806.48054588        56276744.632945567        631899612.18638372     
  -352496078.55109793        143316088.65183794        683185484.51772571     
  -100382043.34489125        386288498.98586231        1235382379.7599323     
  -85483769.593409449        546233874.29857361        1196671951.7323618     
  -57984193.854695559        748183589.56872261        1154716677.8793366     
  -17883316.128767729        992137644.79625118        1109516558.2008746     
   34818863.584405184        1278096039.9812663        1061071592.6969528     
  -137313945.65713376        333374378.34916228        1111714639.1399438     
  -127871478.94047338        482703609.44734710        1090121959.4045618     
  -95312214.351154298        709088833.45440006        1070027230.2865884     
  -39636151.889155746        1012530050.3703754        1051430451.7859967     
   39156708.445504010        1393027260.1952226        1034331623.9028356     
  -191643585.62891796        275240936.41457975        978459243.05957615     
  -174106078.96751386        418019277.39211094        986252390.14940107     
  -122936278.54799530        672905264.23000085        1000286284.2994757     
  -38134184.370394826        1039898896.9282136        1020560925.5097928     
   80300203.565340936        1519000175.4868007        1047076313.7803570     
  -263370963.26024467        211888173.18212450        835616191.51883841     
  -224187569.67452112        352180878.13290644        885063243.96687460     
  -140856386.44526392        639632881.89546108        945493839.91800702     
  -13377413.572458863        1074244184.4698398        1016907979.3722354     
   158249348.94387573        1656014785.8559947        1099305662.3295488     
  -352496078.55109793        143316088.65183794        683185484.51772571     
  -278115951.06150758        285188411.66968149        786554520.85697806     
  -149072538.04293308        609271686.45079446        905649897.14217663     
   34634160.504611731        1115565912.9951613        1040471613.3733112     
   273004144.58114505        1804071091.3027956        1191019669.5503922     
  -6124841684.8771524       -1475742757.7626743        590457050.99257112     
  -5364191210.8066969       -781574074.83558786        876356613.12226653     
  -4661542418.6297350       -280744331.55347538        1049774089.2083639     
  -4016895308.3462734        26746472.083624601        1110709479.2508595     
  -3430249879.9563069        140898336.07575130        1059162783.2497576     
  -5584147541.0200710       -734717318.97701383        552738347.70037448     
  -5173191498.0836477       -420284189.99973893        693653880.32875049     
  -4787753658.3534870       -190911738.37667251        765687064.42449832     
  -4427834021.8295832       -46599964.107802629        768837899.98762369     
  -4093432588.5119424        12651132.806862354        703106387.01812792     
  -5380779012.2542734       -94889564.718733311        390368169.81128621     
  -5194946721.8491011       -122820786.11045933        424197064.74011248     
  -5002149155.9629545       -127534422.56557631        432743348.64729291     
  -4802386314.5958281       -109030474.08412361        416007021.53282791     
  -4595658197.7477255       -67308940.666066885        373988083.39671046     
  -5514736098.5797720        443740505.01215386        103346517.32530265     
  -5429456882.1030607        110816136.83227777        67986166.356364742     
  -5304728911.4581327       -90612384.120198965        50942941.876747578     
  -5140552186.6449938       -160545057.84530592        52216843.886468522     
  -4936926707.6636400       -98981884.343033791        71807872.385510474     
  -5986018799.9965525        881172890.21565652       -308326609.75757158     
  -5876721978.8455162        280626578.82847309       -374978814.82250535     
  -5695492924.8390293       -80145623.040542364       -379714155.88713247     
  -5442331637.9770899       -201143715.39138126       -322532632.95145488     
  -5117238118.2596979       -82367698.224044323       -203434246.01547828     
  -3430249879.9563069        140898336.07575130        1059162783.2497576     
  -3448837797.9756532        7148032.3160054684        938436156.63642538     
  -3453159526.7360559       -79048307.247253060        855379663.01661563     
  -3443215066.2375069       -117690682.61401176        809993302.39033520     
  -3419004416.4800129       -108779093.78428912        802277074.75758040     
  -4093432588.5119424        12651132.806862354        703106387.01812792     
  -4005090202.8178749       -32437524.806465626        643409778.14788711     
  -3911354036.0544119       -59546912.188495398        607836736.18372488     
  -3812224088.2215648       -68677029.339241266        596387261.12565148     
  -3707700359.3193297       -59827876.258696079        609061352.97366107     
  -4595658197.7477255       -67308940.666066885        373988083.39671046     
  -4439089982.8757849       -35347294.493640184        364970349.38173884     
  -4286000395.1240149       -14981072.055128098        366529616.18541133     
  -4136389434.4924178       -6210273.3505158424        378665883.80772018     
  -3990257100.9809942       -9034898.3798220158        401379152.24867618     
  -4936926707.6636400       -98981884.343033791        71807872.385510474     
  -4750837138.1493855       -1581276.7455351353        103117870.33798739     
  -4577098603.9448538        54649213.152873278        131458303.02167234     
  -4415711105.0500574        69709585.352174997        156829170.43654832     
  -4266674641.4649940        43599839.852361917        179230472.58262557     
  -5117238118.2596979       -82367698.224044323       -203434246.01547828     
  -4940331668.6386747        68860528.437880039       -142147658.98336375     
  -4784648662.5169306        149343943.43551660       -97377203.307494432     
  -4650189099.8944864        159082546.76884460       -69122878.987870052     
  -4536952980.7713337        98076338.437844276       -57384686.024488136     
  -3419004416.4800129       -108779093.78428912        802277074.75758040     
  -3256296537.9077864       -47974586.159070969        782119779.87671864     
  -3101034793.5498366       -11990525.914775729        765333407.71836019     
  -2953219183.4061761       -826913.05144643784        751917958.28250861     
  -2812849707.4768023       -14483747.569069862        741873431.56915700     
  -3707700359.3193297       -59827876.258696079        609061352.97366107     
  -3543784682.4212236       -30711229.247074842        585255007.52428818     
  -3383647461.6261382       -14189435.912192583        566319398.20622337     
  -3227288696.9340844       -10262496.254070163        552254525.01946819     
  -3074708388.3450432       -18930410.272678971        543060387.96402538     
  -3990257100.9809942       -9034898.3798220158        401379152.24867618     
  -3820848444.5889902       -10320557.631385088        378202714.02725959     
  -3651550566.1887503       -11975476.855495930        361396825.34595609     
  -3482363465.7802811       -13999656.052180290        350961486.20477307     
  -3313287143.3635683       -16393095.221376896        346896696.60369945     
  -4266674641.4649940        43599839.852361917        179230472.58262557     
  -4087487824.4110794        13197428.688016891        160962899.38563669     
  -3904744107.2376704       -5348648.7446985245        150565689.13756672     
  -3718443489.9447641       -12038392.445749521        148038841.83841628     
  -3528585972.5323677       -6871802.4151620865        153382357.48818278     
  -4536952980.7713337        98076338.437844276       -57384686.024488136     
  -4343702821.8874893        39842729.711106062       -66464436.400583461     
  -4143228084.7728963        5691048.4202156067       -66174010.418955483     
  -3935528769.4275465       -4378705.4348382950       -56513408.079602286     
  -3720604875.8514447        9633468.1459696293       -37482629.382519402     
  -2812849707.4768023       -14483747.569069862        741873431.56915700     
  -2667982512.0493464       -34158092.303786635        718149457.03507090     
  -2520526430.3635650       -45202816.177408338        696605478.45770264     
  -2370481462.4194622       -47617919.189970732        677241495.83705235     
  -2217847608.2170224       -41403401.341408372        660057509.17312527     
  -3074708388.3450432       -18930410.272678971        543060387.96402538     
  -2922397959.1872597       -30842992.401761532        529769059.43687767     
  -2768395032.7931027       -37113917.076259613        518232123.37504315     
  -2612699609.1625714       -37743184.296179652        508449579.77851516     
  -2455311688.2956705       -32730794.061545491        500421428.64730233     
  -3313287143.3635683       -16393095.221376896        346896696.60369945     
  -3154749490.4509101       -20908717.737471104        342992226.89121431     
  -2995415729.3238225       -22770646.205469608        340416546.15263510     
  -2835285859.9823170       -21978880.625406504        339169654.38795227     
  -2674359882.4263959       -18533420.997292399        339251551.59717566     
  -3528585972.5323677       -6871802.4151620865        153382357.48818278     
  -3365037105.8402734       -4355268.3108675480        157818959.39807817     
  -3201588519.9557204       -2173003.5650241375        163158746.79047671     
  -3038240214.8786922       -325008.17761206627        169401719.66535375     
  -2874992190.6092124        1188717.8513135910        176547878.02273938     
  -3720604875.8514447        9633468.1459696293       -37482629.382519402     
  -3553260805.3553762        18817355.878000736       -25750743.042518139     
  -3386913404.6888027        24679010.845049143       -13541274.711428853     
  -3221562673.8516998        27218433.047205210       -854224.38925714744     
  -3057208612.8440971        26435622.484338880        12310407.923999699     
  -2217847608.2170224       -41403401.341408372        660057509.17312527     
  -2088212518.2928171       -38424434.633933783        636155713.52660298     
  -1958750438.9286172       -36022169.793141723        619435969.90759504     
  -1829461370.1244502       -34196606.819131494        609898278.31610084     
  -1700345311.8802977       -32947745.711831748        607542638.75212240     
  -2455311688.2956705       -32730794.061545491        500421428.64730233     
  -2308975115.9112039       -28903035.731635213        481840165.71746886     
  -2162926135.7257586       -26033918.065121889        468728269.97052377     
  -2017164747.7393324       -24123441.062006474        461085741.40647680     
  -1871690951.9519265       -23171604.722284675        458912580.02532071     
  -2674359882.4263959       -18533420.997292399        339251551.59717566     
  -2516215212.8520279       -15324886.626089692        325857142.80520123     
  -2358472717.1156788       -13456931.714941978        316219416.35149372     
  -2201132395.2173419       -12929556.263839602        310338372.23606199     
  -2044194247.1570172       -13742760.272776008        308214010.45889807     
  -2874992190.6092124        1188717.8513135910        176547878.02273938     
  -2709932809.1152792        2310012.6827318668        168206644.78979218     
  -2545390183.0983596        1708789.2574394941        161909409.05049306     
  -2381364312.5584583       -614952.42458808422        157656170.80484205     
  -2217855197.4955740       -4661212.3633272648        155446930.05284920     
  -3057208612.8440971        26435622.484338880        12310407.923999699     
  -2890127904.7009506        24001662.194854140        8888671.6712494474     
  -2723678533.6738286        19463244.851944447        5798248.0675276518     
  -2557860499.7627015        12820370.455728650        3039137.1128503266     
  -2392673802.9675837        4073039.0061390400        611338.80718736793     
  -1700345311.8802977       -32947745.711831748        607542638.75212240     
  -1556314706.2244430       -29827713.629801333        594734248.76261580     
  -1413827481.1615872       -31852283.524437785        580080634.91764319     
  -1272883636.6917436       -39021455.395779967        563581797.21719539     
  -1133483172.8149037       -51335229.243800402        545237735.66128159     
  -1871690951.9519265       -23171604.722284675        458912580.02532071     
  -1732560820.2826307       -24899789.181339145        445187487.29260612     
  -1593655352.3901467       -27376852.896408141        430656842.24286777     
  -1454974548.2744586       -30602795.867483258        415320644.87611002     
  -1316518407.9355795       -34577618.094562829        399178895.19233227     
  -2044194247.1570172       -13742760.272776008        308214010.45889807     
  -1906994099.3644361       -19428014.239962339        295110717.93520862     
  -1768699898.5324531       -21466424.742462754        282241544.63294017     
  -1629311644.6610873       -19857991.780353904        269606490.55209804     
  -1488829337.7503109       -14602715.353555143        257205555.69268748     
  -2217855197.4955740       -4661212.3633272648        155446930.05284920     
  -2079614543.4698439       -13412388.805642724        144503940.69041547     
  -1938961119.5885451       -14120999.062726140        134834742.08785218     
  -1795894925.8516140       -6787043.1343708038        126439334.24517231     
  -1650415962.2591133        8589478.9792177677        119317717.16235843     
  -2392673802.9675837        4073039.0061390400        611338.80718736793     
  -2250422152.5988808       -6852912.8784651756       -6632844.4417524263     
  -2104439015.5583625       -5340575.8569973707       -11563565.392380895     
  -1954724391.8460670        8610050.0703952312       -14180824.044683786     
  -1801278281.4619517        34998964.903833151       -14484620.398653895     
  -1133483172.8149037       -51335229.243800402        545237735.66128159     
  -949749353.61244678       -41048914.314873040        562925737.75816607     
  -758340231.50099802       -5178256.3559721708        591813029.93320119     
  -559255806.48054588        56276744.632945567        631899612.18638372     
  -352496078.55109793        143316088.65183794        683185484.51772571     
  -1316518407.9355795       -34577618.094562829        399178895.19233227     
  -1117217516.2973423       -15060715.536443651        420966426.25373739     
  -914238137.10511589        16717812.201636672        441399202.73469871     
  -707580270.35887659        60757965.119750321        460477224.63522124     
  -497243916.05865526        117059743.21782625        478200491.95529741     
  -1488829337.7503109       -14602715.353555143        257205555.69268748     
  -1309830072.7008488        3384165.1264057159        278429664.47111970     
  -1131149135.4523997        20309952.936329126        285744974.01051074     
  -952786526.00495100        36174648.076238573        279151484.31086582     
  -774742244.35851943        50978250.546089202        258649195.37217966     
  -1650415962.2591133        8589478.9792177677        119317717.16235843     
  -1527587022.8229868        14285727.673647404        135315452.41031861     
  -1409073226.5428717        5598165.8480451107        124850343.76063247     
  -1294874573.4187641       -17473206.497584760        87922391.213320017     
  -1184991063.4506752       -54928389.363278687        24531594.768367000     
  -1801278281.4619517        34998964.903833151       -14484620.398653895     
  -1770488366.6637330        17643972.105333209       -8376209.9286813857     
  -1748010410.3765278       -27417549.063200831       -41284688.014941789     
  -1733844412.6003306       -100185598.60176736       -113210054.65742119     
  -1727990373.3351521       -200660176.51039624       -224152309.85614470     
  -352496078.55109793        143316088.65183794        683185484.51772571     
  -278115951.06150758        285188411.66968149        786554520.85697806     
  -149072538.04293308        609271686.45079446        905649897.14217663     
   34634160.504611731        1115565912.9951613        1040471613.3733112     
   273004144.58114505        1804071091.3027956        1191019669.5503922     
  -497243916.05865526        117059743.21782625        478200491.95529741     
  -388348181.41258180        222965655.26383615        597330052.68191969     
  -230359734.42323285        492513941.78742272        735583681.49955070     
  -23278575.090617418        925704602.78857946        892961378.40818346     
   232895296.58526841        1522537638.2672822        1069463143.4078287     
  -774742244.35851943        50978250.546089202        258649195.37217966     
  -621623107.85578012        123830090.03034696        387040278.43617946     
  -424981832.19547588        341755726.70645463        537953157.73625374     
  -184818417.37761167        704755160.57444477        711387833.27238894     
   98867136.597809911        1212828391.6342943        907344305.04459357     
  -1184991063.4506752       -54928389.363278687        24531594.768367000     
  -977940730.39110589       -12218284.030810356        155685198.11975598     
  -732938831.35967076        156997041.20788774        312758325.85228825     
  -449985366.35636413        452717586.35277438        495750977.96593952     
  -129080335.38123101        874943351.40383816        704663154.46073186     
  -1727990373.3351521       -200660176.51039624       -224152309.85614470     
  -1457301049.0185356       -185179466.91954571       -96735188.267351642     
  -1154230731.9157882       -61762114.708235979        59999185.847642727     
  -818779422.02689183        169591880.12357968        246050812.48881534     
  -450947119.35183072        508882517.57590133        461419691.65620464     
 </DataArray>
 <DataArray  type="Float64" Name="VM" NumberOfComponents="1" format="ascii">
   6467171117.0439320     
   6079275377.9419699     
   5715876945.0704079     
   5362769118.5922451     
   5018260500.3919382     
   5732836760.9617805     
   5487843095.9638786     
   5261128778.8241968     
   5048894471.5857000     
   4850287655.9641905     
   5396211026.2356968     
   5182659994.0376883     
   4974509125.4650154     
   4769651545.1578722     
   4567749937.5180340     
   5451812288.1502676     
   5159856391.5485792     
   4859886296.0563631     
   4537288199.8976727     
   4186638147.2733278     
   5901160576.3090334     
   5411123622.1914015     
   4913746350.8268862     
   4365559342.6195765     
   3740054224.1610699     
   5018260500.3919382     
   4925722402.3036232     
   4827886600.7146654     
   4721793619.8529406     
   4606311056.3348970     
   4850287655.9641905     
   4719223958.7742672     
   4583518874.1534519     
   4442352079.9273586     
   4295278140.9308414     
   4567749937.5180340     
   4431918328.4061871     
   4296455635.2013512     
   4161623945.4916267     
   4028036268.7510805     
   4186638147.2733278     
   4073099975.5785947     
   3971890276.7816739     
   3882079738.7668104     
   3804433345.3887954     
   3740054224.1610699     
   3660913877.8819637     
   3618965238.6577449     
   3607294018.0921021     
   3623505464.5298409     
   4606311056.3348970     
   4384641431.6865683     
   4166784748.9785614     
   3952166828.3047161     
   3740482619.9487915     
   4295278140.9308414     
   4098990210.6025119     
   3905456801.1871653     
   3714454364.9512348     
   3525916788.7587571     
   4028036268.7510805     
   3854634324.3229356     
   3682679343.5549693     
   3512212429.9464607     
   3343389158.9342380     
   3804433345.3887954     
   3652583549.8372784     
   3500811211.3165941     
   3349285105.7103782     
   3198324729.1845183     
   3623505464.5298409     
   3493061451.9470124     
   3361536850.0127206     
   3229039702.7748132     
   3095954705.7163520     
   3740482619.9487915     
   3568748281.7119908     
   3397253321.1584806     
   3226041272.1649532     
   3055235823.2307234     
   3525916788.7587571     
   3363082479.6217933     
   3201219606.3395929     
   3040414510.5168571     
   2880803858.9598927     
   3343389158.9342380     
   3186101454.4753256     
   3030080303.3007746     
   2875393928.9855103     
   2722139750.4442978     
   3198324729.1845183     
   3043550773.3036671     
   2889829531.4319510     
   2737148335.2637091     
   2585515287.8624635     
   3095954705.7163520     
   2941209308.2703996     
   2786793205.2921572     
   2632553619.8676505     
   2478364021.6972508     
   3055235823.2307234     
   2892190772.5447526     
   2728149832.6277509     
   2563111509.8454695     
   2397096723.4482894     
   2880803858.9598927     
   2719225138.9050164     
   2557256775.4258890     
   2394925668.3260655     
   2232288798.8820438     
   2722139750.4442978     
   2566412960.9880028     
   2411645370.9045897     
   2258018407.2555370     
   2105814583.9257154     
   2585515287.8624635     
   2439716974.5782647     
   2297032193.2175765     
   2157889199.3883648     
   2022926680.8237190     
   2478364021.6972508     
   2345778445.0001721     
   2219217729.9089446     
   2099346774.8183630     
   1987129770.4034765     
   2397096723.4482894     
   2248256945.3344522     
   2102022042.7702274     
   1958356419.4302270     
   1817453732.1740978     
   2232288798.8820438     
   2087832371.6244867     
   1945349951.7405446     
   1804824280.6710761     
   1666340110.4858468     
   2105814583.9257154     
   1964336158.0478714     
   1823876851.9255476     
   1684450983.1942616     
   1546102787.6314726     
   2022926680.8237190     
   1884883722.8695273     
   1746825220.5735209     
   1608833997.9152396     
   1471029189.8929319     
   1987129770.4034765     
   1854985158.4815273     
   1722086770.1931653     
   1588688210.0112638     
   1455197209.1285002     
   1817453732.1740978     
   1778279602.2321432     
   1735305629.7718885     
   1697193557.4078398     
   1682660081.8709679     
   1666340110.4858468     
   1551748336.6245108     
   1427885478.7149670     
   1295057931.7988210     
   1159407720.1305165     
   1546102787.6314726     
   1396667706.2179403     
   1243668723.2539566     
   1084819428.2419305     
   918070514.75571203     
   1471029189.8929319     
   1327059317.1696160     
   1197691062.7915266     
   1087463467.9008358     
   1002334934.7670783     
   1455197209.1285002     
   1346344788.4353325     
   1272723236.3465433     
   1242498876.0214539     
   1262774406.0706017     
   1682660081.8709679     
   1384488667.5708308     
   1129512321.8193052     
   1009845300.8015927     
   1153729845.4348242     
   1159407720.1305165     
   1008615877.8060677     
   985019258.45587969     
   1161221826.1999500     
   1544423943.4534855     
   918070514.75571203     
   963241225.63662302     
   1144772223.5863693     
   1476179680.9870615     
   1957264154.6842177     
   1002334934.7670783     
   1164893984.9699898     
   1425423370.9636860     
   1808534208.4003732     
   2334313188.8711734     
   1262774406.0706017     
   1446774672.5362420     
   1715860374.6619232     
   2110524901.1426897     
   2663096767.8131943     
   5901160576.3090334     
   5411123622.1914015     
   4913746350.8268862     
   4365559342.6195765     
   3740054224.1610699     
   6337228001.0974903     
   5575116207.8208227     
   4808286863.8587332     
   4029377693.9752331     
   3232962337.3511391     
   6251616136.1289730     
   5379953412.2337914     
   4527594448.9691582     
   3702812313.0592189     
   2925146611.4945612     
   5664008646.8111525     
   4833668511.6077671     
   4074016111.0577545     
   3385461639.5366826     
   2798521358.5456023     
   4657839455.2406788     
   3966636213.7442036     
   3455342811.5871005     
   3076904280.7994871     
   2841664839.7317495     
   3740054224.1610699     
   3660913877.8819637     
   3618965238.6577449     
   3607294018.0921021     
   3623505464.5298409     
   3232962337.3511391     
   3256540514.3097882     
   3305622896.7462196     
   3376597981.1293468     
   3467282451.8690195     
   2925146611.4945612     
   3012737959.6294322     
   3107866776.0287919     
   3208561770.8616457     
   3313439866.0995321     
   2798521358.5456023     
   2916939791.3945150     
   3020531165.5973473     
   3105467583.1320109     
   3170290066.9131742     
   2841664839.7317495     
   2954470075.7915888     
   3033533443.7107377     
   3066785044.4010873     
   3048509408.3859797     
   3623505464.5298409     
   3493061451.9470124     
   3361536850.0127206     
   3229039702.7748132     
   3095954705.7163520     
   3467282451.8690195     
   3343870214.3373427     
   3221474108.8621397     
   3100411787.8548989     
   2981259678.9078097     
   3313439866.0995321     
   3198993112.9535117     
   3087947461.0836334     
   2980789344.0336699     
   2878247822.7744865     
   3170290066.9131742     
   3065588414.9698801     
   2966982803.6877503     
   2875044318.7172570     
   2790564224.5411468     
   3048509408.3859797     
   2952703578.0612798     
   2866024045.0680180     
   2789007814.1673503     
   2722380742.0293055     
   3095954705.7163520     
   2941209308.2703996     
   2786793205.2921572     
   2632553619.8676505     
   2478364021.6972508     
   2981259678.9078097     
   2827059408.9511356     
   2675627073.6599975     
   2527291058.8693604     
   2382464838.0707560     
   2878247822.7744865     
   2732822997.8930998     
   2593673592.9140840     
   2461668031.0322957     
   2337880998.9692459     
   2790564224.5411468     
   2661172612.8154140     
   2542416591.4529886     
   2435597689.4530816     
   2342320006.7077899     
   2722380742.0293055     
   2614592148.9769616     
   2522394539.0451293     
   2447247329.6608624     
   2390946887.8276391     
   2478364021.6972508     
   2345778445.0001721     
   2219217729.9089446     
   2099346774.8183630     
   1987129770.4034765     
   2382464838.0707560     
   2272579712.6999507     
   2168877194.1585155     
   2072045409.0973928     
   1982947593.1829476     
   2337880998.9692459     
   2249353891.3651700     
   2166523869.7303600     
   2089934295.7326660     
   2020200174.4953125     
   2342320006.7077899     
   2273606966.9965448     
   2209425322.1752262     
   2150075470.8847537     
   2095872904.1933060     
   2390946887.8276391     
   2340294149.5891795     
   2292437717.7633109     
   2247411686.8916359     
   2205255783.3594799     
   1987129770.4034765     
   1854985158.4815273     
   1722086770.1931653     
   1588688210.0112638     
   1455197209.1285002     
   1982947593.1829476     
   1863471564.5232372     
   1748077508.6645966     
   1637704413.7119634     
   1533523089.9422791     
   2020200174.4953125     
   1919361282.0915937     
   1827671260.8535852     
   1746473844.5371327     
   1677227915.3003871     
   2095872904.1933060     
   2015926917.0591805     
   1949431289.3368235     
   1897667546.7472379     
   1861862504.9616008     
   2205255783.3594799     
   2145162904.6190116     
   2101816786.7367923     
   2076174736.5956700     
   2069078261.8123720     
   1455197209.1285002     
   1346344788.4353325     
   1272723236.3465433     
   1242498876.0214539     
   1262774406.0706017     
   1533523089.9422791     
   1473439896.4591665     
   1446070374.6490078     
   1455336721.0811949     
   1504534222.2525287     
   1677227915.3003871     
   1649854496.3810053     
   1649982566.5187593     
   1679932098.8833363     
   1742313341.6624877     
   1861862504.9616008     
   1852706509.4291770     
   1866084117.4027689     
   1904171272.9829056     
   1970008428.2931612     
   2069078261.8123720     
   2067183118.6762943     
   2083871445.9019089     
   2121758113.5364487     
   2184671169.7834678     
   1262774406.0706017     
   1446774672.5362420     
   1715860374.6619232     
   2110524901.1426897     
   2663096767.8131943     
   1504534222.2525287     
   1613151063.4788711     
   1788914510.4056802     
   2066509381.0555310     
   2476036383.8616014     
   1742313341.6624877     
   1787337144.6944377     
   1884538265.1700099     
   2060773622.8613820     
   2341176959.8479524     
   1970008428.2931612     
   1968317042.5743449     
   2003297593.3746722     
   2093581310.2410855     
   2257743118.6564717     
   2184671169.7834678     
   2155390510.0278502     
   2145936873.6500447     
   2166801588.3950076     
   2228990104.7212276     
   4657839455.2406788     
   3966636213.7442036     
   3455342811.5871005     
   3076904280.7994871     
   2841664839.7317495     
   3482141548.6643586     
   3200243800.2720170     
   3049650671.2864871     
   3008209125.2797642     
   3073961381.0937204     
   2865951196.2042818     
   2856307747.4762144     
   2910561184.9369950     
   3021942308.8826332     
   3185219524.0560913     
   2677589308.9130621     
   2854646778.0570064     
   3005840627.6942167     
   3123029436.0615387     
   3203949914.1538830     
   2802622743.5145574     
   3096375814.1658912     
   3276319061.0933008     
   3309431556.0827656     
   3185185337.3029103     
   2841664839.7317495     
   2954470075.7915888     
   3033533443.7107377     
   3066785044.4010873     
   3048509408.3859797     
   3073961381.0937204     
   3062639141.2430625     
   3028890142.7392311     
   2968187461.7705560     
   2877352974.2762551     
   3185219524.0560913     
   3083641837.5453010     
   2978913998.1058788     
   2870804446.9233899     
   2759123847.0675726     
   3203949914.1538830     
   3039727809.8938918     
   2899076435.1919394     
   2782918911.6855001     
   2692809003.5896845     
   3185185337.3029103     
   2969558875.0121703     
   2813173769.8881345     
   2714822585.1467137     
   2674995703.3028946     
   3048509408.3859797     
   2952703578.0612798     
   2866024045.0680180     
   2789007814.1673503     
   2722380742.0293055     
   2877352974.2762551     
   2809769992.9897361     
   2751111045.7954645     
   2701859872.5470405     
   2662578549.0911798     
   2759123847.0675726     
   2716781225.4874363     
   2682601585.6349936     
   2656888199.0070395     
   2639960554.1576419     
   2692809003.5896845     
   2672393952.7714400     
   2658775879.6916142     
   2652014002.0227957     
   2652180796.7333155     
   2674995703.3028946     
   2673012672.1590424     
   2675911086.6309485     
   2683498781.8682203     
   2695644602.1252146     
   2722380742.0293055     
   2614592148.9769616     
   2522394539.0451293     
   2447247329.6608624     
   2390946887.8276391     
   2662578549.0911798     
   2583400160.9070783     
   2517969426.6761427     
   2467182234.5707030     
   2432071461.7907124     
   2639960554.1576419     
   2583452610.3381004     
   2538144728.1977978     
   2504519598.9826798     
   2483102377.1207733     
   2652180796.7333155     
   2612945022.6902280     
   2581832699.6236901     
   2559064879.2929792     
   2544868901.7341175     
   2695644602.1252146     
   2669174945.7638531     
   2647394170.2565703     
   2630380144.4895458     
   2618208242.2295008     
   2390946887.8276391     
   2340294149.5891795     
   2292437717.7633109     
   2247411686.8916359     
   2205255783.3594799     
   2432071461.7907124     
   2384377965.8033094     
   2342761946.8476133     
   2307511142.0634604     
   2278894808.1149554     
   2483102377.1207733     
   2440645250.6201520     
   2407591958.0057259     
   2384339416.5933266     
   2371247392.5186200     
   2544868901.7341175     
   2508621109.1140542     
   2485099416.8153367     
   2474680762.3560429     
   2477702224.7198000     
   2618208242.2295008     
   2587788375.0152287     
   2573488450.9906797     
   2575577510.5004759     
   2594302234.5369625     
   2205255783.3594799     
   2145162904.6190116     
   2101816786.7367923     
   2076174736.5956700     
   2069078261.8123720     
   2278894808.1149554     
   2237585410.0461578     
   2211043210.7630501     
   2199768548.9125381     
   2204187718.6159272     
   2371247392.5186200     
   2344768152.6779304     
   2331031712.3363404     
   2330273352.7601075     
   2342702057.0052176     
   2477702224.7198000     
   2462683068.5024395     
   2458472131.5809431     
   2465168635.3641381     
   2482882832.5802193     
   2594302234.5369625     
   2588003851.5802555     
   2590720774.3405919     
   2602494973.9371467     
   2623404575.3567882     
   2069078261.8123720     
   2067183118.6762943     
   2083871445.9019089     
   2121758113.5364487     
   2184671169.7834678     
   2204187718.6159272     
   2190448254.7106071     
   2191380384.8350606     
   2208956187.5235476     
   2246105960.1568055     
   2342702057.0052176     
   2318183960.1838350     
   2305183038.6474900     
   2305111599.3286691     
   2320058950.6264911     
   2482882832.5802193     
   2449523607.9844480     
   2425003129.9580736     
   2410269744.6314607     
   2406690730.5344634     
   2623404575.3567882     
   2583768336.1425281     
   2550592260.5108194     
   2524453853.3874226     
   2506143737.4977241     
   2184671169.7834678     
   2155390510.0278502     
   2145936873.6500447     
   2166801588.3950076     
   2228990104.7212276     
   2246105960.1568055     
   2181724813.8106451     
   2133899882.9034808     
   2112288854.7627637     
   2127797578.5495629     
   2320058950.6264911     
   2223860167.9543242     
   2140992433.3679893     
   2079832275.7412424     
   2050559918.8823559     
   2406690730.5344634     
   2282082894.7629452     
   2167858171.1075621     
   2070783117.3347547     
   1999666694.2497106     
   2506143737.4977241     
   2356592381.6199265     
   2214963808.6630325     
   2086273687.3201194     
   1977460868.6610007     
   2802622743.5145574     
   3096375814.1658912     
   3276319061.0933008     
   3309431556.0827656     
   3185185337.3029103     
   2982686816.4997559     
   3009466673.9420223     
   2979708503.8527732     
   2884083793.1595907     
   2717847804.2677326     
   2940621476.2791262     
   2756371864.5583739     
   2595478838.8970580     
   2460824616.8189807     
   2355400079.8462248     
   2705491184.6061811     
   2361876436.9446564     
   2140380924.0205674     
   2039959349.6930382     
   2057938807.6384361     
   2464236060.6650343     
   1941374848.5811636     
   1665781735.3552947     
   1625253405.5674849     
   1794416117.5906444     
   3185185337.3029103     
   2969558875.0121703     
   2813173769.8881345     
   2714822585.1467137     
   2674995703.3028946     
   2717847804.2677326     
   2629178614.3465824     
   2576990564.0911751     
   2560459574.8805285     
   2579367671.1495352     
   2355400079.8462248     
   2374520130.0686445     
   2404669531.8696246     
   2445588396.6641641     
   2497180754.8491688     
   2057938807.6384361     
   2175783538.1623149     
   2276998083.6334205     
   2361550817.4544868     
   2429462197.0784793     
   1794416117.5906444     
   2007908379.7383268     
   2176224611.1608200     
   2299332850.9609246     
   2377226569.0930963     
   2674995703.3028946     
   2673012672.1590424     
   2675911086.6309485     
   2683498781.8682203     
   2695644602.1252146     
   2579367671.1495352     
   2582684406.8208952     
   2592054250.1851544     
   2607423696.8607230     
   2628765671.2026105     
   2497180754.8491688     
   2506366434.3403320     
   2522971451.4433055     
   2547012783.4380918     
   2578512048.3176765     
   2429462197.0784793     
   2444248413.2365170     
   2468048082.6112375     
   2500886017.0863643     
   2542783815.9288931     
   2377226569.0930963     
   2396397053.8995132     
   2426477493.2094679     
   2467450328.5622892     
   2519299108.1238327     
   2695644602.1252146     
   2669174945.7638531     
   2647394170.2565703     
   2630380144.4895458     
   2618208242.2295008     
   2628765671.2026105     
   2616529992.6086764     
   2609705724.8814511     
   2608350053.9294915     
   2612515694.2661715     
   2578512048.3176765     
   2580150088.9222636     
   2587857268.5648642     
   2601664262.9622025     
   2621597843.2570519     
   2542783815.9288931     
   2557494543.9297452     
   2578900976.8931494     
   2607009118.2781219     
   2641823865.9577689     
   2519299108.1238327     
   2545925389.5463614     
   2579899156.1359792     
   2621208181.4171996     
   2669842725.6938663     
   2618208242.2295008     
   2587788375.0152287     
   2573488450.9906797     
   2575577510.5004759     
   2594302234.5369625     
   2612515694.2661715     
   2600432630.3728919     
   2600711889.0988412     
   2613452347.3509021     
   2638744574.4707637     
   2621597843.2570519     
   2624403596.7786961     
   2635926090.6677642     
   2656192982.2388053     
   2685230030.1714940     
   2641823865.9577689     
   2657098648.8633714     
   2677523566.8482022     
   2703102990.5839725     
   2733841226.0679398     
   2669842725.6938663     
   2696110453.0440984     
   2724004869.8274236     
   2753525411.1734185     
   2784671610.1284666     
   2594302234.5369625     
   2588003851.5802555     
   2590720774.3405919     
   2602494973.9371467     
   2623404575.3567882     
   2638744574.4707637     
   2630346664.9610381     
   2631257085.3076358     
   2641507025.1896081     
   2661145291.7149143     
   2685230030.1714940     
   2675008865.8656545     
   2674524743.3459492     
   2683794786.3729382     
   2702842306.9420910     
   2733841226.0679398     
   2721979532.7516804     
   2720432861.8520865     
   2729206318.5720930     
   2748305799.1801329     
   2784671610.1284666     
   2771250345.6080699     
   2768889680.7998638     
   2777589709.4571390     
   2797350581.0031581     
   2623404575.3567882     
   2583768336.1425281     
   2550592260.5108194     
   2524453853.3874226     
   2506143737.4977241     
   2661145291.7149143     
   2615560235.4894471     
   2575861863.6130066     
   2542377259.3638501     
   2515559295.4089446     
   2702842306.9420910     
   2653245707.6661596     
   2609114659.6051116     
   2570594456.7948861     
   2537888609.4445095     
   2748305799.1801329     
   2696679834.5863175     
   2650243300.6603980     
   2609032394.2892089     
   2573098868.4367890     
   2797350581.0031581     
   2745713542.1359978     
   2699127680.7358508     
   2657592874.5172687     
   2621109063.6844869     
   2506143737.4977241     
   2356592381.6199265     
   2214963808.6630325     
   2086273687.3201194     
   1977460868.6610007     
   2515559295.4089446     
   2348017318.8690820     
   2183934940.2273445     
   2026436249.3582516     
   1880127758.3497419     
   2537888609.4445095     
   2357476226.2885213     
   2176857065.8938594     
   1997516695.1731060     
   1821756430.5990098     
   2573098868.4367890     
   2385085525.4751773     
   2194203416.1112375     
   2000836764.7157726     
   1805599111.4716408     
   2621109063.6844869     
   2430826926.6942010     
   2236124306.2419963     
   2037001220.0090196     
   1833457696.0905561     
   2464236060.6650343     
   1941374848.5811636     
   1665781735.3552947     
   1625253405.5674849     
   1794416117.5906444     
   2424015207.5504994     
   2190855344.7428331     
   2083072993.3296885     
   2102549973.6639402     
   2247766964.1551137     
   2763285638.0095057     
   2689742066.6149116     
   2657181660.3509974     
   2667981412.3749738     
   2722577989.4508591     
   3207063883.4204040     
   3274348640.3010135     
   3317486099.1554809     
   3316116358.7357130     
   3257321253.4778428     
   3692581069.4830737     
   3908184919.7215943     
   4040492443.2255225     
   4043680955.1036634     
   3894265796.4447026     
   1794416117.5906444     
   2007908379.7383268     
   2176224611.1608200     
   2299332850.9609246     
   2377226569.0930963     
   2247766964.1551137     
   2344878507.2123599     
   2423838937.9091363     
   2484596324.5086145     
   2527182518.5586219     
   2722577989.4508591     
   2705846932.4654369     
   2697615428.2042255     
   2697724376.3552308     
   2706110701.0981355     
   3257321253.4778428     
   3122036665.4210939     
   3020771378.3809853     
   2952902395.1971202     
   2917962880.7246614     
   3894265796.4447026     
   3626623398.5316505     
   3416587021.1977377     
   3263116108.4183536     
   3165631179.1281362     
   2377226569.0930963     
   2396397053.8995132     
   2426477493.2094679     
   2467450328.5622892     
   2519299108.1238327     
   2527182518.5586219     
   2524832721.5043931     
   2532773795.2053785     
   2551002514.7073760     
   2579514998.2431188     
   2706110701.0981355     
   2679514204.2137012     
   2662600946.8901105     
   2655407431.6459231     
   2657968656.7342916     
   2917962880.7246614     
   2865380397.4108028     
   2821755573.4186826     
   2787167538.6861095     
   2761698922.8174028     
   3165631179.1281362     
   3086355822.6310086     
   3015168380.1657348     
   2952168121.5589871     
   2897466412.7042136     
   2519299108.1238327     
   2545925389.5463614     
   2579899156.1359792     
   2621208181.4171996     
   2669842725.6938663     
   2579514998.2431188     
   2584451652.1091089     
   2598577072.6870322     
   2621881693.1184940     
   2654359916.8236971     
   2657968656.7342916     
   2639382229.0186615     
   2631885788.5869813     
   2635496082.0283756     
   2650234024.7581773     
   2761698922.8174028     
   2717242914.1629753     
   2685745112.2922316     
   2667294157.5674300     
   2661986056.1297288     
   2897466412.7042136     
   2824491505.2091770     
   2766186810.8914371     
   2722767519.3429270     
   2694472155.3173013     
   2669842725.6938663     
   2696110453.0440984     
   2724004869.8274236     
   2753525411.1734185     
   2784671610.1284666     
   2654359916.8236971     
   2666027148.7314339     
   2683716368.9827843     
   2707430960.2362800     
   2737176106.1284966     
   2650234024.7581773     
   2644978509.2716851     
   2650132746.5055842     
   2665720189.4225693     
   2691773384.9387169     
   2661986056.1297288     
   2636257538.1426544     
   2625372557.5170774     
   2629428029.6952453     
   2648541051.6811810     
   2694472155.3173013     
   2643408350.5650096     
   2611703033.9115849     
   2599649036.0766358     
   2607573889.6356444     
   2784671610.1284666     
   2771250345.6080699     
   2768889680.7998638     
   2777589709.4571390     
   2797350581.0031581     
   2737176106.1284966     
   2724819071.0740190     
   2722919139.1258979     
   2731480678.5294886     
   2750510797.7704358     
   2691773384.9387169     
   2680494607.5257053     
   2679246179.6625133     
   2688043037.1457744     
   2706909723.3112507     
   2648541051.6811810     
   2638415098.1232252     
   2638055081.8631902     
   2647488959.8864622     
   2666766440.0500479     
   2607573889.6356444     
   2598728093.2271624     
   2599535952.3174486     
   2610036688.9515634     
   2630309494.7730899     
   2797350581.0031581     
   2745713542.1359978     
   2699127680.7358508     
   2657592874.5172687     
   2621109063.6844869     
   2750510797.7704358     
   2698318824.7742910     
   2651388155.5764890     
   2609753610.0241652     
   2573462763.1667418     
   2706909723.3112507     
   2656268507.3079581     
   2611238019.2923021     
   2571961322.2607727     
   2538636342.1765265     
   2666766440.0500479     
   2619734976.7307348     
   2578811402.9414234     
   2544320665.6246862     
   2516711903.1426706     
   2630309494.7730899     
   2588889518.1124167     
   2554231377.9377847     
   2526911855.3320956     
   2507723187.1561451     
   2621109063.6844869     
   2430826926.6942010     
   2236124306.2419963     
   2037001220.0090196     
   1833457696.0905561     
   2573462763.1667418     
   2385348995.8477187     
   2194348803.4576979     
   2000836584.3271756     
   1805410399.3257544     
   2538636342.1765265     
   2358026822.0787849     
   2177177898.7729774     
   1997557593.2189140     
   1821441155.2667377     
   2516711903.1426706     
   2348880364.8131790     
   2184464274.3085313     
   2026565703.4669967     
   1879761665.1030588     
   2507723187.1561451     
   2357794256.8492661     
   2215736104.6562133     
   2086541335.0726647     
   1977122235.1498599     
   3692581069.4830737     
   3908184919.7215943     
   4040492443.2255225     
   4043680955.1036634     
   3894265796.4447026     
   3330158760.0821004     
   3460222554.6794715     
   3544114051.7493072     
   3578016173.4387751     
   3561417368.0081139     
   3202405073.0966558     
   3150426744.6353536     
   3148825922.4585009     
   3192553374.5444965     
   3277079656.6985049     
   3500763617.6222773     
   3186652484.7355328     
   3009567365.4355512     
   2945677661.7607126     
   2985660584.2853360     
   4417154113.6397057     
   3772327263.8405004     
   3283787127.4364929     
   2908001277.4896784     
   2662906486.5703874     
   3894265796.4447026     
   3626623398.5316505     
   3416587021.1977377     
   3263116108.4183536     
   3165631179.1281362     
   3561417368.0081139     
   3384679520.4546952     
   3232021399.2118988     
   3103572281.1352038     
   2999886787.4511409     
   3277079656.6985049     
   3180883273.9323540     
   3083596925.8968334     
   2985161199.9108992     
   2885597790.1750765     
   2985660584.2853360     
   2969482810.1926241     
   2938587585.0384645     
   2889626389.3250346     
   2820027500.2594676     
   2662906486.5703874     
   2724569744.4887433     
   2775381031.9564147     
   2802783514.5417142     
   2799042813.0546904     
   3165631179.1281362     
   3086355822.6310086     
   3015168380.1657348     
   2952168121.5589871     
   2897466412.7042136     
   2999886787.4511409     
   2933777572.3064957     
   2875640685.7170033     
   2825668049.7343912     
   2784072919.3871856     
   2885597790.1750765     
   2827133276.3018503     
   2776787350.2733965     
   2734896065.9481091     
   2701827459.7599478     
   2820027500.2594676     
   2762477848.7051373     
   2713597566.4168124     
   2673932574.8384309     
   2644072043.5240750     
   2799042813.0546904     
   2734950662.2668562     
   2680554066.2429624     
   2636695212.9134088     
   2604274211.3507934     
   2897466412.7042136     
   2824491505.2091770     
   2766186810.8914371     
   2722767519.3429270     
   2694472155.3173013     
   2784072919.3871856     
   2721180178.4810071     
   2671017356.2593741     
   2633995308.2295027     
   2610542171.4480515     
   2701827459.7599478     
   2642514678.1382637     
   2594121040.8952961     
   2557307516.2330694     
   2532769110.2783494     
   2644072043.5240750     
   2582931592.8053751     
   2530986617.1171989     
   2489165488.3393774     
   2458479353.7099171     
   2604274211.3507934     
   2537180303.4291434     
   2477547458.5582967     
   2426555165.1240091     
   2385555444.3339915     
   2694472155.3173013     
   2643408350.5650096     
   2611703033.9115849     
   2599649036.0766358     
   2607573889.6356444     
   2610542171.4480515     
   2557134208.2706251     
   2518177397.5968924     
   2494157891.4831557     
   2485544023.5710468     
   2532769110.2783494     
   2477713221.0644050     
   2432558250.1034031     
   2397783915.3074508     
   2373839267.5920625     
   2458479353.7099171     
   2404151578.0138507     
   2355505522.7840047     
   2312744728.5950065     
   2276066815.1538801     
   2385555444.3339915     
   2335711101.8043537     
   2287807100.4650884     
   2241471222.4335647     
   2196387777.4351759     
   2607573889.6356444     
   2598728093.2271624     
   2599535952.3174486     
   2610036688.9515634     
   2630309494.7730899     
   2485544023.5710468     
   2469504017.2971973     
   2464614058.0723839     
   2470973106.3093247     
   2488692104.3718681     
   2373839267.5920625     
   2347816049.8204913     
   2334584292.1203032     
   2334376869.3566041     
   2347398840.9852161     
   2276066815.1538801     
   2236722837.4840479     
   2211905077.2784495     
   2202099008.6100545     
   2207712282.5248232     
   2196387777.4351759     
   2139897736.3947046     
   2099634299.3889747     
   2076509178.5483687     
   2071310349.4337568     
   2630309494.7730899     
   2588889518.1124167     
   2554231377.9377847     
   2526911855.3320956     
   2507723187.1561451     
   2488692104.3718681     
   2453924524.5641866     
   2428206497.5078845     
   2412484663.8233953     
   2408128403.1207619     
   2347398840.9852161     
   2321839960.3704004     
   2307922786.6376114     
   2307056045.6186891     
   2321331016.3335929     
   2207712282.5248232     
   2193303314.0560575     
   2193609058.8750362     
   2210593870.1913862     
   2247188113.5096731     
   2071310349.4337568     
   2069139774.9384005     
   2085518116.2381811     
   2123043617.0350039     
   2185538986.2886496     
   2507723187.1561451     
   2357794256.8492661     
   2215736104.6562133     
   2086541335.0726647     
   1977122235.1498599     
   2408128403.1207619     
   2283128727.0155973     
   2168459739.4235086     
   2070875014.3135438     
   1999175731.6996181     
   2321331016.3335929     
   2224759771.8099079     
   2141471179.5241423     
   2079842260.5633342     
   2050065814.1561587     
   2247188113.5096731     
   2182487559.2475061     
   2134302454.3639145     
   2112305550.3493795     
   2127433156.7599704     
   2185538986.2886496     
   2156025123.0304818     
   2146307408.3764067     
   2166905768.4007626     
   2228869391.3055048     
   4417154113.6397057     
   3772327263.8405004     
   3283787127.4364929     
   2908001277.4896784     
   2662906486.5703874     
   5147444928.9515553     
   4446913395.3289394     
   3792873020.7184758     
   3199163822.4881439     
   2718661888.3955793     
   5665217615.0889645     
   4933990500.4592628     
   4224876747.7486448     
   3555569382.4609728     
   2960076433.6206765     
   5836674272.5478058     
   5197293362.6745462     
   4582576740.5299034     
   3977895169.8630481     
   3371121262.5371094     
   5630162535.8596811     
   5243748214.5706501     
   4879156730.9502516     
   4465940854.0758686     
   3954144722.2785339     
   2662906486.5703874     
   2724569744.4887433     
   2775381031.9564147     
   2802783514.5417142     
   2799042813.0546904     
   2718661888.3955793     
   2794560262.0025625     
   2862573065.2755666     
   2919434764.7777014     
   2963278196.6756454     
   2960076433.6206765     
   2998699003.7063055     
   3045941224.2809243     
   3099966105.0427861     
   3159423608.3408904     
   3371121262.5371094     
   3336700143.2174172     
   3330242811.5101109     
   3347606715.9155879     
   3385974200.8961463     
   3954144722.2785339     
   3815910496.2501111     
   3721910267.6489506     
   3665053097.4814506     
   3641490546.8955879     
   2799042813.0546904     
   2734950662.2668562     
   2680554066.2429624     
   2636695212.9134088     
   2604274211.3507934     
   2963278196.6756454     
   2881111428.0942297     
   2805532546.5041342     
   2737436712.1009502     
   2677817730.7871952     
   3159423608.3408904     
   3058820953.4364309     
   2961745275.6597047     
   2868853529.6760006     
   2780993879.9744062     
   3385974200.8961463     
   3267132695.2983127     
   3149066350.9756012     
   3031987941.3416333     
   2916416925.0067654     
   3641490546.8955879     
   3504951251.4603181     
   3366984288.7030382     
   3227259521.8699260     
   3085890668.2006316     
   2604274211.3507934     
   2537180303.4291434     
   2477547458.5582967     
   2426555165.1240091     
   2385555444.3339915     
   2677817730.7871952     
   2581158262.0299926     
   2490520118.3114862     
   2406879447.1852303     
   2331370441.9763937     
   2780993879.9744062     
   2659249701.0276561     
   2542276338.2013488     
   2430746856.7566857     
   2325463989.0639825     
   2916416925.0067654     
   2774388660.7195649     
   2636252797.6643848     
   2502356295.0843968     
   2373144055.7001715     
   3085890668.2006316     
   2928375009.2634664     
   2774335860.2918816     
   2623840804.2856383     
   2477047348.4628835     
   2385555444.3339915     
   2335711101.8043537     
   2287807100.4650884     
   2241471222.4335647     
   2196387777.4351759     
   2331370441.9763937     
   2264492035.6240950     
   2201597221.1151509     
   2142744057.5896580     
   2088012659.6921790     
   2325463989.0639825     
   2238954240.6051602     
   2157866194.2324700     
   2082633478.2339659     
   2013747830.2646155     
   2373144055.7001715     
   2264633933.6451297     
   2162244933.7813988     
   2066628171.0361199     
   1978602743.5521028     
   2477047348.4628835     
   2344344652.3236480     
   2217779339.8515253     
   2097966794.5917232     
   1985840215.7092943     
   2196387777.4351759     
   2139897736.3947046     
   2099634299.3889747     
   2076509178.5483687     
   2071310349.4337568     
   2088012659.6921790     
   2011010267.0932660     
   1947156965.2413275     
   1897690414.9697831     
   1863783367.1512966     
   2013747830.2646155     
   1915137166.9603879     
   1825558775.2114015     
   1746333632.4054487     
   1678888628.9200034     
   1978602743.5521028     
   1860520866.0870733     
   1746546529.1017435     
   1637628970.6814704     
   1534950780.7205441     
   1985840215.7092943     
   1854106342.1199563     
   1721734506.1559889     
   1589011951.1662934     
   1456394299.4473495     
   2071310349.4337568     
   2069139774.9384005     
   2085518116.2381811     
   2123043617.0350039     
   2185538986.2886496     
   1863783367.1512966     
   1854349262.8340669     
   1867429080.2194870     
   1905186595.2251782     
   1970659499.6898639     
   1678888628.9200034     
   1651246195.9947734     
   1651093718.5014825     
   1680744047.0905275     
   1742808213.1845691     
   1534950780.7205441     
   1474629040.8292413     
   1447009469.1840801     
   1456011263.8418913     
   1504934986.3309247     
   1456394299.4473495     
   1347359947.0476973     
   1273541451.2783885     
   1243100392.1318631     
   1263146295.8306043     
   2185538986.2886496     
   2156025123.0304818     
   2146307408.3764067     
   2166905768.4007626     
   2228869391.3055048     
   1970659499.6898639     
   1968800541.7659709     
   2003584547.6262839     
   2093666379.1390319     
   2257661967.1234274     
   1742808213.1845691     
   1787711965.4884727     
   1884769811.9092484     
   2060857451.6798477     
   2341140758.9364996     
   1504934986.3309247     
   1613461139.8905740     
   1789117918.2961555     
   2066604859.9883311     
   2476041878.3617368     
   1263146295.8306043     
   1447066135.8660867     
   1716061040.5072949     
   2110638215.5957997     
   2663131322.3639622     
   5630162535.8596811     
   5243748214.5706501     
   4879156730.9502516     
   4465940854.0758686     
   3954144722.2785339     
   5341938078.2287760     
   5119355974.6132565     
   4878916278.5369329     
   4601617533.4773273     
   4276822739.0860071     
   5376650346.9998417     
   5186939212.8088827     
   4996160067.5561657     
   4803163647.8652964     
   4608131632.0862598     
   5752249400.1989899     
   5486968201.4768696     
   5260748125.9245186     
   5062997239.5226374     
   4889769476.5185251     
   6493750851.2488518     
   6056864222.6599007     
   5693956679.6159420     
   5373715990.2500305     
   5088769178.1973219     
   3954144722.2785339     
   3815910496.2501111     
   3721910267.6489506     
   3665053097.4814506     
   3641490546.8955879     
   4276822739.0860071     
   4141716183.0292282     
   4022154107.9812846     
   3917012905.6871791     
   3826442824.0901437     
   4608131632.0862598     
   4466482906.5128155     
   4325372448.4023972     
   4185000784.5737438     
   4045923561.4975300     
   4889769476.5185251     
   4753403360.8475027     
   4610292491.8339911     
   4459256389.3344202     
   4299861679.1859903     
   5088769178.1973219     
   4981207733.9491816     
   4863966662.6686125     
   4733250866.3317862     
   4587854407.0709534     
   3641490546.8955879     
   3504951251.4603181     
   3366984288.7030382     
   3227259521.8699260     
   3085890668.2006316     
   3826442824.0901437     
   3671251740.5753875     
   3516164446.9803019     
   3361150516.5996675     
   3206357481.2330518     
   4045923561.4975300     
   3871520107.4703870     
   3698926720.8607469     
   3528147006.8292813     
   3359291197.6570306     
   4299861679.1859903     
   4103584089.6519337     
   3910777432.5087295     
   3721283290.0579548     
   3535151606.9863782     
   4587854407.0709534     
   4365278821.4935532     
   4147660504.5608816     
   3934559015.0256791     
   3725996593.7973695     
   3085890668.2006316     
   2928375009.2634664     
   2774335860.2918816     
   2623840804.2856383     
   2477047348.4628835     
   3206357481.2330518     
   3048473616.9109159     
   2892807653.1021333     
   2739447958.6863365     
   2588537677.7406478     
   3359291197.6570306     
   3199976680.9264121     
   3041788391.1741657     
   2884808612.8765435     
   2729148965.6318841     
   3535151606.9863782     
   3373952952.3110514     
   3212954876.7064672     
   3052213472.8583107     
   2891799876.0903993     
   3725996593.7973695     
   3562985927.4435010     
   3399401011.2731590     
   3235258101.2487383     
   3070585806.6106935     
   2477047348.4628835     
   2344344652.3236480     
   2217779339.8515253     
   2097966794.5917232     
   1985840215.7092943     
   2588537677.7406478     
   2441715568.4045057     
   2298202855.4733086     
   2158396346.3209419     
   2022917726.5276256     
   2729148965.6318841     
   2571295737.4105740     
   2414709298.8427100     
   2259562135.7684932     
   2106137160.9678144     
   2891799876.0903993     
   2726697924.4666519     
   2561641584.9592109     
   2396664003.5921192     
   2231828119.2960982     
   3070585806.6106935     
   2902244008.4252071     
   2733480575.0062723     
   2564300124.0863218     
   2394713154.4274712     
   1985840215.7092943     
   1854106342.1199563     
   1721734506.1559889     
   1589011951.1662934     
   1456394299.4473495     
   2022917726.5276256     
   1885158426.4555922     
   1747356161.0152953     
   1609607061.4684408     
   1472048107.3943138     
   2106137160.9678144     
   1965000214.1859455     
   1824766654.6017463     
   1685455100.9332485     
   1547109944.0085340     
   2231828119.2960982     
   2087996194.7731254     
   1946003797.7249463     
   1805839568.7492886     
   1667582979.5635686     
   2394713154.4274712     
   2247032902.3508615     
   2101869245.1933043     
   1959197576.3662958     
   1819203304.4302840     
   1456394299.4473495     
   1347359947.0476973     
   1273541451.2783885     
   1243100392.1318631     
   1263146295.8306043     
   1472048107.3943138     
   1327860649.6042104     
   1198288231.8500931     
   1087874225.2373617     
   1002591079.2486079     
   1547109944.0085340     
   1397379042.1181958     
   1244120177.8947229     
   1085059509.9573629     
   918159871.84367394     
   1667582979.5635686     
   1552571963.3888912     
   1428345108.1046460     
   1295210756.4608624     
   1159282836.6349690     
   1819203304.4302840     
   1779435105.9467740     
   1735937565.6933458     
   1697349966.9604070     
   1682322548.5904837     
   1263146295.8306043     
   1447066135.8660867     
   1716061040.5072949     
   2110638215.5957997     
   2663131322.3639622     
   1002591079.2486079     
   1165129124.0389717     
   1425601988.0716059     
   1808634860.2677889     
   2334314346.7855444     
   918159871.84367394     
   963392628.27976525     
   1144913668.8358235     
   1476247731.6352777     
   1957201985.4063194     
   1159282836.6349690     
   1008604106.5522654     
   985073571.13188493     
   1161233580.4399695     
   1544272018.1853793     
   1682322548.5904837     
   1384279105.1619411     
   1129413616.5970707     
   1009773487.6227434     
   1153480915.3513477     
 </DataArray>
 <DataArray  type="Float64" Name="strain" NumberOfComponents="3" format="ascii">
  0.10796020177291066       -3.1249745761767977E-002   5.8599472548344078E-003
  0.10187093123201818       -2.7854240815465503E-002  -2.3906743365597061E-003
   9.5781660691125703E-002  -2.5679658385567794E-002  -6.8678306602869554E-003
   8.9692390150233225E-002  -2.4725998472075308E-002  -7.5715217163470905E-003
   8.3603119609340748E-002  -2.4993261074988005E-002  -4.5017475047409716E-003
   9.5024046221487635E-002  -2.9660128680501607E-002   1.0645118063914771E-002
   9.1506161741754188E-002  -2.6689628509249885E-002   7.1044312160331025E-003
   8.7988277262020964E-002  -2.4668219297912297E-002   4.9330512228030754E-003
   8.4470392782287657E-002  -2.3595901046488732E-002   4.1309780842251342E-003
   8.0952508302554349E-002  -2.3472673754979190E-002   4.6982118002982798E-003
   8.9084911358243923E-002  -2.8070511599235071E-002   1.4869368319698928E-002
   8.5734254526654702E-002  -2.5525016203034323E-002   1.6310447771820724E-002
   8.2383597695065425E-002  -2.3656780210256606E-002   1.6716675665578912E-002
   7.9032940863476092E-002  -2.2465803620901982E-002   1.6088052000973768E-002
   7.5682284031886871E-002  -2.1952086434970319E-002   1.4424576778004877E-002
   9.0142797183179801E-002  -2.6480894517968590E-002   1.8532698022186531E-002
   8.4555209586719499E-002  -2.4360403896818678E-002   2.5227375330802632E-002
   7.8967621990259099E-002  -2.2645341122600790E-002   2.8483042668040186E-002
   7.3380034393798782E-002  -2.1335706195315097E-002   2.8299700033899065E-002
   6.7792446797338451E-002  -2.0431499114961588E-002   2.4677347428379230E-002
   9.8197703696295269E-002  -2.4891277436702164E-002   2.1635107171378065E-002
   8.7969026921948579E-002  -2.3195791590603032E-002   3.3855213892979408E-002
   7.7740350147602083E-002  -2.1633902034945141E-002   4.0232152230187168E-002
   6.7511673373255518E-002  -2.0205608769728406E-002   4.0765922183000902E-002
   5.7282996598908953E-002  -1.8910911794952745E-002   3.5456523751420888E-002
   8.3603119609340748E-002  -2.4993261074988005E-002  -4.5017475047409716E-003
   8.1869575755793844E-002  -2.5549754453541962E-002  -1.0651345938371137E-003
   8.0136031902247051E-002  -2.5463786866974286E-002   1.2922867058268173E-003
   7.8402488048700147E-002  -2.4735358315284957E-002   2.5705163942512377E-003
   7.6668944195153355E-002  -2.3364468798473537E-002   2.7695544714358977E-003
   8.0952508302554349E-002  -2.3472673754979190E-002   4.6982118002982798E-003
   7.8523027169632248E-002  -2.3621730870790947E-002   6.4219576343820806E-003
   7.6093546036710202E-002  -2.3366265841331085E-002   7.8330205209553305E-003
   7.3664064903788171E-002  -2.2706278666599695E-002   8.9314004600175162E-003
   7.1234583770866056E-002  -2.1641769346596895E-002   9.7170974515690123E-003
   7.5682284031886871E-002  -2.1952086434970319E-002   1.4424576778004877E-002
   7.3323374283318518E-002  -2.1693707288039793E-002   1.4197516715418801E-002
   7.0964464534750166E-002  -2.1268744815687760E-002   1.4424282369050426E-002
   6.8605554786181785E-002  -2.0677199017914653E-002   1.5104873738900654E-002
   6.6246645037613461E-002  -1.9919069894719810E-002   1.6239290824968777E-002
   6.7792446797338451E-002  -2.0431499114961588E-002   2.4677347428379230E-002
   6.6270617096852696E-002  -1.9765683705288598E-002   2.2261542649272693E-002
   6.4748787396366886E-002  -1.9171223790044496E-002   2.1066072250112960E-002
   6.3226957695881089E-002  -1.8648119369229388E-002   2.1090936230900539E-002
   6.1705127995395320E-002  -1.8196370442842891E-002   2.2336134591634971E-002
   5.7282996598908953E-002  -1.8910911794952745E-002   3.5456523751420888E-002
   5.7364755610234686E-002  -1.7837660122537485E-002   3.0614035435943598E-002
   5.7446514621560418E-002  -1.7073702764401108E-002   2.7758390164142360E-002
   5.7528273632886151E-002  -1.6619039720544012E-002   2.6889587936017076E-002
   5.7610032644211884E-002  -1.6473670990966027E-002   2.8007628751567870E-002
   7.6668944195153355E-002  -2.3364468798473537E-002   2.7695544714358977E-003
   7.3103901337364385E-002  -2.1785812287372697E-002   1.3176160988552788E-003
   6.9538858479575416E-002  -2.0434082752814442E-002   3.2347965735052275E-004
   6.5973815621786447E-002  -1.9309280194798328E-002  -2.1285485307875884E-004
   6.2408772763997478E-002  -1.8411404613324578E-002  -2.9138743243173337E-004
   7.1234583770866056E-002  -2.1641769346596895E-002   9.7170974515690123E-003
   6.8081010408664488E-002  -2.0426016419125559E-002   8.5007673810955642E-003
   6.4927437046462921E-002  -1.9312298421989282E-002   7.6495743707212516E-003
   6.1773863684261326E-002  -1.8300615355188551E-002   7.1635184204455749E-003
   5.8620290322059732E-002  -1.7390967218722242E-002   7.0425995302689781E-003
   6.6246645037613461E-002  -1.9919069894719810E-002   1.6239290824968777E-002
   6.3411876300022249E-002  -1.9066220550878504E-002   1.5383461102809970E-002
   6.0577107562431037E-002  -1.8190514091164567E-002   1.4800103569773654E-002
   5.7742338824839826E-002  -1.7291950515577997E-002   1.4489218225858830E-002
   5.4907570087248614E-002  -1.6370529824119462E-002   1.4450805071066386E-002
   6.1705127995395320E-002  -1.8196370442842891E-002   2.2336134591634971E-002
   5.9096499011437584E-002  -1.7706424682631297E-002   2.1965697263998676E-002
   5.6487870027479840E-002  -1.7068729760339518E-002   2.1775067254507410E-002
   5.3879241043522097E-002  -1.6283285675968276E-002   2.1764244563161061E-002
   5.1270612059564361E-002  -1.5350092429516904E-002   2.1933229189959477E-002
   5.7610032644211884E-002  -1.6473670990966027E-002   2.8007628751567870E-002
   5.5134878542910631E-002  -1.6346628814384034E-002   2.8247475864661198E-002
   5.2659724441609324E-002  -1.5946945429514567E-002   2.8574465424922646E-002
   5.0184570340308016E-002  -1.5274620836357968E-002   2.8988597432351756E-002
   4.7709416239006763E-002  -1.4329655034914235E-002   2.9489871886949293E-002
   6.2408772763997478E-002  -1.8411404613324578E-002  -2.9138743243173337E-004
   5.9526823409091656E-002  -1.7637064863566865E-002  -3.6985847855941500E-004
   5.6644874054185723E-002  -1.6882869800697808E-002  -2.3845703629282733E-004
   5.3762924699279846E-002  -1.6148819424717312E-002   1.0281689436614228E-004
   5.0880975344373969E-002  -1.5434913735625333E-002   6.5396331341927016E-004
   5.8620290322059732E-002  -1.7390967218722242E-002   7.0425995302689781E-003
   5.5906839179231727E-002  -1.6551519093749467E-002   6.9692615251829015E-003
   5.3193388036403721E-002  -1.5750436061428896E-002   7.0230474558586331E-003
   5.0479936893575744E-002  -1.4987718121760141E-002   7.2039573222970055E-003
   4.7766485750747767E-002  -1.4263365274743034E-002   7.5119911244982962E-003
   5.4907570087248614E-002  -1.6370529824119462E-002   1.4450805071066386E-002
   5.2279868603867657E-002  -1.5465973323932070E-002   1.4364379701257257E-002
   4.9652167120486534E-002  -1.4618002322159956E-002   1.4322329714580029E-002
   4.7024465637105481E-002  -1.3826616818803074E-002   1.4324655111034437E-002
   4.4396764153724455E-002  -1.3091816813861401E-002   1.4371355890620274E-002
   5.1270612059564361E-002  -1.5350092429516904E-002   2.1933229189959477E-002
   4.8645911682999241E-002  -1.4380427554114894E-002   2.1815496049665289E-002
   4.6021211306434155E-002  -1.3485568582891475E-002   2.1659389739871894E-002
   4.3396510929869042E-002  -1.2665515515846066E-002   2.1464910260578448E-002
   4.0771810553303950E-002  -1.1920268352979324E-002   2.1232057611785385E-002
   4.7709416239006763E-002  -1.4329655034914235E-002   2.9489871886949293E-002
   4.5004968416626684E-002  -1.3294881784297552E-002   2.9322610570406138E-002
   4.2300520594246549E-002  -1.2353134843622382E-002   2.9034227531732792E-002
   3.9596072771866414E-002  -1.1504414212889238E-002   2.8624722770928923E-002
   3.6891624949486279E-002  -1.0748719892097247E-002   2.8094096287994419E-002
   5.0880975344373969E-002  -1.5434913735625333E-002   6.5396331341927016E-004
   4.8146453962478741E-002  -1.4693754756329280E-002   5.1776677511417013E-004
   4.5411932580583403E-002  -1.3877944509736284E-002   3.7398568695812262E-004
   4.2677411198688064E-002  -1.2987482995845998E-002   2.2262004895201581E-004
   3.9942889816792837E-002  -1.2022370214658906E-002   6.3669861095183578E-005
   4.7766485750747767E-002  -1.4263365274743034E-002   7.5119911244982962E-003
   4.5061445754692231E-002  -1.3531726409453992E-002   7.2214227167324285E-003
   4.2356405758636723E-002  -1.2747150414969211E-002   6.9974016304961695E-003
   3.9651365762581145E-002  -1.1909637291288244E-002   6.8399278657896301E-003
   3.6946325766525567E-002  -1.1019187038410871E-002   6.7490014226130324E-003
   4.4396764153724455E-002  -1.3091816813861401E-002   1.4371355890620274E-002
   4.1795337414888833E-002  -1.2369698062579593E-002   1.3904701475292741E-002
   3.9193910676053156E-002  -1.1616356320202831E-002   1.3578726252875289E-002
   3.6592483937217535E-002  -1.0831791586730498E-002   1.3393430223368044E-002
   3.3991057198381913E-002  -1.0016003862163281E-002   1.3348813386770908E-002
   4.0771810553303950E-002  -1.1920268352979324E-002   2.1232057611785385E-002
   3.8348128943068410E-002  -1.1207669715704638E-002   2.0567603050795927E-002
   3.5924447332832864E-002  -1.0485562225435771E-002   2.0117959554096433E-002
   3.3500765722597289E-002  -9.7539458821727480E-003   1.9883127121686852E-002
   3.1077084112361833E-002  -9.0128206859153570E-003   1.9863105753567742E-002
   3.6891624949486279E-002  -1.0748719892097247E-002   2.8094096287994419E-002
   3.4719820339231044E-002  -1.0045641368829905E-002   2.7210127443241305E-002
   3.2548015728975782E-002  -9.3547681306690722E-003   2.6615101534158470E-002
   3.0376211118720520E-002  -8.6761001776149219E-003   2.6309018560746272E-002
   2.8204406508465230E-002  -8.0096375096674333E-003   2.6291878523004075E-002
   3.9942889816792837E-002  -1.2022370214658906E-002   6.3669861095183578E-005
   3.7499324423069691E-002  -1.1117595054357943E-002  -2.8138997756421702E-004
   3.5055759029346545E-002  -1.0408146403127649E-002  -5.1090705496070754E-004
   3.2612193635623399E-002  -9.8940242609665968E-003  -6.2488137109611985E-004
   3.0168628241900253E-002  -9.5752286278758536E-003  -6.2331292596917720E-004
   3.6946325766525567E-002  -1.1019187038410871E-002   6.7490014226130324E-003
   3.4592411971366144E-002  -1.0166823827297944E-002   6.2571270424820469E-003
   3.2238498176206665E-002  -9.4435718289108683E-003   5.8290130982160959E-003
   2.9884584381047158E-002  -8.8494310432489509E-003   5.4646595898158179E-003
   2.7530670585887762E-002  -8.3844014703118308E-003   5.1640665172805189E-003
   3.3991057198381913E-002  -1.0016003862163281E-002   1.3348813386770908E-002
   3.1675012676389669E-002  -9.2160526002385557E-003   1.2776339761511657E-002
   2.9358968154397369E-002  -8.4789972546945036E-003   1.2215844246721758E-002
   2.7042923632405125E-002  -7.8048378255312981E-003   1.1667326842400710E-002
   2.4726879110412825E-002  -7.1935743127481411E-003   1.1130787548548848E-002
   3.1077084112361833E-002  -9.0128206859153570E-003   1.9863105753567742E-002
   2.8747126538140232E-002  -8.2652813731786401E-003   1.9276248179525834E-002
   2.6417168963918727E-002  -7.5144226804780417E-003   1.8649586390556798E-002
   2.4087211389697147E-002  -6.7602446078132046E-003   1.7983120386659886E-002
   2.1757253815475622E-002  -6.0027471551842848E-003   1.7276850167835492E-002
   2.8204406508465230E-002  -8.0096375096674333E-003   2.6291878523004075E-002
   2.5808753556617992E-002  -7.3145101461188911E-003   2.5756852296524468E-002
   2.3413100604770698E-002  -6.5498481062611635E-003   2.5130239529720322E-002
   2.1017447652923432E-002  -5.7156513900952291E-003   2.4412040222592440E-002
   1.8621794701076111E-002  -4.8119199976204285E-003   2.3602254375140519E-002
   3.0168628241900253E-002  -9.5752286278758536E-003  -6.2331292596917720E-004
   2.9576828404351607E-002  -9.1420014485039669E-003  -3.5605375148528573E-004
   2.8985028566802740E-002  -8.2845846675012047E-003  -1.7829166061974488E-003
   2.8393228729253928E-002  -7.0029782848658323E-003  -4.9039014901045008E-003
   2.7801428891705227E-002  -5.2971823005991681E-003  -9.7190084032079405E-003
   2.7530670585887762E-002  -8.3844014703118308E-003   5.1640665172805189E-003
   2.5517300717158187E-002  -7.8732369907086319E-003   5.8608291841615312E-003
   2.3503930848428722E-002  -7.1406914850489778E-003   5.4085738178757947E-003
   2.1490560979699203E-002  -6.1867649533310504E-003   3.8073004184250303E-003
   1.9477191110969683E-002  -5.0114573955561958E-003   1.0570089858079612E-003
   2.4726879110412825E-002  -7.1935743127481411E-003   1.1130787548548848E-002
   2.1837043206532236E-002  -6.6044725329140741E-003   1.2054245132252117E-002
   1.8947207302651647E-002  -5.9967983025970006E-003   1.2373788678819164E-002
   1.6057371398770989E-002  -5.3705516217964974E-003   1.2089418188249670E-002
   1.3167535494890414E-002  -4.7257324905136677E-003   1.1201133660544094E-002
   2.1757253815475622E-002  -6.0027471551842848E-003   1.7276850167835492E-002
   1.8536055872473575E-002  -5.3357080751189057E-003   1.8224194092787069E-002
   1.5314857929471404E-002  -4.8529051201448986E-003   1.9112727976632014E-002
   1.2093659986469319E-002  -4.5543382902622741E-003   1.9942451819369825E-002
   8.8724620434671858E-003  -4.4400075854706955E-003   2.0713365621001401E-002
   1.8621794701076111E-002  -4.8119199976204285E-003   2.3602254375140519E-002
   1.5614338714982079E-002  -4.0669436173239037E-003   2.4370676065765928E-002
   1.2606882728888130E-002  -3.7090119376928798E-003   2.5625391711314505E-002
   9.5994267427941121E-003  -3.7381249587276275E-003   2.7366401311785693E-002
   6.5919707567001495E-003  -4.1542826804280564E-003   2.9593704867180048E-002
   2.7801428891705227E-002  -5.2971823005991681E-003  -9.7190084032079405E-003
   2.3365995852532295E-002  -4.1987892725214859E-003  -4.1951005576441602E-003
   1.8930562813359253E-002  -4.7393917584548362E-003   2.5998291834634646E-003
   1.4495129774186211E-002  -6.9189897583987747E-003   1.0665780820115156E-002
   1.0059696735013279E-002  -1.0737583272352857E-002   2.0002754352311136E-002
   1.9477191110969683E-002  -5.0114573955561958E-003   1.0570089858079612E-003
   1.6239072290547218E-002  -4.6855606041280584E-003   6.7421922828541092E-003
   1.3000953470124643E-002  -6.2798663714487279E-003   1.3550982121856792E-002
   9.7628346497020679E-003  -9.7943746975203694E-003   2.1483378502817563E-002
   6.5247158292793817E-003  -1.5229085582340485E-002   3.0539381425733314E-002
   1.3167535494890414E-002  -4.7257324905136677E-003   1.1201133660544094E-002
   1.0979315539631274E-002  -5.1723319357334097E-003   1.6766385364333725E-002
   8.7910955843720495E-003  -7.8203409844426197E-003   2.3307828256492025E-002
   6.6028756291127144E-003  -1.2669759636641076E-002   3.0825462337021575E-002
   4.4146556738535736E-003  -1.9720587892328112E-002   3.9319287605920294E-002
   8.8724620434671858E-003  -4.4400075854706955E-003   2.0713365621001401E-002
   7.5867255997842525E-003  -5.6591032673391495E-003   2.5877478686794825E-002
   6.3009891561012568E-003  -9.3608155974367335E-003   3.1870367587370774E-002
   5.0152527124182333E-003  -1.5545144575762448E-002   3.8692032322729317E-002
   3.7295162687352168E-003  -2.4212090202316183E-002   4.6342472892870412E-002
   6.5919707567001495E-003  -4.1542826804280564E-003   2.9593704867180048E-002
   6.0613024710063357E-003  -6.1458745989452224E-003   3.4075472250237770E-002
   5.5306341853125218E-003  -1.0901290210430042E-002   3.9238600114490818E-002
   4.9999658996186802E-003  -1.8420529514883342E-002   4.5083088459939885E-002
   4.4692976139248941E-003  -2.8703592512303810E-002   5.1608937286584222E-002
   9.8197703696295269E-002  -2.4891277436702164E-002   2.1635107171378065E-002
   8.7969026921948579E-002  -2.3195791590603032E-002   3.3855213892979408E-002
   7.7740350147602083E-002  -2.1633902034945141E-002   4.0232152230187168E-002
   6.7511673373255518E-002  -2.0205608769728406E-002   4.0765922183000902E-002
   5.7282996598908953E-002  -1.8910911794952745E-002   3.5456523751420888E-002
  0.10478383359860735       -2.1523401327305014E-002   3.4844915442856783E-002
   9.0403529727507065E-002  -2.0935954502833087E-002   3.8865602594540943E-002
   7.6023225856406793E-002  -2.0127685283462732E-002   4.0426203937111493E-002
   6.1642921985306569E-002  -1.9098593669193926E-002   3.9526719470568239E-002
   4.7262618114206262E-002  -1.7848679660026512E-002   3.6167149194911513E-002
  0.10143538959113339       -1.8155525217907809E-002   4.6769475350038586E-002
   8.6286541198559566E-002  -1.8676117415063143E-002   4.2945161617144983E-002
   7.1137692805985808E-002  -1.8621468531980351E-002   4.0043844650418159E-002
   5.5988844413412064E-002  -1.7991578568659392E-002   3.8065524449857696E-002
   4.0839996020838293E-002  -1.6786447525100223E-002   3.7010201015464053E-002
   8.8152371673873409E-002  -1.4787649108510659E-002   5.7408786892923294E-002
   7.5618061335106276E-002  -1.6416280327293253E-002   4.6093890960791771E-002
   6.3083750996339186E-002  -1.7115251780497928E-002   3.9085074370107067E-002
   5.0549440657572109E-002  -1.6884563468124884E-002   3.6382337120869170E-002
   3.8015130318805025E-002  -1.5724215390173907E-002   3.7985679213077883E-002
   6.4934779846827329E-002  -1.1419772999113453E-002   6.6762850071510838E-002
   5.8398090137147141E-002  -1.4156443239523253E-002   4.8311790625480966E-002
   5.1861400427466897E-002  -1.5609035029015533E-002   3.7549893096178288E-002
   4.5324710717786668E-002  -1.5777548367590412E-002   3.4477157483602444E-002
   3.8788021008106466E-002  -1.4661983255247646E-002   3.9093583787753627E-002
   5.7282996598908953E-002  -1.8910911794952745E-002   3.5456523751420888E-002
   5.7364755610234686E-002  -1.7837660122537485E-002   3.0614035435943598E-002
   5.7446514621560418E-002  -1.7073702764401108E-002   2.7758390164142360E-002
   5.7528273632886151E-002  -1.6619039720544012E-002   2.6889587936017076E-002
   5.7610032644211884E-002  -1.6473670990966027E-002   2.8007628751567870E-002
   4.7262618114206262E-002  -1.7848679660026512E-002   3.6167149194911513E-002
   4.8817930435997026E-002  -1.6652844803427380E-002   3.4089990030401252E-002
   5.0373242757787762E-002  -1.5785990646863021E-002   3.2973094443144571E-002
   5.1928555079578512E-002  -1.5248117190333779E-002   3.2816462433142353E-002
   5.3483867401369262E-002  -1.5039224433839427E-002   3.3620094000393869E-002
   4.0839996020838293E-002  -1.6786447525100223E-002   3.7010201015464053E-002
   4.2842282186672159E-002  -1.5468029484317344E-002   3.7678684616164429E-002
   4.4844568352506012E-002  -1.4498278529324997E-002   3.8280852327696881E-002
   4.6846854518339906E-002  -1.3877194660123547E-002   3.8816704150061554E-002
   4.8849140684173731E-002  -1.3604777876712743E-002   3.9286240083258497E-002
   3.8015130318805025E-002  -1.5724215390173907E-002   3.7985679213077883E-002
   3.9437810862260086E-002  -1.4283214165207218E-002   4.1380119193233603E-002
   4.0860491405715099E-002  -1.3210566411787052E-002   4.3681663817799296E-002
   4.2283171949170140E-002  -1.2506272129913329E-002   4.4890313086775421E-002
   4.3705852492625166E-002  -1.2170331319586017E-002   4.5006067000161631E-002
   3.8788021008106466E-002  -1.4661983255247646E-002   3.9093583787753627E-002
   3.8604516462760780E-002  -1.3098398846097176E-002   4.5194293761608412E-002
   3.8421011917415093E-002  -1.1922854294248914E-002   4.9175528913451921E-002
   3.8237507372069407E-002  -1.1135349599703116E-002   5.1037289243283379E-002
   3.8054002826723721E-002  -1.0735884762459402E-002   5.0779574751103507E-002
   5.7610032644211884E-002  -1.6473670990966027E-002   2.8007628751567870E-002
   5.5134878542910631E-002  -1.6346628814384034E-002   2.8247475864661198E-002
   5.2659724441609324E-002  -1.5946945429514567E-002   2.8574465424922646E-002
   5.0184570340308016E-002  -1.5274620836357968E-002   2.8988597432351756E-002
   4.7709416239006763E-002  -1.4329655034914235E-002   2.9489871886949293E-002
   5.3483867401369262E-002  -1.5039224433839427E-002   3.3620094000393869E-002
   5.1127738106620649E-002  -1.4883246053851135E-002   3.3631158576173853E-002
   4.8771608811871967E-002  -1.4504115726840086E-002   3.3793130317891190E-002
   4.6415479517123333E-002  -1.3901833452806437E-002   3.4106009225545922E-002
   4.4059350222374671E-002  -1.3076399231750135E-002   3.4569795299138117E-002
   4.8849140684173731E-002  -1.3604777876712743E-002   3.9286240083258497E-002
   4.6675800914746969E-002  -1.3419863293318152E-002   3.9019032860460712E-002
   4.4502461145320291E-002  -1.3061286024165557E-002   3.8966497522369380E-002
   4.2329121375893557E-002  -1.2529046069254908E-002   3.9128634068984661E-002
   4.0155781606466850E-002  -1.1823143428585980E-002   3.9505442500306520E-002
   4.3705852492625166E-002  -1.2170331319586017E-002   4.5006067000161631E-002
   4.1779066967289738E-002  -1.1956480532785266E-002   4.4411098717521386E-002
   3.9852281441954240E-002  -1.1618456321491052E-002   4.4094567038356895E-002
   3.7925495916618805E-002  -1.1156258685703156E-002   4.4056471962668466E-002
   3.5998710391283377E-002  -1.0569887625421909E-002   4.4296813490455708E-002
   3.8054002826723721E-002  -1.0735884762459402E-002   5.0779574751103507E-002
   3.6437536264248838E-002  -1.0493097772252324E-002   4.9807356147355819E-002
   3.4821069701773899E-002  -1.0175626618816505E-002   4.9177338865853765E-002
   3.3204603139298974E-002  -9.7834713021516424E-003   4.8889522906596608E-002
   3.1588136576824077E-002  -9.3166318222577260E-003   4.8943908269584835E-002
   4.7709416239006763E-002  -1.4329655034914235E-002   2.9489871886949293E-002
   4.5004968416626684E-002  -1.3294881784297552E-002   2.9322610570406138E-002
   4.2300520594246549E-002  -1.2353134843622382E-002   2.9034227531732792E-002
   3.9596072771866414E-002  -1.1504414212889238E-002   2.8624722770928923E-002
   3.6891624949486279E-002  -1.0748719892097247E-002   2.8094096287994419E-002
   4.4059350222374671E-002  -1.3076399231750135E-002   3.4569795299138117E-002
   4.1310145086554007E-002  -1.2166331825686466E-002   3.4151939848534291E-002
   3.8560939950733369E-002  -1.1310149996630922E-002   3.3765691493180094E-002
   3.5811734814912705E-002  -1.0507853744583292E-002   3.3411050233075529E-002
   3.3062529679092068E-002  -9.7594430695439049E-003   3.3088016068219817E-002
   4.0155781606466850E-002  -1.1823143428585980E-002   3.9505442500306520E-002
   3.7514547974585581E-002  -1.1037781867075408E-002   3.8876133648575964E-002
   3.4873314342704312E-002  -1.0267165149639351E-002   3.8431160709474763E-002
   3.2232080710823084E-002  -9.5112932762776228E-003   3.8170523683002944E-002
   2.9590847078941829E-002  -8.7701662469904518E-003   3.8094222569160258E-002
   3.5998710391283377E-002  -1.0569887625421909E-002   4.4296813490455708E-002
   3.3618177080721345E-002  -9.9092319084644470E-003   4.3495191970531519E-002
   3.1237643770159394E-002  -9.2241803026477248E-003   4.3030635180616672E-002
   2.8857110459597400E-002  -8.5147328079720926E-003   4.2903143120711237E-002
   2.6476577149035466E-002  -7.7808894244369986E-003   4.3112715790815014E-002
   3.1588136576824077E-002  -9.3166318222577260E-003   4.8943908269584835E-002
   2.9621032404961306E-002  -8.7806819498532085E-003   4.8009114814400788E-002
   2.7653928233098563E-002  -8.1811954556560151E-003   4.7564114906606003E-002
   2.5686824061235819E-002  -7.5181723396660974E-003   4.7608908546200340E-002
   2.3719719889373103E-002  -6.7916126018835454E-003   4.8143495733183994E-002
   3.6891624949486279E-002  -1.0748719892097247E-002   2.8094096287994419E-002
   3.4719820339231044E-002  -1.0045641368829905E-002   2.7210127443241305E-002
   3.2548015728975782E-002  -9.3547681306690722E-003   2.6615101534158470E-002
   3.0376211118720520E-002  -8.6761001776149219E-003   2.6309018560746272E-002
   2.8204406508465230E-002  -8.0096375096674333E-003   2.6291878523004075E-002
   3.3062529679092068E-002  -9.7594430695439049E-003   3.3088016068219817E-002
   3.1139498778385510E-002  -9.0487201232097858E-003   3.2504443084834578E-002
   2.9216467877678898E-002  -8.3594870572777369E-003   3.2129474584876361E-002
   2.7293436976972327E-002  -7.6917438717488684E-003   3.1963110568344832E-002
   2.5370406076265728E-002  -7.0454905666216261E-003   3.2005351035240548E-002
   2.9590847078941829E-002  -8.7701662469904518E-003   3.8094222569160258E-002
   2.7836251435540527E-002  -8.0517988775896665E-003   3.7801760851846805E-002
   2.6081655792139252E-002  -7.3642059838868318E-003   3.7637565165717216E-002
   2.4327060148737992E-002  -6.7073875658824784E-003   3.7601635510770996E-002
   2.2572464505336745E-002  -6.0813436235759299E-003   3.7693971887008543E-002
   2.6476577149035466E-002  -7.7808894244369986E-003   4.3112715790815014E-002
   2.4810078310696131E-002  -7.0548776319696027E-003   4.3102080744277724E-002
   2.3143579472356776E-002  -6.3689249104960446E-003   4.3139373276680909E-002
   2.1477080634017463E-002  -5.7230312600161457E-003   4.3224593388024125E-002
   1.9810581795678087E-002  -5.1171966805301228E-003   4.3357741078307997E-002
   2.3719719889373103E-002  -6.7916126018835454E-003   4.8143495733183994E-002
   2.2060979403852321E-002  -6.0579563863493169E-003   4.8405402762127514E-002
   2.0402238918331539E-002  -5.3736438371046746E-003   4.8634898917767844E-002
   1.8743498432810785E-002  -4.7386749541500003E-003   4.8831984200105205E-002
   1.7084757947290002E-002  -4.1530497374844266E-003   4.8996658609139154E-002
   2.8204406508465230E-002  -8.0096375096674333E-003   2.6291878523004075E-002
   2.5808753556617992E-002  -7.3145101461188911E-003   2.5756852296524468E-002
   2.3413100604770698E-002  -6.5498481062611635E-003   2.5130239529720322E-002
   2.1017447652923432E-002  -5.7156513900952291E-003   2.4412040222592440E-002
   1.8621794701076111E-002  -4.8119199976204285E-003   2.3602254375140519E-002
   2.5370406076265728E-002  -7.0454905666216261E-003   3.2005351035240548E-002
   2.2933609008882444E-002  -6.3964114457685239E-003   3.1605164188900747E-002
   2.0496811941499174E-002  -5.7201908130608825E-003   3.1214275651812978E-002
   1.8060014874115918E-002  -5.0168286684991528E-003   3.0832685423977338E-002
   1.5623217806732620E-002  -4.2863250120825924E-003   3.0460393505393479E-002
   2.2572464505336745E-002  -6.0813436235759299E-003   3.7693971887008543E-002
   2.0195408171993404E-002  -5.4783127454184066E-003   3.7386231256354485E-002
   1.7818351838650201E-002  -4.8905335198608096E-003   3.7188673784528489E-002
   1.5441295505306922E-002  -4.3180059469028510E-003   3.7101299471530659E-002
   1.3064239171963712E-002  -3.7607300265448673E-003   3.7124108317360599E-002
   1.9810581795678087E-002  -5.1171966805301228E-003   4.3357741078307997E-002
   1.7594151045950857E-002  -4.5602140450683309E-003   4.3100053498885411E-002
   1.5377720296223658E-002  -4.0608762266604106E-003   4.3053433927867035E-002
   1.3161289546496431E-002  -3.6191832253066620E-003   4.3217882365252647E-002
   1.0944858796769225E-002  -3.2351350410071977E-003   4.3593398811042149E-002
   1.7084757947290002E-002  -4.1530497374844266E-003   4.8996658609139154E-002
   1.5129837630754817E-002  -3.6421153447179222E-003   4.8746630916493783E-002
   1.3174917314219617E-002  -3.2312189334601227E-003   4.8808556081828547E-002
   1.1219996997684452E-002  -2.9203605037104452E-003   4.9182434105143280E-002
   9.2650766811492313E-003  -2.7095400554693061E-003   4.9868264986438371E-002
   1.8621794701076111E-002  -4.8119199976204285E-003   2.3602254375140519E-002
   1.5614338714982079E-002  -4.0669436173239037E-003   2.4370676065765928E-002
   1.2606882728888130E-002  -3.7090119376928798E-003   2.5625391711314505E-002
   9.5994267427941121E-003  -3.7381249587276275E-003   2.7366401311785693E-002
   6.5919707567001495E-003  -4.1542826804280564E-003   2.9593704867180048E-002
   1.5623217806732620E-002  -4.2863250120825924E-003   3.0460393505393479E-002
   1.3080026497366309E-002  -3.7635971910538468E-003   3.1231515235750351E-002
   1.0536835188000124E-002  -3.6835625526543958E-003   3.2444872364640082E-002
   7.9936438786338687E-003  -4.0462210968852524E-003   3.4100464892062018E-002
   5.4504525692676276E-003  -4.8515728237461531E-003   3.6198292818016675E-002
   1.3064239171963712E-002  -3.7607300265448673E-003   3.7124108317360599E-002
   1.0941253982934704E-002  -3.4602507647839287E-003   3.7842281605485195E-002
   8.8182687939057577E-003  -3.6581131676165918E-003   3.8958631735751523E-002
   6.6952836048768082E-003  -4.3543172350435470E-003   4.0473158708160269E-002
   4.5722984158478586E-003  -5.5488629670643053E-003   4.2385862522711010E-002
   1.0944858796769225E-002  -3.2351350410071977E-003   4.3593398811042149E-002
   9.1980211716871756E-003  -3.1569043385136081E-003   4.4202975174969808E-002
   7.4511835466051276E-003  -3.6326637825785033E-003   4.5166669824649369E-002
   5.7043459215231481E-003  -4.6624133732011738E-003   4.6484482760080367E-002
   3.9575082964410854E-003  -6.2461531103824297E-003   4.8156413981263087E-002
   9.2650766811492313E-003  -2.7095400554693061E-003   4.9868264986438371E-002
   7.8503280636236794E-003  -2.8535579122438981E-003   5.0313595944204925E-002
   6.4355794460981552E-003  -3.6072143975403592E-003   5.1068986631332913E-002
   5.0208308285726450E-003  -4.9705095113593140E-003   5.2134437047822169E-002
   3.6060822110471347E-003  -6.9434432537005542E-003   5.3509947193672858E-002
   6.5919707567001495E-003  -4.1542826804280564E-003   2.9593704867180048E-002
   6.0613024710063357E-003  -6.1458745989452224E-003   3.4075472250237770E-002
   5.5306341853125218E-003  -1.0901290210430042E-002   3.9238600114490818E-002
   4.9999658996186802E-003  -1.8420529514883342E-002   4.5083088459939885E-002
   4.4692976139248941E-003  -2.8703592512303810E-002   5.1608937286584222E-002
   5.4504525692676276E-003  -4.8515728237461531E-003   3.6198292818016675E-002
   5.4984540599304355E-003  -6.9941212915705653E-003   3.8342971534115644E-002
   5.5464555505933266E-003  -1.1368370058692956E-002   4.0963629321732087E-002
   5.5944570412563080E-003  -1.7974319125113186E-002   4.4060266180865892E-002
   5.6424585319191367E-003  -2.6811968490831450E-002   4.7632882111518615E-002
   4.5722984158478586E-003  -5.5488629670643053E-003   4.2385862522711010E-002
   4.9935882731896308E-003  -7.8423679841960747E-003   4.2725575965520846E-002
   5.4148781305314031E-003  -1.1835449906955772E-002   4.3335887070170623E-002
   5.8361679878731407E-003  -1.7528108735343367E-002   4.4216795836660348E-002
   6.2574578452148921E-003  -2.4920344469358868E-002   4.5368302264989779E-002
   3.9575082964410854E-003  -6.2461531103824297E-003   4.8156413981263087E-002
   4.5467051107838108E-003  -8.6906146768212789E-003   4.7223285544453875E-002
   5.1359019251266749E-003  -1.2302529755218193E-002   4.6355373359806870E-002
   5.7250987394694679E-003  -1.7081898345573492E-002   4.5552677427322066E-002
   6.3142955538122089E-003  -2.3028720447886397E-002   4.4815197746998992E-002
   3.6060822110471347E-003  -6.9434432537005542E-003   5.3509947193672858E-002
   4.1578045727130863E-003  -9.5388613694467050E-003   5.1836100270914787E-002
   4.7095269343791490E-003  -1.2769609603481391E-002   5.0022088190640579E-002
   5.2612492960451424E-003  -1.6635687955803585E-002   4.8067910952851123E-002
   5.8129716577112189E-003  -2.1137096426413926E-002   4.5973568557545530E-002
   6.4934779846827329E-002  -1.1419772999113453E-002   6.6762850071510838E-002
   5.8398090137147141E-002  -1.4156443239523253E-002   4.8311790625480966E-002
   5.1861400427466897E-002  -1.5609035029015533E-002   3.7549893096178288E-002
   4.5324710717786668E-002  -1.5777548367590412E-002   3.4477157483602444E-002
   3.8788021008106466E-002  -1.4661983255247646E-002   3.9093583787753627E-002
   4.1165092945849802E-002  -1.2066547066984623E-002   6.1501967993086160E-002
   4.0794732259680319E-002  -1.2966693424728032E-002   5.1282267568432238E-002
   4.0424371573510823E-002  -1.3303301928051070E-002   4.5706063274072756E-002
   4.0054010887341333E-002  -1.3076372576953793E-002   4.4773355110007879E-002
   3.9683650201171844E-002  -1.2285905371436062E-002   4.8484143076237440E-002
   2.6225789806795394E-002  -1.2713321134855737E-002   5.8437880095576600E-002
   2.8976092357704153E-002  -1.1776943609932811E-002   5.5728998095801285E-002
   3.1726394908612919E-002  -1.0997568827086621E-002   5.4617946439888085E-002
   3.4476697459521685E-002  -1.0375196786317226E-002   5.5104725127836866E-002
   3.7227000010430458E-002  -9.9098274876245063E-003   5.7189334159647803E-002
   2.0116870429663949E-002  -1.3360095202726879E-002   5.7570586378981776E-002
   2.2942170431218580E-002  -1.0587193795137589E-002   6.1651982207588024E-002
   2.5767470432773158E-002  -8.6918357261221921E-003   6.4285542593623859E-002
   2.8592770434327761E-002  -7.6740209956806336E-003   6.5471267537089373E-002
   3.1418070435882371E-002  -7.5337496038129087E-003   6.5209157037984439E-002
   2.2838334814455630E-002  -1.4006869270598021E-002   5.8900086843301946E-002
   2.2692966480223592E-002  -9.3974439803423682E-003   6.9051219903792649E-002
   2.2547598145991554E-002  -6.3861026251576802E-003   7.4708851735280468E-002
   2.2402229811759530E-002  -4.9728452050440894E-003   7.5872982337765432E-002
   2.2256861477527493E-002  -5.1576717200014222E-003   7.2543611711247569E-002
   3.8788021008106466E-002  -1.4661983255247646E-002   3.9093583787753627E-002
   3.8604516462760780E-002  -1.3098398846097176E-002   4.5194293761608412E-002
   3.8421011917415093E-002  -1.1922854294248914E-002   4.9175528913451921E-002
   3.8237507372069407E-002  -1.1135349599703116E-002   5.1037289243283379E-002
   3.8054002826723721E-002  -1.0735884762459402E-002   5.0779574751103507E-002
   3.9683650201171844E-002  -1.2285905371436062E-002   4.8484143076237440E-002
   3.7854093527840110E-002  -1.1305122369504969E-002   5.1420523300863344E-002
   3.6024536854508390E-002  -1.0507245629167543E-002   5.3184274091528802E-002
   3.4194980181176657E-002  -9.8922751504239553E-003   5.3775395448233877E-002
   3.2365423507844965E-002  -9.4602109332739825E-003   5.3193887370978521E-002
   3.7227000010430458E-002  -9.9098274876245063E-003   5.7189334159647803E-002
   3.4698236597163958E-002  -9.5118458929126931E-003   5.7166518230753006E-002
   3.2169473183897457E-002  -9.0916369640861167E-003   5.6917918255949190E-002
   2.9640709770630935E-002  -8.6492007011447387E-003   5.6443534235236174E-002
   2.7111946357364428E-002  -8.1845371040884796E-003   5.5743366168614014E-002
   3.1418070435882371E-002  -7.5337496038129087E-003   6.5209157037984439E-002
   2.9136945670732321E-002  -7.7185694163205629E-003   6.2432278551277753E-002
   2.6855820905582289E-002  -7.6760282990047737E-003   6.0376461406713169E-002
   2.4574696140432249E-002  -7.4061262518656055E-003   5.9041705604290624E-002
   2.2293571375282203E-002  -6.9088632749030460E-003   5.8428011144010195E-002
   2.2256861477527493E-002  -5.1576717200014222E-003   7.2543611711247569E-002
   2.1170220748545188E-002  -5.9252929397282106E-003   6.7217804262437342E-002
   2.0083580019562876E-002  -6.2604196339232088E-003   6.3559903543820490E-002
   1.8996939290580574E-002  -6.1630518025863612E-003   6.1569909555397040E-002
   1.7910298561598259E-002  -5.6331894457176124E-003   6.1247822297166854E-002
   3.8054002826723721E-002  -1.0735884762459402E-002   5.0779574751103507E-002
   3.6437536264248838E-002  -1.0493097772252324E-002   4.9807356147355819E-002
   3.4821069701773899E-002  -1.0175626618816505E-002   4.9177338865853765E-002
   3.3204603139298974E-002  -9.7834713021516424E-003   4.8889522906596608E-002
   3.1588136576824077E-002  -9.3166318222577260E-003   4.8943908269584835E-002
   3.2365423507844965E-002  -9.4602109332739825E-003   5.3193887370978521E-002
   3.1058077648398519E-002  -9.1089042929243524E-003   5.2671727952023434E-002
   2.9750731788952087E-002  -8.7362065445819037E-003   5.2425608616880309E-002
   2.8443385929505641E-002  -8.3421176882465947E-003   5.2455529365548828E-002
   2.7136040070059209E-002  -7.9266377239183283E-003   5.2761490198029282E-002
   2.7111946357364428E-002  -8.1845371040884796E-003   5.5743366168614014E-002
   2.6047559962513081E-002  -7.7247108135964082E-003   5.5617972879215577E-002
   2.4983173567661734E-002  -7.2967864703474619E-003   5.5702458435195383E-002
   2.3918787172810384E-002  -6.9007640743414898E-003   5.5996822836553620E-002
   2.2854400777959014E-002  -6.5366436255787086E-003   5.6501066083290225E-002
   2.2293571375282203E-002  -6.9088632749030460E-003   5.8428011144010195E-002
   2.1405983206592500E-002  -6.3405173342683946E-003   5.8646090928932110E-002
   2.0518395037902822E-002  -5.8573663961129958E-003   5.9007888320799014E-002
   1.9630806869213122E-002  -5.4594104604363579E-003   5.9513403319610893E-002
   1.8743218700523444E-002  -5.1466495272390889E-003   6.0162635925367712E-002
   1.7910298561598259E-002  -5.6331894457176124E-003   6.1247822297166854E-002
   1.7133347380636807E-002  -4.9563238549404920E-003   6.1756082101173171E-002
   1.6356396199675355E-002  -4.4179463218784326E-003   6.2341898273691160E-002
   1.5579445018713910E-002  -4.0180568465315349E-003   6.3005270814720613E-002
   1.4802493837752465E-002  -3.7566554288995802E-003   6.3746199724261654E-002
   3.1588136576824077E-002  -9.3166318222577260E-003   4.8943908269584835E-002
   2.9621032404961306E-002  -8.7806819498532085E-003   4.8009114814400788E-002
   2.7653928233098563E-002  -8.1811954556560151E-003   4.7564114906606003E-002
   2.5686824061235819E-002  -7.5181723396660974E-003   4.7608908546200340E-002
   2.3719719889373103E-002  -6.7916126018835454E-003   4.8143495733183994E-002
   2.7136040070059209E-002  -7.9266377239183283E-003   5.2761490198029282E-002
   2.5610959835137601E-002  -7.4763140178235876E-003   5.2005300845728269E-002
   2.4085879600215993E-002  -6.9776939361890222E-003   5.1643365819920128E-002
   2.2560799365294384E-002  -6.4307774790145905E-003   5.1675685120604956E-002
   2.1035719130372776E-002  -5.8355646463000843E-003   5.2102258747783403E-002
   2.2854400777959014E-002  -6.5366436255787086E-003   5.6501066083290225E-002
   2.1675805259082435E-002  -6.1719460857939390E-003   5.5908240587619257E-002
   2.0497209740205802E-002  -5.7741924167220154E-003   5.5614130197545186E-002
   1.9318614221329189E-002  -5.3433826183629136E-003   5.5618734913068020E-002
   1.8140018702452590E-002  -4.8795166907166787E-003   5.5922054734187987E-002
   1.8743218700523444E-002  -5.1466495272390889E-003   6.0162635925367712E-002
   1.7815568676795721E-002  -4.8675781537641377E-003   5.9717934040074055E-002
   1.6887918653067997E-002  -4.5706908972549046E-003   5.9476408039481246E-002
   1.5960268629340281E-002  -4.2559877577112108E-003   5.9438057923589006E-002
   1.5032618605612582E-002  -3.9234687351331898E-003   5.9602883692398016E-002
   1.4802493837752465E-002  -3.7566554288995802E-003   6.3746199724261654E-002
   1.4030250088277518E-002  -3.5632102217344475E-003   6.3434381203092527E-002
   1.3258006338802579E-002  -3.3671893777878492E-003   6.3230199345728211E-002
   1.2485762589327636E-002  -3.1685928970596328E-003   6.3133654152168733E-002
   1.1713518839852693E-002  -2.9674207795497010E-003   6.3144745622413345E-002
   2.3719719889373103E-002  -6.7916126018835454E-003   4.8143495733183994E-002
   2.2060979403852321E-002  -6.0579563863493169E-003   4.8405402762127514E-002
   2.0402238918331539E-002  -5.3736438371046746E-003   4.8634898917767844E-002
   1.8743498432810785E-002  -4.7386749541500003E-003   4.8831984200105205E-002
   1.7084757947290002E-002  -4.1530497374844266E-003   4.8996658609139154E-002
   2.1035719130372776E-002  -5.8355646463000843E-003   5.2102258747783403E-002
   1.9397523325660998E-002  -5.2312964630087389E-003   5.2165656991581322E-002
   1.7759327520949234E-002  -4.6572139541033453E-003   5.2302555470300272E-002
   1.6121131716237455E-002  -4.1133171195838758E-003   5.2512954183940447E-002
   1.4482935911525691E-002  -3.5996059594504137E-003   5.2796853132501986E-002
   1.8140018702452590E-002  -4.8795166907166787E-003   5.5922054734187987E-002
   1.6628278686774078E-002  -4.4046365396679943E-003   5.5806102184743939E-002
   1.5116538671095553E-002  -3.9407840711016967E-003   5.5869560978445462E-002
   1.3604798655417041E-002  -3.4879592850177547E-003   5.6112431115292287E-002
   1.2093058639738523E-002  -3.0461621814162898E-003   5.6534712595284364E-002
   1.5032618605612582E-002  -3.9234687351331898E-003   5.9602883692398016E-002
   1.3753245487191541E-002  -3.5779766163272775E-003   5.9326738341615837E-002
   1.2473872368770513E-002  -3.2243541881002077E-003   5.9335915442203235E-002
   1.1194499250349474E-002  -2.8626014504517430E-003   5.9630414994160073E-002
   9.9151261319284766E-003  -2.4927184033821104E-003   6.0210236997487065E-002
   1.1713518839852693E-002  -2.9674207795497010E-003   6.3144745622413345E-002
   1.0772423726913408E-002  -2.7513166929866162E-003   6.2727565462196488E-002
   9.8313286139741218E-003  -2.5079243050986355E-003   6.2701618861573549E-002
   8.8902335010348360E-003  -2.2372436158855993E-003   6.3066905820544444E-002
   7.9491383880955502E-003  -1.9392746253481530E-003   6.3823426339109091E-002
   1.7084757947290002E-002  -4.1530497374844266E-003   4.8996658609139154E-002
   1.5129837630754817E-002  -3.6421153447179222E-003   4.8746630916493783E-002
   1.3174917314219617E-002  -3.2312189334601227E-003   4.8808556081828547E-002
   1.1219996997684452E-002  -2.9203605037104452E-003   4.9182434105143280E-002
   9.2650766811492313E-003  -2.7095400554693061E-003   4.9868264986438371E-002
   1.4482935911525691E-002  -3.5996059594504137E-003   5.2796853132501986E-002
   1.2825021981082846E-002  -3.1543098802966352E-003   5.2640482497404995E-002
   1.1167108050640015E-002  -2.8156582887169102E-003   5.2766171776512605E-002
   9.5091941201971841E-003  -2.5836511847109681E-003   5.3173920969824873E-002
   7.8512801897543394E-003  -2.4582885682790101E-003   5.3863730077341965E-002
   1.2093058639738523E-002  -3.0461621814162898E-003   5.6534712595284364E-002
   1.0702258151612715E-002  -2.6665044158755702E-003   5.6465392511670237E-002
   9.3114576634868683E-003  -2.4000976439739197E-003   5.6648239398485511E-002
   7.9206571753610514E-003  -2.2469418657117129E-003   5.7083253255730271E-002
   6.5298566872351860E-003  -2.2070370810886031E-003   5.7770434083403932E-002
   9.9151261319284766E-003  -2.4927184033821104E-003   6.0210236997487065E-002
   8.7615461423443015E-003  -2.1786989514542277E-003   6.0221360959290364E-002
   7.6079661527601169E-003  -1.9845369992309292E-003   6.0454758947747725E-002
   6.4543861631759514E-003  -1.9102325467125134E-003   6.0910430962859190E-002
   5.3008061735917850E-003  -1.9557855938982516E-003   6.1588377004624412E-002
   7.9491383880955502E-003  -1.9392746253481530E-003   6.3823426339109091E-002
   7.0028859532776794E-003  -1.6908934870331627E-003   6.3908387840264647E-002
   6.0566335184598225E-003  -1.5689763544877722E-003   6.4185730424298870E-002
   5.1103810836419516E-003  -1.5735232277130501E-003   6.4655454091211706E-002
   4.1641286488240947E-003  -1.7045341067077890E-003   6.5317558841003098E-002
   9.2650766811492313E-003  -2.7095400554693061E-003   4.9868264986438371E-002
   7.8503280636236794E-003  -2.8535579122438981E-003   5.0313595944204925E-002
   6.4355794460981552E-003  -3.6072143975403592E-003   5.1068986631332913E-002
   5.0208308285726450E-003  -4.9705095113593140E-003   5.2134437047822169E-002
   3.6060822110471347E-003  -6.9434432537005542E-003   5.3509947193672858E-002
   7.8512801897543394E-003  -2.4582885682790101E-003   5.3863730077341965E-002
   6.7244822404518151E-003  -2.6431992559733941E-003   5.3817554588245387E-002
   5.5976842911492214E-003  -3.3420120643463669E-003   5.4037220706233596E-002
   4.4708863418466555E-003  -4.5547269933985390E-003   5.4522728431306636E-002
   3.3440883925441034E-003  -6.2813440431291889E-003   5.5274077763464158E-002
   6.5298566872351860E-003  -2.2070370810886031E-003   5.7770434083403932E-002
   5.6467912838789186E-003  -2.4328405997030289E-003   5.7328488655287724E-002
   4.7637258805226790E-003  -3.0768097311525688E-003   5.7108166711979602E-002
   3.8806604771664220E-003  -4.1389444754377572E-003   5.7109468253479539E-002
   2.9975950738101720E-003  -5.6192448325580457E-003   5.7332393279787119E-002
   5.3008061735917850E-003  -1.9557855938982516E-003   6.1588377004624412E-002
   4.6172551939051495E-003  -2.2224819434326498E-003   6.0846398145332076E-002
   3.9337042142185245E-003  -2.8116073979586736E-003   6.0281824648571021E-002
   3.2501532345318796E-003  -3.7231619574766457E-003   5.9894656514341088E-002
   2.5666022548452641E-003  -4.9571456219869026E-003   5.9684893742642534E-002
   4.1641286488240947E-003  -1.7045341067077890E-003   6.5317558841003098E-002
   3.6358739705304316E-003  -2.0121232871622152E-003   6.4371283058377804E-002
   3.1076192922367546E-003  -2.5464050647647785E-003   6.3558194516007194E-002
   2.5793646139430915E-003  -3.3073794395162559E-003   6.2878293213891101E-002
   2.0511099356494145E-003  -4.2950464114156484E-003   6.2331579152029915E-002
   3.6060822110471347E-003  -6.9434432537005542E-003   5.3509947193672858E-002
   4.1578045727130863E-003  -9.5388613694467050E-003   5.1836100270914787E-002
   4.7095269343791490E-003  -1.2769609603481391E-002   5.0022088190640579E-002
   5.2612492960451424E-003  -1.6635687955803585E-002   4.8067910952851123E-002
   5.8129716577112189E-003  -2.1137096426413926E-002   4.5973568557545530E-002
   3.3440883925441034E-003  -6.2813440431291889E-003   5.5274077763464158E-002
   3.7716216547274972E-003  -8.5526679136553319E-003   5.2926286578907689E-002
   4.1991549169108910E-003  -1.1399503305093012E-002   5.0470282352902296E-002
   4.6266881790942224E-003  -1.4821850217442624E-002   4.7906065085447036E-002
   5.0542214412776509E-003  -1.8819708650703815E-002   4.5233634776542075E-002
   2.9975950738101720E-003  -5.6192448325580457E-003   5.7332393279787119E-002
   3.3328913525769444E-003  -7.5664744578639587E-003   5.4370476430809694E-002
   3.6681876313437445E-003  -1.0029397006705076E-002   5.1332298656448783E-002
   4.0034839101105550E-003  -1.3008012479081774E-002   4.8217859956704107E-002
   4.3387801888773170E-003  -1.6502320874993703E-002   4.5027160331576388E-002
   2.5666022548452641E-003  -4.9571456219869026E-003   5.9684893742642534E-002
   2.8416136662615943E-003  -6.5802810020724745E-003   5.6168669826620048E-002
   3.1166250776779383E-003  -8.6592907083169190E-003   5.2608137101279720E-002
   3.3916364890942538E-003  -1.1194174740720424E-002   4.9003295566621911E-002
   3.6666479005106126E-003  -1.4184933099283592E-002   4.5354145222647413E-002
   2.0511099356494145E-003  -4.2950464114156484E-003   6.2331579152029915E-002
   2.2977885957813360E-003  -5.5940875462809903E-003   5.8320866766338186E-002
   2.5444672559132714E-003  -7.2891844099290670E-003   5.4297797687395788E-002
   2.7911459160452068E-003  -9.3803370023598717E-003   5.0262371915201637E-002
   3.0378245761771283E-003  -1.1867545323573481E-002   4.6214589449756094E-002
   2.2838334814455630E-002  -1.4006869270598021E-002   5.8900086843301946E-002
   2.2692966480223592E-002  -9.3974439803423682E-003   6.9051219903792649E-002
   2.2547598145991554E-002  -6.3861026251576802E-003   7.4708851735280468E-002
   2.2402229811759530E-002  -4.9728452050440894E-003   7.5872982337765432E-002
   2.2256861477527493E-002  -5.1576717200014222E-003   7.2543611711247569E-002
   2.6794967651772320E-002  -5.9701611411220878E-003   6.3216854726987570E-002
   2.3304824244281319E-002  -4.3315762694206283E-003   6.7017252242490860E-002
   1.9814680836790333E-002  -3.3737371503646807E-003   6.8621600840479163E-002
   1.6324537429299346E-002  -3.0966437839543073E-003   6.8029900520952258E-002
   1.2834394021808353E-002  -3.5002961701894320E-003   6.5242151283910449E-002
   2.4391553632216040E-002   2.0665469883537624E-003   6.4104113100906218E-002
   1.9854087462953869E-002   7.3429144150105596E-004   6.2471113253847660E-002
   1.5316621293691705E-002  -3.6137167557169503E-004   6.0939516800761789E-002
   1.0779155124429542E-002  -1.2204423628644732E-003   5.9509323741648738E-002
   6.2416889551673675E-003  -1.8429206203773585E-003   5.8180534076508389E-002
   1.5628092755786790E-002   1.0103255117829640E-002   6.1561861965058008E-002
   1.2340756136241226E-002   5.8001591524227680E-003   5.5412802937863083E-002
   9.0534195166956724E-003   2.6509937992213531E-003   5.1662599616128624E-002
   5.7660828971501082E-003   6.5575905822527931E-004   5.0311251999854603E-002
   2.4787462776045465E-003  -1.8554507056529890E-004   5.1358760089041222E-002
   5.0458502248457160E-004   1.8139963247305546E-002   5.5590101319442919E-002
   7.6483026414340266E-004   1.0866026863344480E-002   4.5842321294537025E-002
   1.0250755058022372E-003   5.6633592740142902E-003   4.0790849286579389E-002
   1.2853207474610752E-003   2.5319604793151568E-003   4.0435685295570067E-002
   1.5455659891199028E-003   1.4718304792467052E-003   4.4776829321508949E-002
   2.2256861477527493E-002  -5.1576717200014222E-003   7.2543611711247569E-002
   2.1170220748545188E-002  -5.9252929397282106E-003   6.7217804262437342E-002
   2.0083580019562876E-002  -6.2604196339232088E-003   6.3559903543820490E-002
   1.8996939290580574E-002  -6.1630518025863612E-003   6.1569909555397040E-002
   1.7910298561598259E-002  -5.6331894457176124E-003   6.1247822297166854E-002
   1.2834394021808353E-002  -3.5002961701894320E-003   6.5242151283910449E-002
   1.3065606360565474E-002  -4.0883797798496602E-003   6.2768241477388020E-002
   1.3296818699322584E-002  -4.3645800837149307E-003   6.1262131076151055E-002
   1.3528031038079714E-002  -4.3288970817850214E-003   6.0723820080199567E-002
   1.3759243376836830E-002  -3.9813307740600434E-003   6.1153308489533764E-002
   6.2416889551673675E-003  -1.8429206203773585E-003   5.8180534076508389E-002
   7.0906470367560655E-003  -2.2514666199711098E-003   5.8437910692536843E-002
   7.9396051183447721E-003  -2.4687405335065971E-003   5.8962979388942974E-002
   8.7885631999334753E-003  -2.4947423609836816E-003   5.9755740165726864E-002
   9.6375212815221767E-003  -2.3294721024025578E-003   6.0816193022888307E-002
   2.4787462776045465E-003  -1.8554507056529890E-004   5.1358760089041222E-002
   3.2453427771169897E-003  -4.1455346009250382E-004   5.4226811907883851E-002
   4.0119392766294233E-003  -5.7290098329812467E-004   5.6662448482196259E-002
   4.7785357761418587E-003  -6.6058764018228633E-004   5.8665669811978557E-002
   5.5451322756542992E-003  -6.7761343074497493E-004   6.0236475897230593E-002
   1.5455659891199028E-003   1.4718304792467052E-003   4.4776829321508949E-002
   1.5296935816482213E-003   1.4223596997859911E-003   5.0134945123429003E-002
   1.5138211741765398E-003   1.3229385669101534E-003   5.4360538355910926E-002
   1.4979487667048548E-003   1.1735670806189494E-003   5.7453609018954868E-002
   1.4820763592331768E-003   9.7424524091249687E-004   5.9414157112560761E-002
   1.7910298561598259E-002  -5.6331894457176124E-003   6.1247822297166854E-002
   1.7133347380636807E-002  -4.9563238549404920E-003   6.1756082101173171E-002
   1.6356396199675355E-002  -4.4179463218784326E-003   6.2341898273691160E-002
   1.5579445018713910E-002  -4.0180568465315349E-003   6.3005270814720613E-002
   1.4802493837752465E-002  -3.7566554288995802E-003   6.3746199724261654E-002
   1.3759243376836830E-002  -3.9813307740600434E-003   6.1153308489533764E-002
   1.3083961232730167E-002  -3.5268317809210858E-003   6.1596761054988958E-002
   1.2408679088623510E-002  -3.1703507227494460E-003   6.2165995325642126E-002
   1.1733396944516847E-002  -2.9118875995451481E-003   6.2861011301493436E-002
   1.1058114800410190E-002  -2.7514424113081470E-003   6.3681808982542720E-002
   9.6375212815221767E-003  -2.3294721024025578E-003   6.0816193022888307E-002
   9.1121335109568095E-003  -2.0973397069019573E-003   6.1235308472540176E-002
   8.5867457403914424E-003  -1.9227551236207299E-003   6.1828430964076607E-002
   8.0613579698260770E-003  -1.8057183525590371E-003   6.2595560497497538E-002
   7.5359701992607046E-003  -1.7462293937166584E-003   6.3536697072803100E-002
   5.5451322756542992E-003  -6.7761343074497493E-004   6.0236475897230593E-002
   5.2178642153167228E-003  -6.6784763288266213E-004   6.0671724353827020E-002
   4.8905961549791550E-003  -6.7515952449193409E-004   6.1329205188994512E-002
   4.5633280946415803E-003  -6.9954910557278819E-004   6.2208918402732995E-002
   4.2360600343040169E-003  -7.4101637612519755E-004   6.3310863995042488E-002
   1.4820763592331768E-003   9.7424524091249687E-004   5.9414157112560761E-002
   1.4011533458099107E-003   7.6164444113657748E-004   5.9906008698849489E-002
   1.3202303323866446E-003   5.7243607463691726E-004   6.0668318000395904E-002
   1.2393073189633733E-003   4.0662014141344682E-004   6.1701085017199786E-002
   1.1583843055401125E-003   2.6419664146626332E-004   6.3004309749261189E-002
   1.4802493837752465E-002  -3.7566554288995802E-003   6.3746199724261654E-002
   1.4030250088277518E-002  -3.5632102217344475E-003   6.3434381203092527E-002
   1.3258006338802579E-002  -3.3671893777878492E-003   6.3230199345728211E-002
   1.2485762589327636E-002  -3.1685928970596328E-003   6.3133654152168733E-002
   1.1713518839852693E-002  -2.9674207795497010E-003   6.3144745622413345E-002
   1.1058114800410190E-002  -2.7514424113081470E-003   6.3681808982542720E-002
   1.0402775045494403E-002  -2.6355903501056321E-003   6.3607195887160739E-002
   9.7474352905786155E-003  -2.5109066080052783E-003   6.3658754117092237E-002
   9.0920955356628315E-003  -2.3773911850067213E-003   6.3836483672337241E-002
   8.4367557807470406E-003  -2.2350440811106376E-003   6.4140384552895890E-002
   7.5359701992607046E-003  -1.7462293937166584E-003   6.3536697072803100E-002
   7.0160691004129520E-003  -1.7079704784767058E-003   6.3705545447324388E-002
   6.4961680015652012E-003  -1.6546238382227074E-003   6.4019099808668212E-002
   5.9762669027174494E-003  -1.5861894729541429E-003   6.4477360156834376E-002
   5.4563658038696977E-003  -1.5026673826712966E-003   6.5080326491823048E-002
   4.2360600343040169E-003  -7.4101637612519755E-004   6.3310863995042488E-002
   3.8701322530331744E-003  -7.8035060684783497E-004   6.3729429883583516E-002
   3.5042044717623270E-003  -7.9834106844008101E-004   6.4311236420456025E-002
   3.1382766904914884E-003  -7.9498776090134241E-004   6.5056283605659959E-002
   2.7723489092206441E-003  -7.7029068423214997E-004   6.5964571439194902E-002
   1.1583843055401125E-003   2.6419664146626332E-004   6.3004309749261189E-002
   9.6496450335505080E-004   1.4726926478098035E-004   6.3678849195938469E-002
   7.7154470116999260E-004   5.7941701342489882E-005   6.4535163952455843E-002
   5.7812489898493614E-004  -3.7860488486113342E-006   6.5573254018813615E-002
   3.8470509679987275E-004  -3.7913985792892291E-005   6.6793119395011424E-002
   1.1713518839852693E-002  -2.9674207795497010E-003   6.3144745622413345E-002
   1.0772423726913408E-002  -2.7513166929866162E-003   6.2727565462196488E-002
   9.8313286139741218E-003  -2.5079243050986355E-003   6.2701618861573549E-002
   8.8902335010348360E-003  -2.2372436158855993E-003   6.3066905820544444E-002
   7.9491383880955502E-003  -1.9392746253481530E-003   6.3823426339109091E-002
   8.4367557807470406E-003  -2.2350440811106376E-003   6.4140384552895890E-002
   7.8430505452279503E-003  -2.0773902919403731E-003   6.4000268788220738E-002
   7.2493453097088531E-003  -1.8979548131214385E-003   6.4163699218792003E-002
   6.6556400741897594E-003  -1.6967376446527932E-003   6.4630675844609894E-002
   6.0619348386706656E-003  -1.4737387865351170E-003   6.5401198665674065E-002
   5.4563658038696977E-003  -1.5026673826712966E-003   6.5080326491823048E-002
   5.1223630814234422E-003  -1.4034638908943797E-003   6.5211768511013984E-002
   4.7883603589772006E-003  -1.2879853211440057E-003   6.5559069361103964E-002
   4.4543576365309520E-003  -1.1562316734197615E-003   6.6122229042093000E-002
   4.1203549140846896E-003  -1.0082029477221921E-003   6.6901247553981552E-002
   2.7723489092206441E-003  -7.7029068423214997E-004   6.5964571439194902E-002
   2.6103613354998964E-003  -7.2953748984837252E-004   6.6362064630576034E-002
   2.4483737617791573E-003  -6.7801582916663522E-004   6.6887729288509251E-002
   2.2863861880584166E-003  -6.1572570218695367E-004   6.7541565412994234E-002
   2.1243986143376706E-003  -5.4266710890910064E-004   6.8323573004030996E-002
   3.8470509679987275E-004  -3.7913985792892291E-005   6.6793119395011424E-002
   3.0704530745730846E-004  -5.5611088802309805E-005   6.7451157146907470E-002
   2.2938551811473029E-004  -6.8046337189320294E-005   6.8149679001008046E-002
   1.5172572877215906E-004  -7.5219730953743347E-005   6.8888684957313207E-002
   7.4065939429587835E-005  -7.7131270096231219E-005   6.9668175015822786E-002
   7.9491383880955502E-003  -1.9392746253481530E-003   6.3823426339109091E-002
   7.0028859532776794E-003  -1.6908934870331627E-003   6.3908387840264647E-002
   6.0566335184598225E-003  -1.5689763544877722E-003   6.4185730424298870E-002
   5.1103810836419516E-003  -1.5735232277130501E-003   6.4655454091211706E-002
   4.1641286488240947E-003  -1.7045341067077890E-003   6.5317558841003098E-002
   6.0619348386706656E-003  -1.4737387865351170E-003   6.5401198665674065E-002
   5.3186066052817518E-003  -1.2868018013624249E-003   6.5332142189564402E-002
   4.5752783718928658E-003  -1.1937702517285098E-003   6.5476553033434109E-002
   3.8319501385039520E-003  -1.1946441376342043E-003   6.5834431197282814E-002
   3.0886219051150660E-003  -1.2894234590787867E-003   6.6405776681111084E-002
   4.1203549140846896E-003  -1.0082029477221921E-003   6.6901247553981552E-002
   3.6010371192254191E-003  -8.8271011569182600E-004   6.6710731670837575E-002
   3.0817193243661348E-003  -8.1856414896944174E-004   6.6754769344773340E-002
   2.5624015295068608E-003  -8.1576504755546259E-004   6.7033360575789055E-002
   2.0430837346475800E-003  -8.7431281144939588E-004   6.7546505363884735E-002
   2.1243986143376706E-003  -5.4266710890910064E-004   6.8323573004030996E-002
   1.8501774951086717E-003  -4.7861843002099114E-004   6.8044156284083418E-002
   1.5759563758796728E-003  -4.4335804621016550E-004   6.8020379358316535E-002
   1.3017352566506669E-003  -4.3688595747650230E-004   6.8252242226730472E-002
   1.0275141374216749E-003  -4.5920216381986623E-004   6.8739744889324786E-002
   7.4065939429587835E-005  -7.7131270096231219E-005   6.9668175015822786E-002
   6.6027732931510374E-005  -7.4526744350489338E-005   6.9332416029302735E-002
   5.7989526433450261E-005  -6.8151943451166819E-005   6.9273383074063999E-002
   4.9951319935381475E-005  -5.8006867397777939E-005   6.9491076150106551E-002
   4.1913113437312688E-005  -4.4091516190891689E-005   6.9985495257430475E-002
   4.1641286488240947E-003  -1.7045341067077890E-003   6.5317558841003098E-002
   3.6358739705304316E-003  -2.0121232871622152E-003   6.4371283058377804E-002
   3.1076192922367546E-003  -2.5464050647647785E-003   6.3558194516007194E-002
   2.5793646139430915E-003  -3.3073794395162559E-003   6.2878293213891101E-002
   2.0511099356494145E-003  -4.2950464114156484E-003   6.2331579152029915E-002
   3.0886219051150660E-003  -1.2894234590787867E-003   6.6405776681111084E-002
   2.6927014918350367E-003  -1.5167064423398102E-003   6.5289719253865008E-002
   2.2967810785550144E-003  -1.9150913136946612E-003   6.4305143116391877E-002
   1.9008606652749921E-003  -2.4845780731440475E-003   6.3452048268691344E-002
   1.5049402519949628E-003  -3.2251667206866230E-003   6.2730434710763561E-002
   2.0430837346475800E-003  -8.7431281144939588E-004   6.7546505363884735E-002
   1.7777916358992542E-003  -1.0212895975170444E-003   6.6316257001072687E-002
   1.5124995371509527E-003  -1.2837775626244330E-003   6.5215783977551373E-002
   1.2472074384026442E-003  -1.6617767067712841E-003   6.4245086293320763E-002
   9.8191533965432537E-004  -2.1552870299575422E-003   6.3404163948380804E-002
   1.0275141374216749E-003  -4.5920216381986623E-004   6.8739744889324786E-002
   8.9114440272310743E-004  -5.2587275269457001E-004   6.7450896300000882E-002
   7.5477466802455467E-004  -6.5246381155442679E-004   6.6290117099486109E-002
   6.1840493332599149E-004  -8.3897534039879818E-004   6.5257407287779956E-002
   4.8203519862743439E-004  -1.0854073392286001E-003   6.4352766864882893E-002
   4.1913113437312688E-005  -4.4091516190891689E-005   6.9985495257430475E-002
   3.2759792306567836E-005  -3.0455907871873578E-005   6.8693637150649356E-002
   2.3606471175826454E-005  -2.1150060484143030E-005   6.7528142482195463E-002
   1.4453150045088542E-005  -1.6173974026437166E-005   6.6489011252068297E-002
   5.2998289143402211E-006  -1.5527648499324975E-005   6.5576243460268135E-002
   2.0511099356494145E-003  -4.2950464114156484E-003   6.2331579152029915E-002
   2.2977885957813360E-003  -5.5940875462809903E-003   5.8320866766338186E-002
   2.5444672559132714E-003  -7.2891844099290670E-003   5.4297797687395788E-002
   2.7911459160452068E-003  -9.3803370023598717E-003   5.0262371915201637E-002
   3.0378245761771283E-003  -1.1867545323573481E-002   4.6214589449756094E-002
   1.5049402519949628E-003  -3.2251667206866230E-003   6.2730434710763561E-002
   1.7269824591995275E-003  -4.1999030577966612E-003   5.8383962726798522E-002
   1.9490246664040714E-003  -5.4718328859456045E-003   5.4000574530230327E-002
   2.1710668736086777E-003  -7.0409562051340219E-003   4.9580270121059089E-002
   2.3931090808131938E-003  -8.9072730153620938E-003   4.5123049499283807E-002
   9.8191533965432537E-004  -2.1552870299575422E-003   6.3404163948380804E-002
   1.1547615745794715E-003  -2.8057185693116660E-003   5.8820794603886117E-002
   1.3276078095046349E-003  -3.6544813619618227E-003   5.4175949527436165E-002
   1.5004540444297845E-003  -4.7015754079082310E-003   4.9469628719030427E-002
   1.6733002793549584E-003  -5.9470007071507069E-003   4.4701832178669854E-002
   4.8203519862743439E-004  -1.0854073392286001E-003   6.4352766864882893E-002
   5.8112594192117652E-004  -1.4115340808272259E-003   5.9631362397601015E-002
   6.8021668521489869E-004  -1.8371298379783116E-003   5.4823922679012219E-002
   7.7930742850864515E-004  -2.3621946106826327E-003   4.9930447709116026E-002
   8.7839817180236299E-004  -2.9867283989393201E-003   4.4950937487911541E-002
   5.2998289143402211E-006  -1.5527648499324975E-005   6.5576243460268135E-002
   6.0755612246166102E-006  -1.7349592342119635E-005   6.0815666107943200E-002
   6.8512935348825910E-006  -1.9778313994495145E-005   5.5944493984958765E-002
   7.6270258451589801E-006  -2.2813813456624976E-005   5.0962727091314802E-002
   8.4027581554318997E-006  -2.6456090727933201E-005   4.5870365427011617E-002
   5.0458502248457160E-004   1.8139963247305546E-002   5.5590101319442919E-002
   7.6483026414340266E-004   1.0866026863344480E-002   4.5842321294537025E-002
   1.0250755058022372E-003   5.6633592740142902E-003   4.0790849286579389E-002
   1.2853207474610752E-003   2.5319604793151568E-003   4.0435685295570067E-002
   1.5455659891199028E-003   1.4718304792467052E-003   4.4776829321508949E-002
  -1.4864519085283228E-002   9.2815308979515287E-003   5.5308049433347106E-002
  -1.1039466951748244E-002   5.7019962448367212E-003   5.1877933496405904E-002
  -7.2144148182132686E-003   3.2118150072811685E-003   5.0881123326268679E-002
  -3.3893626846782827E-003   1.8109871852847841E-003   5.2317618922935488E-002
   4.3568944885669786E-004   1.4995127788476614E-003   5.6187420286406331E-002
  -2.4364769085109175E-002   4.2309854859753915E-004   5.9211356967633272E-002
  -1.9237912309842325E-002   5.3796562632897615E-004   6.1116989739585306E-002
  -1.4111055534575487E-002   7.6027074054796362E-004   6.3192926028196816E-002
  -8.9841987593086425E-003   1.0900138912545224E-003   6.5439165833468135E-002
  -3.8573419840417841E-003   1.5271950784486177E-003   6.7855709155399235E-002
  -2.7996164976993313E-002  -8.4353338007564782E-003   6.7300023922301458E-002
  -2.3830505810138871E-002  -4.6260649921787342E-003   7.3559490024074886E-002
  -1.9664846643284443E-002  -1.6912735261852552E-003   7.7726257392363551E-002
  -1.5499187476429999E-002   3.6904059722428842E-004   7.9800326027167717E-002
  -1.1333528309575567E-002   1.5548773780496294E-003   7.9781695928487439E-002
  -2.5758706760935599E-002  -1.7293766150110468E-002   7.9574050297351928E-002
  -2.4817247452637851E-002  -9.7900956106865833E-003   8.9205434349874990E-002
  -2.3875788144340118E-002  -4.1428177929184046E-003   9.4481117418769162E-002
  -2.2934328836042357E-002  -3.5193269680609471E-004   9.5401099504034623E-002
  -2.1992869527744631E-002   1.5825596776505302E-003   9.1965380605671054E-002
   1.5455659891199028E-003   1.4718304792467052E-003   4.4776829321508949E-002
   1.5296935816482213E-003   1.4223596997859911E-003   5.0134945123429003E-002
   1.5138211741765398E-003   1.3229385669101534E-003   5.4360538355910926E-002
   1.4979487667048548E-003   1.1735670806189494E-003   5.7453609018954868E-002
   1.4820763592331768E-003   9.7424524091249687E-004   5.9414157112560761E-002
   4.3568944885669786E-004   1.4995127788476614E-003   5.6187420286406331E-002
  -3.8225970697796860E-004   1.6776057632079400E-003   5.8612742523076383E-002
  -1.2002088628126246E-003   1.7454801136039463E-003   6.0566433832458466E-002
  -2.0181580186472850E-003   1.7031358300354984E-003   6.2048494214552621E-002
  -2.8361071744819472E-003   1.5505729125028234E-003   6.3058923669358835E-002
  -3.8573419840417841E-003   1.5271950784486177E-003   6.7855709155399235E-002
  -4.8164762460893070E-003   1.9328518266297223E-003   6.7287969546270143E-002
  -5.7756105081368221E-003   2.1680216602976837E-003   6.6909490652003259E-002
  -6.7347447701843416E-003   2.2327045794521029E-003   6.6720272472598624E-002
  -7.6938790322318464E-003   2.1269005840932609E-003   6.6720315008056086E-002
  -1.1333528309575567E-002   1.5548773780496294E-003   7.9781695928487439E-002
  -1.1772956035685810E-002   2.1880978900516990E-003   7.6160626193010283E-002
  -1.2212383761796041E-002   2.5905632069913379E-003   7.3389708814545443E-002
  -1.2651811487906277E-002   2.7622733288687352E-003   7.1468943793092890E-002
  -1.3091239214016528E-002   2.7032282556836429E-003   7.0398331128652791E-002
  -2.1992869527744631E-002   1.5825596776505302E-003   9.1965380605671054E-002
  -2.1251699075767468E-002   2.4433439534734258E-003   8.5230712463296776E-002
  -2.0510528623790301E-002   3.0131047536851030E-003   8.0007088320084935E-002
  -1.9769358171813141E-002   3.2918420782852287E-003   7.6294508176035586E-002
  -1.9028187719835978E-002   3.2795559272739694E-003   7.4092972031148674E-002
   1.4820763592331768E-003   9.7424524091249687E-004   5.9414157112560761E-002
   1.4011533458099107E-003   7.6164444113657748E-004   5.9906008698849489E-002
   1.3202303323866446E-003   5.7243607463691726E-004   6.0668318000395904E-002
   1.2393073189633733E-003   4.0662014141344682E-004   6.1701085017199786E-002
   1.1583843055401125E-003   2.6419664146626332E-004   6.3004309749261189E-002
  -2.8361071744819472E-003   1.5505729125028234E-003   6.3058923669358835E-002
  -2.6542824114263574E-003   1.3526200079001238E-003   6.3024892539384314E-002
  -2.4724576483707537E-003   1.1741057631213386E-003   6.3245899247109910E-002
  -2.2906328853151648E-003   1.0150301781664435E-003   6.3721943792535693E-002
  -2.1088081222595603E-003   8.7539325303576110E-004   6.4453026175661676E-002
  -7.6938790322318464E-003   2.1269005840932609E-003   6.6720315008056086E-002
  -7.2647263702547895E-003   1.9435955746636147E-003   6.6156447388365999E-002
  -6.8355737082777387E-003   1.7757754516057045E-003   6.5832197728818612E-002
  -6.4064210463006723E-003   1.6234402149194402E-003   6.5747566029414020E-002
  -5.9772683843236172E-003   1.4865898646050368E-003   6.5902552290152155E-002
  -1.3091239214016528E-002   2.7032282556836429E-003   7.0398331128652791E-002
  -1.2430178530675403E-002   2.5345711414269667E-003   6.9300673245794878E-002
  -1.1769117847334259E-002   2.3774451400900981E-003   6.8427213445522217E-002
  -1.1108057163993138E-002   2.2318502516724924E-003   6.7777951727834906E-002
  -1.0446996480651996E-002   2.0977864761743126E-003   6.7352888092732946E-002
  -1.9028187719835978E-002   3.2795559272739694E-003   7.4092972031148674E-002
  -1.8150638892688177E-002   3.1255467081906796E-003   7.2457570111670533E-002
  -1.7273090065540366E-002   2.9791148285744640E-003   7.1030946397220462E-002
  -1.6395541238392562E-002   2.8402602884253988E-003   6.9813100887798268E-002
  -1.5517992411244755E-002   2.7089830877437548E-003   6.8804033583404201E-002
   1.1583843055401125E-003   2.6419664146626332E-004   6.3004309749261189E-002
   9.6496450335505080E-004   1.4726926478098035E-004   6.3678849195938469E-002
   7.7154470116999260E-004   5.7941701342489882E-005   6.4535163952455843E-002
   5.7812489898493614E-004  -3.7860488486113342E-006   6.5573254018813615E-002
   3.8470509679987275E-004  -3.7913985792892291E-005   6.6793119395011424E-002
  -2.1088081222595603E-003   8.7539325303576110E-004   6.4453026175661676E-002
  -2.0967613140886639E-003   7.6174187919769709E-004   6.4580055216594490E-002
  -2.0847145059177501E-003   6.8062294812111512E-004   6.4936242168399161E-002
  -2.0726676977468475E-003   6.3203645980617132E-004   6.5521587031075371E-002
  -2.0606208895759398E-003   6.1598241425259159E-004   6.6336089804623521E-002
  -5.9772683843236172E-003   1.4865898646050368E-003   6.5902552290152155E-002
  -5.7123723647652374E-003   1.3762144936144416E-003   6.5487003554855136E-002
  -5.4474763452068645E-003   1.3033041948997959E-003   6.5347995331461406E-002
  -5.1825803256484917E-003   1.2678589684610650E-003   6.5485527619970979E-002
  -4.9176843060901119E-003   1.2698788142981865E-003   6.5899600420383481E-002
  -1.0446996480651996E-002   2.0977864761743126E-003   6.7352888092732946E-002
  -9.8818686486746750E-003   1.9906871080312277E-003   6.6399694210720575E-002
  -9.3167408166973456E-003   1.9259854416784489E-003   6.5770423441642800E-002
  -8.7516129847200249E-003   1.9036814771158476E-003   6.5465075785499677E-002
  -8.1864851527426973E-003   1.9237752143437814E-003   6.5483651242291316E-002
  -1.5517992411244755E-002   2.7089830877437548E-003   6.8804033583404201E-002
  -1.4605250165816978E-002   2.6051597224481249E-003   6.7318127184190502E-002
  -1.3692507920389202E-002   2.5486666884570602E-003   6.6203526498943205E-002
  -1.2779765674961419E-002   2.5395039857708419E-003   6.5460231527662102E-002
  -1.1867023429533642E-002   2.5776716143892653E-003   6.5088242270347041E-002
   3.8470509679987275E-004  -3.7913985792892291E-005   6.6793119395011424E-002
   3.0704530745730846E-004  -5.5611088802309805E-005   6.7451157146907470E-002
   2.2938551811473029E-004  -6.8046337189320294E-005   6.8149679001008046E-002
   1.5172572877215906E-004  -7.5219730953743347E-005   6.8888684957313207E-002
   7.4065939429587835E-005  -7.7131270096231219E-005   6.9668175015822786E-002
  -2.0606208895759398E-003   6.1598241425259159E-004   6.6336089804623521E-002
  -2.0424927183613738E-003   6.0550508546525217E-004   6.6629635407430332E-002
  -2.0243645471468251E-003   5.7364874744857131E-004   6.7074272829146908E-002
  -2.0062363759322703E-003   5.2041340020314228E-004   6.7670002069773597E-002
  -1.9881082047177104E-003   4.4579904372810120E-004   6.8416823129309634E-002
  -4.9176843060901119E-003   1.2698788142981865E-003   6.5899600420383481E-002
  -4.6931604576131818E-003   1.2666212597327864E-003   6.5802013010249696E-002
  -4.4686366091362395E-003   1.2153438320867960E-003   6.5966125135730913E-002
  -4.2441127606593111E-003   1.1160465313599724E-003   6.6391936796827075E-002
  -4.0195889121823671E-003   9.6872935755243361E-004   6.7079447993538266E-002
  -8.1864851527426973E-003   1.9237752143437814E-003   6.5483651242291316E-002
  -7.6449579102981112E-003   1.9277374340006120E-003   6.4968289955365272E-002
  -7.1034306678535407E-003   1.8570389167249096E-003   6.4825235920759283E-002
  -6.5619034254089598E-003   1.7116796625169413E-003   6.5054489138473628E-002
  -6.0203761829643859E-003   1.4916596713769326E-003   6.5656049608508057E-002
  -1.1867023429533642E-002   2.5776716143892653E-003   6.5088242270347041E-002
  -1.0897885076416168E-002   2.5888536082678826E-003   6.4128466242777127E-002
  -9.9287467232987009E-003   2.4987340013629400E-003   6.3651605184232463E-002
  -8.9596083701812268E-003   2.3073127936738616E-003   6.3657659094713492E-002
  -7.9904700170637596E-003   2.0145899852010984E-003   6.4146627974219883E-002
   7.4065939429587835E-005  -7.7131270096231219E-005   6.9668175015822786E-002
   6.6027732931510374E-005  -7.4526744350489338E-005   6.9332416029302735E-002
   5.7989526433450261E-005  -6.8151943451166819E-005   6.9273383074063999E-002
   4.9951319935381475E-005  -5.8006867397777939E-005   6.9491076150106551E-002
   4.1913113437312688E-005  -4.4091516190891689E-005   6.9985495257430475E-002
  -1.9881082047177104E-003   4.4579904372810120E-004   6.8416823129309634E-002
  -1.7280717867052056E-003   3.7849890660501817E-004   6.8122995034245348E-002
  -1.4680353686927026E-003   3.4720621741596291E-004   6.8088590156920870E-002
  -1.2079989506801900E-003   3.5192097615995011E-004   6.8313608497336115E-002
  -9.4796253266769478E-004   3.9264318283760424E-004   6.8798050055491555E-002
  -4.0195889121823671E-003   9.6872935755243361E-004   6.7079447993538266E-002
  -3.5087806832006562E-003   8.3152455756096977E-004   6.6859787962709166E-002
  -2.9979724542189513E-003   7.6256437828278734E-004   6.6882248336078531E-002
  -2.4871642252372512E-003   7.6184881971790713E-004   6.7146829113646389E-002
  -1.9763559962555355E-003   8.2937788186626671E-004   6.7653530295412934E-002
  -6.0203761829643859E-003   1.4916596713769326E-003   6.5656049608508057E-002
  -5.2760989565548430E-003   1.2845502085166438E-003   6.5542794814694313E-002
  -4.5318217301453150E-003   1.1779225391495424E-003   6.5654357611537401E-002
  -3.7875445037357830E-003   1.1717766632756942E-003   6.5990737999037583E-002
  -3.0432672773262441E-003   1.2661125808947904E-003   6.6551935977195303E-002
  -7.9904700170637596E-003   2.0145899852010984E-003   6.4146627974219883E-002
  -7.0300266067677697E-003   1.7375758594723734E-003   6.4172015590200693E-002
  -6.0695831964717728E-003   1.5932807000167692E-003   6.4404917983297283E-002
  -5.1091397861757776E-003   1.5817045068334881E-003   6.4845335153509681E-002
  -4.1486963758797860E-003   1.7028472799233141E-003   6.5493267100837804E-002
   4.1913113437312688E-005  -4.4091516190891689E-005   6.9985495257430475E-002
   3.2759792306567836E-005  -3.0455907871873578E-005   6.8693637150649356E-002
   2.3606471175826454E-005  -2.1150060484143030E-005   6.7528142482195463E-002
   1.4453150045088542E-005  -1.6173974026437166E-005   6.6489011252068297E-002
   5.2998289143402211E-006  -1.5527648499324975E-005   6.5576243460268135E-002
  -9.4796253266769478E-004   3.9264318283760424E-004   6.8798050055491555E-002
  -8.2891223484131069E-004   4.7823706639554819E-004   6.7494217384305999E-002
  -7.0986193701493006E-004   6.1756685577979420E-004   6.6320428512708030E-002
  -5.9081163918855376E-004   8.1063255099113329E-004   6.5276683440697481E-002
  -4.7176134136217920E-004   1.0574341520290798E-003   6.4362982168274296E-002
  -1.9763559962555355E-003   8.2937788186626671E-004   6.7653530295412934E-002
  -1.7254217182114638E-003   9.8693004066330303E-004   6.6395788726580252E-002
  -1.4744874401674208E-003   1.2562837720438702E-003   6.5271771318595795E-002
  -1.2235531621233630E-003   1.6374390760089327E-003   6.4281478071459203E-002
  -9.7261888407930604E-004   2.1303959525574290E-003   6.3424908985170642E-002
  -3.0432672773262441E-003   1.2661125808947904E-003   6.6551935977195303E-002
  -2.6567686578039410E-003   1.4956230149310579E-003   6.5398351177472516E-002
  -2.2702700382816448E-003   1.8950006883078768E-003   6.4382170899858454E-002
  -1.8837714187593349E-003   2.4642456010263956E-003   6.3503395144352950E-002
  -1.4972727992370459E-003   3.2033577530860280E-003   6.2762023910955839E-002
  -4.1486963758797860E-003   1.7028472799233141E-003   6.5493267100837804E-002
  -3.6229530536186841E-003   2.0043159891984796E-003   6.4501904736982363E-002
  -3.0972097313575891E-003   2.5337176045719667E-003   6.3651627256496091E-002
  -2.5714664090964942E-003   3.2910521260441569E-003   6.2942434659378904E-002
  -2.0457230868353923E-003   4.2763195536141829E-003   6.2374326945630498E-002
   5.2998289143402211E-006  -1.5527648499324975E-005   6.5576243460268135E-002
   6.0755612246166102E-006  -1.7349592342119635E-005   6.0815666107943200E-002
   6.8512935348825910E-006  -1.9778313994495145E-005   5.5944493984958765E-002
   7.6270258451589801E-006  -2.2813813456624976E-005   5.0962727091314802E-002
   8.4027581554318997E-006  -2.6456090727933201E-005   4.5870365427011617E-002
  -4.7176134136217920E-004   1.0574341520290798E-003   6.4362982168274296E-002
  -5.6931192505055295E-004   1.3802224225196724E-003   5.9639692225804453E-002
  -6.6686250873892149E-004   1.8012481260887281E-003   5.4830344421996802E-002
  -7.6441309242727788E-004   2.3205112627372459E-003   4.9934938756851066E-002
  -8.6196367611564989E-004   2.9380118324642268E-003   4.4953475230367967E-002
  -9.7261888407930604E-004   2.1303959525574290E-003   6.3424908985170642E-002
  -1.1439588744446578E-003   2.7777944373817975E-003   5.8837750663443794E-002
  -1.3152988648100312E-003   3.6222745661727423E-003   5.4189071389700597E-002
  -1.4866388551753656E-003   4.6638363389312869E-003   4.9478871163941500E-002
  -1.6579788455407564E-003   5.9024797556566089E-003   4.4707149986165762E-002
  -1.4972727992370459E-003   3.2033577530860280E-003   6.2762023910955839E-002
  -1.7178652869577296E-003   4.1753664522436451E-003   5.8409841420860545E-002
  -1.9384577746784065E-003   5.4433010062565831E-003   5.4020674888070483E-002
  -2.1590502623990938E-003   7.0071614151249097E-003   4.9594524312585868E-002
  -2.3796427501197670E-003   8.8669476788489909E-003   4.5131389694407414E-002
  -2.0457230868353923E-003   4.2763195536141829E-003   6.2374326945630498E-002
  -2.2910311625897531E-003   5.5729384671058257E-003   5.8355964498054913E-002
  -2.5363392383441034E-003   7.2643274463400909E-003   5.4325154917106211E-002
  -2.7816473140984555E-003   9.3504864913190600E-003   5.0281898202784669E-002
  -3.0269553898528145E-003   1.1831415602041151E-002   4.6226194355090122E-002
  -2.5758706760935599E-002  -1.7293766150110468E-002   7.9574050297351928E-002
  -2.4817247452637851E-002  -9.7900956106865833E-003   8.9205434349874990E-002
  -2.3875788144340118E-002  -4.1428177929184046E-003   9.4481117418769162E-002
  -2.2934328836042357E-002  -3.5193269680609471E-004   9.5401099504034623E-002
  -2.1992869527744631E-002   1.5825596776505302E-003   9.1965380605671054E-002
  -2.4202558200947799E-002  -3.0827909425280575E-003   7.5096848622367873E-002
  -2.6237179296993669E-002   1.7171235885690694E-004   7.7561462737333081E-002
  -2.8271800393039604E-002   2.6527741883750622E-003   7.8429617027239967E-002
  -3.0306421489085501E-002   4.3603945460264776E-003   7.7701311492088379E-002
  -3.2341042585131416E-002   5.2945734318110560E-003   7.5376546131878219E-002
  -2.9877883061041589E-002   1.1128184265054297E-002   6.5829004084450374E-002
  -3.2129343402860770E-002   1.0133520328400397E-002   6.2209799511646902E-002
  -3.4380803744679930E-002   9.4483661696686330E-003   5.9753376272355350E-002
  -3.6632264086499118E-002   9.0727217888589926E-003   5.8459734366575700E-002
  -3.8883724428318264E-002   9.0065871859714708E-003   5.8328873794308012E-002
  -4.2784681341217122E-002   2.5339159472636694E-002   5.1770516683599485E-002
  -4.2493739770239104E-002   2.0095328297943818E-002   4.3150444672816202E-002
  -4.2202798199261204E-002   1.6243958150962069E-002   3.8452395154115165E-002
  -4.1911856628283263E-002   1.3785049031691452E-002   3.7676368127496480E-002
  -4.1620915057305315E-002   1.2718600940131941E-002   4.0822363592959980E-002
  -6.2922953041474133E-002   3.9550134680219062E-002   3.2921386419815291E-002
  -5.7330368399128723E-002   3.0057136267487378E-002   2.0383398220841065E-002
  -5.1737783756783326E-002   2.3039550132255629E-002   1.4526673672519586E-002
  -4.6145199114437867E-002   1.8497376274524014E-002   1.5351212774850798E-002
  -4.0552614472092463E-002   1.6430614694292356E-002   2.2857015527834534E-002
  -2.1992869527744631E-002   1.5825596776505302E-003   9.1965380605671054E-002
  -2.1251699075767468E-002   2.4433439534734258E-003   8.5230712463296776E-002
  -2.0510528623790301E-002   3.0131047536851030E-003   8.0007088320084935E-002
  -1.9769358171813141E-002   3.2918420782852287E-003   7.6294508176035586E-002
  -1.9028187719835978E-002   3.2795559272739694E-003   7.4092972031148674E-002
  -3.2341042585131416E-002   5.2945734318110560E-003   7.5376546131878219E-002
  -3.0486116459655762E-002   5.7317595056844139E-003   7.1794297064256440E-002
  -2.8631190334180136E-002   5.9484014276028618E-003   6.8928515344469213E-002
  -2.6776264208704499E-002   5.9444991975656017E-003   6.6779200972516356E-002
  -2.4921338083228856E-002   5.7200528155731956E-003   6.5346353948398078E-002
  -3.8883724428318264E-002   9.0065871859714708E-003   5.8328873794308012E-002
  -3.6709619280672179E-002   9.0201750578954160E-003   5.7969523125094888E-002
  -3.4535514133026100E-002   8.8836981015202876E-003   5.7532063152388166E-002
  -3.2361408985380022E-002   8.5971563168459192E-003   5.7016493876187929E-002
  -3.0187303837733936E-002   8.1605497038724495E-003   5.6422815296494233E-002
  -4.1620915057305315E-002   1.2718600940131941E-002   4.0822363592959980E-002
  -3.9922207538816770E-002   1.2308590610106494E-002   4.3756390645811646E-002
  -3.8223500020328198E-002   1.1818994775437797E-002   4.5817731743841773E-002
  -3.6524792501839640E-002   1.1249813436126209E-002   4.7006386887050361E-002
  -3.4826084983351074E-002   1.0601046592171690E-002   4.7322356075437451E-002
  -4.0552614472092463E-002   1.6430614694292356E-002   2.2857015527834534E-002
  -4.0123881234089429E-002   1.5597006162317351E-002   2.9154899626407077E-002
  -3.9695147996086408E-002   1.4754291449355431E-002   3.3785521118830125E-002
  -3.9266414758083387E-002   1.3902470555406627E-002   3.6748880005103554E-002
  -3.8837681520080353E-002   1.3041543480470930E-002   3.8044976285227516E-002
  -1.9028187719835978E-002   3.2795559272739694E-003   7.4092972031148674E-002
  -1.8150638892688177E-002   3.1255467081906796E-003   7.2457570111670533E-002
  -1.7273090065540366E-002   2.9791148285744640E-003   7.1030946397220462E-002
  -1.6395541238392562E-002   2.8402602884253988E-003   6.9813100887798268E-002
  -1.5517992411244755E-002   2.7089830877437548E-003   6.8804033583404201E-002
  -2.4921338083228856E-002   5.7200528155731956E-003   6.5346353948398078E-002
  -2.3835466965277729E-002   5.4015249813356425E-003   6.4357660017049151E-002
  -2.2749595847326588E-002   5.1153783945628861E-003   6.3576832462279062E-002
  -2.1663724729375441E-002   4.8616130552551207E-003   6.3003871284087548E-002
  -2.0577853611424311E-002   4.6402289634122074E-003   6.2638776482474900E-002
  -3.0187303837733936E-002   8.1605497038724495E-003   5.6422815296494233E-002
  -2.8894022257428709E-002   7.6775032544807026E-003   5.6105633261272353E-002
  -2.7600740677123488E-002   7.2516419605513222E-003   5.5995405774179843E-002
  -2.6307459096818257E-002   6.8829658220847904E-003   5.6092132835216808E-002
  -2.5014177516513067E-002   6.5714748390805766E-003   5.6395814444383199E-002
  -3.4826084983351074E-002   1.0601046592171690E-002   4.7322356075437451E-002
  -3.3326304769141071E-002   9.9534815276256308E-003   4.7701489844340153E-002
  -3.1826524554931054E-002   9.3879055265399733E-003   4.8286666332923084E-002
  -3.0326744340721062E-002   8.9043185889143197E-003   4.9077885541186077E-002
  -2.8826964126511031E-002   8.5027207147489320E-003   5.0075147469129389E-002
  -3.8837681520080353E-002   1.3041543480470930E-002   3.8044976285227516E-002
  -3.7132314500414862E-002   1.2229459800770726E-002   3.9145229766252565E-002
  -3.5426947480749302E-002   1.1524169092528153E-002   4.0450614138508534E-002
  -3.3721580461083762E-002   1.0925671355744120E-002   4.1961129401995423E-002
  -3.2016213441418251E-002   1.0433966590417398E-002   4.3676775556713232E-002
  -1.5517992411244755E-002   2.7089830877437548E-003   6.8804033583404201E-002
  -1.4605250165816978E-002   2.6051597224481249E-003   6.7318127184190502E-002
  -1.3692507920389202E-002   2.5486666884570602E-003   6.6203526498943205E-002
  -1.2779765674961419E-002   2.5395039857708419E-003   6.5460231527662102E-002
  -1.1867023429533642E-002   2.5776716143892653E-003   6.5088242270347041E-002
  -2.0577853611424311E-002   4.6402289634122074E-003   6.2638776482474900E-002
  -1.9319327043634794E-002   4.4336233979634376E-003   6.1773139055061710E-002
  -1.8060800475845275E-002   4.2241936378378531E-003   6.1227764558405673E-002
  -1.6802273908055741E-002   4.0119396830358353E-003   6.1002652992507178E-002
  -1.5543747340266235E-002   3.7968615335570721E-003   6.1097804357365781E-002
  -2.5014177516513067E-002   6.5714748390805766E-003   5.6395814444383199E-002
  -2.3460909409570744E-002   6.2620870734787504E-003   5.6100291462789081E-002
  -2.1907641302628407E-002   5.8997205872188610E-003   5.6073988628743195E-002
  -2.0354373195686084E-002   5.4843753803008270E-003   5.6316905942245685E-002
  -1.8801105088743744E-002   5.0160514527246569E-003   5.6829043403296531E-002
  -2.8826964126511031E-002   8.5027207147489320E-003   5.0075147469129389E-002
  -2.7029997263624810E-002   8.0905507489941741E-003   5.0299584407372706E-002
  -2.5233030400738606E-002   7.5752475365997614E-003   5.0742198709955368E-002
  -2.3436063537852391E-002   6.9568110775657640E-003   5.1402990376877504E-002
  -2.1639096674966177E-002   6.2352413718923527E-003   5.2281959408138963E-002
  -3.2016213441418251E-002   1.0433966590417398E-002   4.3676775556713232E-002
  -3.0026590605797071E-002   9.9190144245093759E-003   4.4371017888812592E-002
  -2.8036967770175877E-002   9.2507744859807450E-003   4.5232394802042442E-002
  -2.6047344934554684E-002   8.4292467748308883E-003   4.6260906296402809E-002
  -2.4057722098933504E-002   7.4544312910600485E-003   4.7456552371893612E-002
  -1.1867023429533642E-002   2.5776716143892653E-003   6.5088242270347041E-002
  -1.0897885076416168E-002   2.5888536082678826E-003   6.4128466242777127E-002
  -9.9287467232987009E-003   2.4987340013629400E-003   6.3651605184232463E-002
  -8.9596083701812268E-003   2.3073127936738616E-003   6.3657659094713492E-002
  -7.9904700170637596E-003   2.0145899852010984E-003   6.4146627974219883E-002
  -1.5543747340266235E-002   3.7968615335570721E-003   6.1097804357365781E-002
  -1.4164924726804150E-002   3.5575181524652999E-003   6.0410659848703363E-002
  -1.2786102113342069E-002   3.2724685028241163E-003   6.0059968891704368E-002
  -1.1407279499880000E-002   2.9417125846333200E-003   6.0045731486369158E-002
  -1.0028456886417906E-002   2.5652503978935703E-003   6.0367947632697760E-002
  -1.8801105088743744E-002   5.0160514527246569E-003   5.6829043403296531E-002
  -1.7159059632298870E-002   4.5261826966620511E-003   5.6470125745776117E-002
  -1.5517014175853985E-002   4.0462030042848346E-003   5.6301200222557593E-002
  -1.3874968719409103E-002   3.5761123755928305E-003   5.6322266833640867E-002
  -1.2232923262964225E-002   3.1159108105862643E-003   5.6533325579026100E-002
  -2.1639096674966177E-002   6.2352413718923527E-003   5.2281959408138963E-002
  -1.9880289792900307E-002   5.4948472408591353E-003   5.2306863933995439E-002
  -1.8121482910834465E-002   4.8199375057456154E-003   5.2375299176791873E-002
  -1.6362676028768609E-002   4.2105121665523149E-003   5.2487265136528231E-002
  -1.4603869146702756E-002   3.6665712232790137E-003   5.2642761813204993E-002
  -2.4057722098933504E-002   7.4544312910600485E-003   4.7456552371893612E-002
  -2.2328615208608488E-002   6.4635117850562196E-003   4.7920874413361514E-002
  -2.0599508318283472E-002   5.5936720072066459E-003   4.8282265754407416E-002
  -1.8870401427958469E-002   4.8449119575117230E-003   4.8540726395031847E-002
  -1.7141294537633439E-002   4.2172316359715412E-003   4.8696256335234334E-002
  -7.9904700170637596E-003   2.0145899852010984E-003   6.4146627974219883E-002
  -7.0300266067677697E-003   1.7375758594723734E-003   6.4172015590200693E-002
  -6.0695831964717728E-003   1.5932807000167692E-003   6.4404917983297283E-002
  -5.1091397861757776E-003   1.5817045068334881E-003   6.4845335153509681E-002
  -4.1486963758797860E-003   1.7028472799233141E-003   6.5493267100837804E-002
  -1.0028456886417906E-002   2.5652503978935703E-003   6.0367947632697760E-002
  -8.8498956595789192E-003   2.2280499941148002E-003   6.0365933181285636E-002
  -7.6713344327399517E-003   2.0150794248074144E-003   6.0592639585843794E-002
  -6.4927732059009763E-003   1.9263386899715310E-003   6.1048066846372193E-002
  -5.3142119790619731E-003   1.9618277896068514E-003   6.1732214962870846E-002
  -1.2232923262964225E-002   3.1159108105862643E-003   5.6533325579026100E-002
  -1.0815038140727840E-002   2.7185241287572548E-003   5.6495419928419832E-002
  -9.3971530184914567E-003   2.4368781495982678E-003   5.6707441212638113E-002
  -7.9792678962550840E-003   2.2709728731093483E-003   5.7169389431681004E-002
  -6.5613827740186627E-003   2.2208082992902223E-003   5.7881264585548570E-002
  -1.4603869146702756E-002   3.6665712232790137E-003   5.2642761813204993E-002
  -1.2925454050214542E-002   3.2089982633996400E-003   5.2560475831602997E-002
  -1.1247038953726274E-002   2.8586768743891280E-003   5.2749322863680129E-002
  -9.5686238572380532E-003   2.6156070562470563E-003   5.3209302909436221E-002
  -7.8902087607497923E-003   2.4797888089735654E-003   5.3940415968871301E-002
  -1.7141294537633439E-002   4.2172316359715412E-003   4.8696256335234334E-002
  -1.5181143388038928E-002   3.6994723980421362E-003   4.8561100890835318E-002
  -1.3220992238444432E-002   3.2804755991797385E-003   4.8718284538969758E-002
  -1.1260841088849949E-002   2.9602412393850350E-003   4.9167807279637737E-002
  -9.3006899392554243E-003   2.7387693186571305E-003   4.9909669112839117E-002
  -4.1486963758797860E-003   1.7028472799233141E-003   6.5493267100837804E-002
  -3.6229530536186841E-003   2.0043159891984796E-003   6.4501904736982363E-002
  -3.0972097313575891E-003   2.5337176045719667E-003   6.3651627256496091E-002
  -2.5714664090964942E-003   3.2910521260441569E-003   6.2942434659378904E-002
  -2.0457230868353923E-003   4.2763195536141829E-003   6.2374326945630498E-002
  -5.3142119790619731E-003   1.9618277896068514E-003   6.1732214962870846E-002
  -4.6265106177188556E-003   2.2213073548991713E-003   6.0955912564424453E-002
  -3.9388092563757502E-003   2.8045380170345080E-003   6.0362441360773011E-002
  -3.2511078950326388E-003   3.7115197760123064E-003   5.9951801351916301E-002
  -2.5634065336895273E-003   4.9422526318328996E-003   5.9723992537855097E-002
  -6.5613827740186627E-003   2.2208082992902223E-003   5.7881264585548570E-002
  -5.6699770621676734E-003   2.4382987205997519E-003   5.7415840343255725E-002
  -4.7785713503166391E-003   3.0753584294966191E-003   5.7174993607183436E-002
  -3.8871656384656273E-003   4.1319874259805704E-003   5.7158724377332278E-002
  -2.9957599266145895E-003   5.6081857100516164E-003   5.7367032653701855E-002
  -7.8902087607497923E-003   2.4797888089735654E-003   5.3940415968871301E-002
  -6.7533523869650041E-003   2.6552900863001661E-003   5.3881688073476416E-002
  -5.6164960131801864E-003   3.3461788419589453E-003   5.4089283995728071E-002
  -4.4796396393953618E-003   4.5524550759488882E-003   5.4563203735626280E-002
  -3.3427832656105802E-003   6.2741187882702221E-003   5.5303447293171229E-002
  -9.3006899392554243E-003   2.7387693186571305E-003   4.9909669112839117E-002
  -7.8766365921109499E-003   2.8722814520010798E-003   5.0353455755086318E-002
  -6.4525832449664616E-003   3.6169992544212159E-003   5.1105312526406155E-002
  -5.0285298978220011E-003   4.9729227259171366E-003   5.2165239426798793E-002
  -3.6044765506774989E-003   6.9400518664888278E-003   5.3533236456263733E-002
  -2.0457230868353923E-003   4.2763195536141829E-003   6.2374326945630498E-002
  -2.2910311625897531E-003   5.5729384671058257E-003   5.8355964498054913E-002
  -2.5363392383441034E-003   7.2643274463400909E-003   5.4325154917106211E-002
  -2.7816473140984555E-003   9.3504864913190600E-003   5.0281898202784669E-002
  -3.0269553898528145E-003   1.1831415602041151E-002   4.6226194355090122E-002
  -2.5634065336895273E-003   4.9422526318328996E-003   5.9723992537855097E-002
  -2.8371820993662658E-003   6.5625330385654101E-003   5.6199996823020293E-002
  -3.1109576650430598E-003   8.6381574502765457E-003   5.2631513261713503E-002
  -3.3847332307197810E-003   1.1169125866968062E-002   4.9018541853934700E-002
  -3.6585087963966131E-003   1.4155438288638855E-002   4.5361082599684188E-002
  -2.9957599266145895E-003   5.6081857100516164E-003   5.7367032653701855E-002
  -3.3300436953128728E-003   7.5521276100243839E-003   5.4397977610844445E-002
  -3.6643274640111986E-003   1.0011987454212889E-002   5.1352394008415930E-002
  -3.9986112327095730E-003   1.2987765242616842E-002   4.8230281846416201E-002
  -4.3328950014078077E-003   1.6479460975236782E-002   4.5031641124845589E-002
  -3.3427832656105802E-003   6.2741187882702221E-003   5.5303447293171229E-002
  -3.7696159504295944E-003   8.5417221814837740E-003   5.2949906861527250E-002
  -4.1964486352486369E-003   1.1385817458149178E-002   5.0487797157213035E-002
  -4.6232813200676095E-003   1.4806404618265732E-002   4.7917118180228223E-002
  -5.0501140048866654E-003   1.8803483661834486E-002   4.5237869930573243E-002
  -3.6044765506774989E-003   6.9400518664888278E-003   5.3533236456263733E-002
  -4.1558988647163592E-003   9.5313167529432752E-003   5.1855784575069008E-002
  -4.7073211787552055E-003   1.2759647462085522E-002   5.0037722708104582E-002
  -5.2587434927940518E-003   1.6625043993914693E-002   4.8079050855371230E-002
  -5.8101658068329121E-003   2.1127506348432412E-002   4.5979769016867955E-002
  -6.2922953041474133E-002   3.9550134680219062E-002   3.2921386419815291E-002
  -5.7330368399128723E-002   3.0057136267487378E-002   2.0383398220841065E-002
  -5.1737783756783326E-002   2.3039550132255629E-002   1.4526673672519586E-002
  -4.6145199114437867E-002   1.8497376274524014E-002   1.5351212774850798E-002
  -4.0552614472092463E-002   1.6430614694292356E-002   2.2857015527834534E-002
  -8.2724648594051584E-002   3.1169724958916289E-002   2.3601501421447596E-002
  -7.1895236223454589E-002   2.5991532568975573E-002   1.9323150351915452E-002
  -6.1065823852857588E-002   2.1936822574339404E-002   1.8837191088233743E-002
  -5.0236411482260587E-002   1.9005594975007610E-002   2.2143623630402572E-002
  -3.9406999111663607E-002   1.7197849770980267E-002   2.9242447978421987E-002
  -9.4621718431188273E-002   2.2789315237613461E-002   1.9272387386968973E-002
  -8.1444350177141855E-002   2.1925928870463865E-002   2.1901743564683038E-002
  -6.8266981923095382E-002   2.0834095016423172E-002   2.5434619703445648E-002
  -5.5089613669048965E-002   1.9513813675491230E-002   2.9871015803256493E-002
  -4.1912245415002491E-002   1.7965084847668206E-002   3.5210931864115752E-002
  -9.8614162552884133E-002   1.4408905516310674E-002   1.9934044316378980E-002
  -8.5977710260190396E-002   1.7860325171952109E-002   2.8119177859144008E-002
  -7.3341257967496715E-002   1.9731367458506944E-002   3.4318959518155126E-002
  -6.0704805674803006E-002   2.0022032375974840E-002   3.8533389293412552E-002
  -4.8068353382109297E-002   1.8732319924356103E-002   4.0762467184916176E-002
  -9.4701980959139176E-002   6.0284957950078599E-003   2.5586472209678079E-002
  -8.5495316472600336E-002   1.3794721473440352E-002   3.7975453235298218E-002
  -7.6288651986061551E-002   1.8628639900590757E-002   4.5490210532362435E-002
  -6.7081987499522683E-002   2.0530251076458447E-002   4.8130744100870579E-002
  -5.7875323012983870E-002   1.9499555001044055E-002   4.5897053940822830E-002
  -4.0552614472092463E-002   1.6430614694292356E-002   2.2857015527834534E-002
  -4.0123881234089429E-002   1.5597006162317351E-002   2.9154899626407077E-002
  -3.9695147996086408E-002   1.4754291449355431E-002   3.3785521118830125E-002
  -3.9266414758083387E-002   1.3902470555406627E-002   3.6748880005103554E-002
  -3.8837681520080353E-002   1.3041543480470930E-002   3.8044976285227516E-002
  -3.9406999111663607E-002   1.7197849770980267E-002   2.9242447978421987E-002
  -4.0233074100326470E-002   1.6038585337190936E-002   3.2384111274802646E-002
  -4.1059149088989347E-002   1.5052800048573178E-002   3.4683420724000963E-002
  -4.1885224077652203E-002   1.4240493905126841E-002   3.6140376326017035E-002
  -4.2711299066315073E-002   1.3601666906851939E-002   3.6754978080850847E-002
  -4.1912245415002491E-002   1.7965084847668206E-002   3.5210931864115752E-002
  -4.3168219871364030E-002   1.6480164512064549E-002   3.5378959684462974E-002
  -4.4424194327725569E-002   1.5351308647790753E-002   3.5529542416595054E-002
  -4.5680168784087163E-002   1.4578517254846999E-002   3.5662680060512292E-002
  -4.6936143240448654E-002   1.4161790333233060E-002   3.5778372616214277E-002
  -4.8068353382109297E-002   1.8732319924356103E-002   4.0762467184916176E-002
  -4.8929318547202234E-002   1.6921743686938120E-002   3.8139444855388276E-002
  -4.9790283712295109E-002   1.5649817247008469E-002   3.6323886196612608E-002
  -5.0651248877388012E-002   1.4916540604567100E-002   3.5315791208589187E-002
  -5.1512214042480978E-002   1.4721913759614264E-002   3.5115159891317992E-002
  -5.7875323012983870E-002   1.9499555001044055E-002   4.5897053940822830E-002
  -5.7516370127840916E-002   1.7363322861811692E-002   4.0665566787578433E-002
  -5.7157417242698003E-002   1.5948325846226061E-002   3.7066452064053346E-002
  -5.6798464357555055E-002   1.5254563954287339E-002   3.5099709770247858E-002
  -5.6439511472412107E-002   1.5282037185995245E-002   3.4765339906161818E-002
  -3.8837681520080353E-002   1.3041543480470930E-002   3.8044976285227516E-002
  -3.7132314500414862E-002   1.2229459800770726E-002   3.9145229766252565E-002
  -3.5426947480749302E-002   1.1524169092528153E-002   4.0450614138508534E-002
  -3.3721580461083762E-002   1.0925671355744120E-002   4.1961129401995423E-002
  -3.2016213441418251E-002   1.0433966590417398E-002   4.3676775556713232E-002
  -4.2711299066315073E-002   1.3601666906851939E-002   3.6754978080850847E-002
  -4.0808183352075610E-002   1.3042571413966697E-002   3.7543011155852846E-002
  -3.8905067637836181E-002   1.2469459786688591E-002   3.8521410728771799E-002
  -3.7001951923596774E-002   1.1882332025018129E-002   3.9690176799607665E-002
  -3.5098836209357304E-002   1.1281188128954733E-002   4.1049309368360598E-002
  -4.6936143240448654E-002   1.4161790333233060E-002   3.5778372616214277E-002
  -4.4850043224949142E-002   1.3855683027162558E-002   3.6133376179342758E-002
  -4.2763943209449748E-002   1.3414750480848878E-002   3.6663981847074034E-002
  -4.0677843193950292E-002   1.2838992694292086E-002   3.7370189619408474E-002
  -3.8591743178450835E-002   1.2128409667491846E-002   3.8251999496345918E-002
  -5.1512214042480978E-002   1.4721913759614264E-002   3.5115159891317992E-002
  -4.9257894119035431E-002   1.4668794640358529E-002   3.4916324836722142E-002
  -4.7003574195589905E-002   1.4360041175009185E-002   3.4878327493415351E-002
  -4.4749254272144399E-002   1.3795653363565903E-002   3.5001167861397529E-002
  -4.2494934348698832E-002   1.2975631206029126E-002   3.5284845940669100E-002
  -5.6439511472412107E-002   1.5282037185995245E-002   3.4765339906161818E-002
  -5.4031736034334421E-002   1.5481906253554417E-002   3.3891857127991143E-002
  -5.1623960596256735E-002   1.5305331869169589E-002   3.3164447667795610E-002
  -4.9216185158179035E-002   1.4752314032840105E-002   3.2583111525575373E-002
  -4.6808409720101363E-002   1.3822852744566183E-002   3.2147848701330139E-002
  -3.2016213441418251E-002   1.0433966590417398E-002   4.3676775556713232E-002
  -3.0026590605797071E-002   9.9190144245093759E-003   4.4371017888812592E-002
  -2.8036967770175877E-002   9.2507744859807450E-003   4.5232394802042442E-002
  -2.6047344934554684E-002   8.4292467748308883E-003   4.6260906296402809E-002
  -2.4057722098933504E-002   7.4544312910600485E-003   4.7456552371893612E-002
  -3.5098836209357304E-002   1.1281188128954733E-002   4.1049309368360598E-002
  -3.2951162303814688E-002   1.0631913573844742E-002   4.1206417509935533E-002
  -3.0803488398272107E-002   9.9003938350340492E-003   4.1512493210222823E-002
  -2.8655814492729508E-002   9.0866289125226263E-003   4.1967536469222452E-002
  -2.6508140587186924E-002   8.1906188063104457E-003   4.2571547286934408E-002
  -3.8591743178450835E-002   1.2128409667491846E-002   3.8251999496345918E-002
  -3.6304185225404940E-002   1.1344812723179887E-002   3.7943016036316585E-002
  -3.4016627272359129E-002   1.0550013184087478E-002   3.7764833112581594E-002
  -3.1729069319313304E-002   9.7440110502143122E-003   3.7717450725140593E-002
  -2.9441511366267423E-002   8.9268063215608429E-003   3.7800868873993781E-002
  -4.2494934348698832E-002   1.2975631206029126E-002   3.5284845940669100E-002
  -4.0085659370567961E-002   1.2057711872515031E-002   3.4580813467955968E-002
  -3.7676384392437021E-002   1.1199632533140901E-002   3.3989414509118590E-002
  -3.5267109414306108E-002   1.0401393187906191E-002   3.3510649064157204E-002
  -3.2857834436175209E-002   9.6629938368111290E-003   3.3144517133071989E-002
  -4.6808409720101363E-002   1.3822852744566183E-002   3.2147848701330139E-002
  -4.4295584739303506E-002   1.2770611021850287E-002   3.1119809804853071E-002
  -4.1782759758505705E-002   1.1849251882194350E-002   3.0186237399833782E-002
  -3.9269934777707849E-002   1.1058775325597799E-002   2.9347131486272271E-002
  -3.6757109796909992E-002   1.0399181352061637E-002   2.8602492064168761E-002
  -2.4057722098933504E-002   7.4544312910600485E-003   4.7456552371893612E-002
  -2.2328615208608488E-002   6.4635117850562196E-003   4.7920874413361514E-002
  -2.0599508318283472E-002   5.5936720072066459E-003   4.8282265754407416E-002
  -1.8870401427958469E-002   4.8449119575117230E-003   4.8540726395031847E-002
  -1.7141294537633439E-002   4.2172316359715412E-003   4.8696256335234334E-002
  -2.6508140587186924E-002   8.1906188063104457E-003   4.2571547286934408E-002
  -2.4830195277915162E-002   7.2977976756835594E-003   4.2709537588456414E-002
  -2.3152249968643505E-002   6.4935996799277973E-003   4.2848135428293244E-002
  -2.1474304659371852E-002   5.7780248190432704E-003   4.2987340806445340E-002
  -1.9796359350100087E-002   5.1510730930296456E-003   4.3127153722912481E-002
  -2.9441511366267423E-002   8.9268063215608429E-003   3.7800868873993781E-002
  -2.7711189399312251E-002   8.1320835663107882E-003   3.7580070842286539E-002
  -2.5980867432357058E-002   7.3935273526487127E-003   3.7463418587631039E-002
  -2.4250545465401892E-002   6.7111376805742591E-003   3.7450912110027594E-002
  -2.2520223498446637E-002   6.0849145500879165E-003   3.7542551409475988E-002
  -3.2857834436175209E-002   9.6629938368111290E-003   3.3144517133071989E-002
  -3.0971597572799624E-002   8.9663694569380725E-003   3.2532474174852111E-002
  -2.9085360709424073E-002   8.2934550253696351E-003   3.2128115232420693E-002
  -2.7199123846048532E-002   7.6442505421054161E-003   3.1931440305778415E-002
  -2.5312886982672936E-002   7.0187560071458821E-003   3.1942449394924709E-002
  -3.6757109796909992E-002   1.0399181352061637E-002   2.8602492064168761E-002
  -3.4611419798377285E-002   9.8006553475651903E-003   2.7566747586152796E-002
  -3.2465729799844578E-002   9.1933826980907241E-003   2.6842225362662453E-002
  -3.0320039801311843E-002   8.5773634036367258E-003   2.6428925393697705E-002
  -2.8174349802779136E-002   7.9525974642042918E-003   2.6326847679258636E-002
  -1.7141294537633439E-002   4.2172316359715412E-003   4.8696256335234334E-002
  -1.5181143388038928E-002   3.6994723980421362E-003   4.8561100890835318E-002
  -1.3220992238444432E-002   3.2804755991797385E-003   4.8718284538969758E-002
  -1.1260841088849949E-002   2.9602412393850350E-003   4.9167807279637737E-002
  -9.3006899392554243E-003   2.7387693186571305E-003   4.9909669112839117E-002
  -1.9796359350100087E-002   5.1510730930296456E-003   4.3127153722912481E-002
  -1.7590406457089272E-002   4.5957155411879835E-003   4.2953325419786248E-002
  -1.5384453564078443E-002   4.0949232028182625E-003   4.2978761510959140E-002
  -1.3178500671067624E-002   3.6486960779211000E-003   4.3203461996431242E-002
  -1.0972547778056743E-002   3.2570341664956981E-003   4.3627426876202302E-002
  -2.2520223498446637E-002   6.0849145500879165E-003   3.7542551409475988E-002
  -2.0161543560253736E-002   5.4919586843338308E-003   3.7285853022027443E-002
  -1.7802863622060898E-002   4.9093708064568004E-003   3.7135344330643624E-002
  -1.5444183683867956E-002   4.3371509164570575E-003   3.7091025335324733E-002
  -1.3085503745675103E-002   3.7752990143341547E-003   3.7152896036070970E-002
  -2.5312886982672936E-002   7.0187560071458821E-003   3.1942449394924709E-002
  -2.2894554697532338E-002   6.3882018274795116E-003   3.1558683697558550E-002
  -2.0476222412391679E-002   5.7238184100951092E-003   3.1188032998023040E-002
  -1.8057890127251033E-002   5.0256057549930688E-003   3.0830497296318107E-002
  -1.5639557842110414E-002   4.2935638621726113E-003   3.0486076592443984E-002
  -2.8174349802779136E-002   7.9525974642042918E-003   2.6326847679258636E-002
  -2.5789439868925040E-002   7.2844449706255254E-003   2.5771817446380019E-002
  -2.3404529935070931E-002   6.5382660137339732E-003   2.5136827513097870E-002
  -2.1019620001216828E-002   5.7140605935290523E-003   2.4421877879411802E-002
  -1.8634710067362725E-002   4.8118287100111790E-003   2.3626968545322202E-002
  -9.3006899392554243E-003   2.7387693186571305E-003   4.9909669112839117E-002
  -7.8766365921109499E-003   2.8722814520010798E-003   5.0353455755086318E-002
  -6.4525832449664616E-003   3.6169992544212159E-003   5.1105312526406155E-002
  -5.0285298978220011E-003   4.9729227259171366E-003   5.2165239426798793E-002
  -3.6044765506774989E-003   6.9400518664888278E-003   5.3533236456263733E-002
  -1.0972547778056743E-002   3.2570341664956981E-003   4.3627426876202302E-002
  -9.2182702467170502E-003   3.1703606380375504E-003   4.4235578055524472E-002
  -7.4639927153773919E-003   3.6390986620422616E-003   4.5196107474164443E-002
  -5.7097151840377267E-003   4.6632482385091101E-003   4.6509015132122203E-002
  -3.9554376526980406E-003   6.2428093674383733E-003   4.8174301029397570E-002
  -1.3085503745675103E-002   3.7752990143341547E-003   3.7152896036070970E-002
  -1.0956693919895014E-002   3.4684398240743264E-003   3.7869617635854114E-002
  -8.8278840941150120E-003   3.6611980696633351E-003   3.8983025585200309E-002
  -6.6990742683349404E-003   4.3535737511009795E-003   4.0493119884109502E-002
  -4.5702644425548652E-003   5.5455668683875858E-003   4.2399900532581636E-002
  -1.5639557842110414E-002   4.2935638621726113E-003   3.0486076592443984E-002
  -1.3091907611644776E-002   3.7665190101109497E-003   3.1255574496074856E-002
  -1.0544257381179223E-002   3.6832974772845056E-003   3.2466066859513955E-002
  -7.9966071507136700E-003   4.0438992636931230E-003   3.4117553682761176E-002
  -5.4489569202480336E-003   4.8483243693366318E-003   3.6210034965816332E-002
  -1.8634710067362725E-002   4.8118287100111790E-003   2.3626968545322202E-002
  -1.5623911321966416E-002   4.0645981961476840E-003   2.4393448636187198E-002
  -1.2613112576570107E-002   3.7053968849054542E-003   2.5645231297105386E-002
  -9.6023138311738254E-003   3.7342247762851555E-003   2.7382316528076628E-002
  -6.5915150857774885E-003   4.1510818702861219E-003   2.9604704329101450E-002
  -3.6044765506774989E-003   6.9400518664888278E-003   5.3533236456263733E-002
  -4.1558988647163592E-003   9.5313167529432752E-003   5.1855784575069008E-002
  -4.7073211787552055E-003   1.2759647462085522E-002   5.0037722708104582E-002
  -5.2587434927940518E-003   1.6625043993914693E-002   4.8079050855371230E-002
  -5.8101658068329121E-003   2.1127506348432412E-002   4.5979769016867955E-002
  -3.9554376526980406E-003   6.2428093674383733E-003   4.8174301029397570E-002
  -4.5447093629112922E-003   8.6844175521581524E-003   4.7238618240864338E-002
  -5.1339810731245716E-003   1.2294708295995771E-002   4.6367846645752164E-002
  -5.7232527833378059E-003   1.7073681598952034E-002   4.5561986244059854E-002
  -6.3125244935510472E-003   2.3021337461026192E-002   4.4821037035789546E-002
  -4.5702644425548652E-003   5.5455668683875858E-003   4.2399900532581636E-002
  -4.9918643697524530E-003   7.8375183513727520E-003   4.2737603573140714E-002
  -5.4134642969499262E-003   1.1829769129906659E-002   4.3345738986310611E-002
  -5.8350642241476493E-003   1.7522319203988869E-002   4.4224306772091021E-002
  -6.2566641513449872E-003   2.4915168573619972E-002   4.5373306930482138E-002
  -5.4489569202480336E-003   4.8483243693366318E-003   3.6210034965816332E-002
  -5.4973638852398839E-003   6.9906191505877124E-003   3.8352740571897900E-002
  -5.5457708502317047E-003   1.1364829963817338E-002   4.0971399729780304E-002
  -5.5941778152235134E-003   1.7970956809026290E-002   4.4066012439463537E-002
  -5.6425847802153775E-003   2.6808999686213864E-002   4.7636578700947119E-002
  -6.5915150857774885E-003   4.1510818702861219E-003   2.9604704329101450E-002
  -6.0612079093735338E-003   6.1437199498022288E-003   3.4084029237135716E-002
  -5.5309007329695237E-003   1.0899890797727907E-002   3.9244828876160986E-002
  -5.0005935565656107E-003   1.8419594414062962E-002   4.5087103246176818E-002
  -4.4702863801615589E-003   2.8702830798807533E-002   5.1610852347183656E-002
  -9.4701980959139176E-002   6.0284957950078599E-003   2.5586472209678079E-002
  -8.5495316472600336E-002   1.3794721473440352E-002   3.7975453235298218E-002
  -7.6288651986061551E-002   1.8628639900590757E-002   4.5490210532362435E-002
  -6.7081987499522683E-002   2.0530251076458447E-002   4.8130744100870579E-002
  -5.7875323012983870E-002   1.9499555001044055E-002   4.5897053940822830E-002
  -8.9395539088782783E-002   1.5675449055483459E-002   2.3951995067016230E-002
  -8.4118437351395431E-002   1.8861220990422589E-002   3.0058334814245857E-002
  -7.8841335614008079E-002   2.0756905985489557E-002   3.3179772791728263E-002
  -7.3564233876620713E-002   2.1362504040684540E-002   3.3316308999463695E-002
  -6.8287132139233361E-002   2.0678015156007423E-002   3.0467943437452211E-002
  -8.9205202380644222E-002   2.5322402315959142E-002   1.6915954025155736E-002
  -8.5968341433599396E-002   2.3927720507404521E-002   1.8381872805404875E-002
  -8.2731480486554695E-002   2.2885172070388503E-002   1.8752211774716025E-002
  -7.9494619539509856E-002   2.2194757004910415E-002   1.8026970933089210E-002
  -7.6257758592465086E-002   2.1856475310970847E-002   1.6206150280524120E-002
  -9.4130970834723632E-002   3.4969355576434755E-002   4.4783490840964481E-003
  -9.1045028719212412E-002   2.8994220024386605E-002   2.9460672087758058E-003
  -8.7959086603701220E-002   2.5013438155287348E-002   2.2075274813257283E-003
  -8.4873144488190028E-002   2.3027009969136536E-002   2.2627299017469694E-003
  -8.1787202372678822E-002   2.3034935465934298E-002   3.1116744700387874E-003
 -0.10417284445102082        4.4616308836910368E-002  -1.3360819756161435E-002
  -9.9348499208234298E-002   3.4060719541368800E-002  -1.6249081975641899E-002
  -9.4524153965447777E-002   2.7141704240186110E-002  -1.6454280088442408E-002
  -8.9699808722661256E-002   2.3859262933362428E-002  -1.3976414094563044E-002
  -8.4875463479874735E-002   2.4213395620897749E-002  -8.8154839940040586E-003
  -5.7875323012983870E-002   1.9499555001044055E-002   4.5897053940822830E-002
  -5.7516370127840916E-002   1.7363322861811692E-002   4.0665566787578433E-002
  -5.7157417242698003E-002   1.5948325846226061E-002   3.7066452064053346E-002
  -5.6798464357555055E-002   1.5254563954287339E-002   3.5099709770247858E-002
  -5.6439511472412107E-002   1.5282037185995245E-002   3.4765339906161818E-002
  -6.8287132139233361E-002   2.0678015156007423E-002   3.0467943437452211E-002
  -6.6589315756265588E-002   1.9484825600648278E-002   2.7881090386408444E-002
  -6.4891499373297717E-002   1.8564321643797135E-002   2.6339591901294743E-002
  -6.3193682990329875E-002   1.7916503285453803E-002   2.5843447982111564E-002
  -6.1495866607362018E-002   1.7541370525618383E-002   2.6392658628858645E-002
  -7.6257758592465086E-002   2.1856475310970847E-002   1.6206150280524120E-002
  -7.3808096575461543E-002   2.1606328339484920E-002   1.5815381806542017E-002
  -7.1358434558457945E-002   2.1180317441367939E-002   1.5882950034701158E-002
  -6.8908772541454388E-002   2.0578442616620160E-002   1.6408854965001208E-002
  -6.6459110524450790E-002   1.9800703865241270E-002   1.7393096597442634E-002
  -8.1787202372678822E-002   2.3034935465934298E-002   3.1116744700387874E-003
  -7.9172712585428739E-002   2.3727831078321340E-002   4.4684410479794538E-003
  -7.6558222798178602E-002   2.3796313238938823E-002   5.6965264642724681E-003
  -7.3943733010928506E-002   2.3240381947786541E-002   6.7959307189170938E-003
  -7.1329243223678382E-002   2.2060037204864338E-002   7.7666538119137742E-003
  -8.4875463479874735E-002   2.4213395620897749E-002  -8.8154839940040586E-003
  -8.2683163786167302E-002   2.5849333817158038E-002  -6.1597318892790964E-003
  -8.0490864092459757E-002   2.6412309036509929E-002  -4.2196788099914256E-003
  -7.8298564398752324E-002   2.5902321278953172E-002  -2.9953247561410358E-003
  -7.6106264705044779E-002   2.4319370544487406E-002  -2.4866697277278194E-003
  -5.6439511472412107E-002   1.5282037185995245E-002   3.4765339906161818E-002
  -5.4031736034334421E-002   1.5481906253554417E-002   3.3891857127991143E-002
  -5.1623960596256735E-002   1.5305331869169589E-002   3.3164447667795610E-002
  -4.9216185158179035E-002   1.4752314032840105E-002   3.2583111525575373E-002
  -4.6808409720101363E-002   1.3822852744566183E-002   3.2147848701330139E-002
  -6.1495866607362018E-002   1.7541370525618383E-002   2.6392658628858645E-002
  -5.8909521894118355E-002   1.7207069591321539E-002   2.5361050326052487E-002
  -5.6323177180874671E-002   1.6681746709594145E-002   2.4540507255603014E-002
  -5.3736832467631057E-002   1.5965401880435919E-002   2.3931029417510290E-002
  -5.1150487754387325E-002   1.5058035103847234E-002   2.3532616811774432E-002
  -6.6459110524450790E-002   1.9800703865241270E-002   1.7393096597442634E-002
  -6.3629204621659580E-002   1.8932232929088536E-002   1.6388784274514581E-002
  -6.0799298718868362E-002   1.8058161550018818E-002   1.5660529098324764E-002
  -5.7969392816077117E-002   1.7178489728031737E-002   1.5208331068873499E-002
  -5.5139486913285921E-002   1.6293217463128229E-002   1.5032190186160310E-002
  -7.1329243223678382E-002   2.2060037204864338E-002   7.7666538119137742E-003
  -6.8190784216958067E-002   2.0657396266855678E-002   6.9750589733775896E-003
  -6.5052325210237683E-002   1.9434576390443378E-002   6.5245131959612238E-003
  -6.1913866203517319E-002   1.8391577575627996E-002   6.4150164796647055E-003
  -5.8775407196796990E-002   1.7528399822409141E-002   6.6465688244879209E-003
  -7.6106264705044779E-002   2.4319370544487406E-002  -2.4866697277278194E-003
  -7.2594260680013678E-002   2.2382559604622543E-002  -2.8801255773586165E-003
  -6.9082256654982688E-002   2.0810991230868076E-002  -2.8675404514880709E-003
  -6.5570252629951586E-002   1.9604665423223762E-002  -2.4489143501160993E-003
  -6.2058248604920596E-002   1.8763582181690053E-002  -1.6242472732425073E-003
  -4.6808409720101363E-002   1.3822852744566183E-002   3.2147848701330139E-002
  -4.4295584739303506E-002   1.2770611021850287E-002   3.1119809804853071E-002
  -4.1782759758505705E-002   1.1849251882194350E-002   3.0186237399833782E-002
  -3.9269934777707849E-002   1.1058775325597799E-002   2.9347131486272271E-002
  -3.6757109796909992E-002   1.0399181352061637E-002   2.8602492064168761E-002
  -5.1150487754387325E-002   1.5058035103847234E-002   2.3532616811774432E-002
  -4.8552417691112182E-002   1.4097939922573605E-002   2.2956659242264699E-002
  -4.5954347627837080E-002   1.3223409879361187E-002   2.2456725346251871E-002
  -4.3356277564561958E-002   1.2434444974209861E-002   2.2032815123735658E-002
  -4.0758207501286781E-002   1.1731045207119262E-002   2.1684928574716433E-002
  -5.5139486913285921E-002   1.6293217463128229E-002   1.5032190186160310E-002
  -5.2474614585494482E-002   1.5425268823296701E-002   1.4862996498619288E-002
  -4.9809742257703030E-002   1.4597567876527953E-002   1.4751383666614187E-002
  -4.7144869929911584E-002   1.3810114622821477E-002   1.4697351690144599E-002
  -4.4479997602120139E-002   1.3062909062177108E-002   1.4700900569210945E-002
  -5.8775407196796990E-002   1.7528399822409141E-002   6.6465688244879209E-003
  -5.6062175422450219E-002   1.6752597724020241E-002   6.8388215739167216E-003
  -5.3348943648103553E-002   1.5971725873694866E-002   7.0702123609206573E-003
  -5.0635711873756810E-002   1.5185784271433260E-002   7.3407411854986629E-003
  -4.7922480099410109E-002   1.4394772917234622E-002   7.6504080476520395E-003
  -6.2058248604920596E-002   1.8763582181690053E-002  -1.6242472732425073E-003
  -5.9315100201979609E-002   1.8079926624743559E-002  -1.1158655318424526E-003
  -5.6571951799038622E-002   1.7345883870861500E-002  -5.8678857082858360E-004
  -5.3828803396097691E-002   1.6561453920045252E-002  -3.7016390201143057E-005
  -5.1085654993156648E-002   1.5726636772292801E-002   5.3345101003998696E-004
  -3.6757109796909992E-002   1.0399181352061637E-002   2.8602492064168761E-002
  -3.4611419798377285E-002   9.8006553475651903E-003   2.7566747586152796E-002
  -3.2465729799844578E-002   9.1933826980907241E-003   2.6842225362662453E-002
  -3.0320039801311843E-002   8.5773634036367258E-003   2.6428925393697705E-002
  -2.8174349802779136E-002   7.9525974642042918E-003   2.6326847679258636E-002
  -4.0758207501286781E-002   1.1731045207119262E-002   2.1684928574716433E-002
  -3.8338403419861888E-002   1.1063158317362098E-002   2.0879740514423650E-002
  -3.5918599338437038E-002   1.0380732044210098E-002   2.0311558365389365E-002
  -3.3498795257012173E-002   9.6837663876632209E-003   1.9980382127613994E-002
  -3.1078991175587350E-002   8.9722613477215551E-003   1.9886211801097231E-002
  -4.4479997602120139E-002   1.3062909062177108E-002   1.4700900569210945E-002
  -4.1860295781070020E-002   1.2325661287158646E-002   1.4120476188225387E-002
  -3.9240593960019936E-002   1.1568081390329360E-002   1.3702841375231395E-002
  -3.6620892138969838E-002   1.0790169371689383E-002   1.3447996130229352E-002
  -3.4001190317919740E-002   9.9919252312388185E-003   1.3355940453218917E-002
  -4.7922480099410109E-002   1.4394772917234622E-002   7.6504080476520395E-003
  -4.5177096882001652E-002   1.3588164256955262E-002   7.2889546075576607E-003
  -4.2431713664593189E-002   1.2755430736449122E-002   7.0160743921880327E-003
  -3.9686330447184698E-002   1.1896572355715822E-002   6.8317674015431554E-003
  -3.6940947229776262E-002   1.1011589114755749E-002   6.7360336356234660E-003
  -5.1085654993156648E-002   1.5726636772292801E-002   5.3345101003998696E-004
  -4.8288806722656785E-002   1.4850667226752323E-002   3.8517577242080936E-004
  -4.5491958452156867E-002   1.3942780082568218E-002   2.5125741625953157E-004
  -4.2695110181657003E-002   1.3002975339742318E-002   1.3169594155684750E-004
  -3.9898261911157085E-002   1.2031252998273567E-002   2.6491348311452612E-005
  -2.8174349802779136E-002   7.9525974642042918E-003   2.6326847679258636E-002
  -2.5789439868925040E-002   7.2844449706255254E-003   2.5771817446380019E-002
  -2.3404529935070931E-002   6.5382660137339732E-003   2.5136827513097870E-002
  -2.1019620001216828E-002   5.7140605935290523E-003   2.4421877879411802E-002
  -1.8634710067362725E-002   4.8118287100111790E-003   2.3626968545322202E-002
  -3.1078991175587350E-002   8.9722613477215551E-003   1.9886211801097231E-002
  -2.8751514725470481E-002   8.2478076150575008E-003   1.9291457782679600E-002
  -2.6424038275353737E-002   7.5119958803439302E-003   1.8661796497190936E-002
  -2.4096561825236895E-002   6.7648261435809057E-003   1.7997227944631433E-002
  -2.1769085375120178E-002   6.0062984047685175E-003   1.7297752125001065E-002
  -3.4001190317919740E-002   9.9919252312388185E-003   1.3355940453218917E-002
  -3.1686094918207459E-002   9.2111702594894762E-003   1.2788131110525708E-002
  -2.9370999518495238E-002   8.4857257469545533E-003   1.2230466934094075E-002
  -2.7055904118783017E-002   7.8155916936328701E-003   1.1682947923924249E-002
  -2.4740808719070737E-002   7.2007680995256340E-003   1.1145574080016457E-002
  -3.6940947229776262E-002   1.1011589114755749E-002   6.7360336356234660E-003
  -3.4593180447135850E-002   1.0174532903921840E-002   6.2618374299180032E-003
  -3.2245413664495452E-002   9.4594556135639551E-003   5.8428388238069284E-003
  -2.9897646881855044E-002   8.8663572436852231E-003   5.4790378172908001E-003
  -2.7549880099214642E-002   8.3952377942825285E-003   5.1704344103688654E-003
  -3.9898261911157085E-002   1.2031252998273567E-002   2.6491348311452612E-005
  -3.7472771312255682E-002   1.1137895548353316E-002  -2.8742325914260514E-004
  -3.5047280713354390E-002   1.0433185480175189E-002  -5.0108783366983878E-004
  -3.2621790114453098E-002   9.9171227937369238E-003  -6.1450237526963075E-004
  -3.0196299515551694E-002   9.5897074890403111E-003  -6.2766688394166881E-004
  -1.8634710067362725E-002   4.8118287100111790E-003   2.3626968545322202E-002
  -1.5623911321966416E-002   4.0645981961476840E-003   2.4393448636187198E-002
  -1.2613112576570107E-002   3.7053968849054542E-003   2.5645231297105386E-002
  -9.6023138311738254E-003   3.7342247762851555E-003   2.7382316528076628E-002
  -6.5915150857774885E-003   4.1510818702861219E-003   2.9604704329101450E-002
  -2.1769085375120178E-002   6.0062984047685175E-003   1.7297752125001065E-002
  -1.8544988360606821E-002   5.3350756558793178E-003   1.8241878470995287E-002
  -1.5320891346093449E-002   4.8498208888861916E-003   1.9127298785170277E-002
  -1.2096794331580028E-002   4.5505341037902214E-003   1.9954013067526255E-002
  -8.8726973170667189E-003   4.4372153005903803E-003   2.0722021318062889E-002
  -2.4740808719070737E-002   7.2007680995256340E-003   1.1145574080016457E-002
  -2.1847422037312846E-002   6.6055531156110070E-003   1.2065285460415187E-002
  -1.8954035355554975E-002   5.9942448928674841E-003   1.2382282207122133E-002
  -1.6060648673797043E-002   5.3668434312953983E-003   1.2096564320137518E-002
  -1.3167261992039103E-002   4.7233487308940836E-003   1.1208131799461118E-002
  -2.7549880099214642E-002   8.3952377942825285E-003   5.1704344103688654E-003
  -2.5531212352084685E-002   7.8760305753423909E-003   5.8636696044471401E-003
  -2.3512544604954753E-002   7.1386688968484435E-003   5.4101815629607405E-003
  -2.1493876857824813E-002   6.1831527588007418E-003   3.8099702859105342E-003
  -1.9475209110694860E-002   5.0094821611987306E-003   1.0630357732959034E-003
  -3.0196299515551694E-002   9.5897074890403111E-003  -6.2766688394166881E-004
  -2.9596359304922215E-002   9.1465080350742189E-003  -3.6296909690952672E-004
  -2.8996419094292791E-002   8.2830929008292919E-003  -1.7890031473141443E-003
  -2.8396478883663340E-002   6.9994620863055301E-003  -4.9057690351549180E-003
  -2.7796538673033888E-002   5.2956155915024894E-003  -9.7132667604329370E-003
  -6.5915150857774885E-003   4.1510818702861219E-003   2.9604704329101450E-002
  -6.0612079093735338E-003   6.1437199498022288E-003   3.4084029237135716E-002
  -5.5309007329695237E-003   1.0899890797727907E-002   3.9244828876160986E-002
  -5.0005935565656107E-003   1.8419594414062962E-002   4.5087103246176818E-002
  -4.4702863801615589E-003   2.8702830798807533E-002   5.1610852347183656E-002
  -8.8726973170667189E-003   4.4372153005903803E-003   2.0722021318062889E-002
  -7.5872979665288776E-003   5.6578351614601785E-003   2.5884302282883187E-002
  -6.3018986159909945E-003   9.3603643685732096E-003   3.1875292864980531E-002
  -5.0164992654531879E-003   1.5544802921929411E-002   3.8694993064354616E-002
  -3.7310999149152702E-003   2.4211150821528360E-002   4.6343402881005913E-002
  -1.3167261992039103E-002   4.7233487308940836E-003   1.1208131799461118E-002
  -1.0979535581081404E-002   5.1719503731180172E-003   1.6771745398901111E-002
  -8.7918091701235379E-003   7.8208379394182903E-003   2.3311303501904329E-002
  -6.6040827591657518E-003   1.2670011429795472E-002   3.0826806108470189E-002
  -4.4163563482079726E-003   1.9719470844249187E-002   3.9318253218599053E-002
  -1.9475209110694860E-002   5.0094821611987306E-003   1.0630357732959034E-003
  -1.6237920753031047E-002   4.6860655847753563E-003   6.7463585851894256E-003
  -1.3000632395367284E-002   6.2813115102631489E-003   1.3552860786932491E-002
  -9.7633440377032747E-003   9.7952199376613938E-003   2.1482542378524046E-002
  -6.5260556800397079E-003   1.5227790866970126E-002   3.0535403359965047E-002
  -2.7796538673033888E-002   5.2956155915024894E-003  -9.7132667604329370E-003
  -2.3362453482377865E-002   4.2001807964335836E-003  -4.1918581582519043E-003
  -1.8928368291721953E-002   4.7417850811083406E-003   2.5999647200645182E-003
  -1.4494283101066097E-002   6.9204284455274545E-003   1.0662201874515331E-002
  -1.0060197910410018E-002   1.0736110889690842E-002   1.9994853305102200E-002
 </DataArray>
 </PointData>
 </Piece>
 </UnstructuredGrid>
 </VTKFile>
