 <VTKFile type="UnstructuredGrid"  version="0.1"   >
 <UnstructuredGrid>
 <Piece  NumberOfPoints="          1600 "  NumberOfCells="         1024 ">
 <Points>
 <DataArray  type="Float64" NumberOfComponents="3"  format="ascii" >
   0.0000000000000000        0.0000000000000000        0.0000000000000000     
   3.1250000000000000E-002   0.0000000000000000        0.0000000000000000     
   6.2500000000000000E-002   0.0000000000000000        0.0000000000000000     
   9.3750000000000000E-002   0.0000000000000000        0.0000000000000000     
  0.12500000000000000        0.0000000000000000        0.0000000000000000     
   0.0000000000000000        3.1250000000000000E-002   0.0000000000000000     
   3.1250000000000000E-002   3.1250000000000000E-002   0.0000000000000000     
   6.2500000000000000E-002   3.1250000000000000E-002   0.0000000000000000     
   9.3750000000000000E-002   3.1250000000000000E-002   0.0000000000000000     
  0.12500000000000000        3.1250000000000000E-002   0.0000000000000000     
   0.0000000000000000        6.2500000000000000E-002   0.0000000000000000     
   3.1250000000000000E-002   6.2500000000000000E-002   0.0000000000000000     
   6.2500000000000000E-002   6.2500000000000000E-002   0.0000000000000000     
   9.3750000000000000E-002   6.2500000000000000E-002   0.0000000000000000     
  0.12500000000000000        6.2500000000000000E-002   0.0000000000000000     
   0.0000000000000000        9.3750000000000000E-002   0.0000000000000000     
   3.1250000000000000E-002   9.3750000000000000E-002   0.0000000000000000     
   6.2500000000000000E-002   9.3750000000000000E-002   0.0000000000000000     
   9.3750000000000000E-002   9.3750000000000000E-002   0.0000000000000000     
  0.12500000000000000        9.3750000000000000E-002   0.0000000000000000     
   0.0000000000000000       0.12500000000000000        0.0000000000000000     
   3.1250000000000000E-002  0.12500000000000000        0.0000000000000000     
   6.2500000000000000E-002  0.12500000000000000        0.0000000000000000     
   9.3750000000000000E-002  0.12500000000000000        0.0000000000000000     
  0.12500000000000000       0.12500000000000000        0.0000000000000000     
  0.12500000000000000        0.0000000000000000        0.0000000000000000     
  0.15625000000000000        0.0000000000000000        0.0000000000000000     
  0.18750000000000000        0.0000000000000000        0.0000000000000000     
  0.21875000000000000        0.0000000000000000        0.0000000000000000     
  0.25000000000000000        0.0000000000000000        0.0000000000000000     
  0.12500000000000000        3.1250000000000000E-002   0.0000000000000000     
  0.15625000000000000        3.1250000000000000E-002   0.0000000000000000     
  0.18750000000000000        3.1250000000000000E-002   0.0000000000000000     
  0.21875000000000000        3.1250000000000000E-002   0.0000000000000000     
  0.25000000000000000        3.1250000000000000E-002   0.0000000000000000     
  0.12500000000000000        6.2500000000000000E-002   0.0000000000000000     
  0.15625000000000000        6.2500000000000000E-002   0.0000000000000000     
  0.18750000000000000        6.2500000000000000E-002   0.0000000000000000     
  0.21875000000000000        6.2500000000000000E-002   0.0000000000000000     
  0.25000000000000000        6.2500000000000000E-002   0.0000000000000000     
  0.12500000000000000        9.3750000000000000E-002   0.0000000000000000     
  0.15625000000000000        9.3750000000000000E-002   0.0000000000000000     
  0.18750000000000000        9.3750000000000000E-002   0.0000000000000000     
  0.21875000000000000        9.3750000000000000E-002   0.0000000000000000     
  0.25000000000000000        9.3750000000000000E-002   0.0000000000000000     
  0.12500000000000000       0.12500000000000000        0.0000000000000000     
  0.15625000000000000       0.12500000000000000        0.0000000000000000     
  0.18750000000000000       0.12500000000000000        0.0000000000000000     
  0.21875000000000000       0.12500000000000000        0.0000000000000000     
  0.25000000000000000       0.12500000000000000        0.0000000000000000     
  0.25000000000000000        0.0000000000000000        0.0000000000000000     
  0.28125000000000000        0.0000000000000000        0.0000000000000000     
  0.31250000000000000        0.0000000000000000        0.0000000000000000     
  0.34375000000000000        0.0000000000000000        0.0000000000000000     
  0.37500000000000000        0.0000000000000000        0.0000000000000000     
  0.25000000000000000        3.1250000000000000E-002   0.0000000000000000     
  0.28125000000000000        3.1250000000000000E-002   0.0000000000000000     
  0.31250000000000000        3.1250000000000000E-002   0.0000000000000000     
  0.34375000000000000        3.1250000000000000E-002   0.0000000000000000     
  0.37500000000000000        3.1250000000000000E-002   0.0000000000000000     
  0.25000000000000000        6.2500000000000000E-002   0.0000000000000000     
  0.28125000000000000        6.2500000000000000E-002   0.0000000000000000     
  0.31250000000000000        6.2500000000000000E-002   0.0000000000000000     
  0.34375000000000000        6.2500000000000000E-002   0.0000000000000000     
  0.37500000000000000        6.2500000000000000E-002   0.0000000000000000     
  0.25000000000000000        9.3750000000000000E-002   0.0000000000000000     
  0.28125000000000000        9.3750000000000000E-002   0.0000000000000000     
  0.31250000000000000        9.3750000000000000E-002   0.0000000000000000     
  0.34375000000000000        9.3750000000000000E-002   0.0000000000000000     
  0.37500000000000000        9.3750000000000000E-002   0.0000000000000000     
  0.25000000000000000       0.12500000000000000        0.0000000000000000     
  0.28125000000000000       0.12500000000000000        0.0000000000000000     
  0.31250000000000000       0.12500000000000000        0.0000000000000000     
  0.34375000000000000       0.12500000000000000        0.0000000000000000     
  0.37500000000000000       0.12500000000000000        0.0000000000000000     
  0.37500000000000000        0.0000000000000000        0.0000000000000000     
  0.40625000000000000        0.0000000000000000        0.0000000000000000     
  0.43750000000000000        0.0000000000000000        0.0000000000000000     
  0.46875000000000000        0.0000000000000000        0.0000000000000000     
  0.50000000000000000        0.0000000000000000        0.0000000000000000     
  0.37500000000000000        3.1250000000000000E-002   0.0000000000000000     
  0.40625000000000000        3.1250000000000000E-002   0.0000000000000000     
  0.43750000000000000        3.1250000000000000E-002   0.0000000000000000     
  0.46875000000000000        3.1250000000000000E-002   0.0000000000000000     
  0.50000000000000000        3.1250000000000000E-002   0.0000000000000000     
  0.37500000000000000        6.2500000000000000E-002   0.0000000000000000     
  0.40625000000000000        6.2500000000000000E-002   0.0000000000000000     
  0.43750000000000000        6.2500000000000000E-002   0.0000000000000000     
  0.46875000000000000        6.2500000000000000E-002   0.0000000000000000     
  0.50000000000000000        6.2500000000000000E-002   0.0000000000000000     
  0.37500000000000000        9.3750000000000000E-002   0.0000000000000000     
  0.40625000000000000        9.3750000000000000E-002   0.0000000000000000     
  0.43750000000000000        9.3750000000000000E-002   0.0000000000000000     
  0.46875000000000000        9.3750000000000000E-002   0.0000000000000000     
  0.50000000000000000        9.3750000000000000E-002   0.0000000000000000     
  0.37500000000000000       0.12500000000000000        0.0000000000000000     
  0.40625000000000000       0.12500000000000000        0.0000000000000000     
  0.43750000000000000       0.12500000000000000        0.0000000000000000     
  0.46875000000000000       0.12500000000000000        0.0000000000000000     
  0.50000000000000000       0.12500000000000000        0.0000000000000000     
  0.50000000000000000        0.0000000000000000        0.0000000000000000     
  0.53125000000000000        0.0000000000000000        0.0000000000000000     
  0.56250000000000000        0.0000000000000000        0.0000000000000000     
  0.59375000000000000        0.0000000000000000        0.0000000000000000     
  0.62500000000000000        0.0000000000000000        0.0000000000000000     
  0.50000000000000000        3.1250000000000000E-002   0.0000000000000000     
  0.53125000000000000        3.1250000000000000E-002   0.0000000000000000     
  0.56250000000000000        3.1250000000000000E-002   0.0000000000000000     
  0.59375000000000000        3.1250000000000000E-002   0.0000000000000000     
  0.62500000000000000        3.1250000000000000E-002   0.0000000000000000     
  0.50000000000000000        6.2500000000000000E-002   0.0000000000000000     
  0.53125000000000000        6.2500000000000000E-002   0.0000000000000000     
  0.56250000000000000        6.2500000000000000E-002   0.0000000000000000     
  0.59375000000000000        6.2500000000000000E-002   0.0000000000000000     
  0.62500000000000000        6.2500000000000000E-002   0.0000000000000000     
  0.50000000000000000        9.3750000000000000E-002   0.0000000000000000     
  0.53125000000000000        9.3750000000000000E-002   0.0000000000000000     
  0.56250000000000000        9.3750000000000000E-002   0.0000000000000000     
  0.59375000000000000        9.3750000000000000E-002   0.0000000000000000     
  0.62500000000000000        9.3750000000000000E-002   0.0000000000000000     
  0.50000000000000000       0.12500000000000000        0.0000000000000000     
  0.53125000000000000       0.12500000000000000        0.0000000000000000     
  0.56250000000000000       0.12500000000000000        0.0000000000000000     
  0.59375000000000000       0.12500000000000000        0.0000000000000000     
  0.62500000000000000       0.12500000000000000        0.0000000000000000     
  0.62500000000000000        0.0000000000000000        0.0000000000000000     
  0.65625000000000000        0.0000000000000000        0.0000000000000000     
  0.68750000000000000        0.0000000000000000        0.0000000000000000     
  0.71875000000000000        0.0000000000000000        0.0000000000000000     
  0.75000000000000000        0.0000000000000000        0.0000000000000000     
  0.62500000000000000        3.1250000000000000E-002   0.0000000000000000     
  0.65625000000000000        3.1250000000000000E-002   0.0000000000000000     
  0.68750000000000000        3.1250000000000000E-002   0.0000000000000000     
  0.71875000000000000        3.1250000000000000E-002   0.0000000000000000     
  0.75000000000000000        3.1250000000000000E-002   0.0000000000000000     
  0.62500000000000000        6.2500000000000000E-002   0.0000000000000000     
  0.65625000000000000        6.2500000000000000E-002   0.0000000000000000     
  0.68750000000000000        6.2500000000000000E-002   0.0000000000000000     
  0.71875000000000000        6.2500000000000000E-002   0.0000000000000000     
  0.75000000000000000        6.2500000000000000E-002   0.0000000000000000     
  0.62500000000000000        9.3750000000000000E-002   0.0000000000000000     
  0.65625000000000000        9.3750000000000000E-002   0.0000000000000000     
  0.68750000000000000        9.3750000000000000E-002   0.0000000000000000     
  0.71875000000000000        9.3750000000000000E-002   0.0000000000000000     
  0.75000000000000000        9.3750000000000000E-002   0.0000000000000000     
  0.62500000000000000       0.12500000000000000        0.0000000000000000     
  0.65625000000000000       0.12500000000000000        0.0000000000000000     
  0.68750000000000000       0.12500000000000000        0.0000000000000000     
  0.71875000000000000       0.12500000000000000        0.0000000000000000     
  0.75000000000000000       0.12500000000000000        0.0000000000000000     
  0.75000000000000000        0.0000000000000000        0.0000000000000000     
  0.78125000000000000        0.0000000000000000        0.0000000000000000     
  0.81250000000000000        0.0000000000000000        0.0000000000000000     
  0.84375000000000000        0.0000000000000000        0.0000000000000000     
  0.87500000000000000        0.0000000000000000        0.0000000000000000     
  0.75000000000000000        3.1250000000000000E-002   0.0000000000000000     
  0.78125000000000000        3.1250000000000000E-002   0.0000000000000000     
  0.81250000000000000        3.1250000000000000E-002   0.0000000000000000     
  0.84375000000000000        3.1250000000000000E-002   0.0000000000000000     
  0.87500000000000000        3.1250000000000000E-002   0.0000000000000000     
  0.75000000000000000        6.2500000000000000E-002   0.0000000000000000     
  0.78125000000000000        6.2500000000000000E-002   0.0000000000000000     
  0.81250000000000000        6.2500000000000000E-002   0.0000000000000000     
  0.84375000000000000        6.2500000000000000E-002   0.0000000000000000     
  0.87500000000000000        6.2500000000000000E-002   0.0000000000000000     
  0.75000000000000000        9.3750000000000000E-002   0.0000000000000000     
  0.78125000000000000        9.3750000000000000E-002   0.0000000000000000     
  0.81250000000000000        9.3750000000000000E-002   0.0000000000000000     
  0.84375000000000000        9.3750000000000000E-002   0.0000000000000000     
  0.87500000000000000        9.3750000000000000E-002   0.0000000000000000     
  0.75000000000000000       0.12500000000000000        0.0000000000000000     
  0.78125000000000000       0.12500000000000000        0.0000000000000000     
  0.81250000000000000       0.12500000000000000        0.0000000000000000     
  0.84375000000000000       0.12500000000000000        0.0000000000000000     
  0.87500000000000000       0.12500000000000000        0.0000000000000000     
  0.87500000000000000        0.0000000000000000        0.0000000000000000     
  0.90625000000000000        0.0000000000000000        0.0000000000000000     
  0.93750000000000000        0.0000000000000000        0.0000000000000000     
  0.96875000000000000        0.0000000000000000        0.0000000000000000     
   1.0000000000000000        0.0000000000000000        0.0000000000000000     
  0.87500000000000000        3.1250000000000000E-002   0.0000000000000000     
  0.90625000000000000        3.1250000000000000E-002   0.0000000000000000     
  0.93750000000000000        3.1250000000000000E-002   0.0000000000000000     
  0.96875000000000000        3.1250000000000000E-002   0.0000000000000000     
   1.0000000000000000        3.1250000000000000E-002   0.0000000000000000     
  0.87500000000000000        6.2500000000000000E-002   0.0000000000000000     
  0.90625000000000000        6.2500000000000000E-002   0.0000000000000000     
  0.93750000000000000        6.2500000000000000E-002   0.0000000000000000     
  0.96875000000000000        6.2500000000000000E-002   0.0000000000000000     
   1.0000000000000000        6.2500000000000000E-002   0.0000000000000000     
  0.87500000000000000        9.3750000000000000E-002   0.0000000000000000     
  0.90625000000000000        9.3750000000000000E-002   0.0000000000000000     
  0.93750000000000000        9.3750000000000000E-002   0.0000000000000000     
  0.96875000000000000        9.3750000000000000E-002   0.0000000000000000     
   1.0000000000000000        9.3750000000000000E-002   0.0000000000000000     
  0.87500000000000000       0.12500000000000000        0.0000000000000000     
  0.90625000000000000       0.12500000000000000        0.0000000000000000     
  0.93750000000000000       0.12500000000000000        0.0000000000000000     
  0.96875000000000000       0.12500000000000000        0.0000000000000000     
   1.0000000000000000       0.12500000000000000        0.0000000000000000     
   0.0000000000000000       0.12500000000000000        0.0000000000000000     
   3.1250000000000000E-002  0.12500000000000000        0.0000000000000000     
   6.2500000000000000E-002  0.12500000000000000        0.0000000000000000     
   9.3750000000000000E-002  0.12500000000000000        0.0000000000000000     
  0.12500000000000000       0.12500000000000000        0.0000000000000000     
   0.0000000000000000       0.15625000000000000        0.0000000000000000     
   3.1250000000000000E-002  0.15625000000000000        0.0000000000000000     
   6.2500000000000000E-002  0.15625000000000000        0.0000000000000000     
   9.3750000000000000E-002  0.15625000000000000        0.0000000000000000     
  0.12500000000000000       0.15625000000000000        0.0000000000000000     
   0.0000000000000000       0.18750000000000000        0.0000000000000000     
   3.1250000000000000E-002  0.18750000000000000        0.0000000000000000     
   6.2500000000000000E-002  0.18750000000000000        0.0000000000000000     
   9.3750000000000000E-002  0.18750000000000000        0.0000000000000000     
  0.12500000000000000       0.18750000000000000        0.0000000000000000     
   0.0000000000000000       0.21875000000000000        0.0000000000000000     
   3.1250000000000000E-002  0.21875000000000000        0.0000000000000000     
   6.2500000000000000E-002  0.21875000000000000        0.0000000000000000     
   9.3750000000000000E-002  0.21875000000000000        0.0000000000000000     
  0.12500000000000000       0.21875000000000000        0.0000000000000000     
   0.0000000000000000       0.25000000000000000        0.0000000000000000     
   3.1250000000000000E-002  0.25000000000000000        0.0000000000000000     
   6.2500000000000000E-002  0.25000000000000000        0.0000000000000000     
   9.3750000000000000E-002  0.25000000000000000        0.0000000000000000     
  0.12500000000000000       0.25000000000000000        0.0000000000000000     
  0.12500000000000000       0.12500000000000000        0.0000000000000000     
  0.15625000000000000       0.12500000000000000        0.0000000000000000     
  0.18750000000000000       0.12500000000000000        0.0000000000000000     
  0.21875000000000000       0.12500000000000000        0.0000000000000000     
  0.25000000000000000       0.12500000000000000        0.0000000000000000     
  0.12500000000000000       0.15625000000000000        0.0000000000000000     
  0.15625000000000000       0.15625000000000000        0.0000000000000000     
  0.18750000000000000       0.15625000000000000        0.0000000000000000     
  0.21875000000000000       0.15625000000000000        0.0000000000000000     
  0.25000000000000000       0.15625000000000000        0.0000000000000000     
  0.12500000000000000       0.18750000000000000        0.0000000000000000     
  0.15625000000000000       0.18750000000000000        0.0000000000000000     
  0.18750000000000000       0.18750000000000000        0.0000000000000000     
  0.21875000000000000       0.18750000000000000        0.0000000000000000     
  0.25000000000000000       0.18750000000000000        0.0000000000000000     
  0.12500000000000000       0.21875000000000000        0.0000000000000000     
  0.15625000000000000       0.21875000000000000        0.0000000000000000     
  0.18750000000000000       0.21875000000000000        0.0000000000000000     
  0.21875000000000000       0.21875000000000000        0.0000000000000000     
  0.25000000000000000       0.21875000000000000        0.0000000000000000     
  0.12500000000000000       0.25000000000000000        0.0000000000000000     
  0.15625000000000000       0.25000000000000000        0.0000000000000000     
  0.18750000000000000       0.25000000000000000        0.0000000000000000     
  0.21875000000000000       0.25000000000000000        0.0000000000000000     
  0.25000000000000000       0.25000000000000000        0.0000000000000000     
  0.25000000000000000       0.12500000000000000        0.0000000000000000     
  0.28125000000000000       0.12500000000000000        0.0000000000000000     
  0.31250000000000000       0.12500000000000000        0.0000000000000000     
  0.34375000000000000       0.12500000000000000        0.0000000000000000     
  0.37500000000000000       0.12500000000000000        0.0000000000000000     
  0.25000000000000000       0.15625000000000000        0.0000000000000000     
  0.28125000000000000       0.15625000000000000        0.0000000000000000     
  0.31250000000000000       0.15625000000000000        0.0000000000000000     
  0.34375000000000000       0.15625000000000000        0.0000000000000000     
  0.37500000000000000       0.15625000000000000        0.0000000000000000     
  0.25000000000000000       0.18750000000000000        0.0000000000000000     
  0.28125000000000000       0.18750000000000000        0.0000000000000000     
  0.31250000000000000       0.18750000000000000        0.0000000000000000     
  0.34375000000000000       0.18750000000000000        0.0000000000000000     
  0.37500000000000000       0.18750000000000000        0.0000000000000000     
  0.25000000000000000       0.21875000000000000        0.0000000000000000     
  0.28125000000000000       0.21875000000000000        0.0000000000000000     
  0.31250000000000000       0.21875000000000000        0.0000000000000000     
  0.34375000000000000       0.21875000000000000        0.0000000000000000     
  0.37500000000000000       0.21875000000000000        0.0000000000000000     
  0.25000000000000000       0.25000000000000000        0.0000000000000000     
  0.28125000000000000       0.25000000000000000        0.0000000000000000     
  0.31250000000000000       0.25000000000000000        0.0000000000000000     
  0.34375000000000000       0.25000000000000000        0.0000000000000000     
  0.37500000000000000       0.25000000000000000        0.0000000000000000     
  0.37500000000000000       0.12500000000000000        0.0000000000000000     
  0.40625000000000000       0.12500000000000000        0.0000000000000000     
  0.43750000000000000       0.12500000000000000        0.0000000000000000     
  0.46875000000000000       0.12500000000000000        0.0000000000000000     
  0.50000000000000000       0.12500000000000000        0.0000000000000000     
  0.37500000000000000       0.15625000000000000        0.0000000000000000     
  0.40625000000000000       0.15625000000000000        0.0000000000000000     
  0.43750000000000000       0.15625000000000000        0.0000000000000000     
  0.46875000000000000       0.15625000000000000        0.0000000000000000     
  0.50000000000000000       0.15625000000000000        0.0000000000000000     
  0.37500000000000000       0.18750000000000000        0.0000000000000000     
  0.40625000000000000       0.18750000000000000        0.0000000000000000     
  0.43750000000000000       0.18750000000000000        0.0000000000000000     
  0.46875000000000000       0.18750000000000000        0.0000000000000000     
  0.50000000000000000       0.18750000000000000        0.0000000000000000     
  0.37500000000000000       0.21875000000000000        0.0000000000000000     
  0.40625000000000000       0.21875000000000000        0.0000000000000000     
  0.43750000000000000       0.21875000000000000        0.0000000000000000     
  0.46875000000000000       0.21875000000000000        0.0000000000000000     
  0.50000000000000000       0.21875000000000000        0.0000000000000000     
  0.37500000000000000       0.25000000000000000        0.0000000000000000     
  0.40625000000000000       0.25000000000000000        0.0000000000000000     
  0.43750000000000000       0.25000000000000000        0.0000000000000000     
  0.46875000000000000       0.25000000000000000        0.0000000000000000     
  0.50000000000000000       0.25000000000000000        0.0000000000000000     
  0.50000000000000000       0.12500000000000000        0.0000000000000000     
  0.53125000000000000       0.12500000000000000        0.0000000000000000     
  0.56250000000000000       0.12500000000000000        0.0000000000000000     
  0.59375000000000000       0.12500000000000000        0.0000000000000000     
  0.62500000000000000       0.12500000000000000        0.0000000000000000     
  0.50000000000000000       0.15625000000000000        0.0000000000000000     
  0.53125000000000000       0.15625000000000000        0.0000000000000000     
  0.56250000000000000       0.15625000000000000        0.0000000000000000     
  0.59375000000000000       0.15625000000000000        0.0000000000000000     
  0.62500000000000000       0.15625000000000000        0.0000000000000000     
  0.50000000000000000       0.18750000000000000        0.0000000000000000     
  0.53125000000000000       0.18750000000000000        0.0000000000000000     
  0.56250000000000000       0.18750000000000000        0.0000000000000000     
  0.59375000000000000       0.18750000000000000        0.0000000000000000     
  0.62500000000000000       0.18750000000000000        0.0000000000000000     
  0.50000000000000000       0.21875000000000000        0.0000000000000000     
  0.53125000000000000       0.21875000000000000        0.0000000000000000     
  0.56250000000000000       0.21875000000000000        0.0000000000000000     
  0.59375000000000000       0.21875000000000000        0.0000000000000000     
  0.62500000000000000       0.21875000000000000        0.0000000000000000     
  0.50000000000000000       0.25000000000000000        0.0000000000000000     
  0.53125000000000000       0.25000000000000000        0.0000000000000000     
  0.56250000000000000       0.25000000000000000        0.0000000000000000     
  0.59375000000000000       0.25000000000000000        0.0000000000000000     
  0.62500000000000000       0.25000000000000000        0.0000000000000000     
  0.62500000000000000       0.12500000000000000        0.0000000000000000     
  0.65625000000000000       0.12500000000000000        0.0000000000000000     
  0.68750000000000000       0.12500000000000000        0.0000000000000000     
  0.71875000000000000       0.12500000000000000        0.0000000000000000     
  0.75000000000000000       0.12500000000000000        0.0000000000000000     
  0.62500000000000000       0.15625000000000000        0.0000000000000000     
  0.65625000000000000       0.15625000000000000        0.0000000000000000     
  0.68750000000000000       0.15625000000000000        0.0000000000000000     
  0.71875000000000000       0.15625000000000000        0.0000000000000000     
  0.75000000000000000       0.15625000000000000        0.0000000000000000     
  0.62500000000000000       0.18750000000000000        0.0000000000000000     
  0.65625000000000000       0.18750000000000000        0.0000000000000000     
  0.68750000000000000       0.18750000000000000        0.0000000000000000     
  0.71875000000000000       0.18750000000000000        0.0000000000000000     
  0.75000000000000000       0.18750000000000000        0.0000000000000000     
  0.62500000000000000       0.21875000000000000        0.0000000000000000     
  0.65625000000000000       0.21875000000000000        0.0000000000000000     
  0.68750000000000000       0.21875000000000000        0.0000000000000000     
  0.71875000000000000       0.21875000000000000        0.0000000000000000     
  0.75000000000000000       0.21875000000000000        0.0000000000000000     
  0.62500000000000000       0.25000000000000000        0.0000000000000000     
  0.65625000000000000       0.25000000000000000        0.0000000000000000     
  0.68750000000000000       0.25000000000000000        0.0000000000000000     
  0.71875000000000000       0.25000000000000000        0.0000000000000000     
  0.75000000000000000       0.25000000000000000        0.0000000000000000     
  0.75000000000000000       0.12500000000000000        0.0000000000000000     
  0.78125000000000000       0.12500000000000000        0.0000000000000000     
  0.81250000000000000       0.12500000000000000        0.0000000000000000     
  0.84375000000000000       0.12500000000000000        0.0000000000000000     
  0.87500000000000000       0.12500000000000000        0.0000000000000000     
  0.75000000000000000       0.15625000000000000        0.0000000000000000     
  0.78125000000000000       0.15625000000000000        0.0000000000000000     
  0.81250000000000000       0.15625000000000000        0.0000000000000000     
  0.84375000000000000       0.15625000000000000        0.0000000000000000     
  0.87500000000000000       0.15625000000000000        0.0000000000000000     
  0.75000000000000000       0.18750000000000000        0.0000000000000000     
  0.78125000000000000       0.18750000000000000        0.0000000000000000     
  0.81250000000000000       0.18750000000000000        0.0000000000000000     
  0.84375000000000000       0.18750000000000000        0.0000000000000000     
  0.87500000000000000       0.18750000000000000        0.0000000000000000     
  0.75000000000000000       0.21875000000000000        0.0000000000000000     
  0.78125000000000000       0.21875000000000000        0.0000000000000000     
  0.81250000000000000       0.21875000000000000        0.0000000000000000     
  0.84375000000000000       0.21875000000000000        0.0000000000000000     
  0.87500000000000000       0.21875000000000000        0.0000000000000000     
  0.75000000000000000       0.25000000000000000        0.0000000000000000     
  0.78125000000000000       0.25000000000000000        0.0000000000000000     
  0.81250000000000000       0.25000000000000000        0.0000000000000000     
  0.84375000000000000       0.25000000000000000        0.0000000000000000     
  0.87500000000000000       0.25000000000000000        0.0000000000000000     
  0.87500000000000000       0.12500000000000000        0.0000000000000000     
  0.90625000000000000       0.12500000000000000        0.0000000000000000     
  0.93750000000000000       0.12500000000000000        0.0000000000000000     
  0.96875000000000000       0.12500000000000000        0.0000000000000000     
   1.0000000000000000       0.12500000000000000        0.0000000000000000     
  0.87500000000000000       0.15625000000000000        0.0000000000000000     
  0.90625000000000000       0.15625000000000000        0.0000000000000000     
  0.93750000000000000       0.15625000000000000        0.0000000000000000     
  0.96875000000000000       0.15625000000000000        0.0000000000000000     
   1.0000000000000000       0.15625000000000000        0.0000000000000000     
  0.87500000000000000       0.18750000000000000        0.0000000000000000     
  0.90625000000000000       0.18750000000000000        0.0000000000000000     
  0.93750000000000000       0.18750000000000000        0.0000000000000000     
  0.96875000000000000       0.18750000000000000        0.0000000000000000     
   1.0000000000000000       0.18750000000000000        0.0000000000000000     
  0.87500000000000000       0.21875000000000000        0.0000000000000000     
  0.90625000000000000       0.21875000000000000        0.0000000000000000     
  0.93750000000000000       0.21875000000000000        0.0000000000000000     
  0.96875000000000000       0.21875000000000000        0.0000000000000000     
   1.0000000000000000       0.21875000000000000        0.0000000000000000     
  0.87500000000000000       0.25000000000000000        0.0000000000000000     
  0.90625000000000000       0.25000000000000000        0.0000000000000000     
  0.93750000000000000       0.25000000000000000        0.0000000000000000     
  0.96875000000000000       0.25000000000000000        0.0000000000000000     
   1.0000000000000000       0.25000000000000000        0.0000000000000000     
   0.0000000000000000       0.25000000000000000        0.0000000000000000     
   3.1250000000000000E-002  0.25000000000000000        0.0000000000000000     
   6.2500000000000000E-002  0.25000000000000000        0.0000000000000000     
   9.3750000000000000E-002  0.25000000000000000        0.0000000000000000     
  0.12500000000000000       0.25000000000000000        0.0000000000000000     
   0.0000000000000000       0.28125000000000000        0.0000000000000000     
   3.1250000000000000E-002  0.28125000000000000        0.0000000000000000     
   6.2500000000000000E-002  0.28125000000000000        0.0000000000000000     
   9.3750000000000000E-002  0.28125000000000000        0.0000000000000000     
  0.12500000000000000       0.28125000000000000        0.0000000000000000     
   0.0000000000000000       0.31250000000000000        0.0000000000000000     
   3.1250000000000000E-002  0.31250000000000000        0.0000000000000000     
   6.2500000000000000E-002  0.31250000000000000        0.0000000000000000     
   9.3750000000000000E-002  0.31250000000000000        0.0000000000000000     
  0.12500000000000000       0.31250000000000000        0.0000000000000000     
   0.0000000000000000       0.34375000000000000        0.0000000000000000     
   3.1250000000000000E-002  0.34375000000000000        0.0000000000000000     
   6.2500000000000000E-002  0.34375000000000000        0.0000000000000000     
   9.3750000000000000E-002  0.34375000000000000        0.0000000000000000     
  0.12500000000000000       0.34375000000000000        0.0000000000000000     
   0.0000000000000000       0.37500000000000000        0.0000000000000000     
   3.1250000000000000E-002  0.37500000000000000        0.0000000000000000     
   6.2500000000000000E-002  0.37500000000000000        0.0000000000000000     
   9.3750000000000000E-002  0.37500000000000000        0.0000000000000000     
  0.12500000000000000       0.37500000000000000        0.0000000000000000     
  0.12500000000000000       0.25000000000000000        0.0000000000000000     
  0.15625000000000000       0.25000000000000000        0.0000000000000000     
  0.18750000000000000       0.25000000000000000        0.0000000000000000     
  0.21875000000000000       0.25000000000000000        0.0000000000000000     
  0.25000000000000000       0.25000000000000000        0.0000000000000000     
  0.12500000000000000       0.28125000000000000        0.0000000000000000     
  0.15625000000000000       0.28125000000000000        0.0000000000000000     
  0.18750000000000000       0.28125000000000000        0.0000000000000000     
  0.21875000000000000       0.28125000000000000        0.0000000000000000     
  0.25000000000000000       0.28125000000000000        0.0000000000000000     
  0.12500000000000000       0.31250000000000000        0.0000000000000000     
  0.15625000000000000       0.31250000000000000        0.0000000000000000     
  0.18750000000000000       0.31250000000000000        0.0000000000000000     
  0.21875000000000000       0.31250000000000000        0.0000000000000000     
  0.25000000000000000       0.31250000000000000        0.0000000000000000     
  0.12500000000000000       0.34375000000000000        0.0000000000000000     
  0.15625000000000000       0.34375000000000000        0.0000000000000000     
  0.18750000000000000       0.34375000000000000        0.0000000000000000     
  0.21875000000000000       0.34375000000000000        0.0000000000000000     
  0.25000000000000000       0.34375000000000000        0.0000000000000000     
  0.12500000000000000       0.37500000000000000        0.0000000000000000     
  0.15625000000000000       0.37500000000000000        0.0000000000000000     
  0.18750000000000000       0.37500000000000000        0.0000000000000000     
  0.21875000000000000       0.37500000000000000        0.0000000000000000     
  0.25000000000000000       0.37500000000000000        0.0000000000000000     
  0.25000000000000000       0.25000000000000000        0.0000000000000000     
  0.28125000000000000       0.25000000000000000        0.0000000000000000     
  0.31250000000000000       0.25000000000000000        0.0000000000000000     
  0.34375000000000000       0.25000000000000000        0.0000000000000000     
  0.37500000000000000       0.25000000000000000        0.0000000000000000     
  0.25000000000000000       0.28125000000000000        0.0000000000000000     
  0.28125000000000000       0.28125000000000000        0.0000000000000000     
  0.31250000000000000       0.28125000000000000        0.0000000000000000     
  0.34375000000000000       0.28125000000000000        0.0000000000000000     
  0.37500000000000000       0.28125000000000000        0.0000000000000000     
  0.25000000000000000       0.31250000000000000        0.0000000000000000     
  0.28125000000000000       0.31250000000000000        0.0000000000000000     
  0.31250000000000000       0.31250000000000000        0.0000000000000000     
  0.34375000000000000       0.31250000000000000        0.0000000000000000     
  0.37500000000000000       0.31250000000000000        0.0000000000000000     
  0.25000000000000000       0.34375000000000000        0.0000000000000000     
  0.28125000000000000       0.34375000000000000        0.0000000000000000     
  0.31250000000000000       0.34375000000000000        0.0000000000000000     
  0.34375000000000000       0.34375000000000000        0.0000000000000000     
  0.37500000000000000       0.34375000000000000        0.0000000000000000     
  0.25000000000000000       0.37500000000000000        0.0000000000000000     
  0.28125000000000000       0.37500000000000000        0.0000000000000000     
  0.31250000000000000       0.37500000000000000        0.0000000000000000     
  0.34375000000000000       0.37500000000000000        0.0000000000000000     
  0.37500000000000000       0.37500000000000000        0.0000000000000000     
  0.37500000000000000       0.25000000000000000        0.0000000000000000     
  0.40625000000000000       0.25000000000000000        0.0000000000000000     
  0.43750000000000000       0.25000000000000000        0.0000000000000000     
  0.46875000000000000       0.25000000000000000        0.0000000000000000     
  0.50000000000000000       0.25000000000000000        0.0000000000000000     
  0.37500000000000000       0.28125000000000000        0.0000000000000000     
  0.40625000000000000       0.28125000000000000        0.0000000000000000     
  0.43750000000000000       0.28125000000000000        0.0000000000000000     
  0.46875000000000000       0.28125000000000000        0.0000000000000000     
  0.50000000000000000       0.28125000000000000        0.0000000000000000     
  0.37500000000000000       0.31250000000000000        0.0000000000000000     
  0.40625000000000000       0.31250000000000000        0.0000000000000000     
  0.43750000000000000       0.31250000000000000        0.0000000000000000     
  0.46875000000000000       0.31250000000000000        0.0000000000000000     
  0.50000000000000000       0.31250000000000000        0.0000000000000000     
  0.37500000000000000       0.34375000000000000        0.0000000000000000     
  0.40625000000000000       0.34375000000000000        0.0000000000000000     
  0.43750000000000000       0.34375000000000000        0.0000000000000000     
  0.46875000000000000       0.34375000000000000        0.0000000000000000     
  0.50000000000000000       0.34375000000000000        0.0000000000000000     
  0.37500000000000000       0.37500000000000000        0.0000000000000000     
  0.40625000000000000       0.37500000000000000        0.0000000000000000     
  0.43750000000000000       0.37500000000000000        0.0000000000000000     
  0.46875000000000000       0.37500000000000000        0.0000000000000000     
  0.50000000000000000       0.37500000000000000        0.0000000000000000     
  0.50000000000000000       0.25000000000000000        0.0000000000000000     
  0.53125000000000000       0.25000000000000000        0.0000000000000000     
  0.56250000000000000       0.25000000000000000        0.0000000000000000     
  0.59375000000000000       0.25000000000000000        0.0000000000000000     
  0.62500000000000000       0.25000000000000000        0.0000000000000000     
  0.50000000000000000       0.28125000000000000        0.0000000000000000     
  0.53125000000000000       0.28125000000000000        0.0000000000000000     
  0.56250000000000000       0.28125000000000000        0.0000000000000000     
  0.59375000000000000       0.28125000000000000        0.0000000000000000     
  0.62500000000000000       0.28125000000000000        0.0000000000000000     
  0.50000000000000000       0.31250000000000000        0.0000000000000000     
  0.53125000000000000       0.31250000000000000        0.0000000000000000     
  0.56250000000000000       0.31250000000000000        0.0000000000000000     
  0.59375000000000000       0.31250000000000000        0.0000000000000000     
  0.62500000000000000       0.31250000000000000        0.0000000000000000     
  0.50000000000000000       0.34375000000000000        0.0000000000000000     
  0.53125000000000000       0.34375000000000000        0.0000000000000000     
  0.56250000000000000       0.34375000000000000        0.0000000000000000     
  0.59375000000000000       0.34375000000000000        0.0000000000000000     
  0.62500000000000000       0.34375000000000000        0.0000000000000000     
  0.50000000000000000       0.37500000000000000        0.0000000000000000     
  0.53125000000000000       0.37500000000000000        0.0000000000000000     
  0.56250000000000000       0.37500000000000000        0.0000000000000000     
  0.59375000000000000       0.37500000000000000        0.0000000000000000     
  0.62500000000000000       0.37500000000000000        0.0000000000000000     
  0.62500000000000000       0.25000000000000000        0.0000000000000000     
  0.65625000000000000       0.25000000000000000        0.0000000000000000     
  0.68750000000000000       0.25000000000000000        0.0000000000000000     
  0.71875000000000000       0.25000000000000000        0.0000000000000000     
  0.75000000000000000       0.25000000000000000        0.0000000000000000     
  0.62500000000000000       0.28125000000000000        0.0000000000000000     
  0.65625000000000000       0.28125000000000000        0.0000000000000000     
  0.68750000000000000       0.28125000000000000        0.0000000000000000     
  0.71875000000000000       0.28125000000000000        0.0000000000000000     
  0.75000000000000000       0.28125000000000000        0.0000000000000000     
  0.62500000000000000       0.31250000000000000        0.0000000000000000     
  0.65625000000000000       0.31250000000000000        0.0000000000000000     
  0.68750000000000000       0.31250000000000000        0.0000000000000000     
  0.71875000000000000       0.31250000000000000        0.0000000000000000     
  0.75000000000000000       0.31250000000000000        0.0000000000000000     
  0.62500000000000000       0.34375000000000000        0.0000000000000000     
  0.65625000000000000       0.34375000000000000        0.0000000000000000     
  0.68750000000000000       0.34375000000000000        0.0000000000000000     
  0.71875000000000000       0.34375000000000000        0.0000000000000000     
  0.75000000000000000       0.34375000000000000        0.0000000000000000     
  0.62500000000000000       0.37500000000000000        0.0000000000000000     
  0.65625000000000000       0.37500000000000000        0.0000000000000000     
  0.68750000000000000       0.37500000000000000        0.0000000000000000     
  0.71875000000000000       0.37500000000000000        0.0000000000000000     
  0.75000000000000000       0.37500000000000000        0.0000000000000000     
  0.75000000000000000       0.25000000000000000        0.0000000000000000     
  0.78125000000000000       0.25000000000000000        0.0000000000000000     
  0.81250000000000000       0.25000000000000000        0.0000000000000000     
  0.84375000000000000       0.25000000000000000        0.0000000000000000     
  0.87500000000000000       0.25000000000000000        0.0000000000000000     
  0.75000000000000000       0.28125000000000000        0.0000000000000000     
  0.78125000000000000       0.28125000000000000        0.0000000000000000     
  0.81250000000000000       0.28125000000000000        0.0000000000000000     
  0.84375000000000000       0.28125000000000000        0.0000000000000000     
  0.87500000000000000       0.28125000000000000        0.0000000000000000     
  0.75000000000000000       0.31250000000000000        0.0000000000000000     
  0.78125000000000000       0.31250000000000000        0.0000000000000000     
  0.81250000000000000       0.31250000000000000        0.0000000000000000     
  0.84375000000000000       0.31250000000000000        0.0000000000000000     
  0.87500000000000000       0.31250000000000000        0.0000000000000000     
  0.75000000000000000       0.34375000000000000        0.0000000000000000     
  0.78125000000000000       0.34375000000000000        0.0000000000000000     
  0.81250000000000000       0.34375000000000000        0.0000000000000000     
  0.84375000000000000       0.34375000000000000        0.0000000000000000     
  0.87500000000000000       0.34375000000000000        0.0000000000000000     
  0.75000000000000000       0.37500000000000000        0.0000000000000000     
  0.78125000000000000       0.37500000000000000        0.0000000000000000     
  0.81250000000000000       0.37500000000000000        0.0000000000000000     
  0.84375000000000000       0.37500000000000000        0.0000000000000000     
  0.87500000000000000       0.37500000000000000        0.0000000000000000     
  0.87500000000000000       0.25000000000000000        0.0000000000000000     
  0.90625000000000000       0.25000000000000000        0.0000000000000000     
  0.93750000000000000       0.25000000000000000        0.0000000000000000     
  0.96875000000000000       0.25000000000000000        0.0000000000000000     
   1.0000000000000000       0.25000000000000000        0.0000000000000000     
  0.87500000000000000       0.28125000000000000        0.0000000000000000     
  0.90625000000000000       0.28125000000000000        0.0000000000000000     
  0.93750000000000000       0.28125000000000000        0.0000000000000000     
  0.96875000000000000       0.28125000000000000        0.0000000000000000     
   1.0000000000000000       0.28125000000000000        0.0000000000000000     
  0.87500000000000000       0.31250000000000000        0.0000000000000000     
  0.90625000000000000       0.31250000000000000        0.0000000000000000     
  0.93750000000000000       0.31250000000000000        0.0000000000000000     
  0.96875000000000000       0.31250000000000000        0.0000000000000000     
   1.0000000000000000       0.31250000000000000        0.0000000000000000     
  0.87500000000000000       0.34375000000000000        0.0000000000000000     
  0.90625000000000000       0.34375000000000000        0.0000000000000000     
  0.93750000000000000       0.34375000000000000        0.0000000000000000     
  0.96875000000000000       0.34375000000000000        0.0000000000000000     
   1.0000000000000000       0.34375000000000000        0.0000000000000000     
  0.87500000000000000       0.37500000000000000        0.0000000000000000     
  0.90625000000000000       0.37500000000000000        0.0000000000000000     
  0.93750000000000000       0.37500000000000000        0.0000000000000000     
  0.96875000000000000       0.37500000000000000        0.0000000000000000     
   1.0000000000000000       0.37500000000000000        0.0000000000000000     
   0.0000000000000000       0.37500000000000000        0.0000000000000000     
   3.1250000000000000E-002  0.37500000000000000        0.0000000000000000     
   6.2500000000000000E-002  0.37500000000000000        0.0000000000000000     
   9.3750000000000000E-002  0.37500000000000000        0.0000000000000000     
  0.12500000000000000       0.37500000000000000        0.0000000000000000     
   0.0000000000000000       0.40625000000000000        0.0000000000000000     
   3.1250000000000000E-002  0.40625000000000000        0.0000000000000000     
   6.2500000000000000E-002  0.40625000000000000        0.0000000000000000     
   9.3750000000000000E-002  0.40625000000000000        0.0000000000000000     
  0.12500000000000000       0.40625000000000000        0.0000000000000000     
   0.0000000000000000       0.43750000000000000        0.0000000000000000     
   3.1250000000000000E-002  0.43750000000000000        0.0000000000000000     
   6.2500000000000000E-002  0.43750000000000000        0.0000000000000000     
   9.3750000000000000E-002  0.43750000000000000        0.0000000000000000     
  0.12500000000000000       0.43750000000000000        0.0000000000000000     
   0.0000000000000000       0.46875000000000000        0.0000000000000000     
   3.1250000000000000E-002  0.46875000000000000        0.0000000000000000     
   6.2500000000000000E-002  0.46875000000000000        0.0000000000000000     
   9.3750000000000000E-002  0.46875000000000000        0.0000000000000000     
  0.12500000000000000       0.46875000000000000        0.0000000000000000     
   0.0000000000000000       0.50000000000000000        0.0000000000000000     
   3.1250000000000000E-002  0.50000000000000000        0.0000000000000000     
   6.2500000000000000E-002  0.50000000000000000        0.0000000000000000     
   9.3750000000000000E-002  0.50000000000000000        0.0000000000000000     
  0.12500000000000000       0.50000000000000000        0.0000000000000000     
  0.12500000000000000       0.37500000000000000        0.0000000000000000     
  0.15625000000000000       0.37500000000000000        0.0000000000000000     
  0.18750000000000000       0.37500000000000000        0.0000000000000000     
  0.21875000000000000       0.37500000000000000        0.0000000000000000     
  0.25000000000000000       0.37500000000000000        0.0000000000000000     
  0.12500000000000000       0.40625000000000000        0.0000000000000000     
  0.15625000000000000       0.40625000000000000        0.0000000000000000     
  0.18750000000000000       0.40625000000000000        0.0000000000000000     
  0.21875000000000000       0.40625000000000000        0.0000000000000000     
  0.25000000000000000       0.40625000000000000        0.0000000000000000     
  0.12500000000000000       0.43750000000000000        0.0000000000000000     
  0.15625000000000000       0.43750000000000000        0.0000000000000000     
  0.18750000000000000       0.43750000000000000        0.0000000000000000     
  0.21875000000000000       0.43750000000000000        0.0000000000000000     
  0.25000000000000000       0.43750000000000000        0.0000000000000000     
  0.12500000000000000       0.46875000000000000        0.0000000000000000     
  0.15625000000000000       0.46875000000000000        0.0000000000000000     
  0.18750000000000000       0.46875000000000000        0.0000000000000000     
  0.21875000000000000       0.46875000000000000        0.0000000000000000     
  0.25000000000000000       0.46875000000000000        0.0000000000000000     
  0.12500000000000000       0.50000000000000000        0.0000000000000000     
  0.15625000000000000       0.50000000000000000        0.0000000000000000     
  0.18750000000000000       0.50000000000000000        0.0000000000000000     
  0.21875000000000000       0.50000000000000000        0.0000000000000000     
  0.25000000000000000       0.50000000000000000        0.0000000000000000     
  0.25000000000000000       0.37500000000000000        0.0000000000000000     
  0.28125000000000000       0.37500000000000000        0.0000000000000000     
  0.31250000000000000       0.37500000000000000        0.0000000000000000     
  0.34375000000000000       0.37500000000000000        0.0000000000000000     
  0.37500000000000000       0.37500000000000000        0.0000000000000000     
  0.25000000000000000       0.40625000000000000        0.0000000000000000     
  0.28125000000000000       0.40625000000000000        0.0000000000000000     
  0.31250000000000000       0.40625000000000000        0.0000000000000000     
  0.34375000000000000       0.40625000000000000        0.0000000000000000     
  0.37500000000000000       0.40625000000000000        0.0000000000000000     
  0.25000000000000000       0.43750000000000000        0.0000000000000000     
  0.28125000000000000       0.43750000000000000        0.0000000000000000     
  0.31250000000000000       0.43750000000000000        0.0000000000000000     
  0.34375000000000000       0.43750000000000000        0.0000000000000000     
  0.37500000000000000       0.43750000000000000        0.0000000000000000     
  0.25000000000000000       0.46875000000000000        0.0000000000000000     
  0.28125000000000000       0.46875000000000000        0.0000000000000000     
  0.31250000000000000       0.46875000000000000        0.0000000000000000     
  0.34375000000000000       0.46875000000000000        0.0000000000000000     
  0.37500000000000000       0.46875000000000000        0.0000000000000000     
  0.25000000000000000       0.50000000000000000        0.0000000000000000     
  0.28125000000000000       0.50000000000000000        0.0000000000000000     
  0.31250000000000000       0.50000000000000000        0.0000000000000000     
  0.34375000000000000       0.50000000000000000        0.0000000000000000     
  0.37500000000000000       0.50000000000000000        0.0000000000000000     
  0.37500000000000000       0.37500000000000000        0.0000000000000000     
  0.40625000000000000       0.37500000000000000        0.0000000000000000     
  0.43750000000000000       0.37500000000000000        0.0000000000000000     
  0.46875000000000000       0.37500000000000000        0.0000000000000000     
  0.50000000000000000       0.37500000000000000        0.0000000000000000     
  0.37500000000000000       0.40625000000000000        0.0000000000000000     
  0.40625000000000000       0.40625000000000000        0.0000000000000000     
  0.43750000000000000       0.40625000000000000        0.0000000000000000     
  0.46875000000000000       0.40625000000000000        0.0000000000000000     
  0.50000000000000000       0.40625000000000000        0.0000000000000000     
  0.37500000000000000       0.43750000000000000        0.0000000000000000     
  0.40625000000000000       0.43750000000000000        0.0000000000000000     
  0.43750000000000000       0.43750000000000000        0.0000000000000000     
  0.46875000000000000       0.43750000000000000        0.0000000000000000     
  0.50000000000000000       0.43750000000000000        0.0000000000000000     
  0.37500000000000000       0.46875000000000000        0.0000000000000000     
  0.40625000000000000       0.46875000000000000        0.0000000000000000     
  0.43750000000000000       0.46875000000000000        0.0000000000000000     
  0.46875000000000000       0.46875000000000000        0.0000000000000000     
  0.50000000000000000       0.46875000000000000        0.0000000000000000     
  0.37500000000000000       0.50000000000000000        0.0000000000000000     
  0.40625000000000000       0.50000000000000000        0.0000000000000000     
  0.43750000000000000       0.50000000000000000        0.0000000000000000     
  0.46875000000000000       0.50000000000000000        0.0000000000000000     
  0.50000000000000000       0.50000000000000000        0.0000000000000000     
  0.50000000000000000       0.37500000000000000        0.0000000000000000     
  0.53125000000000000       0.37500000000000000        0.0000000000000000     
  0.56250000000000000       0.37500000000000000        0.0000000000000000     
  0.59375000000000000       0.37500000000000000        0.0000000000000000     
  0.62500000000000000       0.37500000000000000        0.0000000000000000     
  0.50000000000000000       0.40625000000000000        0.0000000000000000     
  0.53125000000000000       0.40625000000000000        0.0000000000000000     
  0.56250000000000000       0.40625000000000000        0.0000000000000000     
  0.59375000000000000       0.40625000000000000        0.0000000000000000     
  0.62500000000000000       0.40625000000000000        0.0000000000000000     
  0.50000000000000000       0.43750000000000000        0.0000000000000000     
  0.53125000000000000       0.43750000000000000        0.0000000000000000     
  0.56250000000000000       0.43750000000000000        0.0000000000000000     
  0.59375000000000000       0.43750000000000000        0.0000000000000000     
  0.62500000000000000       0.43750000000000000        0.0000000000000000     
  0.50000000000000000       0.46875000000000000        0.0000000000000000     
  0.53125000000000000       0.46875000000000000        0.0000000000000000     
  0.56250000000000000       0.46875000000000000        0.0000000000000000     
  0.59375000000000000       0.46875000000000000        0.0000000000000000     
  0.62500000000000000       0.46875000000000000        0.0000000000000000     
  0.50000000000000000       0.50000000000000000        0.0000000000000000     
  0.53125000000000000       0.50000000000000000        0.0000000000000000     
  0.56250000000000000       0.50000000000000000        0.0000000000000000     
  0.59375000000000000       0.50000000000000000        0.0000000000000000     
  0.62500000000000000       0.50000000000000000        0.0000000000000000     
  0.62500000000000000       0.37500000000000000        0.0000000000000000     
  0.65625000000000000       0.37500000000000000        0.0000000000000000     
  0.68750000000000000       0.37500000000000000        0.0000000000000000     
  0.71875000000000000       0.37500000000000000        0.0000000000000000     
  0.75000000000000000       0.37500000000000000        0.0000000000000000     
  0.62500000000000000       0.40625000000000000        0.0000000000000000     
  0.65625000000000000       0.40625000000000000        0.0000000000000000     
  0.68750000000000000       0.40625000000000000        0.0000000000000000     
  0.71875000000000000       0.40625000000000000        0.0000000000000000     
  0.75000000000000000       0.40625000000000000        0.0000000000000000     
  0.62500000000000000       0.43750000000000000        0.0000000000000000     
  0.65625000000000000       0.43750000000000000        0.0000000000000000     
  0.68750000000000000       0.43750000000000000        0.0000000000000000     
  0.71875000000000000       0.43750000000000000        0.0000000000000000     
  0.75000000000000000       0.43750000000000000        0.0000000000000000     
  0.62500000000000000       0.46875000000000000        0.0000000000000000     
  0.65625000000000000       0.46875000000000000        0.0000000000000000     
  0.68750000000000000       0.46875000000000000        0.0000000000000000     
  0.71875000000000000       0.46875000000000000        0.0000000000000000     
  0.75000000000000000       0.46875000000000000        0.0000000000000000     
  0.62500000000000000       0.50000000000000000        0.0000000000000000     
  0.65625000000000000       0.50000000000000000        0.0000000000000000     
  0.68750000000000000       0.50000000000000000        0.0000000000000000     
  0.71875000000000000       0.50000000000000000        0.0000000000000000     
  0.75000000000000000       0.50000000000000000        0.0000000000000000     
  0.75000000000000000       0.37500000000000000        0.0000000000000000     
  0.78125000000000000       0.37500000000000000        0.0000000000000000     
  0.81250000000000000       0.37500000000000000        0.0000000000000000     
  0.84375000000000000       0.37500000000000000        0.0000000000000000     
  0.87500000000000000       0.37500000000000000        0.0000000000000000     
  0.75000000000000000       0.40625000000000000        0.0000000000000000     
  0.78125000000000000       0.40625000000000000        0.0000000000000000     
  0.81250000000000000       0.40625000000000000        0.0000000000000000     
  0.84375000000000000       0.40625000000000000        0.0000000000000000     
  0.87500000000000000       0.40625000000000000        0.0000000000000000     
  0.75000000000000000       0.43750000000000000        0.0000000000000000     
  0.78125000000000000       0.43750000000000000        0.0000000000000000     
  0.81250000000000000       0.43750000000000000        0.0000000000000000     
  0.84375000000000000       0.43750000000000000        0.0000000000000000     
  0.87500000000000000       0.43750000000000000        0.0000000000000000     
  0.75000000000000000       0.46875000000000000        0.0000000000000000     
  0.78125000000000000       0.46875000000000000        0.0000000000000000     
  0.81250000000000000       0.46875000000000000        0.0000000000000000     
  0.84375000000000000       0.46875000000000000        0.0000000000000000     
  0.87500000000000000       0.46875000000000000        0.0000000000000000     
  0.75000000000000000       0.50000000000000000        0.0000000000000000     
  0.78125000000000000       0.50000000000000000        0.0000000000000000     
  0.81250000000000000       0.50000000000000000        0.0000000000000000     
  0.84375000000000000       0.50000000000000000        0.0000000000000000     
  0.87500000000000000       0.50000000000000000        0.0000000000000000     
  0.87500000000000000       0.37500000000000000        0.0000000000000000     
  0.90625000000000000       0.37500000000000000        0.0000000000000000     
  0.93750000000000000       0.37500000000000000        0.0000000000000000     
  0.96875000000000000       0.37500000000000000        0.0000000000000000     
   1.0000000000000000       0.37500000000000000        0.0000000000000000     
  0.87500000000000000       0.40625000000000000        0.0000000000000000     
  0.90625000000000000       0.40625000000000000        0.0000000000000000     
  0.93750000000000000       0.40625000000000000        0.0000000000000000     
  0.96875000000000000       0.40625000000000000        0.0000000000000000     
   1.0000000000000000       0.40625000000000000        0.0000000000000000     
  0.87500000000000000       0.43750000000000000        0.0000000000000000     
  0.90625000000000000       0.43750000000000000        0.0000000000000000     
  0.93750000000000000       0.43750000000000000        0.0000000000000000     
  0.96875000000000000       0.43750000000000000        0.0000000000000000     
   1.0000000000000000       0.43750000000000000        0.0000000000000000     
  0.87500000000000000       0.46875000000000000        0.0000000000000000     
  0.90625000000000000       0.46875000000000000        0.0000000000000000     
  0.93750000000000000       0.46875000000000000        0.0000000000000000     
  0.96875000000000000       0.46875000000000000        0.0000000000000000     
   1.0000000000000000       0.46875000000000000        0.0000000000000000     
  0.87500000000000000       0.50000000000000000        0.0000000000000000     
  0.90625000000000000       0.50000000000000000        0.0000000000000000     
  0.93750000000000000       0.50000000000000000        0.0000000000000000     
  0.96875000000000000       0.50000000000000000        0.0000000000000000     
   1.0000000000000000       0.50000000000000000        0.0000000000000000     
   0.0000000000000000       0.50000000000000000        0.0000000000000000     
   3.1250000000000000E-002  0.50000000000000000        0.0000000000000000     
   6.2500000000000000E-002  0.50000000000000000        0.0000000000000000     
   9.3750000000000000E-002  0.50000000000000000        0.0000000000000000     
  0.12500000000000000       0.50000000000000000        0.0000000000000000     
   0.0000000000000000       0.53125000000000000        0.0000000000000000     
   3.1250000000000000E-002  0.53125000000000000        0.0000000000000000     
   6.2500000000000000E-002  0.53125000000000000        0.0000000000000000     
   9.3750000000000000E-002  0.53125000000000000        0.0000000000000000     
  0.12500000000000000       0.53125000000000000        0.0000000000000000     
   0.0000000000000000       0.56250000000000000        0.0000000000000000     
   3.1250000000000000E-002  0.56250000000000000        0.0000000000000000     
   6.2500000000000000E-002  0.56250000000000000        0.0000000000000000     
   9.3750000000000000E-002  0.56250000000000000        0.0000000000000000     
  0.12500000000000000       0.56250000000000000        0.0000000000000000     
   0.0000000000000000       0.59375000000000000        0.0000000000000000     
   3.1250000000000000E-002  0.59375000000000000        0.0000000000000000     
   6.2500000000000000E-002  0.59375000000000000        0.0000000000000000     
   9.3750000000000000E-002  0.59375000000000000        0.0000000000000000     
  0.12500000000000000       0.59375000000000000        0.0000000000000000     
   0.0000000000000000       0.62500000000000000        0.0000000000000000     
   3.1250000000000000E-002  0.62500000000000000        0.0000000000000000     
   6.2500000000000000E-002  0.62500000000000000        0.0000000000000000     
   9.3750000000000000E-002  0.62500000000000000        0.0000000000000000     
  0.12500000000000000       0.62500000000000000        0.0000000000000000     
  0.12500000000000000       0.50000000000000000        0.0000000000000000     
  0.15625000000000000       0.50000000000000000        0.0000000000000000     
  0.18750000000000000       0.50000000000000000        0.0000000000000000     
  0.21875000000000000       0.50000000000000000        0.0000000000000000     
  0.25000000000000000       0.50000000000000000        0.0000000000000000     
  0.12500000000000000       0.53125000000000000        0.0000000000000000     
  0.15625000000000000       0.53125000000000000        0.0000000000000000     
  0.18750000000000000       0.53125000000000000        0.0000000000000000     
  0.21875000000000000       0.53125000000000000        0.0000000000000000     
  0.25000000000000000       0.53125000000000000        0.0000000000000000     
  0.12500000000000000       0.56250000000000000        0.0000000000000000     
  0.15625000000000000       0.56250000000000000        0.0000000000000000     
  0.18750000000000000       0.56250000000000000        0.0000000000000000     
  0.21875000000000000       0.56250000000000000        0.0000000000000000     
  0.25000000000000000       0.56250000000000000        0.0000000000000000     
  0.12500000000000000       0.59375000000000000        0.0000000000000000     
  0.15625000000000000       0.59375000000000000        0.0000000000000000     
  0.18750000000000000       0.59375000000000000        0.0000000000000000     
  0.21875000000000000       0.59375000000000000        0.0000000000000000     
  0.25000000000000000       0.59375000000000000        0.0000000000000000     
  0.12500000000000000       0.62500000000000000        0.0000000000000000     
  0.15625000000000000       0.62500000000000000        0.0000000000000000     
  0.18750000000000000       0.62500000000000000        0.0000000000000000     
  0.21875000000000000       0.62500000000000000        0.0000000000000000     
  0.25000000000000000       0.62500000000000000        0.0000000000000000     
  0.25000000000000000       0.50000000000000000        0.0000000000000000     
  0.28125000000000000       0.50000000000000000        0.0000000000000000     
  0.31250000000000000       0.50000000000000000        0.0000000000000000     
  0.34375000000000000       0.50000000000000000        0.0000000000000000     
  0.37500000000000000       0.50000000000000000        0.0000000000000000     
  0.25000000000000000       0.53125000000000000        0.0000000000000000     
  0.28125000000000000       0.53125000000000000        0.0000000000000000     
  0.31250000000000000       0.53125000000000000        0.0000000000000000     
  0.34375000000000000       0.53125000000000000        0.0000000000000000     
  0.37500000000000000       0.53125000000000000        0.0000000000000000     
  0.25000000000000000       0.56250000000000000        0.0000000000000000     
  0.28125000000000000       0.56250000000000000        0.0000000000000000     
  0.31250000000000000       0.56250000000000000        0.0000000000000000     
  0.34375000000000000       0.56250000000000000        0.0000000000000000     
  0.37500000000000000       0.56250000000000000        0.0000000000000000     
  0.25000000000000000       0.59375000000000000        0.0000000000000000     
  0.28125000000000000       0.59375000000000000        0.0000000000000000     
  0.31250000000000000       0.59375000000000000        0.0000000000000000     
  0.34375000000000000       0.59375000000000000        0.0000000000000000     
  0.37500000000000000       0.59375000000000000        0.0000000000000000     
  0.25000000000000000       0.62500000000000000        0.0000000000000000     
  0.28125000000000000       0.62500000000000000        0.0000000000000000     
  0.31250000000000000       0.62500000000000000        0.0000000000000000     
  0.34375000000000000       0.62500000000000000        0.0000000000000000     
  0.37500000000000000       0.62500000000000000        0.0000000000000000     
  0.37500000000000000       0.50000000000000000        0.0000000000000000     
  0.40625000000000000       0.50000000000000000        0.0000000000000000     
  0.43750000000000000       0.50000000000000000        0.0000000000000000     
  0.46875000000000000       0.50000000000000000        0.0000000000000000     
  0.50000000000000000       0.50000000000000000        0.0000000000000000     
  0.37500000000000000       0.53125000000000000        0.0000000000000000     
  0.40625000000000000       0.53125000000000000        0.0000000000000000     
  0.43750000000000000       0.53125000000000000        0.0000000000000000     
  0.46875000000000000       0.53125000000000000        0.0000000000000000     
  0.50000000000000000       0.53125000000000000        0.0000000000000000     
  0.37500000000000000       0.56250000000000000        0.0000000000000000     
  0.40625000000000000       0.56250000000000000        0.0000000000000000     
  0.43750000000000000       0.56250000000000000        0.0000000000000000     
  0.46875000000000000       0.56250000000000000        0.0000000000000000     
  0.50000000000000000       0.56250000000000000        0.0000000000000000     
  0.37500000000000000       0.59375000000000000        0.0000000000000000     
  0.40625000000000000       0.59375000000000000        0.0000000000000000     
  0.43750000000000000       0.59375000000000000        0.0000000000000000     
  0.46875000000000000       0.59375000000000000        0.0000000000000000     
  0.50000000000000000       0.59375000000000000        0.0000000000000000     
  0.37500000000000000       0.62500000000000000        0.0000000000000000     
  0.40625000000000000       0.62500000000000000        0.0000000000000000     
  0.43750000000000000       0.62500000000000000        0.0000000000000000     
  0.46875000000000000       0.62500000000000000        0.0000000000000000     
  0.50000000000000000       0.62500000000000000        0.0000000000000000     
  0.50000000000000000       0.50000000000000000        0.0000000000000000     
  0.53125000000000000       0.50000000000000000        0.0000000000000000     
  0.56250000000000000       0.50000000000000000        0.0000000000000000     
  0.59375000000000000       0.50000000000000000        0.0000000000000000     
  0.62500000000000000       0.50000000000000000        0.0000000000000000     
  0.50000000000000000       0.53125000000000000        0.0000000000000000     
  0.53125000000000000       0.53125000000000000        0.0000000000000000     
  0.56250000000000000       0.53125000000000000        0.0000000000000000     
  0.59375000000000000       0.53125000000000000        0.0000000000000000     
  0.62500000000000000       0.53125000000000000        0.0000000000000000     
  0.50000000000000000       0.56250000000000000        0.0000000000000000     
  0.53125000000000000       0.56250000000000000        0.0000000000000000     
  0.56250000000000000       0.56250000000000000        0.0000000000000000     
  0.59375000000000000       0.56250000000000000        0.0000000000000000     
  0.62500000000000000       0.56250000000000000        0.0000000000000000     
  0.50000000000000000       0.59375000000000000        0.0000000000000000     
  0.53125000000000000       0.59375000000000000        0.0000000000000000     
  0.56250000000000000       0.59375000000000000        0.0000000000000000     
  0.59375000000000000       0.59375000000000000        0.0000000000000000     
  0.62500000000000000       0.59375000000000000        0.0000000000000000     
  0.50000000000000000       0.62500000000000000        0.0000000000000000     
  0.53125000000000000       0.62500000000000000        0.0000000000000000     
  0.56250000000000000       0.62500000000000000        0.0000000000000000     
  0.59375000000000000       0.62500000000000000        0.0000000000000000     
  0.62500000000000000       0.62500000000000000        0.0000000000000000     
  0.62500000000000000       0.50000000000000000        0.0000000000000000     
  0.65625000000000000       0.50000000000000000        0.0000000000000000     
  0.68750000000000000       0.50000000000000000        0.0000000000000000     
  0.71875000000000000       0.50000000000000000        0.0000000000000000     
  0.75000000000000000       0.50000000000000000        0.0000000000000000     
  0.62500000000000000       0.53125000000000000        0.0000000000000000     
  0.65625000000000000       0.53125000000000000        0.0000000000000000     
  0.68750000000000000       0.53125000000000000        0.0000000000000000     
  0.71875000000000000       0.53125000000000000        0.0000000000000000     
  0.75000000000000000       0.53125000000000000        0.0000000000000000     
  0.62500000000000000       0.56250000000000000        0.0000000000000000     
  0.65625000000000000       0.56250000000000000        0.0000000000000000     
  0.68750000000000000       0.56250000000000000        0.0000000000000000     
  0.71875000000000000       0.56250000000000000        0.0000000000000000     
  0.75000000000000000       0.56250000000000000        0.0000000000000000     
  0.62500000000000000       0.59375000000000000        0.0000000000000000     
  0.65625000000000000       0.59375000000000000        0.0000000000000000     
  0.68750000000000000       0.59375000000000000        0.0000000000000000     
  0.71875000000000000       0.59375000000000000        0.0000000000000000     
  0.75000000000000000       0.59375000000000000        0.0000000000000000     
  0.62500000000000000       0.62500000000000000        0.0000000000000000     
  0.65625000000000000       0.62500000000000000        0.0000000000000000     
  0.68750000000000000       0.62500000000000000        0.0000000000000000     
  0.71875000000000000       0.62500000000000000        0.0000000000000000     
  0.75000000000000000       0.62500000000000000        0.0000000000000000     
  0.75000000000000000       0.50000000000000000        0.0000000000000000     
  0.78125000000000000       0.50000000000000000        0.0000000000000000     
  0.81250000000000000       0.50000000000000000        0.0000000000000000     
  0.84375000000000000       0.50000000000000000        0.0000000000000000     
  0.87500000000000000       0.50000000000000000        0.0000000000000000     
  0.75000000000000000       0.53125000000000000        0.0000000000000000     
  0.78125000000000000       0.53125000000000000        0.0000000000000000     
  0.81250000000000000       0.53125000000000000        0.0000000000000000     
  0.84375000000000000       0.53125000000000000        0.0000000000000000     
  0.87500000000000000       0.53125000000000000        0.0000000000000000     
  0.75000000000000000       0.56250000000000000        0.0000000000000000     
  0.78125000000000000       0.56250000000000000        0.0000000000000000     
  0.81250000000000000       0.56250000000000000        0.0000000000000000     
  0.84375000000000000       0.56250000000000000        0.0000000000000000     
  0.87500000000000000       0.56250000000000000        0.0000000000000000     
  0.75000000000000000       0.59375000000000000        0.0000000000000000     
  0.78125000000000000       0.59375000000000000        0.0000000000000000     
  0.81250000000000000       0.59375000000000000        0.0000000000000000     
  0.84375000000000000       0.59375000000000000        0.0000000000000000     
  0.87500000000000000       0.59375000000000000        0.0000000000000000     
  0.75000000000000000       0.62500000000000000        0.0000000000000000     
  0.78125000000000000       0.62500000000000000        0.0000000000000000     
  0.81250000000000000       0.62500000000000000        0.0000000000000000     
  0.84375000000000000       0.62500000000000000        0.0000000000000000     
  0.87500000000000000       0.62500000000000000        0.0000000000000000     
  0.87500000000000000       0.50000000000000000        0.0000000000000000     
  0.90625000000000000       0.50000000000000000        0.0000000000000000     
  0.93750000000000000       0.50000000000000000        0.0000000000000000     
  0.96875000000000000       0.50000000000000000        0.0000000000000000     
   1.0000000000000000       0.50000000000000000        0.0000000000000000     
  0.87500000000000000       0.53125000000000000        0.0000000000000000     
  0.90625000000000000       0.53125000000000000        0.0000000000000000     
  0.93750000000000000       0.53125000000000000        0.0000000000000000     
  0.96875000000000000       0.53125000000000000        0.0000000000000000     
   1.0000000000000000       0.53125000000000000        0.0000000000000000     
  0.87500000000000000       0.56250000000000000        0.0000000000000000     
  0.90625000000000000       0.56250000000000000        0.0000000000000000     
  0.93750000000000000       0.56250000000000000        0.0000000000000000     
  0.96875000000000000       0.56250000000000000        0.0000000000000000     
   1.0000000000000000       0.56250000000000000        0.0000000000000000     
  0.87500000000000000       0.59375000000000000        0.0000000000000000     
  0.90625000000000000       0.59375000000000000        0.0000000000000000     
  0.93750000000000000       0.59375000000000000        0.0000000000000000     
  0.96875000000000000       0.59375000000000000        0.0000000000000000     
   1.0000000000000000       0.59375000000000000        0.0000000000000000     
  0.87500000000000000       0.62500000000000000        0.0000000000000000     
  0.90625000000000000       0.62500000000000000        0.0000000000000000     
  0.93750000000000000       0.62500000000000000        0.0000000000000000     
  0.96875000000000000       0.62500000000000000        0.0000000000000000     
   1.0000000000000000       0.62500000000000000        0.0000000000000000     
   0.0000000000000000       0.62500000000000000        0.0000000000000000     
   3.1250000000000000E-002  0.62500000000000000        0.0000000000000000     
   6.2500000000000000E-002  0.62500000000000000        0.0000000000000000     
   9.3750000000000000E-002  0.62500000000000000        0.0000000000000000     
  0.12500000000000000       0.62500000000000000        0.0000000000000000     
   0.0000000000000000       0.65625000000000000        0.0000000000000000     
   3.1250000000000000E-002  0.65625000000000000        0.0000000000000000     
   6.2500000000000000E-002  0.65625000000000000        0.0000000000000000     
   9.3750000000000000E-002  0.65625000000000000        0.0000000000000000     
  0.12500000000000000       0.65625000000000000        0.0000000000000000     
   0.0000000000000000       0.68750000000000000        0.0000000000000000     
   3.1250000000000000E-002  0.68750000000000000        0.0000000000000000     
   6.2500000000000000E-002  0.68750000000000000        0.0000000000000000     
   9.3750000000000000E-002  0.68750000000000000        0.0000000000000000     
  0.12500000000000000       0.68750000000000000        0.0000000000000000     
   0.0000000000000000       0.71875000000000000        0.0000000000000000     
   3.1250000000000000E-002  0.71875000000000000        0.0000000000000000     
   6.2500000000000000E-002  0.71875000000000000        0.0000000000000000     
   9.3750000000000000E-002  0.71875000000000000        0.0000000000000000     
  0.12500000000000000       0.71875000000000000        0.0000000000000000     
   0.0000000000000000       0.75000000000000000        0.0000000000000000     
   3.1250000000000000E-002  0.75000000000000000        0.0000000000000000     
   6.2500000000000000E-002  0.75000000000000000        0.0000000000000000     
   9.3750000000000000E-002  0.75000000000000000        0.0000000000000000     
  0.12500000000000000       0.75000000000000000        0.0000000000000000     
  0.12500000000000000       0.62500000000000000        0.0000000000000000     
  0.15625000000000000       0.62500000000000000        0.0000000000000000     
  0.18750000000000000       0.62500000000000000        0.0000000000000000     
  0.21875000000000000       0.62500000000000000        0.0000000000000000     
  0.25000000000000000       0.62500000000000000        0.0000000000000000     
  0.12500000000000000       0.65625000000000000        0.0000000000000000     
  0.15625000000000000       0.65625000000000000        0.0000000000000000     
  0.18750000000000000       0.65625000000000000        0.0000000000000000     
  0.21875000000000000       0.65625000000000000        0.0000000000000000     
  0.25000000000000000       0.65625000000000000        0.0000000000000000     
  0.12500000000000000       0.68750000000000000        0.0000000000000000     
  0.15625000000000000       0.68750000000000000        0.0000000000000000     
  0.18750000000000000       0.68750000000000000        0.0000000000000000     
  0.21875000000000000       0.68750000000000000        0.0000000000000000     
  0.25000000000000000       0.68750000000000000        0.0000000000000000     
  0.12500000000000000       0.71875000000000000        0.0000000000000000     
  0.15625000000000000       0.71875000000000000        0.0000000000000000     
  0.18750000000000000       0.71875000000000000        0.0000000000000000     
  0.21875000000000000       0.71875000000000000        0.0000000000000000     
  0.25000000000000000       0.71875000000000000        0.0000000000000000     
  0.12500000000000000       0.75000000000000000        0.0000000000000000     
  0.15625000000000000       0.75000000000000000        0.0000000000000000     
  0.18750000000000000       0.75000000000000000        0.0000000000000000     
  0.21875000000000000       0.75000000000000000        0.0000000000000000     
  0.25000000000000000       0.75000000000000000        0.0000000000000000     
  0.25000000000000000       0.62500000000000000        0.0000000000000000     
  0.28125000000000000       0.62500000000000000        0.0000000000000000     
  0.31250000000000000       0.62500000000000000        0.0000000000000000     
  0.34375000000000000       0.62500000000000000        0.0000000000000000     
  0.37500000000000000       0.62500000000000000        0.0000000000000000     
  0.25000000000000000       0.65625000000000000        0.0000000000000000     
  0.28125000000000000       0.65625000000000000        0.0000000000000000     
  0.31250000000000000       0.65625000000000000        0.0000000000000000     
  0.34375000000000000       0.65625000000000000        0.0000000000000000     
  0.37500000000000000       0.65625000000000000        0.0000000000000000     
  0.25000000000000000       0.68750000000000000        0.0000000000000000     
  0.28125000000000000       0.68750000000000000        0.0000000000000000     
  0.31250000000000000       0.68750000000000000        0.0000000000000000     
  0.34375000000000000       0.68750000000000000        0.0000000000000000     
  0.37500000000000000       0.68750000000000000        0.0000000000000000     
  0.25000000000000000       0.71875000000000000        0.0000000000000000     
  0.28125000000000000       0.71875000000000000        0.0000000000000000     
  0.31250000000000000       0.71875000000000000        0.0000000000000000     
  0.34375000000000000       0.71875000000000000        0.0000000000000000     
  0.37500000000000000       0.71875000000000000        0.0000000000000000     
  0.25000000000000000       0.75000000000000000        0.0000000000000000     
  0.28125000000000000       0.75000000000000000        0.0000000000000000     
  0.31250000000000000       0.75000000000000000        0.0000000000000000     
  0.34375000000000000       0.75000000000000000        0.0000000000000000     
  0.37500000000000000       0.75000000000000000        0.0000000000000000     
  0.37500000000000000       0.62500000000000000        0.0000000000000000     
  0.40625000000000000       0.62500000000000000        0.0000000000000000     
  0.43750000000000000       0.62500000000000000        0.0000000000000000     
  0.46875000000000000       0.62500000000000000        0.0000000000000000     
  0.50000000000000000       0.62500000000000000        0.0000000000000000     
  0.37500000000000000       0.65625000000000000        0.0000000000000000     
  0.40625000000000000       0.65625000000000000        0.0000000000000000     
  0.43750000000000000       0.65625000000000000        0.0000000000000000     
  0.46875000000000000       0.65625000000000000        0.0000000000000000     
  0.50000000000000000       0.65625000000000000        0.0000000000000000     
  0.37500000000000000       0.68750000000000000        0.0000000000000000     
  0.40625000000000000       0.68750000000000000        0.0000000000000000     
  0.43750000000000000       0.68750000000000000        0.0000000000000000     
  0.46875000000000000       0.68750000000000000        0.0000000000000000     
  0.50000000000000000       0.68750000000000000        0.0000000000000000     
  0.37500000000000000       0.71875000000000000        0.0000000000000000     
  0.40625000000000000       0.71875000000000000        0.0000000000000000     
  0.43750000000000000       0.71875000000000000        0.0000000000000000     
  0.46875000000000000       0.71875000000000000        0.0000000000000000     
  0.50000000000000000       0.71875000000000000        0.0000000000000000     
  0.37500000000000000       0.75000000000000000        0.0000000000000000     
  0.40625000000000000       0.75000000000000000        0.0000000000000000     
  0.43750000000000000       0.75000000000000000        0.0000000000000000     
  0.46875000000000000       0.75000000000000000        0.0000000000000000     
  0.50000000000000000       0.75000000000000000        0.0000000000000000     
  0.50000000000000000       0.62500000000000000        0.0000000000000000     
  0.53125000000000000       0.62500000000000000        0.0000000000000000     
  0.56250000000000000       0.62500000000000000        0.0000000000000000     
  0.59375000000000000       0.62500000000000000        0.0000000000000000     
  0.62500000000000000       0.62500000000000000        0.0000000000000000     
  0.50000000000000000       0.65625000000000000        0.0000000000000000     
  0.53125000000000000       0.65625000000000000        0.0000000000000000     
  0.56250000000000000       0.65625000000000000        0.0000000000000000     
  0.59375000000000000       0.65625000000000000        0.0000000000000000     
  0.62500000000000000       0.65625000000000000        0.0000000000000000     
  0.50000000000000000       0.68750000000000000        0.0000000000000000     
  0.53125000000000000       0.68750000000000000        0.0000000000000000     
  0.56250000000000000       0.68750000000000000        0.0000000000000000     
  0.59375000000000000       0.68750000000000000        0.0000000000000000     
  0.62500000000000000       0.68750000000000000        0.0000000000000000     
  0.50000000000000000       0.71875000000000000        0.0000000000000000     
  0.53125000000000000       0.71875000000000000        0.0000000000000000     
  0.56250000000000000       0.71875000000000000        0.0000000000000000     
  0.59375000000000000       0.71875000000000000        0.0000000000000000     
  0.62500000000000000       0.71875000000000000        0.0000000000000000     
  0.50000000000000000       0.75000000000000000        0.0000000000000000     
  0.53125000000000000       0.75000000000000000        0.0000000000000000     
  0.56250000000000000       0.75000000000000000        0.0000000000000000     
  0.59375000000000000       0.75000000000000000        0.0000000000000000     
  0.62500000000000000       0.75000000000000000        0.0000000000000000     
  0.62500000000000000       0.62500000000000000        0.0000000000000000     
  0.65625000000000000       0.62500000000000000        0.0000000000000000     
  0.68750000000000000       0.62500000000000000        0.0000000000000000     
  0.71875000000000000       0.62500000000000000        0.0000000000000000     
  0.75000000000000000       0.62500000000000000        0.0000000000000000     
  0.62500000000000000       0.65625000000000000        0.0000000000000000     
  0.65625000000000000       0.65625000000000000        0.0000000000000000     
  0.68750000000000000       0.65625000000000000        0.0000000000000000     
  0.71875000000000000       0.65625000000000000        0.0000000000000000     
  0.75000000000000000       0.65625000000000000        0.0000000000000000     
  0.62500000000000000       0.68750000000000000        0.0000000000000000     
  0.65625000000000000       0.68750000000000000        0.0000000000000000     
  0.68750000000000000       0.68750000000000000        0.0000000000000000     
  0.71875000000000000       0.68750000000000000        0.0000000000000000     
  0.75000000000000000       0.68750000000000000        0.0000000000000000     
  0.62500000000000000       0.71875000000000000        0.0000000000000000     
  0.65625000000000000       0.71875000000000000        0.0000000000000000     
  0.68750000000000000       0.71875000000000000        0.0000000000000000     
  0.71875000000000000       0.71875000000000000        0.0000000000000000     
  0.75000000000000000       0.71875000000000000        0.0000000000000000     
  0.62500000000000000       0.75000000000000000        0.0000000000000000     
  0.65625000000000000       0.75000000000000000        0.0000000000000000     
  0.68750000000000000       0.75000000000000000        0.0000000000000000     
  0.71875000000000000       0.75000000000000000        0.0000000000000000     
  0.75000000000000000       0.75000000000000000        0.0000000000000000     
  0.75000000000000000       0.62500000000000000        0.0000000000000000     
  0.78125000000000000       0.62500000000000000        0.0000000000000000     
  0.81250000000000000       0.62500000000000000        0.0000000000000000     
  0.84375000000000000       0.62500000000000000        0.0000000000000000     
  0.87500000000000000       0.62500000000000000        0.0000000000000000     
  0.75000000000000000       0.65625000000000000        0.0000000000000000     
  0.78125000000000000       0.65625000000000000        0.0000000000000000     
  0.81250000000000000       0.65625000000000000        0.0000000000000000     
  0.84375000000000000       0.65625000000000000        0.0000000000000000     
  0.87500000000000000       0.65625000000000000        0.0000000000000000     
  0.75000000000000000       0.68750000000000000        0.0000000000000000     
  0.78125000000000000       0.68750000000000000        0.0000000000000000     
  0.81250000000000000       0.68750000000000000        0.0000000000000000     
  0.84375000000000000       0.68750000000000000        0.0000000000000000     
  0.87500000000000000       0.68750000000000000        0.0000000000000000     
  0.75000000000000000       0.71875000000000000        0.0000000000000000     
  0.78125000000000000       0.71875000000000000        0.0000000000000000     
  0.81250000000000000       0.71875000000000000        0.0000000000000000     
  0.84375000000000000       0.71875000000000000        0.0000000000000000     
  0.87500000000000000       0.71875000000000000        0.0000000000000000     
  0.75000000000000000       0.75000000000000000        0.0000000000000000     
  0.78125000000000000       0.75000000000000000        0.0000000000000000     
  0.81250000000000000       0.75000000000000000        0.0000000000000000     
  0.84375000000000000       0.75000000000000000        0.0000000000000000     
  0.87500000000000000       0.75000000000000000        0.0000000000000000     
  0.87500000000000000       0.62500000000000000        0.0000000000000000     
  0.90625000000000000       0.62500000000000000        0.0000000000000000     
  0.93750000000000000       0.62500000000000000        0.0000000000000000     
  0.96875000000000000       0.62500000000000000        0.0000000000000000     
   1.0000000000000000       0.62500000000000000        0.0000000000000000     
  0.87500000000000000       0.65625000000000000        0.0000000000000000     
  0.90625000000000000       0.65625000000000000        0.0000000000000000     
  0.93750000000000000       0.65625000000000000        0.0000000000000000     
  0.96875000000000000       0.65625000000000000        0.0000000000000000     
   1.0000000000000000       0.65625000000000000        0.0000000000000000     
  0.87500000000000000       0.68750000000000000        0.0000000000000000     
  0.90625000000000000       0.68750000000000000        0.0000000000000000     
  0.93750000000000000       0.68750000000000000        0.0000000000000000     
  0.96875000000000000       0.68750000000000000        0.0000000000000000     
   1.0000000000000000       0.68750000000000000        0.0000000000000000     
  0.87500000000000000       0.71875000000000000        0.0000000000000000     
  0.90625000000000000       0.71875000000000000        0.0000000000000000     
  0.93750000000000000       0.71875000000000000        0.0000000000000000     
  0.96875000000000000       0.71875000000000000        0.0000000000000000     
   1.0000000000000000       0.71875000000000000        0.0000000000000000     
  0.87500000000000000       0.75000000000000000        0.0000000000000000     
  0.90625000000000000       0.75000000000000000        0.0000000000000000     
  0.93750000000000000       0.75000000000000000        0.0000000000000000     
  0.96875000000000000       0.75000000000000000        0.0000000000000000     
   1.0000000000000000       0.75000000000000000        0.0000000000000000     
   0.0000000000000000       0.75000000000000000        0.0000000000000000     
   3.1250000000000000E-002  0.75000000000000000        0.0000000000000000     
   6.2500000000000000E-002  0.75000000000000000        0.0000000000000000     
   9.3750000000000000E-002  0.75000000000000000        0.0000000000000000     
  0.12500000000000000       0.75000000000000000        0.0000000000000000     
   0.0000000000000000       0.78125000000000000        0.0000000000000000     
   3.1250000000000000E-002  0.78125000000000000        0.0000000000000000     
   6.2500000000000000E-002  0.78125000000000000        0.0000000000000000     
   9.3750000000000000E-002  0.78125000000000000        0.0000000000000000     
  0.12500000000000000       0.78125000000000000        0.0000000000000000     
   0.0000000000000000       0.81250000000000000        0.0000000000000000     
   3.1250000000000000E-002  0.81250000000000000        0.0000000000000000     
   6.2500000000000000E-002  0.81250000000000000        0.0000000000000000     
   9.3750000000000000E-002  0.81250000000000000        0.0000000000000000     
  0.12500000000000000       0.81250000000000000        0.0000000000000000     
   0.0000000000000000       0.84375000000000000        0.0000000000000000     
   3.1250000000000000E-002  0.84375000000000000        0.0000000000000000     
   6.2500000000000000E-002  0.84375000000000000        0.0000000000000000     
   9.3750000000000000E-002  0.84375000000000000        0.0000000000000000     
  0.12500000000000000       0.84375000000000000        0.0000000000000000     
   0.0000000000000000       0.87500000000000000        0.0000000000000000     
   3.1250000000000000E-002  0.87500000000000000        0.0000000000000000     
   6.2500000000000000E-002  0.87500000000000000        0.0000000000000000     
   9.3750000000000000E-002  0.87500000000000000        0.0000000000000000     
  0.12500000000000000       0.87500000000000000        0.0000000000000000     
  0.12500000000000000       0.75000000000000000        0.0000000000000000     
  0.15625000000000000       0.75000000000000000        0.0000000000000000     
  0.18750000000000000       0.75000000000000000        0.0000000000000000     
  0.21875000000000000       0.75000000000000000        0.0000000000000000     
  0.25000000000000000       0.75000000000000000        0.0000000000000000     
  0.12500000000000000       0.78125000000000000        0.0000000000000000     
  0.15625000000000000       0.78125000000000000        0.0000000000000000     
  0.18750000000000000       0.78125000000000000        0.0000000000000000     
  0.21875000000000000       0.78125000000000000        0.0000000000000000     
  0.25000000000000000       0.78125000000000000        0.0000000000000000     
  0.12500000000000000       0.81250000000000000        0.0000000000000000     
  0.15625000000000000       0.81250000000000000        0.0000000000000000     
  0.18750000000000000       0.81250000000000000        0.0000000000000000     
  0.21875000000000000       0.81250000000000000        0.0000000000000000     
  0.25000000000000000       0.81250000000000000        0.0000000000000000     
  0.12500000000000000       0.84375000000000000        0.0000000000000000     
  0.15625000000000000       0.84375000000000000        0.0000000000000000     
  0.18750000000000000       0.84375000000000000        0.0000000000000000     
  0.21875000000000000       0.84375000000000000        0.0000000000000000     
  0.25000000000000000       0.84375000000000000        0.0000000000000000     
  0.12500000000000000       0.87500000000000000        0.0000000000000000     
  0.15625000000000000       0.87500000000000000        0.0000000000000000     
  0.18750000000000000       0.87500000000000000        0.0000000000000000     
  0.21875000000000000       0.87500000000000000        0.0000000000000000     
  0.25000000000000000       0.87500000000000000        0.0000000000000000     
  0.25000000000000000       0.75000000000000000        0.0000000000000000     
  0.28125000000000000       0.75000000000000000        0.0000000000000000     
  0.31250000000000000       0.75000000000000000        0.0000000000000000     
  0.34375000000000000       0.75000000000000000        0.0000000000000000     
  0.37500000000000000       0.75000000000000000        0.0000000000000000     
  0.25000000000000000       0.78125000000000000        0.0000000000000000     
  0.28125000000000000       0.78125000000000000        0.0000000000000000     
  0.31250000000000000       0.78125000000000000        0.0000000000000000     
  0.34375000000000000       0.78125000000000000        0.0000000000000000     
  0.37500000000000000       0.78125000000000000        0.0000000000000000     
  0.25000000000000000       0.81250000000000000        0.0000000000000000     
  0.28125000000000000       0.81250000000000000        0.0000000000000000     
  0.31250000000000000       0.81250000000000000        0.0000000000000000     
  0.34375000000000000       0.81250000000000000        0.0000000000000000     
  0.37500000000000000       0.81250000000000000        0.0000000000000000     
  0.25000000000000000       0.84375000000000000        0.0000000000000000     
  0.28125000000000000       0.84375000000000000        0.0000000000000000     
  0.31250000000000000       0.84375000000000000        0.0000000000000000     
  0.34375000000000000       0.84375000000000000        0.0000000000000000     
  0.37500000000000000       0.84375000000000000        0.0000000000000000     
  0.25000000000000000       0.87500000000000000        0.0000000000000000     
  0.28125000000000000       0.87500000000000000        0.0000000000000000     
  0.31250000000000000       0.87500000000000000        0.0000000000000000     
  0.34375000000000000       0.87500000000000000        0.0000000000000000     
  0.37500000000000000       0.87500000000000000        0.0000000000000000     
  0.37500000000000000       0.75000000000000000        0.0000000000000000     
  0.40625000000000000       0.75000000000000000        0.0000000000000000     
  0.43750000000000000       0.75000000000000000        0.0000000000000000     
  0.46875000000000000       0.75000000000000000        0.0000000000000000     
  0.50000000000000000       0.75000000000000000        0.0000000000000000     
  0.37500000000000000       0.78125000000000000        0.0000000000000000     
  0.40625000000000000       0.78125000000000000        0.0000000000000000     
  0.43750000000000000       0.78125000000000000        0.0000000000000000     
  0.46875000000000000       0.78125000000000000        0.0000000000000000     
  0.50000000000000000       0.78125000000000000        0.0000000000000000     
  0.37500000000000000       0.81250000000000000        0.0000000000000000     
  0.40625000000000000       0.81250000000000000        0.0000000000000000     
  0.43750000000000000       0.81250000000000000        0.0000000000000000     
  0.46875000000000000       0.81250000000000000        0.0000000000000000     
  0.50000000000000000       0.81250000000000000        0.0000000000000000     
  0.37500000000000000       0.84375000000000000        0.0000000000000000     
  0.40625000000000000       0.84375000000000000        0.0000000000000000     
  0.43750000000000000       0.84375000000000000        0.0000000000000000     
  0.46875000000000000       0.84375000000000000        0.0000000000000000     
  0.50000000000000000       0.84375000000000000        0.0000000000000000     
  0.37500000000000000       0.87500000000000000        0.0000000000000000     
  0.40625000000000000       0.87500000000000000        0.0000000000000000     
  0.43750000000000000       0.87500000000000000        0.0000000000000000     
  0.46875000000000000       0.87500000000000000        0.0000000000000000     
  0.50000000000000000       0.87500000000000000        0.0000000000000000     
  0.50000000000000000       0.75000000000000000        0.0000000000000000     
  0.53125000000000000       0.75000000000000000        0.0000000000000000     
  0.56250000000000000       0.75000000000000000        0.0000000000000000     
  0.59375000000000000       0.75000000000000000        0.0000000000000000     
  0.62500000000000000       0.75000000000000000        0.0000000000000000     
  0.50000000000000000       0.78125000000000000        0.0000000000000000     
  0.53125000000000000       0.78125000000000000        0.0000000000000000     
  0.56250000000000000       0.78125000000000000        0.0000000000000000     
  0.59375000000000000       0.78125000000000000        0.0000000000000000     
  0.62500000000000000       0.78125000000000000        0.0000000000000000     
  0.50000000000000000       0.81250000000000000        0.0000000000000000     
  0.53125000000000000       0.81250000000000000        0.0000000000000000     
  0.56250000000000000       0.81250000000000000        0.0000000000000000     
  0.59375000000000000       0.81250000000000000        0.0000000000000000     
  0.62500000000000000       0.81250000000000000        0.0000000000000000     
  0.50000000000000000       0.84375000000000000        0.0000000000000000     
  0.53125000000000000       0.84375000000000000        0.0000000000000000     
  0.56250000000000000       0.84375000000000000        0.0000000000000000     
  0.59375000000000000       0.84375000000000000        0.0000000000000000     
  0.62500000000000000       0.84375000000000000        0.0000000000000000     
  0.50000000000000000       0.87500000000000000        0.0000000000000000     
  0.53125000000000000       0.87500000000000000        0.0000000000000000     
  0.56250000000000000       0.87500000000000000        0.0000000000000000     
  0.59375000000000000       0.87500000000000000        0.0000000000000000     
  0.62500000000000000       0.87500000000000000        0.0000000000000000     
  0.62500000000000000       0.75000000000000000        0.0000000000000000     
  0.65625000000000000       0.75000000000000000        0.0000000000000000     
  0.68750000000000000       0.75000000000000000        0.0000000000000000     
  0.71875000000000000       0.75000000000000000        0.0000000000000000     
  0.75000000000000000       0.75000000000000000        0.0000000000000000     
  0.62500000000000000       0.78125000000000000        0.0000000000000000     
  0.65625000000000000       0.78125000000000000        0.0000000000000000     
  0.68750000000000000       0.78125000000000000        0.0000000000000000     
  0.71875000000000000       0.78125000000000000        0.0000000000000000     
  0.75000000000000000       0.78125000000000000        0.0000000000000000     
  0.62500000000000000       0.81250000000000000        0.0000000000000000     
  0.65625000000000000       0.81250000000000000        0.0000000000000000     
  0.68750000000000000       0.81250000000000000        0.0000000000000000     
  0.71875000000000000       0.81250000000000000        0.0000000000000000     
  0.75000000000000000       0.81250000000000000        0.0000000000000000     
  0.62500000000000000       0.84375000000000000        0.0000000000000000     
  0.65625000000000000       0.84375000000000000        0.0000000000000000     
  0.68750000000000000       0.84375000000000000        0.0000000000000000     
  0.71875000000000000       0.84375000000000000        0.0000000000000000     
  0.75000000000000000       0.84375000000000000        0.0000000000000000     
  0.62500000000000000       0.87500000000000000        0.0000000000000000     
  0.65625000000000000       0.87500000000000000        0.0000000000000000     
  0.68750000000000000       0.87500000000000000        0.0000000000000000     
  0.71875000000000000       0.87500000000000000        0.0000000000000000     
  0.75000000000000000       0.87500000000000000        0.0000000000000000     
  0.75000000000000000       0.75000000000000000        0.0000000000000000     
  0.78125000000000000       0.75000000000000000        0.0000000000000000     
  0.81250000000000000       0.75000000000000000        0.0000000000000000     
  0.84375000000000000       0.75000000000000000        0.0000000000000000     
  0.87500000000000000       0.75000000000000000        0.0000000000000000     
  0.75000000000000000       0.78125000000000000        0.0000000000000000     
  0.78125000000000000       0.78125000000000000        0.0000000000000000     
  0.81250000000000000       0.78125000000000000        0.0000000000000000     
  0.84375000000000000       0.78125000000000000        0.0000000000000000     
  0.87500000000000000       0.78125000000000000        0.0000000000000000     
  0.75000000000000000       0.81250000000000000        0.0000000000000000     
  0.78125000000000000       0.81250000000000000        0.0000000000000000     
  0.81250000000000000       0.81250000000000000        0.0000000000000000     
  0.84375000000000000       0.81250000000000000        0.0000000000000000     
  0.87500000000000000       0.81250000000000000        0.0000000000000000     
  0.75000000000000000       0.84375000000000000        0.0000000000000000     
  0.78125000000000000       0.84375000000000000        0.0000000000000000     
  0.81250000000000000       0.84375000000000000        0.0000000000000000     
  0.84375000000000000       0.84375000000000000        0.0000000000000000     
  0.87500000000000000       0.84375000000000000        0.0000000000000000     
  0.75000000000000000       0.87500000000000000        0.0000000000000000     
  0.78125000000000000       0.87500000000000000        0.0000000000000000     
  0.81250000000000000       0.87500000000000000        0.0000000000000000     
  0.84375000000000000       0.87500000000000000        0.0000000000000000     
  0.87500000000000000       0.87500000000000000        0.0000000000000000     
  0.87500000000000000       0.75000000000000000        0.0000000000000000     
  0.90625000000000000       0.75000000000000000        0.0000000000000000     
  0.93750000000000000       0.75000000000000000        0.0000000000000000     
  0.96875000000000000       0.75000000000000000        0.0000000000000000     
   1.0000000000000000       0.75000000000000000        0.0000000000000000     
  0.87500000000000000       0.78125000000000000        0.0000000000000000     
  0.90625000000000000       0.78125000000000000        0.0000000000000000     
  0.93750000000000000       0.78125000000000000        0.0000000000000000     
  0.96875000000000000       0.78125000000000000        0.0000000000000000     
   1.0000000000000000       0.78125000000000000        0.0000000000000000     
  0.87500000000000000       0.81250000000000000        0.0000000000000000     
  0.90625000000000000       0.81250000000000000        0.0000000000000000     
  0.93750000000000000       0.81250000000000000        0.0000000000000000     
  0.96875000000000000       0.81250000000000000        0.0000000000000000     
   1.0000000000000000       0.81250000000000000        0.0000000000000000     
  0.87500000000000000       0.84375000000000000        0.0000000000000000     
  0.90625000000000000       0.84375000000000000        0.0000000000000000     
  0.93750000000000000       0.84375000000000000        0.0000000000000000     
  0.96875000000000000       0.84375000000000000        0.0000000000000000     
   1.0000000000000000       0.84375000000000000        0.0000000000000000     
  0.87500000000000000       0.87500000000000000        0.0000000000000000     
  0.90625000000000000       0.87500000000000000        0.0000000000000000     
  0.93750000000000000       0.87500000000000000        0.0000000000000000     
  0.96875000000000000       0.87500000000000000        0.0000000000000000     
   1.0000000000000000       0.87500000000000000        0.0000000000000000     
   0.0000000000000000       0.87500000000000000        0.0000000000000000     
   3.1250000000000000E-002  0.87500000000000000        0.0000000000000000     
   6.2500000000000000E-002  0.87500000000000000        0.0000000000000000     
   9.3750000000000000E-002  0.87500000000000000        0.0000000000000000     
  0.12500000000000000       0.87500000000000000        0.0000000000000000     
   0.0000000000000000       0.90625000000000000        0.0000000000000000     
   3.1250000000000000E-002  0.90625000000000000        0.0000000000000000     
   6.2500000000000000E-002  0.90625000000000000        0.0000000000000000     
   9.3750000000000000E-002  0.90625000000000000        0.0000000000000000     
  0.12500000000000000       0.90625000000000000        0.0000000000000000     
   0.0000000000000000       0.93750000000000000        0.0000000000000000     
   3.1250000000000000E-002  0.93750000000000000        0.0000000000000000     
   6.2500000000000000E-002  0.93750000000000000        0.0000000000000000     
   9.3750000000000000E-002  0.93750000000000000        0.0000000000000000     
  0.12500000000000000       0.93750000000000000        0.0000000000000000     
   0.0000000000000000       0.96875000000000000        0.0000000000000000     
   3.1250000000000000E-002  0.96875000000000000        0.0000000000000000     
   6.2500000000000000E-002  0.96875000000000000        0.0000000000000000     
   9.3750000000000000E-002  0.96875000000000000        0.0000000000000000     
  0.12500000000000000       0.96875000000000000        0.0000000000000000     
   0.0000000000000000        1.0000000000000000        0.0000000000000000     
   3.1250000000000000E-002   1.0000000000000000        0.0000000000000000     
   6.2500000000000000E-002   1.0000000000000000        0.0000000000000000     
   9.3750000000000000E-002   1.0000000000000000        0.0000000000000000     
  0.12500000000000000        1.0000000000000000        0.0000000000000000     
  0.12500000000000000       0.87500000000000000        0.0000000000000000     
  0.15625000000000000       0.87500000000000000        0.0000000000000000     
  0.18750000000000000       0.87500000000000000        0.0000000000000000     
  0.21875000000000000       0.87500000000000000        0.0000000000000000     
  0.25000000000000000       0.87500000000000000        0.0000000000000000     
  0.12500000000000000       0.90625000000000000        0.0000000000000000     
  0.15625000000000000       0.90625000000000000        0.0000000000000000     
  0.18750000000000000       0.90625000000000000        0.0000000000000000     
  0.21875000000000000       0.90625000000000000        0.0000000000000000     
  0.25000000000000000       0.90625000000000000        0.0000000000000000     
  0.12500000000000000       0.93750000000000000        0.0000000000000000     
  0.15625000000000000       0.93750000000000000        0.0000000000000000     
  0.18750000000000000       0.93750000000000000        0.0000000000000000     
  0.21875000000000000       0.93750000000000000        0.0000000000000000     
  0.25000000000000000       0.93750000000000000        0.0000000000000000     
  0.12500000000000000       0.96875000000000000        0.0000000000000000     
  0.15625000000000000       0.96875000000000000        0.0000000000000000     
  0.18750000000000000       0.96875000000000000        0.0000000000000000     
  0.21875000000000000       0.96875000000000000        0.0000000000000000     
  0.25000000000000000       0.96875000000000000        0.0000000000000000     
  0.12500000000000000        1.0000000000000000        0.0000000000000000     
  0.15625000000000000        1.0000000000000000        0.0000000000000000     
  0.18750000000000000        1.0000000000000000        0.0000000000000000     
  0.21875000000000000        1.0000000000000000        0.0000000000000000     
  0.25000000000000000        1.0000000000000000        0.0000000000000000     
  0.25000000000000000       0.87500000000000000        0.0000000000000000     
  0.28125000000000000       0.87500000000000000        0.0000000000000000     
  0.31250000000000000       0.87500000000000000        0.0000000000000000     
  0.34375000000000000       0.87500000000000000        0.0000000000000000     
  0.37500000000000000       0.87500000000000000        0.0000000000000000     
  0.25000000000000000       0.90625000000000000        0.0000000000000000     
  0.28125000000000000       0.90625000000000000        0.0000000000000000     
  0.31250000000000000       0.90625000000000000        0.0000000000000000     
  0.34375000000000000       0.90625000000000000        0.0000000000000000     
  0.37500000000000000       0.90625000000000000        0.0000000000000000     
  0.25000000000000000       0.93750000000000000        0.0000000000000000     
  0.28125000000000000       0.93750000000000000        0.0000000000000000     
  0.31250000000000000       0.93750000000000000        0.0000000000000000     
  0.34375000000000000       0.93750000000000000        0.0000000000000000     
  0.37500000000000000       0.93750000000000000        0.0000000000000000     
  0.25000000000000000       0.96875000000000000        0.0000000000000000     
  0.28125000000000000       0.96875000000000000        0.0000000000000000     
  0.31250000000000000       0.96875000000000000        0.0000000000000000     
  0.34375000000000000       0.96875000000000000        0.0000000000000000     
  0.37500000000000000       0.96875000000000000        0.0000000000000000     
  0.25000000000000000        1.0000000000000000        0.0000000000000000     
  0.28125000000000000        1.0000000000000000        0.0000000000000000     
  0.31250000000000000        1.0000000000000000        0.0000000000000000     
  0.34375000000000000        1.0000000000000000        0.0000000000000000     
  0.37500000000000000        1.0000000000000000        0.0000000000000000     
  0.37500000000000000       0.87500000000000000        0.0000000000000000     
  0.40625000000000000       0.87500000000000000        0.0000000000000000     
  0.43750000000000000       0.87500000000000000        0.0000000000000000     
  0.46875000000000000       0.87500000000000000        0.0000000000000000     
  0.50000000000000000       0.87500000000000000        0.0000000000000000     
  0.37500000000000000       0.90625000000000000        0.0000000000000000     
  0.40625000000000000       0.90625000000000000        0.0000000000000000     
  0.43750000000000000       0.90625000000000000        0.0000000000000000     
  0.46875000000000000       0.90625000000000000        0.0000000000000000     
  0.50000000000000000       0.90625000000000000        0.0000000000000000     
  0.37500000000000000       0.93750000000000000        0.0000000000000000     
  0.40625000000000000       0.93750000000000000        0.0000000000000000     
  0.43750000000000000       0.93750000000000000        0.0000000000000000     
  0.46875000000000000       0.93750000000000000        0.0000000000000000     
  0.50000000000000000       0.93750000000000000        0.0000000000000000     
  0.37500000000000000       0.96875000000000000        0.0000000000000000     
  0.40625000000000000       0.96875000000000000        0.0000000000000000     
  0.43750000000000000       0.96875000000000000        0.0000000000000000     
  0.46875000000000000       0.96875000000000000        0.0000000000000000     
  0.50000000000000000       0.96875000000000000        0.0000000000000000     
  0.37500000000000000        1.0000000000000000        0.0000000000000000     
  0.40625000000000000        1.0000000000000000        0.0000000000000000     
  0.43750000000000000        1.0000000000000000        0.0000000000000000     
  0.46875000000000000        1.0000000000000000        0.0000000000000000     
  0.50000000000000000        1.0000000000000000        0.0000000000000000     
  0.50000000000000000       0.87500000000000000        0.0000000000000000     
  0.53125000000000000       0.87500000000000000        0.0000000000000000     
  0.56250000000000000       0.87500000000000000        0.0000000000000000     
  0.59375000000000000       0.87500000000000000        0.0000000000000000     
  0.62500000000000000       0.87500000000000000        0.0000000000000000     
  0.50000000000000000       0.90625000000000000        0.0000000000000000     
  0.53125000000000000       0.90625000000000000        0.0000000000000000     
  0.56250000000000000       0.90625000000000000        0.0000000000000000     
  0.59375000000000000       0.90625000000000000        0.0000000000000000     
  0.62500000000000000       0.90625000000000000        0.0000000000000000     
  0.50000000000000000       0.93750000000000000        0.0000000000000000     
  0.53125000000000000       0.93750000000000000        0.0000000000000000     
  0.56250000000000000       0.93750000000000000        0.0000000000000000     
  0.59375000000000000       0.93750000000000000        0.0000000000000000     
  0.62500000000000000       0.93750000000000000        0.0000000000000000     
  0.50000000000000000       0.96875000000000000        0.0000000000000000     
  0.53125000000000000       0.96875000000000000        0.0000000000000000     
  0.56250000000000000       0.96875000000000000        0.0000000000000000     
  0.59375000000000000       0.96875000000000000        0.0000000000000000     
  0.62500000000000000       0.96875000000000000        0.0000000000000000     
  0.50000000000000000        1.0000000000000000        0.0000000000000000     
  0.53125000000000000        1.0000000000000000        0.0000000000000000     
  0.56250000000000000        1.0000000000000000        0.0000000000000000     
  0.59375000000000000        1.0000000000000000        0.0000000000000000     
  0.62500000000000000        1.0000000000000000        0.0000000000000000     
  0.62500000000000000       0.87500000000000000        0.0000000000000000     
  0.65625000000000000       0.87500000000000000        0.0000000000000000     
  0.68750000000000000       0.87500000000000000        0.0000000000000000     
  0.71875000000000000       0.87500000000000000        0.0000000000000000     
  0.75000000000000000       0.87500000000000000        0.0000000000000000     
  0.62500000000000000       0.90625000000000000        0.0000000000000000     
  0.65625000000000000       0.90625000000000000        0.0000000000000000     
  0.68750000000000000       0.90625000000000000        0.0000000000000000     
  0.71875000000000000       0.90625000000000000        0.0000000000000000     
  0.75000000000000000       0.90625000000000000        0.0000000000000000     
  0.62500000000000000       0.93750000000000000        0.0000000000000000     
  0.65625000000000000       0.93750000000000000        0.0000000000000000     
  0.68750000000000000       0.93750000000000000        0.0000000000000000     
  0.71875000000000000       0.93750000000000000        0.0000000000000000     
  0.75000000000000000       0.93750000000000000        0.0000000000000000     
  0.62500000000000000       0.96875000000000000        0.0000000000000000     
  0.65625000000000000       0.96875000000000000        0.0000000000000000     
  0.68750000000000000       0.96875000000000000        0.0000000000000000     
  0.71875000000000000       0.96875000000000000        0.0000000000000000     
  0.75000000000000000       0.96875000000000000        0.0000000000000000     
  0.62500000000000000        1.0000000000000000        0.0000000000000000     
  0.65625000000000000        1.0000000000000000        0.0000000000000000     
  0.68750000000000000        1.0000000000000000        0.0000000000000000     
  0.71875000000000000        1.0000000000000000        0.0000000000000000     
  0.75000000000000000        1.0000000000000000        0.0000000000000000     
  0.75000000000000000       0.87500000000000000        0.0000000000000000     
  0.78125000000000000       0.87500000000000000        0.0000000000000000     
  0.81250000000000000       0.87500000000000000        0.0000000000000000     
  0.84375000000000000       0.87500000000000000        0.0000000000000000     
  0.87500000000000000       0.87500000000000000        0.0000000000000000     
  0.75000000000000000       0.90625000000000000        0.0000000000000000     
  0.78125000000000000       0.90625000000000000        0.0000000000000000     
  0.81250000000000000       0.90625000000000000        0.0000000000000000     
  0.84375000000000000       0.90625000000000000        0.0000000000000000     
  0.87500000000000000       0.90625000000000000        0.0000000000000000     
  0.75000000000000000       0.93750000000000000        0.0000000000000000     
  0.78125000000000000       0.93750000000000000        0.0000000000000000     
  0.81250000000000000       0.93750000000000000        0.0000000000000000     
  0.84375000000000000       0.93750000000000000        0.0000000000000000     
  0.87500000000000000       0.93750000000000000        0.0000000000000000     
  0.75000000000000000       0.96875000000000000        0.0000000000000000     
  0.78125000000000000       0.96875000000000000        0.0000000000000000     
  0.81250000000000000       0.96875000000000000        0.0000000000000000     
  0.84375000000000000       0.96875000000000000        0.0000000000000000     
  0.87500000000000000       0.96875000000000000        0.0000000000000000     
  0.75000000000000000        1.0000000000000000        0.0000000000000000     
  0.78125000000000000        1.0000000000000000        0.0000000000000000     
  0.81250000000000000        1.0000000000000000        0.0000000000000000     
  0.84375000000000000        1.0000000000000000        0.0000000000000000     
  0.87500000000000000        1.0000000000000000        0.0000000000000000     
  0.87500000000000000       0.87500000000000000        0.0000000000000000     
  0.90625000000000000       0.87500000000000000        0.0000000000000000     
  0.93750000000000000       0.87500000000000000        0.0000000000000000     
  0.96875000000000000       0.87500000000000000        0.0000000000000000     
   1.0000000000000000       0.87500000000000000        0.0000000000000000     
  0.87500000000000000       0.90625000000000000        0.0000000000000000     
  0.90625000000000000       0.90625000000000000        0.0000000000000000     
  0.93750000000000000       0.90625000000000000        0.0000000000000000     
  0.96875000000000000       0.90625000000000000        0.0000000000000000     
   1.0000000000000000       0.90625000000000000        0.0000000000000000     
  0.87500000000000000       0.93750000000000000        0.0000000000000000     
  0.90625000000000000       0.93750000000000000        0.0000000000000000     
  0.93750000000000000       0.93750000000000000        0.0000000000000000     
  0.96875000000000000       0.93750000000000000        0.0000000000000000     
   1.0000000000000000       0.93750000000000000        0.0000000000000000     
  0.87500000000000000       0.96875000000000000        0.0000000000000000     
  0.90625000000000000       0.96875000000000000        0.0000000000000000     
  0.93750000000000000       0.96875000000000000        0.0000000000000000     
  0.96875000000000000       0.96875000000000000        0.0000000000000000     
   1.0000000000000000       0.96875000000000000        0.0000000000000000     
  0.87500000000000000        1.0000000000000000        0.0000000000000000     
  0.90625000000000000        1.0000000000000000        0.0000000000000000     
  0.93750000000000000        1.0000000000000000        0.0000000000000000     
  0.96875000000000000        1.0000000000000000        0.0000000000000000     
   1.0000000000000000        1.0000000000000000        0.0000000000000000     
 </DataArray>
 </Points>
 <Cells>
 <DataArray  type="Int32"  Name="connectivity"  format="ascii">
           0           1           6           5
           1           2           7           6
           2           3           8           7
           3           4           9           8
           5           6          11          10
           6           7          12          11
           7           8          13          12
           8           9          14          13
          10          11          16          15
          11          12          17          16
          12          13          18          17
          13          14          19          18
          15          16          21          20
          16          17          22          21
          17          18          23          22
          18          19          24          23
          25          26          31          30
          26          27          32          31
          27          28          33          32
          28          29          34          33
          30          31          36          35
          31          32          37          36
          32          33          38          37
          33          34          39          38
          35          36          41          40
          36          37          42          41
          37          38          43          42
          38          39          44          43
          40          41          46          45
          41          42          47          46
          42          43          48          47
          43          44          49          48
          50          51          56          55
          51          52          57          56
          52          53          58          57
          53          54          59          58
          55          56          61          60
          56          57          62          61
          57          58          63          62
          58          59          64          63
          60          61          66          65
          61          62          67          66
          62          63          68          67
          63          64          69          68
          65          66          71          70
          66          67          72          71
          67          68          73          72
          68          69          74          73
          75          76          81          80
          76          77          82          81
          77          78          83          82
          78          79          84          83
          80          81          86          85
          81          82          87          86
          82          83          88          87
          83          84          89          88
          85          86          91          90
          86          87          92          91
          87          88          93          92
          88          89          94          93
          90          91          96          95
          91          92          97          96
          92          93          98          97
          93          94          99          98
         100         101         106         105
         101         102         107         106
         102         103         108         107
         103         104         109         108
         105         106         111         110
         106         107         112         111
         107         108         113         112
         108         109         114         113
         110         111         116         115
         111         112         117         116
         112         113         118         117
         113         114         119         118
         115         116         121         120
         116         117         122         121
         117         118         123         122
         118         119         124         123
         125         126         131         130
         126         127         132         131
         127         128         133         132
         128         129         134         133
         130         131         136         135
         131         132         137         136
         132         133         138         137
         133         134         139         138
         135         136         141         140
         136         137         142         141
         137         138         143         142
         138         139         144         143
         140         141         146         145
         141         142         147         146
         142         143         148         147
         143         144         149         148
         150         151         156         155
         151         152         157         156
         152         153         158         157
         153         154         159         158
         155         156         161         160
         156         157         162         161
         157         158         163         162
         158         159         164         163
         160         161         166         165
         161         162         167         166
         162         163         168         167
         163         164         169         168
         165         166         171         170
         166         167         172         171
         167         168         173         172
         168         169         174         173
         175         176         181         180
         176         177         182         181
         177         178         183         182
         178         179         184         183
         180         181         186         185
         181         182         187         186
         182         183         188         187
         183         184         189         188
         185         186         191         190
         186         187         192         191
         187         188         193         192
         188         189         194         193
         190         191         196         195
         191         192         197         196
         192         193         198         197
         193         194         199         198
         200         201         206         205
         201         202         207         206
         202         203         208         207
         203         204         209         208
         205         206         211         210
         206         207         212         211
         207         208         213         212
         208         209         214         213
         210         211         216         215
         211         212         217         216
         212         213         218         217
         213         214         219         218
         215         216         221         220
         216         217         222         221
         217         218         223         222
         218         219         224         223
         225         226         231         230
         226         227         232         231
         227         228         233         232
         228         229         234         233
         230         231         236         235
         231         232         237         236
         232         233         238         237
         233         234         239         238
         235         236         241         240
         236         237         242         241
         237         238         243         242
         238         239         244         243
         240         241         246         245
         241         242         247         246
         242         243         248         247
         243         244         249         248
         250         251         256         255
         251         252         257         256
         252         253         258         257
         253         254         259         258
         255         256         261         260
         256         257         262         261
         257         258         263         262
         258         259         264         263
         260         261         266         265
         261         262         267         266
         262         263         268         267
         263         264         269         268
         265         266         271         270
         266         267         272         271
         267         268         273         272
         268         269         274         273
         275         276         281         280
         276         277         282         281
         277         278         283         282
         278         279         284         283
         280         281         286         285
         281         282         287         286
         282         283         288         287
         283         284         289         288
         285         286         291         290
         286         287         292         291
         287         288         293         292
         288         289         294         293
         290         291         296         295
         291         292         297         296
         292         293         298         297
         293         294         299         298
         300         301         306         305
         301         302         307         306
         302         303         308         307
         303         304         309         308
         305         306         311         310
         306         307         312         311
         307         308         313         312
         308         309         314         313
         310         311         316         315
         311         312         317         316
         312         313         318         317
         313         314         319         318
         315         316         321         320
         316         317         322         321
         317         318         323         322
         318         319         324         323
         325         326         331         330
         326         327         332         331
         327         328         333         332
         328         329         334         333
         330         331         336         335
         331         332         337         336
         332         333         338         337
         333         334         339         338
         335         336         341         340
         336         337         342         341
         337         338         343         342
         338         339         344         343
         340         341         346         345
         341         342         347         346
         342         343         348         347
         343         344         349         348
         350         351         356         355
         351         352         357         356
         352         353         358         357
         353         354         359         358
         355         356         361         360
         356         357         362         361
         357         358         363         362
         358         359         364         363
         360         361         366         365
         361         362         367         366
         362         363         368         367
         363         364         369         368
         365         366         371         370
         366         367         372         371
         367         368         373         372
         368         369         374         373
         375         376         381         380
         376         377         382         381
         377         378         383         382
         378         379         384         383
         380         381         386         385
         381         382         387         386
         382         383         388         387
         383         384         389         388
         385         386         391         390
         386         387         392         391
         387         388         393         392
         388         389         394         393
         390         391         396         395
         391         392         397         396
         392         393         398         397
         393         394         399         398
         400         401         406         405
         401         402         407         406
         402         403         408         407
         403         404         409         408
         405         406         411         410
         406         407         412         411
         407         408         413         412
         408         409         414         413
         410         411         416         415
         411         412         417         416
         412         413         418         417
         413         414         419         418
         415         416         421         420
         416         417         422         421
         417         418         423         422
         418         419         424         423
         425         426         431         430
         426         427         432         431
         427         428         433         432
         428         429         434         433
         430         431         436         435
         431         432         437         436
         432         433         438         437
         433         434         439         438
         435         436         441         440
         436         437         442         441
         437         438         443         442
         438         439         444         443
         440         441         446         445
         441         442         447         446
         442         443         448         447
         443         444         449         448
         450         451         456         455
         451         452         457         456
         452         453         458         457
         453         454         459         458
         455         456         461         460
         456         457         462         461
         457         458         463         462
         458         459         464         463
         460         461         466         465
         461         462         467         466
         462         463         468         467
         463         464         469         468
         465         466         471         470
         466         467         472         471
         467         468         473         472
         468         469         474         473
         475         476         481         480
         476         477         482         481
         477         478         483         482
         478         479         484         483
         480         481         486         485
         481         482         487         486
         482         483         488         487
         483         484         489         488
         485         486         491         490
         486         487         492         491
         487         488         493         492
         488         489         494         493
         490         491         496         495
         491         492         497         496
         492         493         498         497
         493         494         499         498
         500         501         506         505
         501         502         507         506
         502         503         508         507
         503         504         509         508
         505         506         511         510
         506         507         512         511
         507         508         513         512
         508         509         514         513
         510         511         516         515
         511         512         517         516
         512         513         518         517
         513         514         519         518
         515         516         521         520
         516         517         522         521
         517         518         523         522
         518         519         524         523
         525         526         531         530
         526         527         532         531
         527         528         533         532
         528         529         534         533
         530         531         536         535
         531         532         537         536
         532         533         538         537
         533         534         539         538
         535         536         541         540
         536         537         542         541
         537         538         543         542
         538         539         544         543
         540         541         546         545
         541         542         547         546
         542         543         548         547
         543         544         549         548
         550         551         556         555
         551         552         557         556
         552         553         558         557
         553         554         559         558
         555         556         561         560
         556         557         562         561
         557         558         563         562
         558         559         564         563
         560         561         566         565
         561         562         567         566
         562         563         568         567
         563         564         569         568
         565         566         571         570
         566         567         572         571
         567         568         573         572
         568         569         574         573
         575         576         581         580
         576         577         582         581
         577         578         583         582
         578         579         584         583
         580         581         586         585
         581         582         587         586
         582         583         588         587
         583         584         589         588
         585         586         591         590
         586         587         592         591
         587         588         593         592
         588         589         594         593
         590         591         596         595
         591         592         597         596
         592         593         598         597
         593         594         599         598
         600         601         606         605
         601         602         607         606
         602         603         608         607
         603         604         609         608
         605         606         611         610
         606         607         612         611
         607         608         613         612
         608         609         614         613
         610         611         616         615
         611         612         617         616
         612         613         618         617
         613         614         619         618
         615         616         621         620
         616         617         622         621
         617         618         623         622
         618         619         624         623
         625         626         631         630
         626         627         632         631
         627         628         633         632
         628         629         634         633
         630         631         636         635
         631         632         637         636
         632         633         638         637
         633         634         639         638
         635         636         641         640
         636         637         642         641
         637         638         643         642
         638         639         644         643
         640         641         646         645
         641         642         647         646
         642         643         648         647
         643         644         649         648
         650         651         656         655
         651         652         657         656
         652         653         658         657
         653         654         659         658
         655         656         661         660
         656         657         662         661
         657         658         663         662
         658         659         664         663
         660         661         666         665
         661         662         667         666
         662         663         668         667
         663         664         669         668
         665         666         671         670
         666         667         672         671
         667         668         673         672
         668         669         674         673
         675         676         681         680
         676         677         682         681
         677         678         683         682
         678         679         684         683
         680         681         686         685
         681         682         687         686
         682         683         688         687
         683         684         689         688
         685         686         691         690
         686         687         692         691
         687         688         693         692
         688         689         694         693
         690         691         696         695
         691         692         697         696
         692         693         698         697
         693         694         699         698
         700         701         706         705
         701         702         707         706
         702         703         708         707
         703         704         709         708
         705         706         711         710
         706         707         712         711
         707         708         713         712
         708         709         714         713
         710         711         716         715
         711         712         717         716
         712         713         718         717
         713         714         719         718
         715         716         721         720
         716         717         722         721
         717         718         723         722
         718         719         724         723
         725         726         731         730
         726         727         732         731
         727         728         733         732
         728         729         734         733
         730         731         736         735
         731         732         737         736
         732         733         738         737
         733         734         739         738
         735         736         741         740
         736         737         742         741
         737         738         743         742
         738         739         744         743
         740         741         746         745
         741         742         747         746
         742         743         748         747
         743         744         749         748
         750         751         756         755
         751         752         757         756
         752         753         758         757
         753         754         759         758
         755         756         761         760
         756         757         762         761
         757         758         763         762
         758         759         764         763
         760         761         766         765
         761         762         767         766
         762         763         768         767
         763         764         769         768
         765         766         771         770
         766         767         772         771
         767         768         773         772
         768         769         774         773
         775         776         781         780
         776         777         782         781
         777         778         783         782
         778         779         784         783
         780         781         786         785
         781         782         787         786
         782         783         788         787
         783         784         789         788
         785         786         791         790
         786         787         792         791
         787         788         793         792
         788         789         794         793
         790         791         796         795
         791         792         797         796
         792         793         798         797
         793         794         799         798
         800         801         806         805
         801         802         807         806
         802         803         808         807
         803         804         809         808
         805         806         811         810
         806         807         812         811
         807         808         813         812
         808         809         814         813
         810         811         816         815
         811         812         817         816
         812         813         818         817
         813         814         819         818
         815         816         821         820
         816         817         822         821
         817         818         823         822
         818         819         824         823
         825         826         831         830
         826         827         832         831
         827         828         833         832
         828         829         834         833
         830         831         836         835
         831         832         837         836
         832         833         838         837
         833         834         839         838
         835         836         841         840
         836         837         842         841
         837         838         843         842
         838         839         844         843
         840         841         846         845
         841         842         847         846
         842         843         848         847
         843         844         849         848
         850         851         856         855
         851         852         857         856
         852         853         858         857
         853         854         859         858
         855         856         861         860
         856         857         862         861
         857         858         863         862
         858         859         864         863
         860         861         866         865
         861         862         867         866
         862         863         868         867
         863         864         869         868
         865         866         871         870
         866         867         872         871
         867         868         873         872
         868         869         874         873
         875         876         881         880
         876         877         882         881
         877         878         883         882
         878         879         884         883
         880         881         886         885
         881         882         887         886
         882         883         888         887
         883         884         889         888
         885         886         891         890
         886         887         892         891
         887         888         893         892
         888         889         894         893
         890         891         896         895
         891         892         897         896
         892         893         898         897
         893         894         899         898
         900         901         906         905
         901         902         907         906
         902         903         908         907
         903         904         909         908
         905         906         911         910
         906         907         912         911
         907         908         913         912
         908         909         914         913
         910         911         916         915
         911         912         917         916
         912         913         918         917
         913         914         919         918
         915         916         921         920
         916         917         922         921
         917         918         923         922
         918         919         924         923
         925         926         931         930
         926         927         932         931
         927         928         933         932
         928         929         934         933
         930         931         936         935
         931         932         937         936
         932         933         938         937
         933         934         939         938
         935         936         941         940
         936         937         942         941
         937         938         943         942
         938         939         944         943
         940         941         946         945
         941         942         947         946
         942         943         948         947
         943         944         949         948
         950         951         956         955
         951         952         957         956
         952         953         958         957
         953         954         959         958
         955         956         961         960
         956         957         962         961
         957         958         963         962
         958         959         964         963
         960         961         966         965
         961         962         967         966
         962         963         968         967
         963         964         969         968
         965         966         971         970
         966         967         972         971
         967         968         973         972
         968         969         974         973
         975         976         981         980
         976         977         982         981
         977         978         983         982
         978         979         984         983
         980         981         986         985
         981         982         987         986
         982         983         988         987
         983         984         989         988
         985         986         991         990
         986         987         992         991
         987         988         993         992
         988         989         994         993
         990         991         996         995
         991         992         997         996
         992         993         998         997
         993         994         999         998
        1000        1001        1006        1005
        1001        1002        1007        1006
        1002        1003        1008        1007
        1003        1004        1009        1008
        1005        1006        1011        1010
        1006        1007        1012        1011
        1007        1008        1013        1012
        1008        1009        1014        1013
        1010        1011        1016        1015
        1011        1012        1017        1016
        1012        1013        1018        1017
        1013        1014        1019        1018
        1015        1016        1021        1020
        1016        1017        1022        1021
        1017        1018        1023        1022
        1018        1019        1024        1023
        1025        1026        1031        1030
        1026        1027        1032        1031
        1027        1028        1033        1032
        1028        1029        1034        1033
        1030        1031        1036        1035
        1031        1032        1037        1036
        1032        1033        1038        1037
        1033        1034        1039        1038
        1035        1036        1041        1040
        1036        1037        1042        1041
        1037        1038        1043        1042
        1038        1039        1044        1043
        1040        1041        1046        1045
        1041        1042        1047        1046
        1042        1043        1048        1047
        1043        1044        1049        1048
        1050        1051        1056        1055
        1051        1052        1057        1056
        1052        1053        1058        1057
        1053        1054        1059        1058
        1055        1056        1061        1060
        1056        1057        1062        1061
        1057        1058        1063        1062
        1058        1059        1064        1063
        1060        1061        1066        1065
        1061        1062        1067        1066
        1062        1063        1068        1067
        1063        1064        1069        1068
        1065        1066        1071        1070
        1066        1067        1072        1071
        1067        1068        1073        1072
        1068        1069        1074        1073
        1075        1076        1081        1080
        1076        1077        1082        1081
        1077        1078        1083        1082
        1078        1079        1084        1083
        1080        1081        1086        1085
        1081        1082        1087        1086
        1082        1083        1088        1087
        1083        1084        1089        1088
        1085        1086        1091        1090
        1086        1087        1092        1091
        1087        1088        1093        1092
        1088        1089        1094        1093
        1090        1091        1096        1095
        1091        1092        1097        1096
        1092        1093        1098        1097
        1093        1094        1099        1098
        1100        1101        1106        1105
        1101        1102        1107        1106
        1102        1103        1108        1107
        1103        1104        1109        1108
        1105        1106        1111        1110
        1106        1107        1112        1111
        1107        1108        1113        1112
        1108        1109        1114        1113
        1110        1111        1116        1115
        1111        1112        1117        1116
        1112        1113        1118        1117
        1113        1114        1119        1118
        1115        1116        1121        1120
        1116        1117        1122        1121
        1117        1118        1123        1122
        1118        1119        1124        1123
        1125        1126        1131        1130
        1126        1127        1132        1131
        1127        1128        1133        1132
        1128        1129        1134        1133
        1130        1131        1136        1135
        1131        1132        1137        1136
        1132        1133        1138        1137
        1133        1134        1139        1138
        1135        1136        1141        1140
        1136        1137        1142        1141
        1137        1138        1143        1142
        1138        1139        1144        1143
        1140        1141        1146        1145
        1141        1142        1147        1146
        1142        1143        1148        1147
        1143        1144        1149        1148
        1150        1151        1156        1155
        1151        1152        1157        1156
        1152        1153        1158        1157
        1153        1154        1159        1158
        1155        1156        1161        1160
        1156        1157        1162        1161
        1157        1158        1163        1162
        1158        1159        1164        1163
        1160        1161        1166        1165
        1161        1162        1167        1166
        1162        1163        1168        1167
        1163        1164        1169        1168
        1165        1166        1171        1170
        1166        1167        1172        1171
        1167        1168        1173        1172
        1168        1169        1174        1173
        1175        1176        1181        1180
        1176        1177        1182        1181
        1177        1178        1183        1182
        1178        1179        1184        1183
        1180        1181        1186        1185
        1181        1182        1187        1186
        1182        1183        1188        1187
        1183        1184        1189        1188
        1185        1186        1191        1190
        1186        1187        1192        1191
        1187        1188        1193        1192
        1188        1189        1194        1193
        1190        1191        1196        1195
        1191        1192        1197        1196
        1192        1193        1198        1197
        1193        1194        1199        1198
        1200        1201        1206        1205
        1201        1202        1207        1206
        1202        1203        1208        1207
        1203        1204        1209        1208
        1205        1206        1211        1210
        1206        1207        1212        1211
        1207        1208        1213        1212
        1208        1209        1214        1213
        1210        1211        1216        1215
        1211        1212        1217        1216
        1212        1213        1218        1217
        1213        1214        1219        1218
        1215        1216        1221        1220
        1216        1217        1222        1221
        1217        1218        1223        1222
        1218        1219        1224        1223
        1225        1226        1231        1230
        1226        1227        1232        1231
        1227        1228        1233        1232
        1228        1229        1234        1233
        1230        1231        1236        1235
        1231        1232        1237        1236
        1232        1233        1238        1237
        1233        1234        1239        1238
        1235        1236        1241        1240
        1236        1237        1242        1241
        1237        1238        1243        1242
        1238        1239        1244        1243
        1240        1241        1246        1245
        1241        1242        1247        1246
        1242        1243        1248        1247
        1243        1244        1249        1248
        1250        1251        1256        1255
        1251        1252        1257        1256
        1252        1253        1258        1257
        1253        1254        1259        1258
        1255        1256        1261        1260
        1256        1257        1262        1261
        1257        1258        1263        1262
        1258        1259        1264        1263
        1260        1261        1266        1265
        1261        1262        1267        1266
        1262        1263        1268        1267
        1263        1264        1269        1268
        1265        1266        1271        1270
        1266        1267        1272        1271
        1267        1268        1273        1272
        1268        1269        1274        1273
        1275        1276        1281        1280
        1276        1277        1282        1281
        1277        1278        1283        1282
        1278        1279        1284        1283
        1280        1281        1286        1285
        1281        1282        1287        1286
        1282        1283        1288        1287
        1283        1284        1289        1288
        1285        1286        1291        1290
        1286        1287        1292        1291
        1287        1288        1293        1292
        1288        1289        1294        1293
        1290        1291        1296        1295
        1291        1292        1297        1296
        1292        1293        1298        1297
        1293        1294        1299        1298
        1300        1301        1306        1305
        1301        1302        1307        1306
        1302        1303        1308        1307
        1303        1304        1309        1308
        1305        1306        1311        1310
        1306        1307        1312        1311
        1307        1308        1313        1312
        1308        1309        1314        1313
        1310        1311        1316        1315
        1311        1312        1317        1316
        1312        1313        1318        1317
        1313        1314        1319        1318
        1315        1316        1321        1320
        1316        1317        1322        1321
        1317        1318        1323        1322
        1318        1319        1324        1323
        1325        1326        1331        1330
        1326        1327        1332        1331
        1327        1328        1333        1332
        1328        1329        1334        1333
        1330        1331        1336        1335
        1331        1332        1337        1336
        1332        1333        1338        1337
        1333        1334        1339        1338
        1335        1336        1341        1340
        1336        1337        1342        1341
        1337        1338        1343        1342
        1338        1339        1344        1343
        1340        1341        1346        1345
        1341        1342        1347        1346
        1342        1343        1348        1347
        1343        1344        1349        1348
        1350        1351        1356        1355
        1351        1352        1357        1356
        1352        1353        1358        1357
        1353        1354        1359        1358
        1355        1356        1361        1360
        1356        1357        1362        1361
        1357        1358        1363        1362
        1358        1359        1364        1363
        1360        1361        1366        1365
        1361        1362        1367        1366
        1362        1363        1368        1367
        1363        1364        1369        1368
        1365        1366        1371        1370
        1366        1367        1372        1371
        1367        1368        1373        1372
        1368        1369        1374        1373
        1375        1376        1381        1380
        1376        1377        1382        1381
        1377        1378        1383        1382
        1378        1379        1384        1383
        1380        1381        1386        1385
        1381        1382        1387        1386
        1382        1383        1388        1387
        1383        1384        1389        1388
        1385        1386        1391        1390
        1386        1387        1392        1391
        1387        1388        1393        1392
        1388        1389        1394        1393
        1390        1391        1396        1395
        1391        1392        1397        1396
        1392        1393        1398        1397
        1393        1394        1399        1398
        1400        1401        1406        1405
        1401        1402        1407        1406
        1402        1403        1408        1407
        1403        1404        1409        1408
        1405        1406        1411        1410
        1406        1407        1412        1411
        1407        1408        1413        1412
        1408        1409        1414        1413
        1410        1411        1416        1415
        1411        1412        1417        1416
        1412        1413        1418        1417
        1413        1414        1419        1418
        1415        1416        1421        1420
        1416        1417        1422        1421
        1417        1418        1423        1422
        1418        1419        1424        1423
        1425        1426        1431        1430
        1426        1427        1432        1431
        1427        1428        1433        1432
        1428        1429        1434        1433
        1430        1431        1436        1435
        1431        1432        1437        1436
        1432        1433        1438        1437
        1433        1434        1439        1438
        1435        1436        1441        1440
        1436        1437        1442        1441
        1437        1438        1443        1442
        1438        1439        1444        1443
        1440        1441        1446        1445
        1441        1442        1447        1446
        1442        1443        1448        1447
        1443        1444        1449        1448
        1450        1451        1456        1455
        1451        1452        1457        1456
        1452        1453        1458        1457
        1453        1454        1459        1458
        1455        1456        1461        1460
        1456        1457        1462        1461
        1457        1458        1463        1462
        1458        1459        1464        1463
        1460        1461        1466        1465
        1461        1462        1467        1466
        1462        1463        1468        1467
        1463        1464        1469        1468
        1465        1466        1471        1470
        1466        1467        1472        1471
        1467        1468        1473        1472
        1468        1469        1474        1473
        1475        1476        1481        1480
        1476        1477        1482        1481
        1477        1478        1483        1482
        1478        1479        1484        1483
        1480        1481        1486        1485
        1481        1482        1487        1486
        1482        1483        1488        1487
        1483        1484        1489        1488
        1485        1486        1491        1490
        1486        1487        1492        1491
        1487        1488        1493        1492
        1488        1489        1494        1493
        1490        1491        1496        1495
        1491        1492        1497        1496
        1492        1493        1498        1497
        1493        1494        1499        1498
        1500        1501        1506        1505
        1501        1502        1507        1506
        1502        1503        1508        1507
        1503        1504        1509        1508
        1505        1506        1511        1510
        1506        1507        1512        1511
        1507        1508        1513        1512
        1508        1509        1514        1513
        1510        1511        1516        1515
        1511        1512        1517        1516
        1512        1513        1518        1517
        1513        1514        1519        1518
        1515        1516        1521        1520
        1516        1517        1522        1521
        1517        1518        1523        1522
        1518        1519        1524        1523
        1525        1526        1531        1530
        1526        1527        1532        1531
        1527        1528        1533        1532
        1528        1529        1534        1533
        1530        1531        1536        1535
        1531        1532        1537        1536
        1532        1533        1538        1537
        1533        1534        1539        1538
        1535        1536        1541        1540
        1536        1537        1542        1541
        1537        1538        1543        1542
        1538        1539        1544        1543
        1540        1541        1546        1545
        1541        1542        1547        1546
        1542        1543        1548        1547
        1543        1544        1549        1548
        1550        1551        1556        1555
        1551        1552        1557        1556
        1552        1553        1558        1557
        1553        1554        1559        1558
        1555        1556        1561        1560
        1556        1557        1562        1561
        1557        1558        1563        1562
        1558        1559        1564        1563
        1560        1561        1566        1565
        1561        1562        1567        1566
        1562        1563        1568        1567
        1563        1564        1569        1568
        1565        1566        1571        1570
        1566        1567        1572        1571
        1567        1568        1573        1572
        1568        1569        1574        1573
        1575        1576        1581        1580
        1576        1577        1582        1581
        1577        1578        1583        1582
        1578        1579        1584        1583
        1580        1581        1586        1585
        1581        1582        1587        1586
        1582        1583        1588        1587
        1583        1584        1589        1588
        1585        1586        1591        1590
        1586        1587        1592        1591
        1587        1588        1593        1592
        1588        1589        1594        1593
        1590        1591        1596        1595
        1591        1592        1597        1596
        1592        1593        1598        1597
        1593        1594        1599        1598
 </DataArray>
 <DataArray  type="Int32"  Name="offsets"  format="ascii"> 
           4
           8
          12
          16
          20
          24
          28
          32
          36
          40
          44
          48
          52
          56
          60
          64
          68
          72
          76
          80
          84
          88
          92
          96
         100
         104
         108
         112
         116
         120
         124
         128
         132
         136
         140
         144
         148
         152
         156
         160
         164
         168
         172
         176
         180
         184
         188
         192
         196
         200
         204
         208
         212
         216
         220
         224
         228
         232
         236
         240
         244
         248
         252
         256
         260
         264
         268
         272
         276
         280
         284
         288
         292
         296
         300
         304
         308
         312
         316
         320
         324
         328
         332
         336
         340
         344
         348
         352
         356
         360
         364
         368
         372
         376
         380
         384
         388
         392
         396
         400
         404
         408
         412
         416
         420
         424
         428
         432
         436
         440
         444
         448
         452
         456
         460
         464
         468
         472
         476
         480
         484
         488
         492
         496
         500
         504
         508
         512
         516
         520
         524
         528
         532
         536
         540
         544
         548
         552
         556
         560
         564
         568
         572
         576
         580
         584
         588
         592
         596
         600
         604
         608
         612
         616
         620
         624
         628
         632
         636
         640
         644
         648
         652
         656
         660
         664
         668
         672
         676
         680
         684
         688
         692
         696
         700
         704
         708
         712
         716
         720
         724
         728
         732
         736
         740
         744
         748
         752
         756
         760
         764
         768
         772
         776
         780
         784
         788
         792
         796
         800
         804
         808
         812
         816
         820
         824
         828
         832
         836
         840
         844
         848
         852
         856
         860
         864
         868
         872
         876
         880
         884
         888
         892
         896
         900
         904
         908
         912
         916
         920
         924
         928
         932
         936
         940
         944
         948
         952
         956
         960
         964
         968
         972
         976
         980
         984
         988
         992
         996
        1000
        1004
        1008
        1012
        1016
        1020
        1024
        1028
        1032
        1036
        1040
        1044
        1048
        1052
        1056
        1060
        1064
        1068
        1072
        1076
        1080
        1084
        1088
        1092
        1096
        1100
        1104
        1108
        1112
        1116
        1120
        1124
        1128
        1132
        1136
        1140
        1144
        1148
        1152
        1156
        1160
        1164
        1168
        1172
        1176
        1180
        1184
        1188
        1192
        1196
        1200
        1204
        1208
        1212
        1216
        1220
        1224
        1228
        1232
        1236
        1240
        1244
        1248
        1252
        1256
        1260
        1264
        1268
        1272
        1276
        1280
        1284
        1288
        1292
        1296
        1300
        1304
        1308
        1312
        1316
        1320
        1324
        1328
        1332
        1336
        1340
        1344
        1348
        1352
        1356
        1360
        1364
        1368
        1372
        1376
        1380
        1384
        1388
        1392
        1396
        1400
        1404
        1408
        1412
        1416
        1420
        1424
        1428
        1432
        1436
        1440
        1444
        1448
        1452
        1456
        1460
        1464
        1468
        1472
        1476
        1480
        1484
        1488
        1492
        1496
        1500
        1504
        1508
        1512
        1516
        1520
        1524
        1528
        1532
        1536
        1540
        1544
        1548
        1552
        1556
        1560
        1564
        1568
        1572
        1576
        1580
        1584
        1588
        1592
        1596
        1600
        1604
        1608
        1612
        1616
        1620
        1624
        1628
        1632
        1636
        1640
        1644
        1648
        1652
        1656
        1660
        1664
        1668
        1672
        1676
        1680
        1684
        1688
        1692
        1696
        1700
        1704
        1708
        1712
        1716
        1720
        1724
        1728
        1732
        1736
        1740
        1744
        1748
        1752
        1756
        1760
        1764
        1768
        1772
        1776
        1780
        1784
        1788
        1792
        1796
        1800
        1804
        1808
        1812
        1816
        1820
        1824
        1828
        1832
        1836
        1840
        1844
        1848
        1852
        1856
        1860
        1864
        1868
        1872
        1876
        1880
        1884
        1888
        1892
        1896
        1900
        1904
        1908
        1912
        1916
        1920
        1924
        1928
        1932
        1936
        1940
        1944
        1948
        1952
        1956
        1960
        1964
        1968
        1972
        1976
        1980
        1984
        1988
        1992
        1996
        2000
        2004
        2008
        2012
        2016
        2020
        2024
        2028
        2032
        2036
        2040
        2044
        2048
        2052
        2056
        2060
        2064
        2068
        2072
        2076
        2080
        2084
        2088
        2092
        2096
        2100
        2104
        2108
        2112
        2116
        2120
        2124
        2128
        2132
        2136
        2140
        2144
        2148
        2152
        2156
        2160
        2164
        2168
        2172
        2176
        2180
        2184
        2188
        2192
        2196
        2200
        2204
        2208
        2212
        2216
        2220
        2224
        2228
        2232
        2236
        2240
        2244
        2248
        2252
        2256
        2260
        2264
        2268
        2272
        2276
        2280
        2284
        2288
        2292
        2296
        2300
        2304
        2308
        2312
        2316
        2320
        2324
        2328
        2332
        2336
        2340
        2344
        2348
        2352
        2356
        2360
        2364
        2368
        2372
        2376
        2380
        2384
        2388
        2392
        2396
        2400
        2404
        2408
        2412
        2416
        2420
        2424
        2428
        2432
        2436
        2440
        2444
        2448
        2452
        2456
        2460
        2464
        2468
        2472
        2476
        2480
        2484
        2488
        2492
        2496
        2500
        2504
        2508
        2512
        2516
        2520
        2524
        2528
        2532
        2536
        2540
        2544
        2548
        2552
        2556
        2560
        2564
        2568
        2572
        2576
        2580
        2584
        2588
        2592
        2596
        2600
        2604
        2608
        2612
        2616
        2620
        2624
        2628
        2632
        2636
        2640
        2644
        2648
        2652
        2656
        2660
        2664
        2668
        2672
        2676
        2680
        2684
        2688
        2692
        2696
        2700
        2704
        2708
        2712
        2716
        2720
        2724
        2728
        2732
        2736
        2740
        2744
        2748
        2752
        2756
        2760
        2764
        2768
        2772
        2776
        2780
        2784
        2788
        2792
        2796
        2800
        2804
        2808
        2812
        2816
        2820
        2824
        2828
        2832
        2836
        2840
        2844
        2848
        2852
        2856
        2860
        2864
        2868
        2872
        2876
        2880
        2884
        2888
        2892
        2896
        2900
        2904
        2908
        2912
        2916
        2920
        2924
        2928
        2932
        2936
        2940
        2944
        2948
        2952
        2956
        2960
        2964
        2968
        2972
        2976
        2980
        2984
        2988
        2992
        2996
        3000
        3004
        3008
        3012
        3016
        3020
        3024
        3028
        3032
        3036
        3040
        3044
        3048
        3052
        3056
        3060
        3064
        3068
        3072
        3076
        3080
        3084
        3088
        3092
        3096
        3100
        3104
        3108
        3112
        3116
        3120
        3124
        3128
        3132
        3136
        3140
        3144
        3148
        3152
        3156
        3160
        3164
        3168
        3172
        3176
        3180
        3184
        3188
        3192
        3196
        3200
        3204
        3208
        3212
        3216
        3220
        3224
        3228
        3232
        3236
        3240
        3244
        3248
        3252
        3256
        3260
        3264
        3268
        3272
        3276
        3280
        3284
        3288
        3292
        3296
        3300
        3304
        3308
        3312
        3316
        3320
        3324
        3328
        3332
        3336
        3340
        3344
        3348
        3352
        3356
        3360
        3364
        3368
        3372
        3376
        3380
        3384
        3388
        3392
        3396
        3400
        3404
        3408
        3412
        3416
        3420
        3424
        3428
        3432
        3436
        3440
        3444
        3448
        3452
        3456
        3460
        3464
        3468
        3472
        3476
        3480
        3484
        3488
        3492
        3496
        3500
        3504
        3508
        3512
        3516
        3520
        3524
        3528
        3532
        3536
        3540
        3544
        3548
        3552
        3556
        3560
        3564
        3568
        3572
        3576
        3580
        3584
        3588
        3592
        3596
        3600
        3604
        3608
        3612
        3616
        3620
        3624
        3628
        3632
        3636
        3640
        3644
        3648
        3652
        3656
        3660
        3664
        3668
        3672
        3676
        3680
        3684
        3688
        3692
        3696
        3700
        3704
        3708
        3712
        3716
        3720
        3724
        3728
        3732
        3736
        3740
        3744
        3748
        3752
        3756
        3760
        3764
        3768
        3772
        3776
        3780
        3784
        3788
        3792
        3796
        3800
        3804
        3808
        3812
        3816
        3820
        3824
        3828
        3832
        3836
        3840
        3844
        3848
        3852
        3856
        3860
        3864
        3868
        3872
        3876
        3880
        3884
        3888
        3892
        3896
        3900
        3904
        3908
        3912
        3916
        3920
        3924
        3928
        3932
        3936
        3940
        3944
        3948
        3952
        3956
        3960
        3964
        3968
        3972
        3976
        3980
        3984
        3988
        3992
        3996
        4000
        4004
        4008
        4012
        4016
        4020
        4024
        4028
        4032
        4036
        4040
        4044
        4048
        4052
        4056
        4060
        4064
        4068
        4072
        4076
        4080
        4084
        4088
        4092
        4096
 </DataArray>
 <DataArray  type="UInt8"  Name="types"  format="ascii">
 9
 9
 9
 9
 9
 9
 9
 9
 9
 9
 9
 9
 9
 9
 9
 9
 9
 9
 9
 9
 9
 9
 9
 9
 9
 9
 9
 9
 9
 9
 9
 9
 9
 9
 9
 9
 9
 9
 9
 9
 9
 9
 9
 9
 9
 9
 9
 9
 9
 9
 9
 9
 9
 9
 9
 9
 9
 9
 9
 9
 9
 9
 9
 9
 9
 9
 9
 9
 9
 9
 9
 9
 9
 9
 9
 9
 9
 9
 9
 9
 9
 9
 9
 9
 9
 9
 9
 9
 9
 9
 9
 9
 9
 9
 9
 9
 9
 9
 9
 9
 9
 9
 9
 9
 9
 9
 9
 9
 9
 9
 9
 9
 9
 9
 9
 9
 9
 9
 9
 9
 9
 9
 9
 9
 9
 9
 9
 9
 9
 9
 9
 9
 9
 9
 9
 9
 9
 9
 9
 9
 9
 9
 9
 9
 9
 9
 9
 9
 9
 9
 9
 9
 9
 9
 9
 9
 9
 9
 9
 9
 9
 9
 9
 9
 9
 9
 9
 9
 9
 9
 9
 9
 9
 9
 9
 9
 9
 9
 9
 9
 9
 9
 9
 9
 9
 9
 9
 9
 9
 9
 9
 9
 9
 9
 9
 9
 9
 9
 9
 9
 9
 9
 9
 9
 9
 9
 9
 9
 9
 9
 9
 9
 9
 9
 9
 9
 9
 9
 9
 9
 9
 9
 9
 9
 9
 9
 9
 9
 9
 9
 9
 9
 9
 9
 9
 9
 9
 9
 9
 9
 9
 9
 9
 9
 9
 9
 9
 9
 9
 9
 9
 9
 9
 9
 9
 9
 9
 9
 9
 9
 9
 9
 9
 9
 9
 9
 9
 9
 9
 9
 9
 9
 9
 9
 9
 9
 9
 9
 9
 9
 9
 9
 9
 9
 9
 9
 9
 9
 9
 9
 9
 9
 9
 9
 9
 9
 9
 9
 9
 9
 9
 9
 9
 9
 9
 9
 9
 9
 9
 9
 9
 9
 9
 9
 9
 9
 9
 9
 9
 9
 9
 9
 9
 9
 9
 9
 9
 9
 9
 9
 9
 9
 9
 9
 9
 9
 9
 9
 9
 9
 9
 9
 9
 9
 9
 9
 9
 9
 9
 9
 9
 9
 9
 9
 9
 9
 9
 9
 9
 9
 9
 9
 9
 9
 9
 9
 9
 9
 9
 9
 9
 9
 9
 9
 9
 9
 9
 9
 9
 9
 9
 9
 9
 9
 9
 9
 9
 9
 9
 9
 9
 9
 9
 9
 9
 9
 9
 9
 9
 9
 9
 9
 9
 9
 9
 9
 9
 9
 9
 9
 9
 9
 9
 9
 9
 9
 9
 9
 9
 9
 9
 9
 9
 9
 9
 9
 9
 9
 9
 9
 9
 9
 9
 9
 9
 9
 9
 9
 9
 9
 9
 9
 9
 9
 9
 9
 9
 9
 9
 9
 9
 9
 9
 9
 9
 9
 9
 9
 9
 9
 9
 9
 9
 9
 9
 9
 9
 9
 9
 9
 9
 9
 9
 9
 9
 9
 9
 9
 9
 9
 9
 9
 9
 9
 9
 9
 9
 9
 9
 9
 9
 9
 9
 9
 9
 9
 9
 9
 9
 9
 9
 9
 9
 9
 9
 9
 9
 9
 9
 9
 9
 9
 9
 9
 9
 9
 9
 9
 9
 9
 9
 9
 9
 9
 9
 9
 9
 9
 9
 9
 9
 9
 9
 9
 9
 9
 9
 9
 9
 9
 9
 9
 9
 9
 9
 9
 9
 9
 9
 9
 9
 9
 9
 9
 9
 9
 9
 9
 9
 9
 9
 9
 9
 9
 9
 9
 9
 9
 9
 9
 9
 9
 9
 9
 9
 9
 9
 9
 9
 9
 9
 9
 9
 9
 9
 9
 9
 9
 9
 9
 9
 9
 9
 9
 9
 9
 9
 9
 9
 9
 9
 9
 9
 9
 9
 9
 9
 9
 9
 9
 9
 9
 9
 9
 9
 9
 9
 9
 9
 9
 9
 9
 9
 9
 9
 9
 9
 9
 9
 9
 9
 9
 9
 9
 9
 9
 9
 9
 9
 9
 9
 9
 9
 9
 9
 9
 9
 9
 9
 9
 9
 9
 9
 9
 9
 9
 9
 9
 9
 9
 9
 9
 9
 9
 9
 9
 9
 9
 9
 9
 9
 9
 9
 9
 9
 9
 9
 9
 9
 9
 9
 9
 9
 9
 9
 9
 9
 9
 9
 9
 9
 9
 9
 9
 9
 9
 9
 9
 9
 9
 9
 9
 9
 9
 9
 9
 9
 9
 9
 9
 9
 9
 9
 9
 9
 9
 9
 9
 9
 9
 9
 9
 9
 9
 9
 9
 9
 9
 9
 9
 9
 9
 9
 9
 9
 9
 9
 9
 9
 9
 9
 9
 9
 9
 9
 9
 9
 9
 9
 9
 9
 9
 9
 9
 9
 9
 9
 9
 9
 9
 9
 9
 9
 9
 9
 9
 9
 9
 9
 9
 9
 9
 9
 9
 9
 9
 9
 9
 9
 9
 9
 9
 9
 9
 9
 9
 9
 9
 9
 9
 9
 9
 9
 9
 9
 9
 9
 9
 9
 9
 9
 9
 9
 9
 9
 9
 9
 9
 9
 9
 9
 9
 9
 9
 9
 9
 9
 9
 9
 9
 9
 9
 9
 9
 9
 9
 9
 9
 9
 9
 9
 9
 9
 9
 9
 9
 9
 9
 9
 9
 9
 9
 9
 9
 9
 9
 9
 9
 9
 9
 9
 9
 9
 9
 9
 9
 9
 9
 9
 9
 9
 9
 9
 9
 9
 9
 9
 9
 9
 9
 9
 9
 9
 9
 9
 9
 9
 9
 9
 9
 9
 9
 9
 9
 9
 9
 9
 9
 9
 9
 9
 9
 9
 9
 9
 9
 9
 9
 9
 9
 9
 9
 9
 9
 9
 9
 9
 9
 9
 9
 9
 9
 9
 9
 9
 9
 9
 9
 9
 9
 9
 9
 9
 9
 9
 9
 9
 9
 9
 9
 9
 9
 9
 9
 9
 9
 9
 9
 9
 9
 9
 9
 9
 9
 9
 9
 9
 9
 9
 9
 9
 9
 9
 9
 9
 9
 9
 9
 9
 9
 9
 9
 9
 9
 9
 9
 9
 9
 9
 9
 9
 9
 9
 9
 9
 9
 9
 9
 9
 9
 9
 9
 9
 9
 9
 9
 9
 9
 9
 9
 9
 9
 9
 9
 9
 9
 9
 9
 9
 9
 9
 9
 9
 9
 9
 9
 9
 9
 9
 9
 9
 9
 9
 9
 9
 9
 9
 9
 9
 9
 9
 9
 9
 9
 </DataArray>
 </Cells> 
 <PointData>
 <DataArray  type="Float64" Name="disp" NumberOfComponents="3" format="ascii">
   0.0000000000000000        0.0000000000000000        0.0000000000000000     
   6.0957697918418829E-003   3.7902484572919651E-003   0.0000000000000000     
   1.1665685809108432E-002   7.3236312727995179E-003   0.0000000000000000     
   1.6709748051799651E-002   1.0600148446522659E-002   0.0000000000000000     
   2.1227956519915537E-002   1.3619799978461387E-002   0.0000000000000000     
   0.0000000000000000        0.0000000000000000        0.0000000000000000     
   4.8910286323371605E-003   3.0220985684018386E-003   0.0000000000000000     
   9.5734005650306743E-003   6.0604879312300781E-003   0.0000000000000000     
   1.4047115798080536E-002   9.1151680884847177E-003   0.0000000000000000     
   1.8312174331486748E-002   1.2186139040165758E-002   0.0000000000000000     
   0.0000000000000000        0.0000000000000000        0.0000000000000000     
   3.9534985150784362E-003   2.4251571660879713E-003   0.0000000000000000     
   7.9104589545282815E-003   5.0629587730188471E-003   0.0000000000000000     
   1.1870881318349541E-002   7.9134048207926272E-003   0.0000000000000000     
   1.5834765606542206E-002   1.0976495309409313E-002   0.0000000000000000     
   0.0000000000000000        0.0000000000000000        0.0000000000000000     
   3.2831794400657059E-003   1.9994242503503633E-003   0.0000000000000000     
   6.6768609776012566E-003   4.3310437981658257E-003   0.0000000000000000     
   1.0181044612606655E-002   6.9948586434463878E-003   0.0000000000000000     
   1.3795730345081900E-002   9.9908687861920489E-003   0.0000000000000000     
   0.0000000000000000        0.0000000000000000        0.0000000000000000     
   2.8800714072989707E-003   1.7448998211890149E-003   0.0000000000000000     
   5.8726066342496006E-003   3.8647430066710148E-003   0.0000000000000000     
   8.9776056808518884E-003   6.3595295564459996E-003   0.0000000000000000     
   1.2195068547105838E-002   9.2292594705139681E-003   0.0000000000000000     
   2.1227956519915537E-002   1.3619799978461387E-002   0.0000000000000000     
   2.5433044763023261E-002   1.6612961866325267E-002   0.0000000000000000     
   2.9537746330689986E-002   1.9810010107823867E-002   0.0000000000000000     
   3.3542061222915726E-002   2.3210944702957179E-002   0.0000000000000000     
   3.7445989439700463E-002   2.6815765651725210E-002   0.0000000000000000     
   1.8312174331486748E-002   1.2186139040165758E-002   0.0000000000000000     
   2.2406757082305672E-002   1.5341665697916198E-002   0.0000000000000000     
   2.6369044967593670E-002   1.8650012973379034E-002   0.0000000000000000     
   3.0199037987350720E-002   2.2111180866554263E-002   0.0000000000000000     
   3.3896736141576851E-002   2.5725169377441893E-002   0.0000000000000000     
   1.5834765606542206E-002   1.0976495309409313E-002   0.0000000000000000     
   1.9730374745492770E-002   1.4211043842502328E-002   0.0000000000000000     
   2.3485971661587720E-002   1.7575864023705097E-002   0.0000000000000000     
   2.7101556354827066E-002   2.1070955853017614E-002   0.0000000000000000     
   3.0577128825210791E-002   2.4696319330439889E-002   0.0000000000000000     
   1.3795730345081900E-002   9.9908687861920489E-003   0.0000000000000000     
   1.7403897752584552E-002   1.3221096300083654E-002   0.0000000000000000     
   2.0888526412672161E-002   1.6587563258802052E-002   0.0000000000000000     
   2.4249616325344732E-002   2.0090269662347233E-002   0.0000000000000000     
   2.7487167490602267E-002   2.3729215510719208E-002   0.0000000000000000     
   1.2195068547105838E-002   9.2292594705139681E-003   0.0000000000000000     
   1.5427326103581013E-002   1.2371823070660180E-002   0.0000000000000000     
   1.8576709220846976E-002   1.5685110678669897E-002   0.0000000000000000     
   2.1643217898903735E-002   1.9169122294543116E-002   0.0000000000000000     
   2.4626852137751291E-002   2.2823857918279844E-002   0.0000000000000000     
   3.7445989439700463E-002   2.6815765651725210E-002   0.0000000000000000     
   4.1254221846737146E-002   3.0620168068375236E-002   0.0000000000000000     
   4.4971449309718713E-002   3.4619847067154527E-002   0.0000000000000000     
   4.8597671828645175E-002   3.8814802648063092E-002   0.0000000000000000     
   5.2132889403516507E-002   4.3205034811100926E-002   0.0000000000000000     
   3.3896736141576851E-002   2.5725169377441893E-002   0.0000000000000000     
   3.7485331573262004E-002   2.9520875640666792E-002   0.0000000000000000     
   4.0988016425396144E-002   3.3527196790853850E-002   0.0000000000000000     
   4.4404790697979257E-002   3.7744132828003062E-002   0.0000000000000000     
   4.7735654391011351E-002   4.2171683752114428E-002   0.0000000000000000     
   3.0577128825210791E-002   2.4696319330439889E-002   0.0000000000000000     
   3.3941929586268467E-002   2.8496445339601509E-002   0.0000000000000000     
   3.7225199151529664E-002   3.2515824764132062E-002   0.0000000000000000     
   4.0426937520994362E-002   3.6754457604031530E-002   0.0000000000000000     
   4.3547144694662594E-002   4.1212343859299928E-002   0.0000000000000000     
   2.7487167490602267E-002   2.3729215510719208E-002   0.0000000000000000     
   3.0624015885756521E-002   2.7546877165179371E-002   0.0000000000000000     
   3.3682997488119273E-002   3.1585730986989143E-002   0.0000000000000000     
   3.6664112297690524E-002   3.5845776976148498E-002   0.0000000000000000     
   3.9567360314470251E-002   4.0327015132657455E-002   0.0000000000000000     
   2.4626852137751291E-002   2.2823857918279844E-002   0.0000000000000000     
   2.7531590471726188E-002   2.6672171117400393E-002   0.0000000000000000     
   3.0361411435164992E-002   3.0736915459425102E-002   0.0000000000000000     
   3.3116315028067694E-002   3.5018090944353958E-002   0.0000000000000000     
   3.5796301250434308E-002   3.9515697572186981E-002   0.0000000000000000     
   5.2132889403516507E-002   4.3205034811100926E-002   0.0000000000000000     
   5.5574143959244357E-002   4.7794714204560614E-002   0.0000000000000000     
   5.8918477420740342E-002   5.2588011476734753E-002   0.0000000000000000     
   6.2165889788004476E-002   5.7584926627623330E-002   0.0000000000000000     
   6.5316381061036752E-002   6.2785459657226345E-002   0.0000000000000000     
   4.7735654391011351E-002   4.2171683752114428E-002   0.0000000000000000     
   5.0976726187158643E-002   4.6803785885613694E-002   0.0000000000000000     
   5.4124124769087359E-002   5.1634375550926620E-002   0.0000000000000000     
   5.7177850136797492E-002   5.6663452748053199E-002   0.0000000000000000     
   6.0137902290289050E-002   6.1891017476993430E-002   0.0000000000000000     
   4.3547144694662594E-002   4.1212343859299928E-002   0.0000000000000000     
   4.6582145106534995E-002   4.5877679542837016E-002   0.0000000000000000     
   4.9528263190612189E-002   5.0738660667542533E-002   0.0000000000000000     
   5.2385498946894204E-002   5.5795287233416466E-002   0.0000000000000000     
   5.5153852375381021E-002   6.1047559240458828E-002   0.0000000000000000     
   3.9567360314470251E-002   4.0327015132657455E-002   0.0000000000000000     
   4.2390400717373392E-002   4.5016395176230593E-002   0.0000000000000000     
   4.5130892685314838E-002   4.9900866826582485E-002   0.0000000000000000     
   4.7788836218294592E-002   5.4980430083713144E-002   0.0000000000000000     
   5.0364231316312673E-002   6.0255084947622557E-002   0.0000000000000000     
   3.5796301250434308E-002   3.9515697572186981E-002   0.0000000000000000     
   3.8401493019673827E-002   4.4219932785794398E-002   0.0000000000000000     
   4.0932013253195287E-002   4.9120994028046483E-002   0.0000000000000000     
   4.3387861950998668E-002   5.4218881298943221E-002   0.0000000000000000     
   4.5769039113083998E-002   5.9513594598484626E-002   0.0000000000000000     
   6.5316381061036752E-002   6.2785459657226345E-002   0.0000000000000000     
   6.8373016202469522E-002   6.8177484949329709E-002   0.0000000000000000     
   7.1338860174935140E-002   7.3748876887719333E-002   0.0000000000000000     
   7.4213912978433619E-002   7.9499635472395205E-002   0.0000000000000000     
   7.6998174612964959E-002   8.5429760703357324E-002   0.0000000000000000     
   6.0137902290289050E-002   6.1891017476993430E-002   0.0000000000000000     
   6.3008314481764582E-002   6.7308274858437392E-002   0.0000000000000000     
   6.5793119963426641E-002   7.2906430013075174E-002   0.0000000000000000     
   6.8492318735275240E-002   7.8685482940906798E-002   0.0000000000000000     
   7.1105910797310379E-002   8.4645433641932236E-002   0.0000000000000000     
   5.5153852375381021E-002   6.1047559240458828E-002   0.0000000000000000     
   5.7837454754930295E-002   6.6488674088784921E-002   0.0000000000000000     
   6.0440437364399698E-002   7.2111829178510042E-002   0.0000000000000000     
   6.2962800203789179E-002   7.7917024509634156E-002   0.0000000000000000     
   6.5404543273098789E-002   8.3904260082157317E-002   0.0000000000000000     
   5.0364231316312673E-002   6.0255084947622557E-002   0.0000000000000000     
   5.2860437021966689E-002   6.5718682640372283E-002   0.0000000000000000     
   5.5280812377854281E-002   7.1365074384023855E-002   0.0000000000000000     
   5.7625357383975444E-002   7.7194260178577279E-002   0.0000000000000000     
   5.9894072040330190E-002   8.3206240024032527E-002   0.0000000000000000     
   4.5769039113083998E-002   5.9513594598484626E-002   0.0000000000000000     
   4.8077261282873741E-002   6.4998300513199506E-002   0.0000000000000000     
   5.0314245003790420E-002   7.0666165629616681E-002   0.0000000000000000     
   5.2479990275834033E-002   7.6517189947736153E-002   0.0000000000000000     
   5.4574497099004582E-002   8.2551373467557920E-002   0.0000000000000000     
   7.6998174612964959E-002   8.5429760703357324E-002   0.0000000000000000     
   7.9681874807948042E-002   9.1525687033148659E-002   0.0000000000000000     
   8.2255243292801733E-002   9.7773848914312192E-002   0.0000000000000000     
   8.4718280067526075E-002  0.10417424634684792        0.0000000000000000     
   8.7070985132121054E-002  0.11072687933075584        0.0000000000000000     
   7.1105910797310379E-002   8.4645433641932236E-002   0.0000000000000000     
   7.3624407580251988E-002   9.0771432522949558E-002   0.0000000000000000     
   7.6038320514820026E-002   9.7048629990756863E-002   0.0000000000000000     
   7.8347649601014480E-002  0.10347702604535410        0.0000000000000000     
   8.0552394838835334E-002  0.11005662068674131        0.0000000000000000     
   6.5404543273098789E-002   8.3904260082157317E-002   0.0000000000000000     
   6.7756841801553225E-002   9.0057624097856753E-002   0.0000000000000000     
   7.0010871018377260E-002   9.6361204758509789E-002   0.0000000000000000     
   7.2166630923570854E-002  0.10281500206411640        0.0000000000000000     
   7.4224121517134006E-002  0.10941901601467660        0.0000000000000000     
   5.9894072040330190E-002   8.3206240024032527E-002   0.0000000000000000     
   6.2079177471851772E-002   8.9384261757870231E-002   0.0000000000000000     
   6.4172894803473435E-002   9.5711573217570997E-002   0.0000000000000000     
   6.6175224035195226E-002  0.10218817440313484        0.0000000000000000     
   6.8086165167017099E-002  0.10881406531456168        0.0000000000000000     
   5.4574497099004582E-002   8.2551373467557920E-002   0.0000000000000000     
   5.6591414591147589E-002   8.8751345502990020E-002   0.0000000000000000     
   5.8524391870108584E-002   9.5099735367940502E-002   0.0000000000000000     
   6.0373428935887583E-002  0.10159654306240939        0.0000000000000000     
   6.2138525788484569E-002  0.10824176858639663        0.0000000000000000     
   8.7070985132121054E-002  0.11072687933075584        0.0000000000000000     
   8.9335273470297877E-002  0.11743034172151398        0.0000000000000000     
   9.1533060065767780E-002  0.12428322737460043        0.0000000000000000     
   9.3664344918530790E-002  0.13128553629001519        0.0000000000000000     
   9.5729128028586852E-002  0.13843726846775822        0.0000000000000000     
   8.0552394838835334E-002  0.11005662068674131        0.0000000000000000     
   8.2674240581323125E-002  0.11678761778960772        0.0000000000000000     
   8.4734871181518359E-002  0.12367022122864266        0.0000000000000000     
   8.6734286639421010E-002  0.13070443100384610        0.0000000000000000     
   8.8672486955031132E-002  0.13789024711521802        0.0000000000000000     
   7.4224121517134006E-002  0.10941901601467660        0.0000000000000000     
   7.6204127755864839E-002  0.11617444108324822        0.0000000000000000     
   7.8127434596561407E-002  0.12308247174288917        0.0000000000000000     
   7.9994042039223695E-002  0.13014310799359943        0.0000000000000000     
   8.1803950083851718E-002  0.13735634983537900        0.0000000000000000     
   6.8086165167017099E-002  0.10881406531456168        0.0000000000000000     
   6.9924934993923007E-002  0.11559081160243546        0.0000000000000000     
   7.1710750310896923E-002  0.12251997891733996        0.0000000000000000     
   7.3443611117938790E-002  0.12960156725927519        0.0000000000000000     
   7.5123517415048663E-002  0.13683557662824114        0.0000000000000000     
   6.2138525788484569E-002  0.10824176858639663        0.0000000000000000     
   6.3836662295497643E-002  0.11503672934716944        0.0000000000000000     
   6.5484818324524907E-002  0.12198274275199501        0.0000000000000000     
   6.7082993875566321E-002  0.12907980880087336        0.0000000000000000     
   6.8631188948621941E-002  0.13632792749380448        0.0000000000000000     
   9.5729128028586852E-002  0.13843726846775822        0.0000000000000000     
   9.7700485937974924E-002  0.14569700138922520        0.0000000000000000     
   9.9551495188733935E-002  0.15302331253581172        0.0000000000000000     
  0.10128215578086390       0.16041620190751779        0.0000000000000000     
  0.10289246771436476       0.16787566950434343        0.0000000000000000     
   8.8672486955031132E-002  0.13789024711521802        0.0000000000000000     
   9.0520886348302618E-002  0.14519756786423463        0.0000000000000000     
   9.2250899039189455E-002  0.15259629155237200        0.0000000000000000     
   9.3862525027691657E-002  0.16008641817963024        0.0000000000000000     
   9.5355764313809210E-002  0.16766794774600929        0.0000000000000000     
   8.1803950083851718E-002  0.13735634983537900        0.0000000000000000     
   8.3528619279754149E-002  0.14469784315780521        0.0000000000000000     
   8.5139510176239636E-002  0.15214323385045550        0.0000000000000000     
   8.6636622773308178E-002  0.15969252191332975        0.0000000000000000     
   8.8019957070959789E-002  0.16734570734642806        0.0000000000000000     
   7.5123517415048663E-002  0.13683557662824114        0.0000000000000000     
   7.6723684732329558E-002  0.14419782726993705        0.0000000000000000     
   7.8217328599884506E-002  0.15166413943006216        0.0000000000000000     
   7.9604449017713477E-002  0.15923451310861639        0.0000000000000000     
   8.0885045985816528E-002  0.16690894830559977        0.0000000000000000     
   6.8631188948621941E-002  0.13632792749380448        0.0000000000000000     
   7.0106082706028805E-002  0.14369752020063009        0.0000000000000000     
   7.1484354310124010E-002  0.15115900829119194        0.0000000000000000     
   7.2766003760907541E-002  0.15871239176549007        0.0000000000000000     
   7.3951031058379399E-002  0.16635767062352441        0.0000000000000000     
   0.0000000000000000        0.0000000000000000        0.0000000000000000     
   2.8800714072989707E-003   1.7448998211890149E-003   0.0000000000000000     
   5.8726066342496006E-003   3.8647430066710148E-003   0.0000000000000000     
   8.9776056808518884E-003   6.3595295564459996E-003   0.0000000000000000     
   1.2195068547105838E-002   9.2292594705139681E-003   0.0000000000000000     
   0.0000000000000000        0.0000000000000000        0.0000000000000000     
   2.6103368541832129E-003   1.5889567995774569E-003   0.0000000000000000     
   5.2897198568035066E-003   3.5567770296251380E-003   0.0000000000000000     
   8.0381490078608852E-003   5.9034606901430435E-003   0.0000000000000000     
   1.0855624307355342E-002   8.6290077811311712E-003   0.0000000000000000     
   0.0000000000000000        0.0000000000000000        0.0000000000000000     
   2.3401382181234146E-003   1.4589681064892204E-003   0.0000000000000000     
   4.7202245775931750E-003   3.2998664981189214E-003   0.0000000000000000     
   7.1402590784092820E-003   5.5226951748891034E-003   0.0000000000000000     
   9.6002417205717366E-003   8.1274541367997669E-003   0.0000000000000000     
   0.0000000000000000        0.0000000000000000        0.0000000000000000     
   2.0694754991195745E-003   1.3549337419243052E-003   0.0000000000000000     
   4.1641207966186030E-003   3.0940114121523654E-003   0.0000000000000000     
   6.2839358924970850E-003   5.2172330106841800E-003   0.0000000000000000     
   8.4289207867550200E-003   7.7245985375197493E-003   0.0000000000000000     
   0.0000000000000000        0.0000000000000000        0.0000000000000000     
   1.7983486971716934E-003   1.2768537058827113E-003   0.0000000000000000     
   3.6214085138797912E-003   2.9392117717254689E-003   0.0000000000000000     
   5.4691794501242931E-003   4.9870741975282734E-003   0.0000000000000000     
   7.3416615059051990E-003   7.4204409832911234E-003   0.0000000000000000     
   1.2195068547105838E-002   9.2292594705139681E-003   0.0000000000000000     
   1.5427326103581013E-002   1.2371823070660180E-002   0.0000000000000000     
   1.8576709220846976E-002   1.5685110678669897E-002   0.0000000000000000     
   2.1643217898903735E-002   1.9169122294543116E-002   0.0000000000000000     
   2.4626852137751291E-002   2.2823857918279844E-002   0.0000000000000000     
   1.0855624307355342E-002   8.6290077811311712E-003   0.0000000000000000     
   1.3688851323343076E-002   1.1651058969690514E-002   0.0000000000000000     
   1.6484535623880279E-002   1.4887254922922052E-002   0.0000000000000000     
   1.9242677208966958E-002   1.8337595640825790E-002   0.0000000000000000     
   2.1963276078603100E-002   2.2002081123401723E-002   0.0000000000000000     
   9.6002417205717366E-003   8.1274541367997669E-003   0.0000000000000000     
   1.2076664936731657E-002   1.1046638812633259E-002   0.0000000000000000     
   1.4546021159540167E-002   1.4212744631171923E-002   0.0000000000000000     
   1.7008310388997267E-002   1.7625771592415768E-002   0.0000000000000000     
   1.9463532625102958E-002   2.1285719696364780E-002   0.0000000000000000     
   8.4289207867550200E-003   7.7245985375197493E-003   0.0000000000000000     
   1.0590766943746761E-002   1.0558562599488416E-002   0.0000000000000000     
   1.2761165827826640E-002   1.3661579803419517E-002   0.0000000000000000     
   1.4940117438994671E-002   1.7033650149313042E-002   0.0000000000000000     
   1.7127621777250846E-002   2.0674773637169016E-002   0.0000000000000000     
   7.3416615059051990E-003   7.4204409832911234E-003   0.0000000000000000     
   9.2311573443883792E-003   1.0186830330255983E-002   0.0000000000000000     
   1.1129969628739703E-002   1.3233760439664823E-002   0.0000000000000000     
   1.3038098358959171E-002   1.6561231311517634E-002   0.0000000000000000     
   1.4955543535046781E-002   2.0169242945814431E-002   0.0000000000000000     
   2.4626852137751291E-002   2.2823857918279844E-002   0.0000000000000000     
   2.7531590471726188E-002   2.6672171117400393E-002   0.0000000000000000     
   3.0361411435164992E-002   3.0736915459425102E-002   0.0000000000000000     
   3.3116315028067694E-002   3.5018090944353958E-002   0.0000000000000000     
   3.5796301250434308E-002   3.9515697572186981E-002   0.0000000000000000     
   2.1963276078603100E-002   2.2002081123401723E-002   0.0000000000000000     
   2.4629670314123872E-002   2.5879046630984507E-002   0.0000000000000000     
   2.7225197996864420E-002   2.9966827423908791E-002   0.0000000000000000     
   2.9749859126824752E-002   3.4265423502174562E-002   0.0000000000000000     
   3.2203653704004853E-002   3.8774834865781836E-002   0.0000000000000000     
   1.9463532625102958E-002   2.1285719696364780E-002   0.0000000000000000     
   2.1883272382896009E-002   2.5174223140651646E-002   0.0000000000000000     
   2.4239114177415200E-002   2.9272916122909037E-002   0.0000000000000000     
   2.6531058008660534E-002   3.3581798643136936E-002   0.0000000000000000     
   2.8759103876632004E-002   3.8100870701335353E-002   0.0000000000000000     
   1.7127621777250846E-002   2.0674773637169016E-002   0.0000000000000000     
   1.9292396678042591E-002   2.4557700646401812E-002   0.0000000000000000     
   2.1403159976817319E-002   2.8655181556425838E-002   0.0000000000000000     
   2.3459911673575039E-002   3.2967216367241085E-002   0.0000000000000000     
   2.5462651768315740E-002   3.7493805078847552E-002   0.0000000000000000     
   1.4955543535046781E-002   2.0169242945814431E-002   0.0000000000000000     
   1.6857043199563621E-002   2.4029479148235007E-002   0.0000000000000000     
   1.8717335395070783E-002   2.8113623724459198E-002   0.0000000000000000     
   2.0536420121568266E-002   3.2421676674486997E-002   0.0000000000000000     
   2.2314297379056075E-002   3.6953637998318405E-002   0.0000000000000000     
   3.5796301250434308E-002   3.9515697572186981E-002   0.0000000000000000     
   3.8401493019673827E-002   4.4219932785794398E-002   0.0000000000000000     
   4.0932013253195287E-002   4.9120994028046483E-002   0.0000000000000000     
   4.3387861950998668E-002   5.4218881298943221E-002   0.0000000000000000     
   4.5769039113083998E-002   5.9513594598484626E-002   0.0000000000000000     
   3.2203653704004853E-002   3.8774834865781836E-002   0.0000000000000000     
   3.4588785879429061E-002   4.3489389763346091E-002   0.0000000000000000     
   3.6907459804121648E-002   4.8403416443482804E-002   0.0000000000000000     
   3.9159675478082641E-002   5.3516914906191967E-002   0.0000000000000000     
   4.1345432901312047E-002   5.8829885151473582E-002   0.0000000000000000     
   2.8759103876632004E-002   3.8100870701335353E-002   0.0000000000000000     
   3.0925643162631775E-002   4.2825863500703297E-002   0.0000000000000000     
   3.3033067247962018E-002   4.7752508244439704E-002   0.0000000000000000     
   3.5081376132622723E-002   5.2880804932544628E-002   0.0000000000000000     
   3.7070569816613899E-002   5.8210753565018002E-002   0.0000000000000000     
   2.5462651768315740E-002   3.7493805078847552E-002   0.0000000000000000     
   2.7412064869282004E-002   4.2229353997866002E-002   0.0000000000000000     
   2.9308835584716388E-002   4.7168269430917231E-002   0.0000000000000000     
   3.1152963914618900E-002   5.2310551378001190E-002   0.0000000000000000     
   3.2944449858989540E-002   5.7656199839117905E-002   0.0000000000000000     
   2.2314297379056075E-002   3.6953637998318405E-002   0.0000000000000000     
   2.4048050999379726E-002   4.1699861254834242E-002   0.0000000000000000     
   2.5734764814384761E-002   4.6650700002915331E-002   0.0000000000000000     
   2.7374438824071177E-002   5.1806154242561679E-002   0.0000000000000000     
   2.8967073028438976E-002   5.7166223973773279E-002   0.0000000000000000     
   4.5769039113083998E-002   5.9513594598484626E-002   0.0000000000000000     
   4.8077261282873741E-002   6.4998300513199506E-002   0.0000000000000000     
   5.0314245003790420E-002   7.0666165629616681E-002   0.0000000000000000     
   5.2479990275834033E-002   7.6517189947736153E-002   0.0000000000000000     
   5.4574497099004582E-002   8.2551373467557920E-002   0.0000000000000000     
   4.1345432901312047E-002   5.8829885151473582E-002   0.0000000000000000     
   4.3464746302750233E-002   6.4334274170187930E-002   0.0000000000000000     
   4.5517629911337586E-002   7.0022028953195259E-002   0.0000000000000000     
   4.7504083727074119E-002   7.5893149500495583E-002   0.0000000000000000     
   4.9424107749959811E-002   8.1947635812088887E-002   0.0000000000000000     
   3.7070569816613899E-002   5.8210753565018002E-002   0.0000000000000000     
   3.8999710846694936E-002   6.3733350074258913E-002   0.0000000000000000     
   4.0867861769625258E-002   6.9439590392666353E-002   0.0000000000000000     
   4.2675022585404850E-002   7.5329474520240344E-002   0.0000000000000000     
   4.4421193294033726E-002   8.1403002456980858E-002   0.0000000000000000     
   3.2944449858989540E-002   5.7656199839117905E-002   0.0000000000000000     
   3.4682154914707865E-002   6.3195528225412495E-002   0.0000000000000000     
   3.6364940578653443E-002   6.8918849948029992E-002   0.0000000000000000     
   3.7992806850826268E-002   7.4826165006970466E-002   0.0000000000000000     
   3.9565753731226339E-002   8.0917473402233875E-002   0.0000000000000000     
   2.8967073028438976E-002   5.7166223973773279E-002   0.0000000000000000     
   3.0512078506789008E-002   6.2720808623648608E-002   0.0000000000000000     
   3.2008866338422128E-002   6.8459807619286162E-002   0.0000000000000000     
   3.3457436523338338E-002   7.4383220960685906E-002   0.0000000000000000     
   3.4857789061537636E-002   8.0491048647847868E-002   0.0000000000000000     
   5.4574497099004582E-002   8.2551373467557920E-002   0.0000000000000000     
   5.6591414591147589E-002   8.8751345502990020E-002   0.0000000000000000     
   5.8524391870108584E-002   9.5099735367940502E-002   0.0000000000000000     
   6.0373428935887583E-002  0.10159654306240939        0.0000000000000000     
   6.2138525788484569E-002  0.10824176858639663        0.0000000000000000     
   4.9424107749959811E-002   8.1947635812088887E-002   0.0000000000000000     
   5.1272686638527472E-002   8.8167662307468503E-002   0.0000000000000000     
   5.3044805051309894E-002   9.4535403406127705E-002   0.0000000000000000     
   5.4740462988307065E-002  0.10105085910806652        0.0000000000000000     
   5.6359660449518990E-002  0.10771402941328494        0.0000000000000000     
   4.4421193294033726E-002   8.1403002456980858E-002   0.0000000000000000     
   4.6102127093078191E-002   8.7641999145558036E-002   0.0000000000000000     
   4.7713577180104536E-002   9.4028289528641978E-002   0.0000000000000000     
   4.9255543555112774E-002  0.10056187360623271        0.0000000000000000     
   5.0728026218102906E-002  0.10724275137833020        0.0000000000000000     
   3.9565753731226339E-002   8.0917473402233875E-002   0.0000000000000000     
   4.1079735954799725E-002   8.7174356017258675E-002   0.0000000000000000     
   4.2530708256492529E-002   9.3578393735483378E-002   0.0000000000000000     
   4.3918670636304710E-002  0.10012958655690797        0.0000000000000000     
   4.5243623094236296E-002  0.10682793448153245        0.0000000000000000     
   3.4857789061537636E-002   8.0491048647847868E-002   0.0000000000000000     
   3.6205513223692108E-002   8.6764732922570392E-002   0.0000000000000000     
   3.7496198280473861E-002   9.3185716026651835E-002   0.0000000000000000     
   3.8729844231882880E-002   9.9753997960092280E-002   0.0000000000000000     
   3.9906451077919181E-002  0.10646957872289164        0.0000000000000000     
   6.2138525788484569E-002  0.10824176858639663        0.0000000000000000     
   6.3836662295497643E-002  0.11503672934716944        0.0000000000000000     
   6.5484818324524907E-002  0.12198274275199501        0.0000000000000000     
   6.7082993875566321E-002  0.12907980880087336        0.0000000000000000     
   6.8631188948621941E-002  0.13632792749380448        0.0000000000000000     
   5.6359660449518990E-002  0.10771402941328494        0.0000000000000000     
   5.7917060777807429E-002  0.11452593335299123        0.0000000000000000     
   5.9427327316034124E-002  0.12148758995839365        0.0000000000000000     
   6.0890460064199084E-002  0.12859899922949231        0.0000000000000000     
   6.2306459022302293E-002  0.13586016116628705        0.0000000000000000     
   5.0728026218102906E-002  0.10724275137833020        0.0000000000000000     
   5.2143881558071051E-002  0.11407216265544190        0.0000000000000000     
   5.3515965964013368E-002  0.12105134724807529        0.0000000000000000     
   5.4844279435929844E-002  0.12818030515623027        0.0000000000000000     
   5.6128821973820485E-002  0.13545903637990692        0.0000000000000000     
   4.5243623094236296E-002  0.10682793448153245        0.0000000000000000     
   4.6517124636288522E-002  0.11367541725452149        0.0000000000000000     
   4.7750734268462623E-002  0.12067401462103976        0.0000000000000000     
   4.8944451990758614E-002  0.12782372658108729        0.0000000000000000     
   5.0098277803176480E-002  0.13512455313466404        0.0000000000000000     
   3.9906451077919181E-002  0.10646957872289164        0.0000000000000000     
   4.1036790012459828E-002  0.11333569715022995        0.0000000000000000     
   4.2131632229381898E-002  0.12035559207728719        0.0000000000000000     
   4.3190977728685388E-002  0.12752926350406338        0.0000000000000000     
   4.4214826510370300E-002  0.13485671143055850        0.0000000000000000     
   6.8631188948621941E-002  0.13632792749380448        0.0000000000000000     
   7.0106082706028805E-002  0.14369752020063009        0.0000000000000000     
   7.1484354310124010E-002  0.15115900829119194        0.0000000000000000     
   7.2766003760907541E-002  0.15871239176549007        0.0000000000000000     
   7.3951031058379399E-002  0.16635767062352441        0.0000000000000000     
   6.2306459022302293E-002  0.13586016116628705        0.0000000000000000     
   6.3655644651365431E-002  0.14323530372616256        0.0000000000000000     
   6.4918337412410154E-002  0.15068865486650335        0.0000000000000000     
   6.6094537305436463E-002  0.15822021458730945        0.0000000000000000     
   6.7184244330444343E-002  0.16582998288858092        0.0000000000000000     
   5.6128821973820485E-002  0.13545903637990692        0.0000000000000000     
   5.7352202018852938E-002  0.14284955962281259        0.0000000000000000     
   5.8497028012194877E-002  0.15031389358865471        0.0000000000000000     
   5.9563299953846315E-002  0.15785203827743327        0.0000000000000000     
   6.0551017843807231E-002  0.16546399368914821        0.0000000000000000     
   5.0098277803176480E-002  0.13512455313466404        0.0000000000000000     
   5.1195754808491305E-002  0.14254028789058024        0.0000000000000000     
   5.2220426109478198E-002  0.15003472445764601        0.0000000000000000     
   5.3172291706137111E-002  0.15760786283586140        0.0000000000000000     
   5.4051351598468078E-002  0.16525970302522633        0.0000000000000000     
   4.4214826510370300E-002  0.13485671143055850        0.0000000000000000     
   4.5186303020280566E-002  0.14230748852946548        0.0000000000000000     
   4.6088531704260076E-002  0.14985114747347728        0.0000000000000000     
   4.6921512562308858E-002  0.15748768826259388        0.0000000000000000     
   4.7685245594426884E-002  0.16521711089681526        0.0000000000000000     
   0.0000000000000000        0.0000000000000000        0.0000000000000000     
   1.7983486971716934E-003   1.2768537058827113E-003   0.0000000000000000     
   3.6214085138797912E-003   2.9392117717254689E-003   0.0000000000000000     
   5.4691794501242931E-003   4.9870741975282734E-003   0.0000000000000000     
   7.3416615059051990E-003   7.4204409832911234E-003   0.0000000000000000     
   0.0000000000000000        0.0000000000000000        0.0000000000000000     
   1.5350410023260543E-003   1.2175977134830191E-003   0.0000000000000000     
   3.0994489629619240E-003   2.8209401366431413E-003   0.0000000000000000     
   4.6932238819076093E-003   4.8100272694803665E-003   0.0000000000000000     
   6.3163657591631091E-003   7.1848591119946965E-003   0.0000000000000000     
   0.0000000000000000        0.0000000000000000        0.0000000000000000     
   1.2878356046289398E-003   1.1700354798438084E-003   0.0000000000000000     
   2.6056033774501854E-003   2.7246690667102917E-003   0.0000000000000000     
   3.9533033184637363E-003   4.6639007605994483E-003   0.0000000000000000     
   5.3309354276695944E-003   6.9877305615112803E-003   0.0000000000000000     
   0.0000000000000000        0.0000000000000000        0.0000000000000000     
   1.0567325040803498E-003   1.1341670049650795E-003   0.0000000000000000     
   2.1398717573445757E-003   2.6503985619269186E-003   0.0000000000000000     
   3.2494177597926764E-003   4.5486946708855180E-003   0.0000000000000000     
   4.3853705114246522E-003   6.8290553318408782E-003   0.0000000000000000     
   0.0000000000000000        0.0000000000000000        0.0000000000000000     
   8.4173170068028503E-004   1.1099922888468321E-003   0.0000000000000000     
   1.7022541026450943E-003   2.5981286222930234E-003   0.0000000000000000     
   2.5815672058944277E-003   4.4644090003385746E-003   0.0000000000000000     
   3.4796710104282851E-003   6.7088334229834859E-003   0.0000000000000000     
   7.3416615059051990E-003   7.4204409832911234E-003   0.0000000000000000     
   9.2311573443883792E-003   1.0186830330255983E-002   0.0000000000000000     
   1.1129969628739703E-002   1.3233760439664823E-002   0.0000000000000000     
   1.3038098358959171E-002   1.6561231311517634E-002   0.0000000000000000     
   1.4955543535046781E-002   2.0169242945814431E-002   0.0000000000000000     
   6.3163657591631091E-003   7.1848591119946965E-003   0.0000000000000000     
   7.9561304860648902E-003   9.8958636821155285E-003   0.0000000000000000     
   9.5997739539494167E-003   1.2893468997772259E-002   0.0000000000000000     
   1.1247296162816688E-002   1.6177675058964888E-002   0.0000000000000000     
   1.2898697112666705E-002   1.9748481865693418E-002   0.0000000000000000     
   5.3309354276695944E-003   6.9877305615112803E-003   0.0000000000000000     
   6.7239807161846620E-003   9.6500843322466032E-003   0.0000000000000000     
   8.1179201951258485E-003   1.2604887935606232E-002   0.0000000000000000     
   9.5127538644931512E-003   1.5852141371590162E-002   0.0000000000000000     
   1.0908481724286571E-002   1.9391844640198403E-002   0.0000000000000000     
   4.3853705114246522E-003   6.8290553318408782E-003   0.0000000000000000     
   5.5347080347476953E-003   9.4494922806492125E-003   0.0000000000000000     
   6.6844083522689980E-003   1.2368017253166741E-002   0.0000000000000000     
   7.8344714639885620E-003   1.5584630249393459E-002   0.0000000000000000     
   8.9848973699063819E-003   1.9099331269329375E-002   0.0000000000000000     
   3.4796710104282851E-003   6.7088334229834859E-003   0.0000000000000000     
   4.3883124417539903E-003   9.2940875273233581E-003   0.0000000000000000     
   5.2992384253788671E-003   1.2182856950453789E-002   0.0000000000000000     
   6.2124489613029146E-003   1.5375141692374784E-002   0.0000000000000000     
   7.1279440495261338E-003   1.8870941753086339E-002   0.0000000000000000     
   1.4955543535046781E-002   2.0169242945814431E-002   0.0000000000000000     
   1.6857043199563621E-002   2.4029479148235007E-002   0.0000000000000000     
   1.8717335395070783E-002   2.8113623724459198E-002   0.0000000000000000     
   2.0536420121568266E-002   3.2421676674486997E-002   0.0000000000000000     
   2.2314297379056075E-002   3.6953637998318405E-002   0.0000000000000000     
   1.2898697112666705E-002   1.9748481865693418E-002   0.0000000000000000     
   1.4537732578919098E-002   2.3579854254321752E-002   0.0000000000000000     
   1.6148158336993491E-002   2.7645757061213781E-002   0.0000000000000000     
   1.7729974386889898E-002   3.1946190286369511E-002   0.0000000000000000     
   1.9283180728608306E-002   3.6481153929788943E-002   0.0000000000000000     
   1.0908481724286571E-002   1.9391844640198403E-002   0.0000000000000000     
   1.2294985447569006E-002   2.3199121572832559E-002   0.0000000000000000     
   1.3662146707403346E-002   2.7249096000894243E-002   0.0000000000000000     
   1.5009965503789595E-002   3.1541767924383457E-002   0.0000000000000000     
   1.6338441836727752E-002   3.6077137343300196E-002   0.0000000000000000     
   8.9848973699063819E-003   1.9099331269329375E-002   0.0000000000000000     
   1.0128801805513345E-002   2.2887281103767431E-002   0.0000000000000000     
   1.1259300506300340E-002   2.6923640543500583E-002   0.0000000000000000     
   1.2376393472267360E-002   3.1208409588528829E-002   0.0000000000000000     
   1.3480080703414409E-002   3.5741588238852165E-002   0.0000000000000000     
   7.1279440495261338E-003   1.8870941753086339E-002   0.0000000000000000     
   8.0391816527521209E-003   2.2644332847126376E-002   0.0000000000000000     
   8.9396197336844736E-003   2.6669390689032797E-002   0.0000000000000000     
   9.8292582923231904E-003   3.0946115278805628E-002   0.0000000000000000     
   1.0708097328668275E-002   3.5474506616444849E-002   0.0000000000000000     
   2.2314297379056075E-002   3.6953637998318405E-002   0.0000000000000000     
   2.4048050999379726E-002   4.1699861254834242E-002   0.0000000000000000     
   2.5734764814384761E-002   4.6650700002915331E-002   0.0000000000000000     
   2.7374438824071177E-002   5.1806154242561679E-002   0.0000000000000000     
   2.8967073028438976E-002   5.7166223973773279E-002   0.0000000000000000     
   1.9283180728608306E-002   3.6481153929788943E-002   0.0000000000000000     
   2.0801275457488236E-002   4.1236291570203185E-002   0.0000000000000000     
   2.2277756668869213E-002   4.6197246786343342E-002   0.0000000000000000     
   2.3712624362751230E-002   5.1364019578209422E-002   0.0000000000000000     
   2.5105878539134284E-002   5.6736609945801431E-002   0.0000000000000000     
   1.6338441836727752E-002   3.6077137343300196E-002   0.0000000000000000     
   1.7639412148170820E-002   4.0837551242568042E-002   0.0000000000000000     
   1.8904712880071808E-002   4.5805356607110582E-002   0.0000000000000000     
   2.0134344032430716E-002   5.0980553436927763E-002   0.0000000000000000     
   2.1328305605247535E-002   5.6363141732019652E-002   0.0000000000000000     
   1.3480080703414409E-002   3.5741588238852165E-002   0.0000000000000000     
   1.4562461071427477E-002   4.0503640271928813E-002   0.0000000000000000     
   1.5615633447992551E-002   4.5475029465216990E-002   0.0000000000000000     
   1.6639597833109636E-002   5.0655755818716709E-002   0.0000000000000000     
   1.7634354226778729E-002   5.6045819332427964E-002   0.0000000000000000     
   1.0708097328668275E-002   3.5474506616444849E-002   0.0000000000000000     
   1.1570422227258199E-002   4.0234558658285499E-002   0.0000000000000000     
   1.2410518372631438E-002   4.5206265360662641E-002   0.0000000000000000     
   1.3228385764787997E-002   5.0389626723576254E-002   0.0000000000000000     
   1.4024024403727872E-002   5.5784642747026346E-002   0.0000000000000000     
   2.8967073028438976E-002   5.7166223973773279E-002   0.0000000000000000     
   3.0512078506789008E-002   6.2720808623648608E-002   0.0000000000000000     
   3.2008866338422128E-002   6.8459807619286162E-002   0.0000000000000000     
   3.3457436523338338E-002   7.4383220960685906E-002   0.0000000000000000     
   3.4857789061537636E-002   8.0491048647847868E-002   0.0000000000000000     
   2.5105878539134284E-002   5.6736609945801431E-002   0.0000000000000000     
   2.6457616809931150E-002   6.2304567548007832E-002   0.0000000000000000     
   2.7767936787054592E-002   6.8057442043717109E-002   0.0000000000000000     
   2.9036838470504617E-002   7.3995233432929255E-002   0.0000000000000000     
   3.0264321860281211E-002   8.0117941715644264E-002   0.0000000000000000     
   2.1328305605247535E-002   5.6363141732019652E-002   0.0000000000000000     
   2.2486905011127066E-002   6.1942181277530636E-002   0.0000000000000000     
   2.3610449662674098E-002   6.7706731858605082E-002   0.0000000000000000     
   2.4698939559888625E-002   7.3656793475243051E-002   0.0000000000000000     
   2.5752374702770652E-002   7.9792366127444503E-002   0.0000000000000000     
   1.7634354226778729E-002   5.6045819332427964E-002   0.0000000000000000     
   1.8599943110376761E-002   6.1633649812217008E-002   0.0000000000000000     
   1.9536404965280640E-002   6.7407677063950108E-002   0.0000000000000000     
   2.0443739791490376E-002   7.3367901087627307E-002   0.0000000000000000     
   2.1321947589005966E-002   7.9514321883248529E-002   0.0000000000000000     
   1.4024024403727872E-002   5.5784642747026346E-002   0.0000000000000000     
   1.4796731107680225E-002   6.1378973152066973E-002   0.0000000000000000     
   1.5545802694874223E-002   6.7160277659752188E-002   0.0000000000000000     
   1.6271239165309863E-002   7.3128556270081982E-002   0.0000000000000000     
   1.6973040518987147E-002   7.9283808983056384E-002   0.0000000000000000     
   3.4857789061537636E-002   8.0491048647847868E-002   0.0000000000000000     
   3.6205513223692108E-002   8.6764732922570392E-002   0.0000000000000000     
   3.7496198280473861E-002   9.3185716026651835E-002   0.0000000000000000     
   3.8729844231882880E-002   9.9753997960092280E-002   0.0000000000000000     
   3.9906451077919181E-002  0.10646957872289164        0.0000000000000000     
   3.0264321860281211E-002   8.0117941715644264E-002   0.0000000000000000     
   3.1445590722238799E-002   8.6406856609045860E-002   0.0000000000000000     
   3.2575848822231801E-002   9.2843267830317711E-002   0.0000000000000000     
   3.3655096160260217E-002   9.9427175379459817E-002   0.0000000000000000     
   3.4683332736324055E-002  0.10615857925647221        0.0000000000000000     
   2.5752374702770652E-002   7.9792366127444503E-002   0.0000000000000000     
   2.6766100272923282E-002   8.6094453824237763E-002   0.0000000000000000     
   2.7735461451949620E-002   9.2544060574651199E-002   0.0000000000000000     
   2.8660458239849664E-002   9.9141186378684784E-002   0.0000000000000000     
   2.9541090636623420E-002  0.10588583123633853        0.0000000000000000     
   2.1321947589005966E-002   7.9514321883248529E-002   0.0000000000000000     
   2.2167041875745565E-002   8.5827524568146116E-002   0.0000000000000000     
   2.2975036169627306E-002   9.2288094259652342E-002   0.0000000000000000     
   2.3745930470651214E-002   9.8896030957767153E-002   0.0000000000000000     
   2.4479724778817283E-002  0.10565133466249062        0.0000000000000000     
   1.6973040518987147E-002   7.9283808983056384E-002   0.0000000000000000     
   1.7648415530705629E-002   8.5606068840770905E-002   0.0000000000000000     
   1.8294572975264871E-002   9.2075368885321085E-002   0.0000000000000000     
   1.8911512852664868E-002   9.8691709116706966E-002   0.0000000000000000     
   1.9499235162905627E-002  0.10545508953492849        0.0000000000000000     
   3.9906451077919181E-002  0.10646957872289164        0.0000000000000000     
   4.1036790012459828E-002  0.11333569715022995        0.0000000000000000     
   4.2131632229381898E-002  0.12035559207728719        0.0000000000000000     
   4.3190977728685388E-002  0.12752926350406338        0.0000000000000000     
   4.4214826510370300E-002  0.13485671143055850        0.0000000000000000     
   3.4683332736324055E-002  0.10615857925647221        0.0000000000000000     
   3.5670553426352926E-002  0.11304218258212975        0.0000000000000000     
   3.6626753106276458E-002  0.12008268847720743        0.0000000000000000     
   3.7551931776094637E-002  0.12728009694170514        0.0000000000000000     
   3.8446089435807490E-002  0.13463440797562298        0.0000000000000000     
   2.9541090636623420E-002  0.10588583123633853        0.0000000000000000     
   3.0386090617735752E-002  0.11278405378978340        0.0000000000000000     
   3.1204190158651564E-002  0.11984191268119029        0.0000000000000000     
   3.1995389259370816E-002  0.12705940791055928        0.0000000000000000     
   3.2759687919893546E-002  0.13443653947789030        0.0000000000000000     
   2.4479724778817283E-002  0.10565133466249062        0.0000000000000000     
   2.5183401586608332E-002  0.11256131077319081        0.0000000000000000     
   2.5863943386507209E-002  0.11963326468923585        0.0000000000000000     
   2.6521350178513932E-002  0.12686719641062574        0.0000000000000000     
   2.7155621962628478E-002  0.13426310593736043        0.0000000000000000     
   1.9499235162905627E-002  0.10545508953492849        0.0000000000000000     
   2.0062486332970645E-002  0.11237395353235208        0.0000000000000000     
   2.0606012789843423E-002  0.11945674450134407        0.0000000000000000     
   2.1129814533523972E-002  0.12670346244190453        0.0000000000000000     
   2.1633891564012284E-002  0.13411410735403340        0.0000000000000000     
   4.4214826510370300E-002  0.13485671143055850        0.0000000000000000     
   4.5186303020280566E-002  0.14230748852946548        0.0000000000000000     
   4.6088531704260076E-002  0.14985114747347728        0.0000000000000000     
   4.6921512562308858E-002  0.15748768826259388        0.0000000000000000     
   4.7685245594426884E-002  0.16521711089681526        0.0000000000000000     
   3.8446089435807490E-002  0.13463440797562298        0.0000000000000000     
   3.9292123081436980E-002  0.14212042413837933        0.0000000000000000     
   4.0072929709005091E-002  0.14971294798939255        0.0000000000000000     
   4.0788509318511842E-002  0.15741197952866265        0.0000000000000000     
   4.1438861909957214E-002  0.16521751875618967        0.0000000000000000     
   3.2759687919893546E-002  0.13443653947789030        0.0000000000000000     
   3.3481491419176827E-002  0.14194835731623273        0.0000000000000000     
   3.4145205036177767E-002  0.14956991135863587        0.0000000000000000     
   3.4750828770896372E-002  0.15730120160509969        0.0000000000000000     
   3.5298362623332635E-002  0.16514222805562423        0.0000000000000000     
   2.7155621962628478E-002  0.13426310593736043        0.0000000000000000     
   2.7754408033500114E-002  0.14179128806302571        0.0000000000000000     
   2.8305357685778101E-002  0.14942203758120720        0.0000000000000000     
   2.8808470919462446E-002  0.15715535449190496        0.0000000000000000     
   2.9263747734553147E-002  0.16499123879511896        0.0000000000000000     
   2.1633891564012284E-002  0.13411410735403340        0.0000000000000000     
   2.2110872924406836E-002  0.14164921637875824        0.0000000000000000     
   2.2553387657806099E-002  0.14926932665710660        0.0000000000000000     
   2.2961435764210066E-002  0.15697443818907841        0.0000000000000000     
   2.3335017243618750E-002  0.16476455097467385        0.0000000000000000     
   0.0000000000000000        0.0000000000000000        0.0000000000000000     
   8.4173170068028503E-004   1.1099922888468321E-003   0.0000000000000000     
   1.7022541026450943E-003   2.5981286222930234E-003   0.0000000000000000     
   2.5815672058944277E-003   4.4644090003385746E-003   0.0000000000000000     
   3.4796710104282851E-003   6.7088334229834859E-003   0.0000000000000000     
   0.0000000000000000        0.0000000000000000        0.0000000000000000     
   6.3391465181652693E-004   1.0939543983819130E-003   0.0000000000000000     
   1.2781984267737823E-003   2.5620169928357887E-003   0.0000000000000000     
   1.9328513248717664E-003   4.4041877833616268E-003   0.0000000000000000     
   2.5978733461104789E-003   6.6204667699594271E-003   0.0000000000000000     
   0.0000000000000000        0.0000000000000000        0.0000000000000000     
   4.2436281487685768E-004   1.0824964004631696E-003   0.0000000000000000     
   8.5315274315268059E-004   2.5362214185823970E-003   0.0000000000000000     
   1.2863697848274685E-003   4.3611750543576834E-003   0.0000000000000000     
   1.7240139399012219E-003   6.5573573077890267E-003   0.0000000000000000     
   0.0000000000000000        0.0000000000000000        0.0000000000000000     
   2.1307618986127761E-004   1.0756182950906017E-003   0.0000000000000000     
   4.2711705178178900E-004   2.5207418995328492E-003   0.0000000000000000     
   6.4212258576153407E-004   4.3353708133267435E-003   0.0000000000000000     
   8.5809279180051315E-004   6.5195050364722819E-003   0.0000000000000000     
   0.0000000000000000        0.0000000000000000        0.0000000000000000     
   5.4776769786550345E-008   1.0733200822642096E-003   0.0000000000000000     
   9.1352661107534008E-008   2.5155784356871453E-003   0.0000000000000000     
   1.0972767396311362E-007   4.3267750602688070E-003   0.0000000000000000     
   1.0990180835296392E-007   6.5069099560091962E-003   0.0000000000000000     
   3.4796710104282851E-003   6.7088334229834859E-003   0.0000000000000000     
   4.3883124417539903E-003   9.2940875273233581E-003   0.0000000000000000     
   5.2992384253788671E-003   1.2182856950453789E-002   0.0000000000000000     
   6.2124489613029146E-003   1.5375141692374784E-002   0.0000000000000000     
   7.1279440495261338E-003   1.8870941753086339E-002   0.0000000000000000     
   2.5978733461104789E-003   6.6204667699594271E-003   0.0000000000000000     
   3.2703325182912597E-003   9.1778841302321817E-003   0.0000000000000000     
   3.9472968692154465E-003   1.2043470041782885E-002   0.0000000000000000     
   4.6287663988830406E-003   1.5217224504611529E-002   0.0000000000000000     
   5.3147411072940413E-003   1.8699147518718127E-002   0.0000000000000000     
   1.7240139399012219E-003   6.5573573077890267E-003   0.0000000000000000     
   2.1663068454472172E-003   9.0948961473388407E-003   0.0000000000000000     
   2.6134701385387301E-003   1.1943919541469533E-002   0.0000000000000000     
   3.0655038191757622E-003   1.5104427490181108E-002   0.0000000000000000     
   3.5224078873583127E-003   1.8576419993473557E-002   0.0000000000000000     
   8.5809279180051315E-004   6.5195050364722819E-003   0.0000000000000000     
   1.0762354232218621E-003   9.0451235786433264E-003   0.0000000000000000     
   1.2977582333487175E-003   1.1884205449513739E-002   0.0000000000000000     
   1.5226612221810793E-003   1.5036750649083511E-002   0.0000000000000000     
   1.7509443897189476E-003   1.8502759177352654E-002   0.0000000000000000     
   1.0990180835296392E-007   6.5069099560091962E-003   0.0000000000000000     
   1.1825161519553133E-007   9.0285664241456474E-003   0.0000000000000000     
   1.6115364540889639E-007   1.1864327765915497E-002   0.0000000000000000     
   2.3860789899304892E-007   1.5014193981318749E-002   0.0000000000000000     
   3.5061437594777548E-007   1.8478165070355400E-002   0.0000000000000000     
   7.1279440495261338E-003   1.8870941753086339E-002   0.0000000000000000     
   8.0391816527521209E-003   2.2644332847126376E-002   0.0000000000000000     
   8.9396197336844736E-003   2.6669390689032797E-002   0.0000000000000000     
   9.8292582923231904E-003   3.0946115278805628E-002   0.0000000000000000     
   1.0708097328668275E-002   3.5474506616444849E-002   0.0000000000000000     
   5.3147411072940413E-003   1.8699147518718127E-002   0.0000000000000000     
   5.9982545689676574E-003   2.2461884091312879E-002   0.0000000000000000     
   6.6723403584230965E-003   2.6478079229606006E-002   0.0000000000000000     
   7.3369984756603591E-003   3.0747732933597515E-002   0.0000000000000000     
   7.9922289206794447E-003   3.5270845203287396E-002   0.0000000000000000     
   3.5224078873583127E-003   1.8576419993473557E-002   0.0000000000000000     
   3.9781501338422755E-003   2.2331542124730444E-002   0.0000000000000000     
   4.4266983493835461E-003   2.6341438957335310E-002   0.0000000000000000     
   4.8680525339821253E-003   3.0606110491288141E-002   0.0000000000000000     
   5.3022126876380114E-003   3.5125556726588972E-002   0.0000000000000000     
   1.7509443897189476E-003   1.8502759177352654E-002   0.0000000000000000     
   1.9788683473759782E-003   2.2253306947379078E-002   0.0000000000000000     
   2.2026937065658257E-003   2.6259469872220699E-002   0.0000000000000000     
   2.4224204672884902E-003   3.0521247951877530E-002   0.0000000000000000     
   2.6380486295439726E-003   3.5038641186349556E-002   0.0000000000000000     
   3.5061437594777548E-007   1.8478165070355400E-002   0.0000000000000000     
   4.0920956876440342E-007   2.2227178559258768E-002   0.0000000000000000     
   3.2642996993323013E-007   2.6232171974262187E-002   0.0000000000000000     
   1.0227557945516363E-007   3.0493145315365650E-002   0.0000000000000000     
  -2.6325360267067700E-007   3.5010098582569163E-002   0.0000000000000000     
   1.0708097328668275E-002   3.5474506616444849E-002   0.0000000000000000     
   1.1570422227258199E-002   4.0234558658285499E-002   0.0000000000000000     
   1.2410518372631438E-002   4.5206265360662641E-002   0.0000000000000000     
   1.3228385764787997E-002   5.0389626723576254E-002   0.0000000000000000     
   1.4024024403727872E-002   5.5784642747026346E-002   0.0000000000000000     
   7.9922289206794447E-003   3.5270845203287396E-002   0.0000000000000000     
   8.6350424524756254E-003   4.0027590162605639E-002   0.0000000000000000     
   9.2624498300441713E-003   4.4998141935482239E-002   0.0000000000000000     
   9.8744510533850770E-003   5.0182500521917181E-002   0.0000000000000000     
   1.0471046122498351E-002   5.5580665921910480E-002   0.0000000000000000     
   5.3022126876380114E-003   3.5125556726588972E-002   0.0000000000000000     
   5.7280685838923895E-003   3.9880018545856759E-002   0.0000000000000000     
   6.1445099962864425E-003   4.4849736831710549E-002   0.0000000000000000     
   6.5515369248201685E-003   5.0034711584150286E-002   0.0000000000000000     
   6.9491493694935711E-003   5.5434942803176020E-002   0.0000000000000000     
   2.6380486295439726E-003   3.5038641186349556E-002   0.0000000000000000     
   2.8495006215084879E-003   3.9791843808038865E-002   0.0000000000000000     
   3.0566988713582525E-003   4.4761050049347537E-002   0.0000000000000000     
   3.2596433790932663E-003   4.9946259910275577E-002   0.0000000000000000     
   3.4583341447135285E-003   5.5347473390822972E-002   0.0000000000000000     
  -2.6325360267067700E-007   3.5010098582569163E-002   0.0000000000000000     
  -6.6143467607681587E-007   3.9763065949151959E-002   0.0000000000000000     
  -9.8354474039686127E-007   4.4732081588393244E-002   0.0000000000000000     
  -1.2295837956292953E-006   4.9917145500293039E-002   0.0000000000000000     
  -1.3995518417756359E-006   5.5318257684851331E-002   0.0000000000000000     
   1.4024024403727872E-002   5.5784642747026346E-002   0.0000000000000000     
   1.4796731107680225E-002   6.1378973152066973E-002   0.0000000000000000     
   1.5545802694874223E-002   6.7160277659752188E-002   0.0000000000000000     
   1.6271239165309863E-002   7.3128556270081982E-002   0.0000000000000000     
   1.6973040518987147E-002   7.9283808983056384E-002   0.0000000000000000     
   1.0471046122498351E-002   5.5580665921910480E-002   0.0000000000000000     
   1.1050827111491919E-002   6.1179583059458399E-002   0.0000000000000000     
   1.1612386094473716E-002   6.6966196858557245E-002   0.0000000000000000     
   1.2155723071443740E-002   7.2940507319206982E-002   0.0000000000000000     
   1.2680838042401991E-002   7.9102514441407645E-002   0.0000000000000000     
   6.9491493694935711E-003   5.5434942803176020E-002   0.0000000000000000     
   7.3357892302662953E-003   6.1036911296769164E-002   0.0000000000000000     
   7.7098984070979896E-003   6.6827097872911204E-002   0.0000000000000000     
   8.0714768999886558E-003   7.2805502531602118E-002   0.0000000000000000     
   8.4205247089382887E-003   7.8972125272841906E-002   0.0000000000000000     
   3.4583341447135285E-003   5.5347473390822972E-002   0.0000000000000000     
   3.6516174640033507E-003   6.0950957863999282E-002   0.0000000000000000     
   3.8383396327470436E-003   6.6742980702814106E-002   0.0000000000000000     
   4.0185006509446059E-003   7.2723541907267403E-002   0.0000000000000000     
   4.1921005185960418E-003   7.8892641477359179E-002   0.0000000000000000     
  -1.3995518417756359E-006   5.5318257684851331E-002   0.0000000000000000     
  -1.6881872969143211E-006   6.0921722761148746E-002   0.0000000000000000     
  -2.2902285791218916E-006   6.6713845348265896E-002   0.0000000000000000     
  -3.2056756884032397E-006   7.2694625446202810E-002   0.0000000000000000     
  -4.4345286247526872E-006   7.8864063054959452E-002   0.0000000000000000     
   1.6973040518987147E-002   7.9283808983056384E-002   0.0000000000000000     
   1.7648415530705629E-002   8.5606068840770905E-002   0.0000000000000000     
   1.8294572975264871E-002   9.2075368885321085E-002   0.0000000000000000     
   1.8911512852664868E-002   9.8691709116706966E-002   0.0000000000000000     
   1.9499235162905627E-002  0.10545508953492849        0.0000000000000000     
   1.2680838042401991E-002   7.9102514441407645E-002   0.0000000000000000     
   1.3186240411310807E-002   8.5431738959919790E-002   0.0000000000000000     
   1.3670439582132527E-002   9.1907701609504011E-002   0.0000000000000000     
   1.4133435554867147E-002   9.8530402390160282E-002   0.0000000000000000     
   1.4575228329514670E-002  0.10529984130188863        0.0000000000000000     
   8.4205247089382887E-003   7.8972125272841906E-002   0.0000000000000000     
   8.7565356910683980E-003   8.5306187243400444E-002   0.0000000000000000     
   9.0790037035004909E-003   9.1786909590047566E-002   0.0000000000000000     
   9.3879287462345640E-003   9.8414292312783258E-002   0.0000000000000000     
   9.6833108192706206E-003  0.10518833541160759        0.0000000000000000     
   4.1921005185960418E-003   7.8892641477359179E-002   0.0000000000000000     
   4.3593013699784076E-003   8.5229413691212827E-002   0.0000000000000000     
   4.5202653393687665E-003   9.1712992826951736E-002   0.0000000000000000     
   4.6749924267671236E-003   9.8343378884575935E-002   0.0000000000000000     
   4.8234826321734720E-003  0.10512057186408538        0.0000000000000000     
  -4.4345286247526872E-006   7.8864063054959452E-002   0.0000000000000000     
  -5.4625519591675227E-006   8.5201418303357007E-002   0.0000000000000000     
  -5.7755102626440595E-006   9.1685951320216605E-002   0.0000000000000000     
  -5.3734035351777167E-006   9.8317662105538245E-002   0.0000000000000000     
  -4.2562317767724789E-006  0.10509655065932194        0.0000000000000000     
   1.9499235162905627E-002  0.10545508953492849        0.0000000000000000     
   2.0062486332970645E-002  0.11237395353235208        0.0000000000000000     
   2.0606012789843423E-002  0.11945674450134407        0.0000000000000000     
   2.1129814533523972E-002  0.12670346244190453        0.0000000000000000     
   2.1633891564012284E-002  0.13411410735403340        0.0000000000000000     
   1.4575228329514670E-002  0.10529984130188863        0.0000000000000000     
   1.4998360795019003E-002  0.11222517827152155        0.0000000000000000     
   1.5405375840324049E-002  0.11931557322589154        0.0000000000000000     
   1.5796273465429809E-002  0.12657102616499863        0.0000000000000000     
   1.6171053670336281E-002  0.13399153708884276        0.0000000000000000     
   9.6833108192706206E-003  0.10518833541160759        0.0000000000000000     
   9.9660409109497260E-003  0.11211818119495370        0.0000000000000000     
   1.0237010009612952E-002  0.11921297197125484        0.0000000000000000     
   1.0496218115260303E-002  0.12647270774051095        0.0000000000000000     
   1.0743665227891773E-002  0.13389738850272209        0.0000000000000000     
   4.8234826321734720E-003  0.10512057186408538        0.0000000000000000     
   4.9655266807628112E-003  0.11205296230264856        0.0000000000000000     
   5.1009152977101405E-003  0.11914894073743393        0.0000000000000000     
   5.2296484830154557E-003  0.12640850716844157        0.0000000000000000     
   5.3517262366787593E-003  0.13383166159567139        0.0000000000000000     
  -4.2562317767724789E-006  0.10509655065932194        0.0000000000000000     
  -3.1818955417383093E-006  0.11202952159460605        0.0000000000000000     
  -2.9082953843926522E-006  0.11912347952442887        0.0000000000000000     
  -3.4354313047306559E-006  0.12637842444879044        0.0000000000000000     
  -4.7633033027566843E-006  0.13379435636769071        0.0000000000000000     
   2.1633891564012284E-002  0.13411410735403340        0.0000000000000000     
   2.2110872924406836E-002  0.14164921637875824        0.0000000000000000     
   2.2553387657806099E-002  0.14926932665710660        0.0000000000000000     
   2.2961435764210066E-002  0.15697443818907841        0.0000000000000000     
   2.3335017243618750E-002  0.16476455097467385        0.0000000000000000     
   1.6171053670336281E-002  0.13399153708884276        0.0000000000000000     
   1.6527311602387330E-002  0.14152839552285321        0.0000000000000000     
   1.6862642408926817E-002  0.14913289099245930        0.0000000000000000     
   1.7177046089954739E-002  0.15680502349766090        0.0000000000000000     
   1.7470522645471106E-002  0.16454479303845815        0.0000000000000000     
   1.0743665227891773E-002  0.13389738850272209        0.0000000000000000     
   1.0980149577931926E-002  0.14143507875473352        0.0000000000000000     
   1.1206469395805326E-002  0.14903384299339045        0.0000000000000000     
   1.1422624681511976E-002  0.15669368121869304        0.0000000000000000     
   1.1628615435051871E-002  0.16441459343064113        0.0000000000000000     
   5.3517262366787593E-003  0.13383166159567139        0.0000000000000000     
   5.4693868510406257E-003  0.14136926607439909        0.0000000000000000     
   5.5848686184416293E-003  0.14897218265990025        0.0000000000000000     
   5.6981715388817701E-003  0.15664041135217477        0.0000000000000000     
   5.8092956123610498E-003  0.16437395215122280        0.0000000000000000     
  -4.7633033027566843E-006  0.13379435636769071        0.0000000000000000     
  -4.9765782865706081E-006  0.14133095748184998        0.0000000000000000     
  -2.1599231642765266E-006  0.14894790999198851        0.0000000000000000     
   3.6866620641271052E-006  0.15664521389810621        0.0000000000000000     
   1.2563177398638471E-005  0.16442286920020316        0.0000000000000000     
   0.0000000000000000        0.0000000000000000        0.0000000000000000     
   5.4776769786550345E-008   1.0733200822642096E-003   0.0000000000000000     
   9.1352661107534008E-008   2.5155784356871453E-003   0.0000000000000000     
   1.0972767396311362E-007   4.3267750602688070E-003   0.0000000000000000     
   1.0990180835296392E-007   6.5069099560091962E-003   0.0000000000000000     
   0.0000000000000000        0.0000000000000000        0.0000000000000000     
  -2.1297001928876236E-004   1.0756034484831578E-003   0.0000000000000000     
  -4.2693768655583959E-004   2.5207307782665785E-003   0.0000000000000000     
  -6.4190300180123167E-004   4.3353819893502607E-003   0.0000000000000000     
  -8.5786596502493884E-004   6.5195570817342076E-003   0.0000000000000000     
   0.0000000000000000        0.0000000000000000        0.0000000000000000     
  -4.2426679320551588E-004   1.0824700802466122E-003   0.0000000000000000     
  -8.5298339821552834E-004   2.5361986784924423E-003   0.0000000000000000     
  -1.2861498150300373E-003   4.3611857947374903E-003   0.0000000000000000     
  -1.7237660436490426E-003   6.5574314289817562E-003   0.0000000000000000     
   0.0000000000000000        0.0000000000000000        0.0000000000000000     
  -6.3383554498047396E-004   1.0939199775545721E-003   0.0000000000000000     
  -1.2780457823179585E-003   2.5619821363647368E-003   0.0000000000000000     
  -1.9326307120124532E-003   4.4041864764304941E-003   0.0000000000000000     
  -2.5975903340639591E-003   6.6205329977518466E-003   0.0000000000000000     
   0.0000000000000000        0.0000000000000000        0.0000000000000000     
  -8.4167627461363703E-004   1.1099531404070383E-003   0.0000000000000000     
  -1.7021248388631306E-003   2.5980811518834632E-003   0.0000000000000000     
  -2.5813456927484802E-003   4.4643840344292746E-003   0.0000000000000000     
  -3.4793388362696861E-003   6.7088617880444734E-003   0.0000000000000000     
   1.0990180835296392E-007   6.5069099560091962E-003   0.0000000000000000     
   1.1825161519553133E-007   9.0285664241456474E-003   0.0000000000000000     
   1.6115364540889639E-007   1.1864327765915497E-002   0.0000000000000000     
   2.3860789899304892E-007   1.5014193981318749E-002   0.0000000000000000     
   3.5061437594777548E-007   1.8478165070355400E-002   0.0000000000000000     
  -8.5786596502493884E-004   6.5195570817342076E-003   0.0000000000000000     
  -1.0759860695685269E-003   9.0452036550462134E-003   0.0000000000000000     
  -1.2974228087735617E-003   1.1884269308914081E-002   0.0000000000000000     
  -1.5221761826400421E-003   1.5036754043337807E-002   0.0000000000000000     
  -1.7502461911679708E-003   1.8502657858317392E-002   0.0000000000000000     
  -1.7237660436490426E-003   6.5574314289817562E-003   0.0000000000000000     
  -2.1660189405250481E-003   9.0950142425454423E-003   0.0000000000000000     
  -2.6130953621105579E-003   1.1944012896748750E-002   0.0000000000000000     
  -3.0649953084055728E-003   1.5104427391591679E-002   0.0000000000000000     
  -3.5217187794100908E-003   1.8576257727074229E-002   0.0000000000000000     
  -2.5975903340639591E-003   6.6205329977518466E-003   0.0000000000000000     
  -3.2699803612543698E-003   9.1779981866433359E-003   0.0000000000000000     
  -3.9468565063655817E-003   1.2043558529419511E-002   0.0000000000000000     
  -4.6282187693975968E-003   1.5217214026080370E-002   0.0000000000000000     
  -5.3140671503504123E-003   1.8698964676625913E-002   0.0000000000000000     
  -3.4793388362696861E-003   6.7088617880444734E-003   0.0000000000000000     
  -4.3878703317564906E-003   9.2941554873398891E-003   0.0000000000000000     
  -5.2987062415386322E-003   1.2182906206926358E-002   0.0000000000000000     
  -6.2118465656161139E-003   1.5375113946803876E-002   0.0000000000000000     
  -7.1272913039889347E-003   1.8870778706972447E-002   0.0000000000000000     
   3.5061437594777548E-007   1.8478165070355400E-002   0.0000000000000000     
   4.0920956876440342E-007   2.2227178559258768E-002   0.0000000000000000     
   3.2642996993323013E-007   2.6232171974262187E-002   0.0000000000000000     
   1.0227557945516363E-007   3.0493145315365650E-002   0.0000000000000000     
  -2.6325360267067700E-007   3.5010098582569163E-002   0.0000000000000000     
  -1.7502461911679708E-003   1.8502657858317392E-002   0.0000000000000000     
  -1.9780542781074450E-003   2.2253183193907958E-002   0.0000000000000000     
  -2.2020218872085642E-003   2.6259532490164640E-002   0.0000000000000000     
  -2.4221490184713292E-003   3.0521705747087430E-002   0.0000000000000000     
  -2.6384356718957384E-003   3.5039702964676324E-002   0.0000000000000000     
  -3.5217187794100908E-003   1.8576257727074229E-002   0.0000000000000000     
  -3.9773491141807272E-003   2.2331347084865082E-002   0.0000000000000000     
  -4.4259696517741018E-003   2.6341538646632922E-002   0.0000000000000000     
  -4.8675803921902090E-003   3.0606832412377744E-002   0.0000000000000000     
  -5.3021813354290522E-003   3.5127228382099550E-002   0.0000000000000000     
  -5.3140671503504123E-003   1.8698964676625913E-002   0.0000000000000000     
  -5.9974752986510869E-003   2.2461670232130141E-002   0.0000000000000000     
  -6.6715168637266785E-003   2.6478190443667036E-002   0.0000000000000000     
  -7.3361918455771852E-003   3.0748525311236612E-002   0.0000000000000000     
  -7.9915002442026081E-003   3.5272674834838848E-002   0.0000000000000000     
  -7.1272913039889347E-003   1.8870778706972447E-002   0.0000000000000000     
  -8.0384328315185188E-003   2.2644152635703130E-002   0.0000000000000000     
  -8.9386635230662929E-003   2.6669487881266985E-002   0.0000000000000000     
  -9.8279833786322560E-003   3.0946784443664017E-002   0.0000000000000000     
  -1.0706392398216410E-002   3.5476042322894225E-002   0.0000000000000000     
  -2.6325360267067700E-007   3.5010098582569163E-002   0.0000000000000000     
  -6.6143467607681587E-007   3.9763065949151959E-002   0.0000000000000000     
  -9.8354474039686127E-007   4.4732081588393244E-002   0.0000000000000000     
  -1.2295837956292953E-006   4.9917145500293039E-002   0.0000000000000000     
  -1.3995518417756359E-006   5.5318257684851331E-002   0.0000000000000000     
  -2.6384356718957384E-003   3.5039702964676324E-002   0.0000000000000000     
  -2.8506008207422094E-003   3.9793344972928822E-002   0.0000000000000000     
  -3.0583634382711508E-003   4.4762452601842397E-002   0.0000000000000000     
  -3.2617235244825678E-003   4.9947025851417082E-002   0.0000000000000000     
  -3.4606810793764565E-003   5.5347064721652850E-002   0.0000000000000000     
  -5.3021813354290522E-003   3.5127228382099550E-002   0.0000000000000000     
  -5.7285007727708075E-003   3.9882340883102253E-002   0.0000000000000000     
  -6.1452669954956572E-003   4.4851784242689784E-002   0.0000000000000000     
  -6.5524800036035960E-003   5.0035558460862113E-002   0.0000000000000000     
  -6.9501397970946283E-003   5.5433663537619284E-002   0.0000000000000000     
  -7.9915002442026081E-003   3.5272674834838848E-002   0.0000000000000000     
  -8.6343612907618782E-003   4.0030053679672273E-002   0.0000000000000000     
  -9.2616942164139137E-003   4.5000076510935384E-002   0.0000000000000000     
  -9.8734990211587197E-003   5.0182743328628161E-002   0.0000000000000000     
  -1.0469775704996293E-002   5.5578054132750618E-002   0.0000000000000000     
  -1.0706392398216410E-002   3.5476042322894225E-002   0.0000000000000000     
  -1.1568182374715413E-002   4.0236483362638867E-002   0.0000000000000000     
  -1.2407645101025919E-002   4.5207329406579184E-002   0.0000000000000000     
  -1.3224780577147934E-002   5.0388580454715184E-002   0.0000000000000000     
  -1.4019588803081452E-002   5.5780236507046874E-002   0.0000000000000000     
  -1.3995518417756359E-006   5.5318257684851331E-002   0.0000000000000000     
  -1.6881872969143211E-006   6.0921722761148746E-002   0.0000000000000000     
  -2.2902285791218916E-006   6.6713845348265896E-002   0.0000000000000000     
  -3.2056756884032397E-006   7.2694625446202810E-002   0.0000000000000000     
  -4.4345286247526872E-006   7.8864063054959452E-002   0.0000000000000000     
  -3.4606810793764565E-003   5.5347064721652850E-002   0.0000000000000000     
  -3.6544453965230358E-003   6.0949168220191752E-002   0.0000000000000000     
  -3.8422257694925186E-003   6.6739935354675817E-002   0.0000000000000000     
  -4.0240221982849062E-003   7.2719366125105059E-002   0.0000000000000000     
  -4.1998346829001986E-003   7.8887460531479478E-002   0.0000000000000000     
  -6.9501397970946283E-003   5.5433663537619284E-002   0.0000000000000000     
  -7.3369718365635514E-003   6.1033256473102489E-002   0.0000000000000000     
  -7.7117015826051504E-003   6.6821494267452999E-002   0.0000000000000000     
  -8.0743290352194366E-003   7.2798376920670829E-002   0.0000000000000000     
  -8.4248541944064032E-003   7.8963904432755944E-002   0.0000000000000000     
  -1.0469775704996293E-002   5.5578054132750618E-002   0.0000000000000000     
  -1.1049267507418456E-002   6.1173987519880998E-002   0.0000000000000000     
  -1.1610717667917025E-002   6.6958522086597499E-002   0.0000000000000000     
  -1.2154126186491991E-002   7.2931657832900107E-002   0.0000000000000000     
  -1.2679493063143366E-002   7.9093394758788904E-002   0.0000000000000000     
  -1.4019588803081452E-002   5.5780236507046874E-002   0.0000000000000000     
  -1.4791332409087759E-002   6.1371361360527232E-002   0.0000000000000000     
  -1.5539274025428132E-002   6.7151018812109262E-002   0.0000000000000000     
  -1.6263413652102574E-002   7.3119208861792961E-002   0.0000000000000000     
  -1.6963751289111088E-002   7.9275931509578318E-002   0.0000000000000000     
  -4.4345286247526872E-006   7.8864063054959452E-002   0.0000000000000000     
  -5.4625519591675227E-006   8.5201418303357007E-002   0.0000000000000000     
  -5.7755102626440595E-006   9.1685951320216605E-002   0.0000000000000000     
  -5.3734035351777167E-006   9.8317662105538245E-002   0.0000000000000000     
  -4.2562317767724789E-006  0.10509655065932194        0.0000000000000000     
  -4.1998346829001986E-003   7.8887460531479478E-002   0.0000000000000000     
  -4.3688810286883406E-003   8.5223607274271779E-002   0.0000000000000000     
  -4.5303790409992762E-003   9.1707195053954776E-002   0.0000000000000000     
  -4.6843287198330089E-003   9.8338223870528402E-002   0.0000000000000000     
  -4.8307300651895344E-003  0.10511669372399268        0.0000000000000000     
  -8.4248541944064032E-003   7.8963904432755944E-002   0.0000000000000000     
  -8.7620790141531239E-003   8.5297386798396074E-002   0.0000000000000000     
  -9.0848054484466700E-003   9.1778134012278967E-002   0.0000000000000000     
  -9.3930334972870382E-003   9.8406146074404580E-002   0.0000000000000000     
  -9.6867631606742353E-003  0.10518142298477295        0.0000000000000000     
  -1.2679493063143366E-002   7.9093394758788904E-002   0.0000000000000000     
  -1.3185056508353514E-002   8.5422756875729894E-002   0.0000000000000000     
  -1.3669054732604820E-002   9.1898768195189190E-002   0.0000000000000000     
  -1.4131487735897272E-002   9.8521428717166806E-002   0.0000000000000000     
  -1.4572355518230874E-002  0.10529073844166273        0.0000000000000000     
  -1.6963751289111088E-002   7.9275931509578318E-002   0.0000000000000000     
  -1.7637813511289520E-002   8.5599717506273196E-002   0.0000000000000000     
  -1.8283126893473729E-002   9.2069097602685446E-002   0.0000000000000000     
  -1.8899691435663703E-002   9.8684071798815054E-002   0.0000000000000000     
  -1.9487507137859458E-002  0.10544464009466203        0.0000000000000000     
  -4.2562317767724789E-006  0.10509655065932194        0.0000000000000000     
  -3.1818955417383093E-006  0.11202952159460605        0.0000000000000000     
  -2.9082953843926522E-006  0.11912347952442887        0.0000000000000000     
  -3.4354313047306559E-006  0.12637842444879044        0.0000000000000000     
  -4.7633033027566843E-006  0.13379435636769071        0.0000000000000000     
  -4.8307300651895344E-003  0.10511669372399268        0.0000000000000000     
  -4.9707817668824322E-003  0.11204817343190891        0.0000000000000000     
  -5.1056825147252748E-003  0.11913823181183834        0.0000000000000000     
  -5.2354323087180693E-003  0.12638686886378098        0.0000000000000000     
  -5.3600311488608060E-003  0.13379408458773678        0.0000000000000000     
  -9.6867631606742353E-003  0.10518142298477295        0.0000000000000000     
  -9.9679698821777650E-003  0.11210923217563985        0.0000000000000000     
  -1.0238629105367138E-002  0.11919484107926105        0.0000000000000000     
  -1.0498740830242360E-002  0.12643824969563655        0.0000000000000000     
  -1.0748305056803421E-002  0.13383945802476638        0.0000000000000000     
  -1.4572355518230874E-002  0.10529073844166273        0.0000000000000000     
  -1.4994746241427742E-002  0.11221269782579886        0.0000000000000000     
  -1.5401748067309991E-002  0.11929330732669702        0.0000000000000000     
  -1.5793360995877612E-002  0.12653256694435724        0.0000000000000000     
  -1.6169585027130600E-002  0.13393047667877950        0.0000000000000000     
  -1.9487507137859458E-002  0.10544464009466203        0.0000000000000000     
  -2.0051110844632368E-002  0.11235857038238591        0.0000000000000000     
  -2.0595039400553818E-002  0.11943363055414621        0.0000000000000000     
  -2.1119292805623812E-002  0.12666982060994300        0.0000000000000000     
  -2.1623871059842342E-002  0.13406714054977614        0.0000000000000000     
  -4.7633033027566843E-006  0.13379435636769071        0.0000000000000000     
  -4.9765782865706081E-006  0.14133095748184998        0.0000000000000000     
  -2.1599231642765266E-006  0.14894790999198851        0.0000000000000000     
   3.6866620641271052E-006  0.15664521389810621        0.0000000000000000     
   1.2563177398638471E-005  0.16442286920020316        0.0000000000000000     
  -5.3600311488608060E-003  0.13379408458773678        0.0000000000000000     
  -5.4781824995107876E-003  0.14132875326563554        0.0000000000000000     
  -5.5885898250253056E-003  0.14895974917940685        0.0000000000000000     
  -5.6912531254043617E-003  0.15668707232905082        0.0000000000000000     
  -5.7861724006479532E-003  0.16451072271456743        0.0000000000000000     
  -1.0748305056803421E-002  0.13383945802476638        0.0000000000000000     
  -1.0985472702093152E-002  0.14137125371430501        0.0000000000000000     
  -1.1208394683154379E-002  0.14900642441190698        0.0000000000000000     
  -1.1417070999987100E-002  0.15674497011757224        0.0000000000000000     
  -1.1611501652591312E-002  0.16458689083130085        0.0000000000000000     
  -1.6169585027130600E-002  0.13393047667877950        0.0000000000000000     
  -1.6526847186033661E-002  0.14145845882785846        0.0000000000000000     
  -1.6861574497551494E-002  0.14908793568948880        0.0000000000000000     
  -1.7173766961684087E-002  0.15681890726367048        0.0000000000000000     
  -1.7463424578431443E-002  0.16465137355040346        0.0000000000000000     
  -2.1623871059842342E-002  0.13406714054977614        0.0000000000000000     
  -2.2102305951332321E-002  0.14159036860629590        0.0000000000000000     
  -2.2548129268216647E-002  0.14920428301215230        0.0000000000000000     
  -2.2961341010495327E-002  0.15690888376734538        0.0000000000000000     
  -2.3341941178168346E-002  0.16470417087187522        0.0000000000000000     
   0.0000000000000000        0.0000000000000000        0.0000000000000000     
  -8.4167627461363703E-004   1.1099531404070383E-003   0.0000000000000000     
  -1.7021248388631306E-003   2.5980811518834632E-003   0.0000000000000000     
  -2.5813456927484802E-003   4.4643840344292746E-003   0.0000000000000000     
  -3.4793388362696861E-003   6.7088617880444734E-003   0.0000000000000000     
   0.0000000000000000        0.0000000000000000        0.0000000000000000     
  -1.0567010611763530E-003   1.1341249173593413E-003   0.0000000000000000     
  -2.1397691562355632E-003   2.6503385014106529E-003   0.0000000000000000     
  -3.2492042851776297E-003   4.5486407521539342E-003   0.0000000000000000     
  -4.3850064480025538E-003   6.8290316695891881E-003   0.0000000000000000     
   0.0000000000000000        0.0000000000000000        0.0000000000000000     
  -1.2878219837399712E-003   1.1699906569668129E-003   0.0000000000000000     
  -2.6055273228197764E-003   2.7245969613083399E-003   0.0000000000000000     
  -3.9531160172394152E-003   4.6638189130245832E-003   0.0000000000000000     
  -5.3305880669988880E-003   6.9876565121155384E-003   0.0000000000000000     
   0.0000000000000000        0.0000000000000000        0.0000000000000000     
  -1.5350390423044913E-003   1.2175503592294528E-003   0.0000000000000000     
  -3.0993993386157696E-003   2.8208565315765246E-003   0.0000000000000000     
  -4.6930808889338359E-003   4.8099185170412152E-003   0.0000000000000000     
  -6.3160836932586910E-003   7.1847363156235262E-003   0.0000000000000000     
   0.0000000000000000        0.0000000000000000        0.0000000000000000     
  -1.7983522368699128E-003   1.2768040241472609E-003   0.0000000000000000     
  -3.6213852036235438E-003   2.9391172122152061E-003   0.0000000000000000     
  -5.4690989002608931E-003   4.9869395642038348E-003   0.0000000000000000     
  -7.3414933267819593E-003   7.4202710801131487E-003   0.0000000000000000     
  -3.4793388362696861E-003   6.7088617880444734E-003   0.0000000000000000     
  -4.3878703317564906E-003   9.2941554873398891E-003   0.0000000000000000     
  -5.2987062415386322E-003   1.2182906206926358E-002   0.0000000000000000     
  -6.2118465656161139E-003   1.5375113946803876E-002   0.0000000000000000     
  -7.1272913039889347E-003   1.8870778706972447E-002   0.0000000000000000     
  -4.3850064480025538E-003   6.8290316695891881E-003   0.0000000000000000     
  -5.5342014937094881E-003   9.4494953037402678E-003   0.0000000000000000     
  -6.6838152712975860E-003   1.2368015704631032E-002   0.0000000000000000     
  -7.8338477807668502E-003   1.5584592872261473E-002   0.0000000000000000     
  -8.9842990221172762E-003   1.9099226806631606E-002   0.0000000000000000     
  -5.3305880669988880E-003   6.9876565121155384E-003   0.0000000000000000     
  -6.7234864887914421E-003   9.6500267949496277E-003   0.0000000000000000     
  -8.1173542993103216E-003   1.2604846797895260E-002   0.0000000000000000     
  -9.5121914985555247E-003   1.5852116520952437E-002   0.0000000000000000     
  -1.0907998086527057E-002   1.9391835964121164E-002   0.0000000000000000     
  -6.3160836932586910E-003   7.1847363156235262E-003   0.0000000000000000     
  -7.9557253170023517E-003   9.8957499609679637E-003   0.0000000000000000     
  -9.5993233255768345E-003   1.2893399486719047E-002   0.0000000000000000     
  -1.1246877718982142E-002   1.6177684892876767E-002   0.0000000000000000     
  -1.2898388497218274E-002   1.9748606179441131E-002   0.0000000000000000     
  -7.3414933267819593E-003   7.4202710801131487E-003   0.0000000000000000     
  -9.2309179783422127E-003   1.0186664801795286E-002   0.0000000000000000     
  -1.1129722350097127E-002   1.3233673771102392E-002   0.0000000000000000     
  -1.3037906442046698E-002   1.6561297988034462E-002   0.0000000000000000     
  -1.4955470254190929E-002   2.0169537452591500E-002   0.0000000000000000     
  -7.1272913039889347E-003   1.8870778706972447E-002   0.0000000000000000     
  -8.0384328315185188E-003   2.2644152635703130E-002   0.0000000000000000     
  -8.9386635230662929E-003   2.6669487881266985E-002   0.0000000000000000     
  -9.8279833786322560E-003   3.0946784443664017E-002   0.0000000000000000     
  -1.0706392398216410E-002   3.5476042322894225E-002   0.0000000000000000     
  -8.9842990221172762E-003   1.9099226806631606E-002   0.0000000000000000     
  -1.0128125322154071E-002   2.2887184032566236E-002   0.0000000000000000     
  -1.1258283007682434E-002   2.6923731074890205E-002   0.0000000000000000     
  -1.2374772078702368E-002   3.1208867933603498E-002   0.0000000000000000     
  -1.3477592535213870E-002   3.5742594608706123E-002   0.0000000000000000     
  -1.0907998086527057E-002   1.9391835964121164E-002   0.0000000000000000     
  -1.2294456379928787E-002   2.3199154159701654E-002   0.0000000000000000     
  -1.3661248695464584E-002   2.7249220139994118E-002   0.0000000000000000     
  -1.5008375033134458E-002   3.1542033904998566E-002   0.0000000000000000     
  -1.6335835392938404E-002   3.6077595454714992E-002   0.0000000000000000     
  -1.2898388497218274E-002   1.9748606179441131E-002   0.0000000000000000     
  -1.4537426004842665E-002   2.3580063017109371E-002   0.0000000000000000     
  -1.6147560586412750E-002   2.7645955076578740E-002   0.0000000000000000     
  -1.7728792241928533E-002   3.1946282357849236E-002   0.0000000000000000     
  -1.9281120971390009E-002   3.6481044860920839E-002   0.0000000000000000     
  -1.4955470254190929E-002   2.0169537452591500E-002   0.0000000000000000     
  -1.6857034196895705E-002   2.4029910604789401E-002   0.0000000000000000     
  -1.8717218680526924E-002   2.8113935884644062E-002   0.0000000000000000     
  -2.0536023705084585E-002   3.2421613292155482E-002   0.0000000000000000     
  -2.2313449270568685E-002   3.6952942827323663E-002   0.0000000000000000     
  -1.0706392398216410E-002   3.5476042322894225E-002   0.0000000000000000     
  -1.1568182374715413E-002   4.0236483362638867E-002   0.0000000000000000     
  -1.2407645101025919E-002   4.5207329406579184E-002   0.0000000000000000     
  -1.3224780577147934E-002   5.0388580454715184E-002   0.0000000000000000     
  -1.4019588803081452E-002   5.5780236507046874E-002   0.0000000000000000     
  -1.3477592535213870E-002   3.5742594608706123E-002   0.0000000000000000     
  -1.4558948686288604E-002   4.0504725971689741E-002   0.0000000000000000     
  -1.5611044840998213E-002   4.5475076894045993E-002   0.0000000000000000     
  -1.6633880999342713E-002   5.0653647375774886E-002   0.0000000000000000     
  -1.7627457161322094E-002   5.6040437416876449E-002   0.0000000000000000     
  -1.6335835392938404E-002   3.6077595454714992E-002   0.0000000000000000     
  -1.7635644887138625E-002   4.0837877546512608E-002   0.0000000000000000     
  -1.8899818627997337E-002   4.5804852937760598E-002   0.0000000000000000     
  -2.0128356615514528E-002   5.0978521628458978E-002   0.0000000000000000     
  -2.1321258849690210E-002   5.6358883618607740E-002   0.0000000000000000     
  -1.9281120971390009E-002   3.6481044860920839E-002   0.0000000000000000     
  -2.0798270977265491E-002   4.1235938087107467E-002   0.0000000000000000     
  -2.2273966462023276E-002   4.6196657537722993E-002   0.0000000000000000     
  -2.3708207425663385E-002   5.1363203212767425E-002   0.0000000000000000     
  -2.5100993868185796E-002   5.6735575112240762E-002   0.0000000000000000     
  -2.2313449270568685E-002   3.6952942827323663E-002   0.0000000000000000     
  -2.4046826956669196E-002   4.1698907593474326E-002   0.0000000000000000     
  -2.5733488343076052E-002   4.6650490693933185E-002   0.0000000000000000     
  -2.7373433429789280E-002   5.1807692128700254E-002   0.0000000000000000     
  -2.8966662216808860E-002   5.7170511897775514E-002   0.0000000000000000     
  -1.4019588803081452E-002   5.5780236507046874E-002   0.0000000000000000     
  -1.4791332409087759E-002   6.1371361360527232E-002   0.0000000000000000     
  -1.5539274025428132E-002   6.7151018812109262E-002   0.0000000000000000     
  -1.6263413652102574E-002   7.3119208861792961E-002   0.0000000000000000     
  -1.6963751289111088E-002   7.9275931509578318E-002   0.0000000000000000     
  -1.7627457161322094E-002   5.6040437416876449E-002   0.0000000000000000     
  -1.8591604971798188E-002   6.1625426390809347E-002   0.0000000000000000     
  -1.9526156075632836E-002   6.7398593671032320E-002   0.0000000000000000     
  -2.0431110472826031E-002   7.3359939257545345E-002   0.0000000000000000     
  -2.1306468163377775E-002   7.9509463150348444E-002   0.0000000000000000     
  -2.1321258849690210E-002   5.6358883618607740E-002   0.0000000000000000     
  -2.2478523625776490E-002   6.1936231006495458E-002   0.0000000000000000     
  -2.3600149239025484E-002   6.7700855890410652E-002   0.0000000000000000     
  -2.4686135689437200E-002   7.3652758270353350E-002   0.0000000000000000     
  -2.5736482977011626E-002   7.9791938146323543E-002   0.0000000000000000     
  -2.5100993868185796E-002   5.6735575112240762E-002   0.0000000000000000     
  -2.6452088371022649E-002   6.2303775207585538E-002   0.0000000000000000     
  -2.7761253515606078E-002   6.8057805470244259E-002   0.0000000000000000     
  -2.9028489301936078E-002   7.3997665900216947E-002   0.0000000000000000     
  -3.0253795730012651E-002   8.0123356497503601E-002   0.0000000000000000     
  -2.8966662216808860E-002   5.7170511897775514E-002   0.0000000000000000     
  -3.0512299207536682E-002   6.2728058994079613E-002   0.0000000000000000     
  -3.2009468905374615E-002   6.8469442410533154E-002   0.0000000000000000     
  -3.3458171310322672E-002   7.4394662147136151E-002   0.0000000000000000     
  -3.4858406422380847E-002   8.0503718203888616E-002   0.0000000000000000     
  -1.6963751289111088E-002   7.9275931509578318E-002   0.0000000000000000     
  -1.7637813511289520E-002   8.5599717506273196E-002   0.0000000000000000     
  -1.8283126893473729E-002   9.2069097602685446E-002   0.0000000000000000     
  -1.8899691435663703E-002   9.8684071798815054E-002   0.0000000000000000     
  -1.9487507137859458E-002  0.10544464009466203        0.0000000000000000     
  -2.1306468163377775E-002   7.9509463150348444E-002   0.0000000000000000     
  -2.2149060499761383E-002   8.5825437138733543E-002   0.0000000000000000     
  -2.2955718834450179E-002   9.2286133011992580E-002   0.0000000000000000     
  -2.3726443167444159E-002   9.8891550770125541E-002   0.0000000000000000     
  -2.4461233498743323E-002  0.10564169041313241        0.0000000000000000     
  -2.5736482977011626E-002   7.9791938146323543E-002   0.0000000000000000     
  -2.6747507950569356E-002   8.6097084221818498E-002   0.0000000000000000     
  -2.7715527458930959E-002   9.2546885200335494E-002   0.0000000000000000     
  -2.8640541502096453E-002   9.9141341081874473E-002   0.0000000000000000     
  -2.9522550080065824E-002  0.10588045186643549        0.0000000000000000     
  -3.0253795730012651E-002   8.0123356497503601E-002   0.0000000000000000     
  -3.1433155863713431E-002   8.6414658755528062E-002   0.0000000000000000     
  -3.2562552766916081E-002   9.2851354167714159E-002   0.0000000000000000     
  -3.3641986439620589E-002   9.9433442734061891E-002   0.0000000000000000     
  -3.4671456881826962E-002  0.10616092445457126        0.0000000000000000     
  -3.4858406422380847E-002   8.0503718203888616E-002   0.0000000000000000     
  -3.6206004239193630E-002   8.6778160739862220E-002   0.0000000000000000     
  -3.7496794758405540E-002   9.3199539914128590E-002   0.0000000000000000     
  -3.8730777980016576E-002   9.9767855726687740E-002   0.0000000000000000     
  -3.9907953904026724E-002  0.10648310817753970        0.0000000000000000     
  -1.9487507137859458E-002  0.10544464009466203        0.0000000000000000     
  -2.0051110844632368E-002  0.11235857038238591        0.0000000000000000     
  -2.0595039400553818E-002  0.11943363055414621        0.0000000000000000     
  -2.1119292805623812E-002  0.12666982060994300        0.0000000000000000     
  -2.1623871059842342E-002  0.13406714054977614        0.0000000000000000     
  -2.4461233498743323E-002  0.10564169041313241        0.0000000000000000     
  -2.5166198018497409E-002  0.11254591704933081        0.0000000000000000     
  -2.5847444916856144E-002  0.11961359578703823        0.0000000000000000     
  -2.6504974193819524E-002  0.12684472662625476        0.0000000000000000     
  -2.7138785849387562E-002  0.13423930956698032        0.0000000000000000     
  -2.9522550080065824E-002  0.10588045186643549        0.0000000000000000     
  -3.0369142089728643E-002  0.11277380503056329        0.0000000000000000     
  -3.1187906427974470E-002  0.11983098805080264        0.0000000000000000     
  -3.1978843094803318E-002  0.12705200092715355        0.0000000000000000     
  -3.2741952090215173E-002  0.13443684365961603        0.0000000000000000     
  -3.4671456881826962E-002  0.10616092445457126        0.0000000000000000     
  -3.5659943058326073E-002  0.11304223432608342        0.0000000000000000     
  -3.6616423933908814E-002  0.12008580734543944        0.0000000000000000     
  -3.7540899508575164E-002  0.12729164351263936        0.0000000000000000     
  -3.8433369782325158E-002  0.13465974282768320        0.0000000000000000     
  -3.9907953904026724E-002  0.10648310817753970        0.0000000000000000     
  -4.1038600924289695E-002  0.11335120493589110        0.0000000000000000     
  -4.2132997434659140E-002  0.12037805367094861        0.0000000000000000     
  -4.3191143435135096E-002  0.12756365438271222        0.0000000000000000     
  -4.4213038925717540E-002  0.13490800707118195        0.0000000000000000     
  -2.1623871059842342E-002  0.13406714054977614        0.0000000000000000     
  -2.2102305951332321E-002  0.14159036860629590        0.0000000000000000     
  -2.2548129268216647E-002  0.14920428301215230        0.0000000000000000     
  -2.2961341010495327E-002  0.15690888376734538        0.0000000000000000     
  -2.3341941178168346E-002  0.16470417087187522        0.0000000000000000     
  -2.7138785849387562E-002  0.13423930956698032        0.0000000000000000     
  -2.7739212168992031E-002  0.14175501513270600        0.0000000000000000     
  -2.8296585438064709E-002  0.14934951384692285        0.0000000000000000     
  -2.8810905656605594E-002  0.15702280570963090        0.0000000000000000     
  -2.9282172824614688E-002  0.16477489072083007        0.0000000000000000     
  -3.2741952090215173E-002  0.13443684365961603        0.0000000000000000     
  -3.3464929010015694E-002  0.14194043049017757        0.0000000000000000     
  -3.4135469450010524E-002  0.14951767566082574        0.0000000000000000     
  -3.4753573410199669E-002  0.15716857917156060        0.0000000000000000     
  -3.5319240890583137E-002  0.16489314102238206        0.0000000000000000     
  -3.8433369782325158E-002  0.13465974282768320        0.0000000000000000     
  -3.9279456474403299E-002  0.14214661467871056        0.0000000000000000     
  -4.0064781304054095E-002  0.14970876845386097        0.0000000000000000     
  -4.0789344271277568E-002  0.15734620415313447        0.0000000000000000     
  -4.1453145376073697E-002  0.16505892177653114        0.0000000000000000     
  -4.4213038925717540E-002  0.13490800707118195        0.0000000000000000     
  -4.5182794562154863E-002  0.14237356769830495        0.0000000000000000     
  -4.6084521000195430E-002  0.14992279222602853        0.0000000000000000     
  -4.6918218239839271E-002  0.15755568065435266        0.0000000000000000     
  -4.7683886281086364E-002  0.16527223298327731        0.0000000000000000     
   0.0000000000000000        0.0000000000000000        0.0000000000000000     
  -1.7983522368699128E-003   1.2768040241472609E-003   0.0000000000000000     
  -3.6213852036235438E-003   2.9391172122152061E-003   0.0000000000000000     
  -5.4690989002608931E-003   4.9869395642038348E-003   0.0000000000000000     
  -7.3414933267819593E-003   7.4202710801131487E-003   0.0000000000000000     
   0.0000000000000000        0.0000000000000000        0.0000000000000000     
  -2.0694828560198480E-003   1.3548826328557586E-003   0.0000000000000000     
  -4.1641254740880885E-003   3.0939100985023851E-003   0.0000000000000000     
  -6.2839278542047216E-003   5.2170823969398773E-003   0.0000000000000000     
  -8.4288899963697456E-003   7.7243995281682364E-003   0.0000000000000000     
   0.0000000000000000        0.0000000000000000        0.0000000000000000     
  -2.3401521883379085E-003   1.4589171664904674E-003   0.0000000000000000     
  -4.7202607062543948E-003   3.2997662857160606E-003   0.0000000000000000     
  -7.1403255537494589E-003   5.5225473576767789E-003   0.0000000000000000     
  -9.6003467308231026E-003   8.1272603823726239E-003   0.0000000000000000     
   0.0000000000000000        0.0000000000000000        0.0000000000000000     
  -2.6103602338240933E-003   1.5889076250513872E-003   0.0000000000000000     
  -5.2897909001224618E-003   3.5566857738562343E-003   0.0000000000000000     
  -8.0382919988951067E-003   5.9033344464145413E-003   0.0000000000000000     
  -1.0855863530142028E-002   8.6288536427263085E-003   0.0000000000000000     
   0.0000000000000000        0.0000000000000000        0.0000000000000000     
  -2.8801069924784032E-003   1.7448540085385181E-003   0.0000000000000000     
  -5.8727160556922911E-003   3.8646685629229061E-003   0.0000000000000000     
  -8.9778271896416625E-003   6.3594436631531619E-003   0.0000000000000000     
  -1.2195440394326521E-002   9.2291793092292868E-003   0.0000000000000000     
  -7.3414933267819593E-003   7.4202710801131487E-003   0.0000000000000000     
  -9.2309179783422127E-003   1.0186664801795286E-002   0.0000000000000000     
  -1.1129722350097127E-002   1.3233673771102392E-002   0.0000000000000000     
  -1.3037906442046698E-002   1.6561297988034462E-002   0.0000000000000000     
  -1.4955470254190929E-002   2.0169537452591500E-002   0.0000000000000000     
  -8.4288899963697456E-003   7.7243995281682364E-003   0.0000000000000000     
  -1.0590727230001597E-002   1.0558368233552821E-002   0.0000000000000000     
  -1.2761154884518698E-002   1.3661495254458993E-002   0.0000000000000000     
  -1.4940172959921054E-002   1.7033780590886744E-002   0.0000000000000000     
  -1.7127781456208666E-002   2.0675224242836080E-002   0.0000000000000000     
  -9.6003467308231026E-003   8.1272603823726239E-003   0.0000000000000000     
  -1.2076815829171054E-002   1.1046457172361808E-002   0.0000000000000000     
  -1.4546224440489041E-002   1.4212689540202545E-002   0.0000000000000000     
  -1.7008572564777068E-002   1.7625957485894836E-002   0.0000000000000000     
  -1.9463860202035128E-002   2.1286261009438676E-002   0.0000000000000000     
  -1.0855863530142028E-002   8.6288536427263085E-003   0.0000000000000000     
  -1.3689183775850593E-002   1.1650931618222241E-002   0.0000000000000000     
  -1.6484931018008162E-002   1.4887256628333050E-002   0.0000000000000000     
  -1.9243105256614736E-002   1.8337828673058734E-002   0.0000000000000000     
  -2.1963706491670325E-002   2.2002647752399296E-002   0.0000000000000000     
  -1.2195440394326521E-002   9.2291793092292868E-003   0.0000000000000000     
  -1.5427831070040204E-002   1.2371791571134123E-002   0.0000000000000000     
  -1.8577274617076051E-002   1.5685196518850510E-002   0.0000000000000000     
  -2.1643771035434068E-002   1.9169394152378443E-002   0.0000000000000000     
  -2.4627320325114246E-002   2.2824384471717925E-002   0.0000000000000000     
  -1.4955470254190929E-002   2.0169537452591500E-002   0.0000000000000000     
  -1.6857034196895705E-002   2.4029910604789401E-002   0.0000000000000000     
  -1.8717218680526924E-002   2.8113935884644062E-002   0.0000000000000000     
  -2.0536023705084585E-002   3.2421613292155482E-002   0.0000000000000000     
  -2.2313449270568685E-002   3.6952942827323663E-002   0.0000000000000000     
  -1.7127781456208666E-002   2.0675224242836080E-002   0.0000000000000000     
  -1.9292671214354681E-002   2.4558338992284663E-002   0.0000000000000000     
  -2.1403533075332246E-002   2.8655637621210147E-002   0.0000000000000000     
  -2.3460367039141363E-002   3.2967120129612545E-002   0.0000000000000000     
  -2.5463173105782035E-002   3.7492786517491841E-002   0.0000000000000000     
  -1.9463860202035128E-002   2.1286261009438676E-002   0.0000000000000000     
  -2.1883727315486351E-002   2.5174990249138083E-002   0.0000000000000000     
  -2.4239813868353843E-002   2.9273535343297068E-002   0.0000000000000000     
  -2.6532119860637610E-002   3.3581896291915631E-002   0.0000000000000000     
  -2.8760645292337648E-002   3.8100073094993768E-002   0.0000000000000000     
  -2.1963706491670325E-002   2.2002647752399296E-002   0.0000000000000000     
  -2.4630202500290715E-002   2.5879864375349674E-002   0.0000000000000000     
  -2.7226061059591723E-002   2.9967629050904821E-002   0.0000000000000000     
  -2.9751282169573321E-002   3.4265941779064737E-002   0.0000000000000000     
  -3.2205865830235526E-002   3.8774802559829430E-002   0.0000000000000000     
  -2.4627320325114246E-002   2.2824384471717925E-002   0.0000000000000000     
  -2.7532096768767785E-002   2.6672961370919429E-002   0.0000000000000000     
  -3.0362274649045867E-002   3.0737918744033414E-002   0.0000000000000000     
  -3.3117853965948497E-002   3.5019256591059880E-002   0.0000000000000000     
  -3.5798834719475675E-002   3.9516974911998834E-002   0.0000000000000000     
  -2.2313449270568685E-002   3.6952942827323663E-002   0.0000000000000000     
  -2.4046826956669196E-002   4.1698907593474326E-002   0.0000000000000000     
  -2.5733488343076052E-002   4.6650490693933185E-002   0.0000000000000000     
  -2.7373433429789280E-002   5.1807692128700254E-002   0.0000000000000000     
  -2.8966662216808860E-002   5.7170511897775514E-002   0.0000000000000000     
  -2.5463173105782035E-002   3.7492786517491841E-002   0.0000000000000000     
  -2.7412858392547177E-002   4.2228132681990958E-002   0.0000000000000000     
  -2.9310330016729721E-002   4.7168654520252817E-002   0.0000000000000000     
  -3.1155587978329652E-002   5.2314352032277404E-002   0.0000000000000000     
  -3.2948632277346984E-002   5.7665225218064733E-002   0.0000000000000000     
  -2.8760645292337648E-002   3.8100073094993768E-002   0.0000000000000000     
  -3.0927910852096913E-002   4.2824959969035167E-002   0.0000000000000000     
  -3.3036437228558348E-002   4.7753451130543537E-002   0.0000000000000000     
  -3.5086224421721962E-002   5.2885546579518876E-002   0.0000000000000000     
  -3.7077272431587746E-002   5.8221246315961178E-002   0.0000000000000000     
  -3.2205865830235526E-002   3.8774802559829430E-002   0.0000000000000000     
  -3.4591984335318397E-002   4.3489389454606946E-002   0.0000000000000000     
  -3.6911809978561944E-002   4.8404880524805349E-002   0.0000000000000000     
  -3.9165342759966200E-002   5.3521275770424634E-002   0.0000000000000000     
  -4.1352582679531159E-002   5.8838575191464834E-002   0.0000000000000000     
  -3.5798834719475675E-002   3.9516974911998834E-002   0.0000000000000000     
  -3.8405078842211608E-002   4.4221421138706279E-002   0.0000000000000000     
  -4.0936448266740505E-002   4.9122942703038242E-002   0.0000000000000000     
  -4.3392942993062379E-002   5.4221539604994720E-002   0.0000000000000000     
  -4.5774563021177217E-002   5.9517211844575715E-002   0.0000000000000000     
  -2.8966662216808860E-002   5.7170511897775514E-002   0.0000000000000000     
  -3.0512299207536682E-002   6.2728058994079613E-002   0.0000000000000000     
  -3.2009468905374615E-002   6.8469442410533154E-002   0.0000000000000000     
  -3.3458171310322672E-002   7.4394662147136151E-002   0.0000000000000000     
  -3.4858406422380847E-002   8.0503718203888616E-002   0.0000000000000000     
  -3.2948632277346984E-002   5.7665225218064733E-002   0.0000000000000000     
  -3.4688130170648063E-002   6.3209713266759976E-002   0.0000000000000000     
  -3.6372748915099236E-002   6.8936255367508317E-002   0.0000000000000000     
  -3.8002488510700511E-002   7.4844851520309716E-002   0.0000000000000000     
  -3.9577348957451894E-002   8.0935501725164227E-002   0.0000000000000000     
  -3.7077272431587746E-002   5.8221246315961178E-002   0.0000000000000000     
  -3.9008555295686261E-002   6.3749368926408950E-002   0.0000000000000000     
  -4.0879047051548059E-002   6.9458732997400685E-002   0.0000000000000000     
  -4.2688747699173142E-002   7.5349338528936396E-002   0.0000000000000000     
  -4.4437657238561488E-002   8.1421185521016057E-002   0.0000000000000000     
  -4.1352582679531159E-002   5.8838575191464834E-002   0.0000000000000000     
  -4.3473574582651289E-002   6.4347025973026523E-002   0.0000000000000000     
  -4.5528363314721092E-002   7.0036875300210286E-002   0.0000000000000000     
  -4.7516948875740525E-002   7.5908123173016151E-002   0.0000000000000000     
  -4.9439331265709652E-002   8.1960769591444091E-002   0.0000000000000000     
  -4.5774563021177217E-002   5.9517211844575715E-002   0.0000000000000000     
  -4.8083188031543142E-002   6.5002684406612679E-002   0.0000000000000000     
  -5.0320697704618313E-002   7.0670682275937105E-002   0.0000000000000000     
  -5.2487092040402715E-002   7.6521205452548993E-002   0.0000000000000000     
  -5.4582371038896356E-002   8.2554253936448344E-002   0.0000000000000000     
  -3.4858406422380847E-002   8.0503718203888616E-002   0.0000000000000000     
  -3.6206004239193630E-002   8.6778160739862220E-002   0.0000000000000000     
  -3.7496794758405540E-002   9.3199539914128590E-002   0.0000000000000000     
  -3.8730777980016576E-002   9.9767855726687740E-002   0.0000000000000000     
  -3.9907953904026724E-002  0.10648310817753970        0.0000000000000000     
  -3.9577348957451894E-002   8.0935501725164227E-002   0.0000000000000000     
  -4.1092960291218249E-002   8.7191450693266989E-002   0.0000000000000000     
  -4.2544952547864417E-002   9.3595943135813167E-002   0.0000000000000000     
  -4.3933325727390435E-002  0.10014897905280273        0.0000000000000000     
  -4.5258079829796287E-002  0.10685055844423569        0.0000000000000000     
  -4.4437657238561488E-002   8.1421185521016057E-002   0.0000000000000000     
  -4.6120931233995577E-002   8.7658389134188427E-002   0.0000000000000000     
  -4.7733725249757816E-002   9.4045064529002242E-002   0.0000000000000000     
  -4.9276039285848221E-002  0.10058121170545745        0.0000000000000000     
  -5.0747873342266790E-002  0.10726683066355411        0.0000000000000000     
  -4.9439331265709652E-002   8.1960769591444091E-002   0.0000000000000000     
  -5.1289917067525642E-002   8.8178976062626507E-002   0.0000000000000000     
  -5.3063112864085736E-002   9.4546904093695802E-002   0.0000000000000000     
  -5.4758918655389947E-002  0.10106455368465195        0.0000000000000000     
  -5.6377334441438248E-002  0.10773192483549496        0.0000000000000000     
  -5.4582371038896356E-002   8.2554253936448344E-002   0.0000000000000000     
  -5.6599917791808431E-002   8.8753211478581256E-002   0.0000000000000000     
  -5.8533115390848184E-002   9.5101461829893874E-002   0.0000000000000000     
  -6.0381963836015601E-002  0.10159900499038618        0.0000000000000000     
  -6.2146463127310675E-002  0.10824584096005818        0.0000000000000000     
  -3.9907953904026724E-002  0.10648310817753970        0.0000000000000000     
  -4.1038600924289695E-002  0.11335120493589110        0.0000000000000000     
  -4.2132997434659140E-002  0.12037805367094861        0.0000000000000000     
  -4.3191143435135096E-002  0.12756365438271222        0.0000000000000000     
  -4.4213038925717540E-002  0.13490800707118195        0.0000000000000000     
  -4.5258079829796287E-002  0.10685055844423569        0.0000000000000000     
  -4.6530875883069374E-002  0.11370388790260917        0.0000000000000000     
  -4.7763374915197075E-002  0.12071217402042020        0.0000000000000000     
  -4.8955576926179419E-002  0.12787541679766876        0.0000000000000000     
  -5.0107481916016383E-002  0.13519361623435489        0.0000000000000000     
  -5.0747873342266790E-002  0.10726683066355411        0.0000000000000000     
  -5.2162528130114967E-002  0.11410345426886033        0.0000000000000000     
  -5.3533304360494194E-002  0.12109261538694417        0.0000000000000000     
  -5.4860202033404457E-002  0.12823431401780569        0.0000000000000000     
  -5.6143221148845748E-002  0.13552855016144483        0.0000000000000000     
  -5.6377334441438248E-002  0.10773192483549496        0.0000000000000000     
  -5.7933557665426495E-002  0.11454990403464457        0.0000000000000000     
  -5.9442785770550476E-002  0.12151937777052056        0.0000000000000000     
  -6.0905018756810203E-002  0.12864034604312294        0.0000000000000000     
  -6.2320256624205671E-002  0.13591280885245169        0.0000000000000000     
  -6.2146463127310675E-002  0.10824584096005818        0.0000000000000000     
  -6.3843964489003938E-002  0.11504323719996193        0.0000000000000000     
  -6.5491819145365920E-002  0.12199246117114938        0.0000000000000000     
  -6.7090027096396679E-002  0.12909351287362059        0.0000000000000000     
  -6.8638588342096130E-002  0.13634639230737555        0.0000000000000000     
  -4.4213038925717540E-002  0.13490800707118195        0.0000000000000000     
  -4.5182794562154863E-002  0.14237356769830495        0.0000000000000000     
  -4.6084521000195430E-002  0.14992279222602853        0.0000000000000000     
  -4.6918218239839271E-002  0.15755568065435266        0.0000000000000000     
  -4.7683886281086364E-002  0.16527223298327731        0.0000000000000000     
  -5.0107481916016383E-002  0.13519361623435489        0.0000000000000000     
  -5.1201758762460838E-002  0.14263574530292253        0.0000000000000000     
  -5.2221076343265650E-002  0.15017077697581560        0.0000000000000000     
  -5.3165434658430835E-002  0.15779871125303407        0.0000000000000000     
  -5.4034833707956365E-002  0.16551954813457800        0.0000000000000000     
  -5.6143221148845748E-002  0.13552855016144483        0.0000000000000000     
  -5.7363164564511696E-002  0.14294760324652492        0.0000000000000000     
  -5.8500835138095883E-002  0.15046375270170922        0.0000000000000000     
  -5.9556232869598304E-002  0.15807699852699778        0.0000000000000000     
  -6.0529357759018930E-002  0.16578734072239057        0.0000000000000000     
  -6.2320256624205671E-002  0.13591280885245169        0.0000000000000000     
  -6.3667011968307458E-002  0.14330914152911214        0.0000000000000000     
  -6.4923797384686108E-002  0.15080171940370946        0.0000000000000000     
  -6.6090612873341642E-002  0.15839054247624376        0.0000000000000000     
  -6.7167458434274060E-002  0.16607561074671504        0.0000000000000000     
  -6.8638588342096130E-002  0.13634639230737555        0.0000000000000000     
  -7.0113300973848117E-002  0.14372036015068412        0.0000000000000000     
  -7.1489963083036359E-002  0.15118467708181632        0.0000000000000000     
  -7.2768574669660913E-002  0.15873934310077206        0.0000000000000000     
  -7.3949135733721749E-002  0.16638435820755137        0.0000000000000000     
   0.0000000000000000        0.0000000000000000        0.0000000000000000     
  -2.8801069924784032E-003   1.7448540085385181E-003   0.0000000000000000     
  -5.8727160556922911E-003   3.8646685629229061E-003   0.0000000000000000     
  -8.9778271896416625E-003   6.3594436631531619E-003   0.0000000000000000     
  -1.2195440394326521E-002   9.2291793092292868E-003   0.0000000000000000     
   0.0000000000000000        0.0000000000000000        0.0000000000000000     
  -3.2832366401594733E-003   1.9993930743791551E-003   0.0000000000000000     
  -6.6770169388158090E-003   4.3310017042760655E-003   0.0000000000000000     
  -1.0181340895969008E-002   6.9948258896907322E-003   0.0000000000000000     
  -1.3796208511619069E-002   9.9908656306231559E-003   0.0000000000000000     
   0.0000000000000000        0.0000000000000000        0.0000000000000000     
  -3.9535933527259379E-003   2.4251615800005909E-003   0.0000000000000000     
  -7.9106743153449441E-003   5.0629722492757040E-003   0.0000000000000000     
  -1.1871242887857016E-002   7.9134320078253408E-003   0.0000000000000000     
  -1.5835299070262158E-002   1.0976540855649499E-002   0.0000000000000000     
   0.0000000000000000        0.0000000000000000        0.0000000000000000     
  -4.8911771301777983E-003   3.0221595254028258E-003   0.0000000000000000     
  -9.5736881852796947E-003   6.0605801979218207E-003   0.0000000000000000     
  -1.4047533165305688E-002   9.1152620175569861E-003   0.0000000000000000     
  -1.8312712070255782E-002   1.2186204984308316E-002   0.0000000000000000     
   0.0000000000000000        0.0000000000000000        0.0000000000000000     
  -6.0959879725150535E-003   3.7903869105858617E-003   0.0000000000000000     
  -1.1666058548620063E-002   7.3238255502144174E-003   0.0000000000000000     
  -1.6710211728315029E-002   1.0600315918885668E-002   0.0000000000000000     
  -2.1228447511599947E-002   1.3619858016599611E-002   0.0000000000000000     
  -1.2195440394326521E-002   9.2291793092292868E-003   0.0000000000000000     
  -1.5427831070040204E-002   1.2371791571134123E-002   0.0000000000000000     
  -1.8577274617076051E-002   1.5685196518850510E-002   0.0000000000000000     
  -2.1643771035434068E-002   1.9169394152378443E-002   0.0000000000000000     
  -2.4627320325114246E-002   2.2824384471717925E-002   0.0000000000000000     
  -1.3796208511619069E-002   9.9908656306231559E-003   0.0000000000000000     
  -1.7404533085940754E-002   1.3221153981356771E-002   0.0000000000000000     
  -2.0889227919108824E-002   1.6587723996175013E-002   0.0000000000000000     
  -2.4250293011123275E-002   2.0090575675077889E-002   0.0000000000000000     
  -2.7487728361984109E-002   2.3729709018065395E-002   0.0000000000000000     
  -1.5835299070262158E-002   1.0976540855649499E-002   0.0000000000000000     
  -1.9731065197753094E-002   1.4211135799149500E-002   0.0000000000000000     
  -2.3486763605522570E-002   1.7576053844726668E-002   0.0000000000000000     
  -2.7102394293570583E-002   2.1071294992381008E-002   0.0000000000000000     
  -3.0577957261897125E-002   2.4696859242112512E-002   0.0000000000000000     
  -1.8312712070255782E-002   1.2186204984308316E-002   0.0000000000000000     
  -2.2407427405477236E-002   1.5341737024512313E-002   0.0000000000000000     
  -2.6369881676317302E-002   1.8650186064505477E-002   0.0000000000000000     
  -3.0200074882775988E-002   2.2111552104287797E-002   0.0000000000000000     
  -3.3898007024853294E-002   2.5725835143859281E-002   0.0000000000000000     
  -2.1228447511599947E-002   1.3619858016599611E-002   0.0000000000000000     
  -2.5433619709113162E-002   1.6612957657445210E-002   0.0000000000000000     
  -2.9538582131493012E-002   1.9810120655511423E-002   0.0000000000000000     
  -3.3543334778739498E-002   2.3211347010798258E-002   0.0000000000000000     
  -3.7447877650852612E-002   2.6816636723305705E-002   0.0000000000000000     
  -2.4627320325114246E-002   2.2824384471717925E-002   0.0000000000000000     
  -2.7532096768767785E-002   2.6672961370919429E-002   0.0000000000000000     
  -3.0362274649045867E-002   3.0737918744033414E-002   0.0000000000000000     
  -3.3117853965948497E-002   3.5019256591059880E-002   0.0000000000000000     
  -3.5798834719475675E-002   3.9516974911998834E-002   0.0000000000000000     
  -2.7487728361984109E-002   2.3729709018065395E-002   0.0000000000000000     
  -3.0624576614201086E-002   2.7547656003681184E-002   0.0000000000000000     
  -3.3683880410283959E-002   3.1586948610468929E-002   0.0000000000000000     
  -3.6665639750232723E-002   3.5847586838428626E-002   0.0000000000000000     
  -3.9569854634047386E-002   4.0329570687560268E-002   0.0000000000000000     
  -3.0577957261897125E-002   2.4696859242112512E-002   0.0000000000000000     
  -3.3942808529874156E-002   2.8497323041468795E-002   0.0000000000000000     
  -3.7226304116873644E-002   3.2517262837997482E-002   0.0000000000000000     
  -4.0428444022895582E-002   3.6756678631698569E-002   0.0000000000000000     
  -4.3549228247939969E-002   4.1215570422572054E-002   0.0000000000000000     
  -3.3898007024853294E-002   2.5725835143859281E-002   0.0000000000000000     
  -3.7486792515787015E-002   2.9521962484282266E-002   0.0000000000000000     
  -4.0989545768814944E-002   3.3528861426619080E-002   0.0000000000000000     
  -4.4406266783937075E-002   3.7746531970869704E-002   0.0000000000000000     
  -4.7736955561153413E-002   4.2174974117034157E-002   0.0000000000000000     
  -3.7447877650852612E-002   2.6816636723305705E-002   0.0000000000000000     
  -4.1256528571939635E-002   3.0621574332121579E-002   0.0000000000000000     
  -4.4973605366107824E-002   3.4621744376333682E-002   0.0000000000000000     
  -4.8599108033357187E-002   3.8817146855942029E-002   0.0000000000000000     
  -5.2133036573687716E-002   4.3207781770946613E-002   0.0000000000000000     
  -3.5798834719475675E-002   3.9516974911998834E-002   0.0000000000000000     
  -3.8405078842211608E-002   4.4221421138706279E-002   0.0000000000000000     
  -4.0936448266740505E-002   4.9122942703038242E-002   0.0000000000000000     
  -4.3392942993062379E-002   5.4221539604994720E-002   0.0000000000000000     
  -4.5774563021177217E-002   5.9517211844575715E-002   0.0000000000000000     
  -3.9569854634047386E-002   4.0329570687560268E-002   0.0000000000000000     
  -4.2393771154065320E-002   4.5019304302027212E-002   0.0000000000000000     
  -4.5134635402623892E-002   4.9903191825992795E-002   0.0000000000000000     
  -4.7792447379723116E-002   5.4981233259457016E-002   0.0000000000000000     
  -5.0367207085362971E-002   6.0253428602419855E-002   0.0000000000000000     
  -4.3549228247939969E-002   4.1215570422572054E-002   0.0000000000000000     
  -4.6584638052168274E-002   4.5881288225263779E-002   0.0000000000000000     
  -4.9530654695741964E-002   5.0741182054419562E-002   0.0000000000000000     
  -5.2387278178661040E-002   5.5795251910039430E-002   0.0000000000000000     
  -5.5154508500925521E-002   6.1043497792123362E-002   0.0000000000000000     
  -4.7736955561153413E-002   4.2174974117034157E-002   0.0000000000000000     
  -5.0977679536520451E-002   4.6807372908415946E-002   0.0000000000000000     
  -5.4124506146094715E-002   5.1636913388318550E-002   0.0000000000000000     
  -5.7177435389876172E-002   5.6663595556741969E-002   0.0000000000000000     
  -6.0136467267864840E-002   6.1887419413686209E-002   0.0000000000000000     
  -5.2133036573687716E-002   4.3207781770946613E-002   0.0000000000000000     
  -5.5572895607121878E-002   4.7797558351483749E-002   0.0000000000000000     
  -5.8916189753682131E-002   5.2590385827689753E-002   0.0000000000000000     
  -6.2162919013368491E-002   5.7586264199564641E-002   0.0000000000000000     
  -6.5313083386180942E-002   6.2785193467108397E-002   0.0000000000000000     
  -4.5774563021177217E-002   5.9517211844575715E-002   0.0000000000000000     
  -4.8083188031543142E-002   6.5002684406612679E-002   0.0000000000000000     
  -5.0320697704618313E-002   7.0670682275937105E-002   0.0000000000000000     
  -5.2487092040402715E-002   7.6521205452548993E-002   0.0000000000000000     
  -5.4582371038896356E-002   8.2554253936448344E-002   0.0000000000000000     
  -5.0367207085362971E-002   6.0253428602419855E-002   0.0000000000000000     
  -5.2862523463208230E-002   6.5714451710285643E-002   0.0000000000000000     
  -5.5282005456923654E-002   7.1358976438458718E-002   0.0000000000000000     
  -5.7625653066509228E-002   7.7187002786939019E-002   0.0000000000000000     
  -5.9893466291964938E-002   8.3198530755726585E-002   0.0000000000000000     
  -5.5154508500925521E-002   6.1043497792123362E-002   0.0000000000000000     
  -5.7836708698492972E-002   6.6480435367163679E-002   0.0000000000000000     
  -6.0438241807320991E-002   7.2100580301652659E-002   0.0000000000000000     
  -6.2959107827409586E-002   7.7903932595590308E-002   0.0000000000000000     
  -6.5399306758758741E-002   8.3890492248976614E-002   0.0000000000000000     
  -6.0136467267864840E-002   6.1887419413686209E-002   0.0000000000000000     
  -6.3005743737397341E-002   6.7300635377246704E-002   0.0000000000000000     
  -6.5789406755810340E-002   7.2895493865518926E-002   0.0000000000000000     
  -6.8487456323103810E-002   7.8671994878502849E-002   0.0000000000000000     
  -7.1099892439277779E-002   8.4630138416198472E-002   0.0000000000000000     
  -6.5313083386180942E-002   6.2785193467108397E-002   0.0000000000000000     
  -6.8369628579921377E-002   6.8175051740534773E-002   0.0000000000000000     
  -7.1335500302391691E-002   7.3743717130057521E-002   0.0000000000000000     
  -7.4210698553591914E-002   7.9491189635676640E-002   0.0000000000000000     
  -7.6995223333521989E-002   8.5417469257392103E-002   0.0000000000000000     
  -5.4582371038896356E-002   8.2554253936448344E-002   0.0000000000000000     
  -5.6599917791808431E-002   8.8753211478581256E-002   0.0000000000000000     
  -5.8533115390848184E-002   9.5101461829893874E-002   0.0000000000000000     
  -6.0381963836015601E-002  0.10159900499038618        0.0000000000000000     
  -6.2146463127310675E-002  0.10824584096005818        0.0000000000000000     
  -5.9893466291964938E-002   8.3198530755726585E-002   0.0000000000000000     
  -6.2077790863093216E-002   8.9376316320760499E-002   0.0000000000000000     
  -6.4170972509696417E-002   9.5703115457979854E-002   0.0000000000000000     
  -6.6173011231774520E-002  0.10217892816738462        0.0000000000000000     
  -6.8083907029327595E-002  0.10880375444897489        0.0000000000000000     
  -6.5399306758758741E-002   8.3890492248976614E-002   0.0000000000000000     
  -6.7750393737629200E-002   9.0043511527872100E-002   0.0000000000000000     
  -7.0003923900281650E-002   9.6346242698337137E-002   0.0000000000000000     
  -7.2159897246716148E-002  0.10279868576037179        0.0000000000000000     
  -7.4218313776932623E-002  0.10940084071397603        0.0000000000000000     
  -7.1099892439277779E-002   8.4630138416198472E-002   0.0000000000000000     
  -7.3617726415416376E-002   9.0754797099916032E-002   0.0000000000000000     
  -7.6031969562603927E-002   9.7030843550965751E-002   0.0000000000000000     
  -7.8342621880840402E-002  0.10345827776934764        0.0000000000000000     
  -8.0549683370125760E-002  0.11003709975506168        0.0000000000000000     
  -7.6995223333521989E-002   8.5417469257392103E-002   0.0000000000000000     
  -7.9679788896454828E-002   9.1510173036892350E-002   0.0000000000000000     
  -8.2255109496663259E-002   9.7756918015865696E-002   0.0000000000000000     
  -8.4721185134147309E-002  0.10415770419431217        0.0000000000000000     
  -8.7078015808906950E-002  0.11071253157223179        0.0000000000000000     
  -6.2146463127310675E-002  0.10824584096005818        0.0000000000000000     
  -6.3843964489003938E-002  0.11504323719996193        0.0000000000000000     
  -6.5491819145365920E-002  0.12199246117114938        0.0000000000000000     
  -6.7090027096396679E-002  0.12909351287362059        0.0000000000000000     
  -6.8638588342096130E-002  0.13634639230737555        0.0000000000000000     
  -6.8083907029327595E-002  0.10880375444897489        0.0000000000000000     
  -6.9922865515888472E-002  0.11557909385147749        0.0000000000000000     
  -7.1709092304989980E-002  0.12250644592361941        0.0000000000000000     
  -7.3442587396632147E-002  0.12958581066540067        0.0000000000000000     
  -7.5123350790814974E-002  0.13681718807682119        0.0000000000000000     
  -7.4218313776932623E-002  0.10940084071397603        0.0000000000000000     
  -7.6199377661121212E-002  0.11615311407585642        0.0000000000000000     
  -7.8123293069471980E-002  0.12305591236271946        0.0000000000000000     
  -7.9990060001984928E-002  0.13010923557456516        0.0000000000000000     
  -8.1799678458660069E-002  0.13731308371139356        0.0000000000000000     
  -8.0549683370125760E-002  0.11003709975506168        0.0000000000000000     
  -8.2673500924702187E-002  0.11676529787309869        0.0000000000000000     
  -8.4734421438811963E-002  0.12364086048844954        0.0000000000000000     
  -8.6732444912455034E-002  0.13066378760111419        0.0000000000000000     
  -8.8667571345631399E-002  0.13783407921109264        0.0000000000000000     
  -8.7078015808906950E-002  0.11071253157223179        0.0000000000000000     
  -8.9345235306631424E-002  0.11741564524320433        0.0000000000000000     
  -9.1542477413009915E-002  0.12426129030080962        0.0000000000000000     
  -9.3669742128042452E-002  0.13124946674504764        0.0000000000000000     
  -9.5727029451728979E-002  0.13838017457591839        0.0000000000000000     
  -6.8638588342096130E-002  0.13634639230737555        0.0000000000000000     
  -7.0113300973848117E-002  0.14372036015068412        0.0000000000000000     
  -7.1489963083036359E-002  0.15118467708181632        0.0000000000000000     
  -7.2768574669660913E-002  0.15873934310077206        0.0000000000000000     
  -7.3949135733721749E-002  0.16638435820755137        0.0000000000000000     
  -7.5123350790814974E-002  0.13681718807682119        0.0000000000000000     
  -7.6725008321444049E-002  0.14416727459177506        0.0000000000000000     
  -7.8221185822424946E-002  0.15160276664415628        0.0000000000000000     
  -7.9611883293757651E-002  0.15912366423396479        0.0000000000000000     
  -8.0897100735442193E-002  0.16672996736120071        0.0000000000000000     
  -8.1799678458660069E-002  0.13731308371139356        0.0000000000000000     
  -8.3525110751405701E-002  0.14463590033291901        0.0000000000000000     
  -8.5139319192130178E-002  0.15204612899885592        0.0000000000000000     
  -8.6642303780833471E-002  0.15954376970920431        0.0000000000000000     
  -8.8034064517515595E-002  0.16712882246396413        0.0000000000000000     
  -8.8667571345631399E-002  0.13783407921109264        0.0000000000000000     
  -9.0513608263733100E-002  0.14512623737411592        0.0000000000000000     
  -9.2244363192152054E-002  0.15251476414591528        0.0000000000000000     
  -9.3859836130888372E-002  0.15999965952649045        0.0000000000000000     
  -9.5360027079941984E-002  0.16758092351584161        0.0000000000000000     
  -9.5727029451728979E-002  0.13838017457591839        0.0000000000000000     
  -9.7690500858426177E-002  0.14563828571536591        0.0000000000000000     
  -9.9536317822490616E-002  0.15300867208533425        0.0000000000000000     
 -0.10126448034392234       0.16049133368582330        0.0000000000000000     
 -0.10287498842272130       0.16808627051683317        0.0000000000000000     
 </DataArray>
 <DataArray  type="Float64" Name="stress" NumberOfComponents="3" format="ascii">
   13416151235.086519        4024845370.5259557        2893795405.4283109     
   11766259336.933428        1890669867.2977757        1715792459.6470449     
   10313573274.734390        413847150.58311081        810825551.07685208     
   9058093048.4894066       -405622779.61804247        178894679.71773133     
   7999818658.1984787       -567739923.30567837       -180000154.43031439     
   10539654292.027750        3161896287.6083250        2225688495.6469941     
   9667382692.9260406        1589727168.3219781        1446726149.3415258     
   8943703295.7986870        512865388.95016146        863203445.72408450     
   8368616100.6456985       -68689050.507120609        475120384.79467160     
   7942121107.4670658       -154936150.04987097        282476966.55328715     
   8337795276.4330130        2501338582.9299040        1712370421.4152753     
   8021439992.0311270        1424664652.2799218        1275732768.2759597     
   7805063275.6239061        681252614.94549036        956938363.30162740     
   7688665127.2113476        271102470.92660761        755987206.49227738     
   7672245546.7934570        194214220.22327614        672879297.84791124     
   6810574188.3023090        2043172256.4906929        1353841182.7331545     
   6828431234.2486887        1395482319.1716087        1202812316.4503486     
   6897653214.2100391        919008828.56909251        1092030303.8094804     
   7018240128.1863623        613751784.68314505        1021495144.8105501     
   7190191976.1776524        479711187.51376438        991206839.45355856     
   5957991027.6356382        1787397308.2906914        1150100779.6006320     
   6088356419.5787287        1502180168.9970384        1227964793.8646920     
   6221473111.5570936        1226134029.8209715        1268479267.2476444     
   6357341103.5707340        959258890.76249027        1271644199.7494905     
   6495960395.6196527        701554751.82159543        1237459591.3702290     
   7999818658.1984787       -567739923.30567837       -180000154.43031439     
   7917162003.5134401       -200787382.76677132       -78376828.053185031     
   7793157334.9917841        28338444.983400822       -9248472.6096421275     
   7627804652.6335058        119637559.94483852        27384911.900314055     
   7421103956.4386101        73109962.117549419        31523325.476683605     
   7942121107.4670658       -154936150.04987097        282476966.55328715     
   7739388373.4083843        15975209.152491093        281059907.32902831     
   7513357798.4802656        109227098.79005957        265011876.75168031     
   7264029382.6827106        124819518.86283255        234332874.82124352     
   6991403126.0157108        62752469.370805264        189022901.53771403     
   7672245546.7934570        194214220.22327614        672879297.84791124     
   7400476732.1625557        184396397.72952461        589480388.15064299     
   7123460249.6293936        157086348.89491272        509314506.68078130     
   6841196099.1939754        112284073.71944237        432381653.43832815     
   6553684280.8562994        49989572.203114271        358681828.42327964     
   7190191976.1776524        479711187.51376438        991206839.45355856     
   6900427079.7759466        304476182.96432519        846884614.41165948     
   6623464688.4391623        171916195.29795933        723659417.17766201     
   6359304802.1673040        82031224.514672756        621531247.75157011     
   6107947420.9603672        34821270.614462614        540500106.13338053     
   6495960395.6196527        701554751.82159543        1237459591.3702290     
   6239239416.2485628        376214564.85688949        1053272586.1120753     
   6013371114.9095764        153716637.99919868        908046608.24232185     
   5818355491.6026936        34060971.248521805        801781657.76096749     
   5654192546.3279171        17247564.604857683        734477734.66801453     
   7421103956.4386101        73109962.117549419        31523325.476683605     
   7219438180.6420155       -16677648.585027695        15069261.045206103     
   7029601414.9492254       -67035225.608252525        2641181.7550579272     
   6851593659.3602352       -77962768.952141762       -5760912.3937702114     
   6685414913.8750505       -49460278.616686344       -10137021.401271587     
   6991403126.0157108        62752469.370805264        189022901.53771403     
   6808787831.4062433        3862529.7990932465        180825287.24059385     
   6633760809.2946033       -29733168.113189220        176125672.30050993     
   6466322059.6807861       -38034624.366063356        174924056.71745485     
   6306471582.5647917       -21041838.959518433        177220440.49143919     
   6553684280.8562994        49989572.203114271        358681828.42327964     
   6388610936.6216927        21544744.518582821        353793137.05354494     
   6226885127.2789354        4258366.4735555649        351874459.25655031     
   6068506852.8280287       -1869561.9319772720        352925795.03230011     
   5913476113.2689734        3160959.3019983768        356947144.38078868     
   6107947420.9603672        34821270.614462614        540500106.13338053     
   5958907496.2883635        36368995.573440075        533972810.48405570     
   5808974368.9022331        34939378.151997328        529887542.62318373     
   5658148038.8019753        30532418.350127220        528244302.55075860     
   5506428505.9875889        23148116.167835474        529043090.26678544     
   5654192546.3279171        17247564.604857683        734477734.66801453     
   5519677510.4062519        48335282.963661909        721364307.53212810     
   5380028534.1644840        62309866.922121048        710164922.40040147     
   5235245617.6026125        59171316.480233669        700879579.27283204     
   5085328760.7206402        38919631.638008118        693508278.14942312     
   6685414913.8750505       -49460278.616686344       -10137021.401271587     
   6510682478.7741032       -11606725.869286537       -5426056.6152522713     
   6331978507.8308878        13008374.070572138        1113617.1983740549     
   6149303001.0454178        24385021.202908039        9482000.0396089945     
   5962655958.4176893        22523215.527712584        19679091.908457991     
   6306471582.5647917       -21041838.959518433        177220440.49143919     
   6132775363.0511808       -520666.33929896355        173794318.56104228     
   5956555998.4680634        11590022.715893507        173336356.54572457     
   5777813488.8154297        15290228.206044674        175846554.44549155     
   5596547834.0932961        10579950.131172419        181324912.26032755     
   5913476113.2689734        3160959.3019983768        356947144.38078868     
   5744071683.3068943        7326423.9842848778        347073724.96886081     
   5573592499.0480576        7909374.3440468311        341307916.35947949     
   5402038560.4924631        4909810.3812880516        339649718.55263823     
   5229409867.6401138       -1672267.9039907455        342099131.54834825     
   5506428505.9875889        23148116.167835474        529043090.26678544     
   5344571439.5412378        11934545.101458311        514412162.60819703     
   5183088009.5708761        1966428.9550511837        505028296.63962418     
   5021978216.0765123       -6756232.2713606358        500891492.36106300     
   4861242059.0581408       -14233438.577798128        502001749.77252156     
   5085328760.7206402        38919631.638008118        693508278.14942312     
   4934274631.7542057        13303697.012212276        675809631.47905755     
   4785042530.0365210       -6238813.4510886669        664497497.38617074     
   4637632455.5675783       -19707899.751911163        659571875.87076461     
   4492044408.3473883       -27103561.890237570        661032766.93284249     
   5962655958.4176893        22523215.527712584        19679091.908457991     
   5787502695.0235262        19742485.603559017        14832662.847671289     
   5613441588.5579815        20602278.774800062        13887687.717025669     
   5440472639.0210619        25102595.041459799        16844166.516522732     
   5268595846.4127636        33243434.403522491        23702099.246156394     
   5596547834.0932961        10579950.131172419        181324912.26032755     
   5431463119.0936203        8180509.6050989628        177175786.53878766     
   5267224552.8768787        8601565.0221376419        176782254.25253761     
   5103832135.4430819        11843116.382323742        180144315.40157920     
   4941285866.7922306        17905163.685662270        187261969.98591733     
   5229409867.6401138       -1672267.9039907455        342099131.54834825     
   5073976956.7639236       -3815442.3133225441        338360299.66275692     
   4919144186.5249958       -3958147.9317719936        338231200.71761799     
   4764911556.9233303       -2100384.7593438625        341711834.71291834     
   4611279067.9589376        1757847.2039673328        348802201.64866525     
   4861242059.0581408       -14233438.577798128        502001749.77252156     
   4715044208.0344448       -16245370.151668549        498386202.21959448     
   4569200489.5023355       -17076860.086914778        498234527.11226547     
   4423710903.4618101       -16727908.383545160        501546724.45053035     
   4278575449.9128695       -15198515.041553497        508322794.23439717     
   4492044408.3473883       -27103561.890237570        661032766.93284249     
   4354664872.9051895       -29109273.909939051        657253494.20928884     
   4217393461.8088946       -30754571.443291664        656792233.43648243     
   4080230175.0585108       -32039454.490276575        659648984.61442459     
   3943175012.6540356       -32963923.050907135        665823747.74311697     
   5268595846.4127636        33243434.403522491        23702099.246156394     
   5055699848.6351919        29713053.306252241        14493159.347263627     
   4842130072.6706104        23936744.918961525        9319560.4419146124     
   4627886518.5190382        15914509.241701841        8181302.5301260045     
   4412969186.1804638        5646346.2744226456        11078385.611881150     
   4941285866.7922306        17905163.685662270        187261969.98591733     
   4738803520.2694359        12300638.200598240        176552618.74331331     
   4535682223.1438265        4566277.3728392124        170297076.17724380     
   4331921975.4154072       -5297918.7976369858        168495342.28771070     
   4127522777.0841737       -17291950.310817003        171147417.07471079     
   4611279067.9589376        1757847.2039673328        348802201.64866525     
   4420405994.6422882       -5562136.0834603310        336633071.24390912     
   4228928798.3070135       -14895862.766312838        329336217.19866896     
   4036847478.9531217       -26243332.844558716        326911639.51294452     
   3844162036.5805979       -39604546.318238974        329359338.18672800     
   4278575449.9128695       -15198515.041553497        508322794.23439717     
   4100507271.7537408       -23875269.545944929        494734516.84904444     
   3921869798.1601801       -34449675.498453856        486436983.50618589     
   3742663029.1321721       -46921732.899106503        483430194.20582098     
   3562886964.6697369       -61291441.747854948        485714148.94794250     
   3943175012.6540356       -32963923.050907135        665823747.74311697     
   3779107351.6038003       -42638762.186841249        650856955.55871534     
   3614505222.7033095       -54095160.823619366        641599375.09979224     
   3449368625.9525828       -67333118.961205721        638051006.36633825     
   3283697561.3515935       -82352636.599645615        640211849.35835707     
   4412969186.1804638        5646346.2744226456        11078385.611881150     
   4291069616.0059271        24925599.016902924        16010659.339808028     
   4170926518.7835927        50059761.600031853        25131507.954419583     
   4052539894.5134692        81048834.023878336        38440931.455697246     
   3935909743.1955223        117892816.28831148        55938929.843663424     
   4127522777.0841737       -17291950.310817003        171147417.07471079     
   4014810884.7858877       -1221347.2993669510        178137167.06523472     
   3903106147.0781693        18206437.680632114        188746244.31949851     
   3792408563.9610105        40991404.629178047        202974648.83751714     
   3682718135.4344163        67133553.546261787        220822380.61928394     
   3844162036.5805979       -39604546.318238974        329359338.18672800     
   3739011400.3787575       -27230519.571755886        337532359.68460435     
   3634118600.4058475       -13997038.728844881        348755460.82329839     
   3529483636.6618605        95896.210484027863        363028641.60280293     
   3425106509.1468039        15048285.246246815        380351902.02313709     
   3562886964.6697369       -61291441.747854948        485714148.94794250     
   3463671162.7845411       -53101917.800274611        494196237.19793427     
   3363963878.7666354       -46550667.628398657        505159157.46580619     
   3263765112.6160231       -41637691.232209921        518602909.75156635     
   3163074864.3326964       -38362988.611723304        534527494.05521256     
   3283697561.3515935       -82352636.599645615        640211849.35835707     
   3188790172.0032392       -78835541.984917641        648128799.60521448     
   3092641982.1605320       -79454449.018015742        657957334.24702775     
   2995252991.8234887       -84209357.698920012        669697453.28379786     
   2896623200.9920993       -93100268.027633667        683349156.71552062     
   3935909743.1955223        117892816.28831148        55938929.843663424     
   3716354531.4296727        156273525.62819862        14589181.877541982     
   3516414876.5202799        260039424.48959780       -26288886.421301268     
   3336090778.4673314        429190512.87249351       -66695275.052868247     
   3175382237.2708378        663726790.77688432       -106629984.01715575     
   3682718135.4344163        67133553.546261787        220822380.61928394     
   3458811022.1352239        78451404.477392554        197234872.22150311     
   3246714803.1108623        129138902.99128342        176073342.60973042     
   3046429478.3613100        219196049.08787525        157337791.78396329     
   2857955047.8865867        348622842.76722062        141028219.74422482     
   3425106509.1468039        15048285.246246815        380351902.02313709     
   3202431206.0820932        978391.29897904396        365421193.51511049     
   2983762134.7105727        262602.99568080902        354870762.91183996     
   2769099295.0322466        12900920.336361170        348700610.21332449     
   2558442687.0471048        38893343.321001172        346910735.41955799     
   3163074864.3326964       -38362988.611723304        534527494.05521256     
   2947215083.2702813       -76145513.907037497        519148145.75838709     
   2727556871.3194203       -126589475.49716055        510103374.48504865     
   2504100228.4801216       -189694873.38206649        507393180.23520184     
   2276845154.7523851       -265461707.56179631        511017563.00883925     
   2896623200.9920993       -93100268.027633667        683349156.71552062     
   2693162653.6997852       -152920311.14065933        658415728.95133197     
   2478099012.9374056       -251417332.48725414        641771177.32935417     
   2251432278.7049437       -388591332.06742990        633415501.84960055     
   2013162451.0024238       -564442309.88116634        633348702.51207185     
   5957991027.6356382        1787397308.2906914        1150100779.6006320     
   6088356419.5787287        1502180168.9970384        1227964793.8646920     
   6221473111.5570936        1226134029.8209715        1268479267.2476444     
   6357341103.5707340        959258890.76249027        1271644199.7494905     
   6495960395.6196527        701554751.82159543        1237459591.3702290     
   5434684019.2661219        1630405205.7798367        1033495446.8989624     
   5489871130.4371710        1372466893.0193484        1113911571.8583069     
   5547269486.8874302        1121899397.8562200        1167552677.1356902     
   5606879088.6168938        878702720.29044878        1194418762.7311115     
   5668699935.6255674        642876860.32203770        1194509828.6445713     
   4895291388.0268812        1468587416.4080646        936371419.50940061     
   4905513136.1377373        1246991805.4942951        1018709591.2819506     
   4917406074.7717304        1030966829.6576574        1084847264.5716846     
   4930970203.9288635        820512488.89815068        1134784439.3786020     
   4946205523.6091366        615628783.21577525        1168521115.7027032     
   4339813133.9179201        1301943940.1753759        858728697.43194675     
   4335282436.6804228        1125754906.4218781        942358852.13562274     
   4331882875.2099943        953336325.22528410        1020363029.5556277     
   4329614449.5066404        784688196.58559442        1092741229.6919615     
   4328477159.5703564        619810520.50280881        1159493452.5446243     
   3768249256.9392347        1130474777.0817704        800567280.66660070     
   3779179032.0652289        1008756195.8020972        884859354.41932285     
   3790699888.2022257        889007884.55910063        974099972.08751965     
   3802811825.3502259        771229843.35278094        1068289133.6711905     
   3815514843.5092297        655422072.18313825        1167426839.1703355     
   6495960395.6196527        701554751.82159543        1237459591.3702290     
   6239239416.2485628        376214564.85688949        1053272586.1120753     
   6013371114.9095764        153716637.99919868        908046608.24232185     
   5818355491.6026936        34060971.248521805        801781657.76096749     
   5654192546.3279171        17247564.604857683        734477734.66801453     
   5668699935.6255674        642876860.32203770        1194509828.6445713     
   5518793184.1232815        383461067.53113747        1073570206.1322556     
   5393001569.8016577        204429065.34244227        980621025.16743374     
   5291325092.6606941        105780853.75594831        915662285.75010502     
   5213763752.7003899        87516432.771658659        878693987.88027191     
   4946205523.6091366        615628783.21577525        1168521115.7027032     
   4871768469.0016375        412734025.30647612        1102968411.6095412     
   4814709010.7233553        267764588.49457002        1054435563.2229673     
   4775027148.7742939        180720472.78005624        1022922570.5429819     
   4752722883.1544466        151601678.16293454        1008429433.5695831     
   4328477159.5703564        619810520.50280881        1159493452.5446243     
   4298165270.8836260        464033438.18290508        1141467202.5439329     
   4278493437.6746702        343723207.45558250        1129490222.4089234     
   4269461659.9434915        258879828.32084227        1123562512.1395948     
   4271069937.6900835        209503300.77868342        1123684071.7359498     
   3815514843.5092297        655422072.18313825        1167426839.1703355     
   3797983589.7692499        537359306.16042387        1189066578.9354315     
   3784354850.6556039        432304922.22548199        1205785002.7253022     
   3774628626.1682878        340258920.37830937        1217582110.5399485     
   3768804916.3073025        261221300.61890876        1224457902.3793709     
   5654192546.3279171        17247564.604857683        734477734.66801453     
   5519677510.4062519        48335282.963661909        721364307.53212810     
   5380028534.1644840        62309866.922121048        710164922.40040147     
   5235245617.6026125        59171316.480233669        700879579.27283204     
   5085328760.7206402        38919631.638008118        693508278.14942312     
   5213763752.7003899        87516432.771658659        878693987.88027191     
   5076962663.9859648        85058741.516990423        855296570.46531069     
   4938186210.1936436        76016500.002666235        835967857.27025187     
   4797434391.3234215        60389708.228681087        820707848.29509699     
   4654707207.3753071        38178366.195042849        809516543.53984296     
   4752722883.1544466        151601678.16293454        1008429433.5695831     
   4619791919.4065275        117445430.62257266        978433030.32478666     
   4488044165.8229151        87233216.963240147        954659993.51563799     
   4357479622.4036131        60965037.184940577        937110323.14213467     
   4228098289.1486211        38640891.287670612        925784019.20427835     
   4271069937.6900835        209503300.77868342        1123684071.7359498     
   4148165276.6679354        145495350.28040719        1090773687.1105604     
   4029602401.0523052        95960017.803853512        1066241331.1365616     
   3915381310.8431883        60897303.349014759        1050087003.8139520     
   3805502006.0405893        40307206.915895939        1042310705.1427318     
   3768804916.3073025        261221300.61890876        1224457902.3793709     
   3662082735.7701941        169208500.49049985        1192318540.8226285     
   3562860915.8818102        102196902.52449930        1170711870.1330194     
   3471139456.6421471        60186506.720905781        1159637890.3105440     
   3386918358.0512047        43177313.079715729        1159096601.3552017     
   5085328760.7206402        38919631.638008118        693508278.14942312     
   4934274631.7542057        13303697.012212276        675809631.47905755     
   4785042530.0365210       -6238813.4510886669        664497497.38617074     
   4637632455.5675783       -19707899.751911163        659571875.87076461     
   4492044408.3473883       -27103561.890237570        661032766.93284249     
   4654707207.3753071        38178366.195042849        809516543.53984296     
   4521057035.1712980        18010596.863928556        794854789.16636431     
   4388934185.7458248        2933903.4612481594        785936912.34926975     
   4258338659.0988803       -7051714.0129992962        782762913.08855498     
   4129270455.2304645       -11946255.558808327        785332791.38422561     
   4228098289.1486211        38640891.287670612        925784019.20427835     
   4110015973.6467590        23370457.233150721        913815335.24577069     
   3993166276.4532123        12208750.873011589        906947893.82254636     
   3877549197.5679779        5155772.2072515488        905181694.93460310     
   3763164736.9910593        2211521.2358739376        908516738.58194518     
   3805502006.0405893        40307206.915895939        1042310705.1427318     
   3701151447.1805863        29383278.119886160        1032691269.7172749     
   3597738802.1586852        21585728.784204721        1027530441.8060035     
   3495264070.9748769        16914558.908843517        1026828221.4089173     
   3393727253.6291728        15369768.493815660        1030584608.5260106     
   3386918358.0512047        43177313.079715729        1159096601.3552017     
   3294463455.7727809        36049059.524129033        1151482592.5808794     
   3202651762.8622394        31064837.194816232        1147684556.2996416     
   3111483279.3195772        28224646.091772676        1147702492.5114868     
   3020958005.1448002        27528486.215006590        1151536401.2164185     
   4492044408.3473883       -27103561.890237570        661032766.93284249     
   4354664872.9051895       -29109273.909939051        657253494.20928884     
   4217393461.8088946       -30754571.443291664        656792233.43648243     
   4080230175.0585108       -32039454.490276575        659648984.61442459     
   3943175012.6540356       -32963923.050907135        665823747.74311697     
   4129270455.2304645       -11946255.558808327        785332791.38422561     
   4001102640.8897023       -14021629.116054535        780772934.96967793     
   3873088196.8233361       -15585768.425301075        779997081.65261436     
   3745227123.0313659       -16638673.486567736        783005231.43302858     
   3617519419.5137959       -17180344.299831152        789797384.31092477     
   3763164736.9910593        2211521.2358739376        908516738.58194518     
   3645540047.0281105        465907.12400627136        903229085.39298117     
   3528113973.2680502       -617652.97823405266        902191426.44822788     
   3410886515.7108736       -1039159.0708577633        905403761.74768651     
   3293857674.3565850       -798611.15385437012        912866091.29135990     
   3393727253.6291728        15369768.493815660        1030584608.5260106     
   3287977091.3204174        14353334.810241461        1024621945.4791945     
   3182470791.1430373        14149774.897913814        1023375267.8233266     
   3077208353.0970345        14759088.756845474        1026844575.5584004     
   2972189777.1824069        16181276.387032628        1035029868.6844255     
   3020958005.1448002        27528486.215006590        1151536401.2164185     
   2928413773.7666135        27640653.942628145        1144951515.2283244     
   2836158650.4482989        28716515.203149438        1143548605.7779095     
   2744192635.1898456        30756069.996544719        1147327672.8651712     
   2652515727.9912615        33759318.322832942        1156288716.4901128     
   3943175012.6540356       -32963923.050907135        665823747.74311697     
   3779107351.6038003       -42638762.186841249        650856955.55871534     
   3614505222.7033095       -54095160.823619366        641599375.09979224     
   3449368625.9525828       -67333118.961205721        638051006.36633825     
   3283697561.3515935       -82352636.599645615        640211849.35835707     
   3617519419.5137959       -17180344.299831152        789797384.31092477     
   3468546877.3139210       -24408439.940526724        774823420.05024409     
   3319218564.9125643       -32822436.252810001        765187240.83469307     
   3169534482.3097348       -42422333.236679077        760888846.66427624     
   3019494629.5054297       -53208130.892123818        761928237.53898847     
   3293857674.3565850       -798611.15385437012        912866091.29135990     
   3158919031.9203777       -5898329.0253145695        898093435.54463422     
   3023803316.9314671       -11588288.739116669        888287138.16269648     
   2888510529.3898573       -17868490.295247555        883447199.14554858     
   2753040669.2955456       -24738933.693726659        883573618.49319386     
   2972189777.1824069        16181276.387032628        1035029868.6844255     
   2850223815.4231796        12891570.558797598        1020667002.0418848     
   2728259478.7600269        9607281.7174872160        1010899067.0837963     
   2606296767.1929426        6328409.8630644083        1005726063.8101609     
   2484335680.7219262        3054954.9955527782        1005147992.2209685     
   2652515727.9912615        33759318.322832942        1156288716.4901128     
   2542461227.8223238        31961258.811822534        1142544119.5420010     
   2432587050.3982334        30764275.116966844        1133023027.5979998     
   2322893195.7189903        30168367.238271356        1127725440.6581028     
   2213379663.7845922        30173535.175720811        1126651358.7223146     
   3283697561.3515935       -82352636.599645615        640211849.35835707     
   3188790172.0032392       -78835541.984917641        648128799.60521448     
   3092641982.1605320       -79454449.018015742        657957334.24702775     
   2995252991.8234887       -84209357.698920012        669697453.28379786     
   2896623200.9920993       -93100268.027633667        683349156.71552062     
   3019494629.5054297       -53208130.892123818        761928237.53898847     
   2930950532.5681300       -46698864.287989140        768287928.99033415     
   2842001549.2385697       -41539218.991388559        776940375.13459587     
   2752647679.5167375       -37729195.002355576        787885575.97177124     
   2662888923.4026403       -35268792.320873737        801123531.50186145     
   2753040669.2955456       -24738933.693726659        883573618.49319386     
   2671948922.7634764       -14910777.701908350        889351284.26811719     
   2591288203.9412203       -3645862.6773879528        897802875.03391123     
   2511058512.8287730        9055811.3798379898        908928390.79058516     
   2431259849.4261408        23194244.469770789        922727831.53813434     
   2484335680.7219262        3054954.9955527782        1005147992.2209685     
   2411785342.5892630        16528717.773298144        1011318865.4385598     
   2340501946.2684879        34225619.923999786        1020544833.9449857     
   2270485491.7596006        56145661.447672606        1032825897.7402500     
   2201735979.0626049        82288842.344309330        1048162056.8243461     
   2213379663.7845922        30173535.175720811        1126651358.7223146     
   2150459792.0455012        47619622.137643814        1134190672.5016661     
   2089642776.2203741        72075228.812777162        1145166251.8678083     
   2030928616.3092155        103540355.20114112        1159578096.8207512     
   1974317312.3120251        142015001.30273139        1177426207.3604867     
   2896623200.9920993       -93100268.027633667        683349156.71552062     
   2693162653.6997852       -152920311.14065933        658415728.95133197     
   2478099012.9374056       -251417332.48725414        641771177.32935417     
   2251432278.7049437       -388591332.06742990        633415501.84960055     
   2013162451.0024238       -564442309.88116634        633348702.51207185     
   2662888923.4026403       -35268792.320873737        801123531.50186145     
   2487022646.2550559       -67935360.828290343        766010958.66107774     
   2305432872.0631337       -119680252.81682813        737569684.88042259     
   2118119600.8268800       -190503468.28647494        715799710.15987992     
   1925082832.5462818       -280405007.23726487        700701034.49945045     
   2431259849.4261408        23194244.469770789        922727831.53813434     
   2278366193.6172791        16294655.926170826        884295642.78412604     
   2125628637.1898127        9915398.6538999081        850917176.00812936     
   1973047180.1437526        4056472.6529576778        822592431.21015632     
   1820621822.4790750       -1282122.0766698122        799321408.39020014     
   2201735979.0626049        82288842.344309330        1048162056.8243461     
   2067193295.7864580        99769739.122722387        1013269781.3204598     
   1938686308.3174434        137369621.92491180        981813650.71249640     
   1816215016.6555562        195088490.75086451        953793665.00044394     
   1699779420.8008068        272926345.60059708        929209824.18430936     
   1974317312.3120251        142015001.30273139        1177426207.3604867     
   1853503952.7625847        182489888.76134467        1152933374.2700906     
   1744605885.4460156        262682416.99619025        1130259108.9935091     
   1647623110.3623173        382592586.00727475        1109403411.5307333     
   1562555627.5114768        542220395.79455209        1090366281.8817818     
   3768249256.9392347        1130474777.0817704        800567280.66660070     
   3779179032.0652289        1008756195.8020972        884859354.41932285     
   3790699888.2022257        889007884.55910063        974099972.08751965     
   3802811825.3502259        771229843.35278094        1068289133.6711905     
   3815514843.5092297        655422072.18313825        1167426839.1703355     
   3207787301.6358256        962336190.49074769        756720264.84514534     
   3235942148.7299376        868237147.62163448        853080754.74475849     
   3263810181.7076058        773182057.69771123        951369016.45578170     
   3291391400.5688314        677170920.71897829        1051585049.9782143     
   3318685805.3136148        580203736.68543637        1153728855.3120573     
   2685614812.5526929        805684443.76580787        722020745.59936345     
   2722363954.1747379        736615706.07519925        829425440.66384768     
   2757948386.5528932        663664604.23829424        935737135.43567693     
   2792368109.6871600        586831138.25509286        1040955829.9148517     
   2825623123.5775380        506115308.12559551        1145081524.1013718     
   2201731789.6898370        660519536.90695107        696468722.92925501     
   2238444448.3996301        613891871.16279161        813893412.17658973     
   2273114502.7380877        560455524.18084908        927204329.02720535     
   2305741952.7052107        500210495.96112394        1036401473.4811014     
   2336326798.3009996        433156786.50361651        1141484845.5382781     
   1756138233.0472574        526841469.91417718        680064196.83482003     
   1784183631.4046140        500065642.88441151        806484669.28298533     
   1809308530.2631898        463554817.52537632        925770597.23036635     
   1831512929.6229849        417308993.83707213        1037921980.6769634     
   1850796829.4839990        361328171.81949866        1142938819.6227770     
   3815514843.5092297        655422072.18313825        1167426839.1703355     
   3797983589.7692499        537359306.16042387        1189066578.9354315     
   3784354850.6556039        432304922.22548199        1205785002.7253022     
   3774628626.1682878        340258920.37830937        1217582110.5399485     
   3768804916.3073025        261221300.61890876        1224457902.3793709     
   3318685805.3136148        580203736.68543637        1153728855.3120573     
   3293943977.5474205        472907035.17522013        1182067664.3349578     
   3272971174.1899462        378173748.36073673        1207296717.5023408     
   3255767395.2411928        296003876.24198532        1229416014.8142066     
   3242332640.7011566        226397418.81896508        1248425556.2705555     
   2825623123.5775380        506115308.12559551        1145081524.1013718     
   2798846607.8414350        411137436.94476968        1179963663.7948632     
   2775705626.2964411        328278013.06763697        1213547607.7525454     
   2756200178.9425530        257537036.49419713        1245833355.9744163     
   2740330265.7797747        198914507.22445071        1276820908.4604778     
   2336326798.3009996        433156786.50361651        1141484845.5382781     
   2312691480.6512942        352050511.46907228        1182754577.3151476     
   2292558206.9750838        282617716.34618139        1224537673.4759147     
   2275926977.2723722        224858401.13494688        1266834134.0205781     
   2262797791.5431547        178772565.83536577        1309643958.9491391     
   1850796829.4839990        361328171.81949866        1142938819.6227770     
   1835478595.9769974        295646258.74812847        1190440404.8958106     
   1823528916.2258794        241192858.19637227        1240266914.6724489     
   1814947790.2306464        197967970.16423291        1292418348.9526906     
   1809735217.9912989        165971594.65170914        1346894707.7365375     
   3768804916.3073025        261221300.61890876        1224457902.3793709     
   3662082735.7701941        169208500.49049985        1192318540.8226285     
   3562860915.8818102        102196902.52449930        1170711870.1330194     
   3471139456.6421471        60186506.720905781        1159637890.3105440     
   3386918358.0512047        43177313.079715729        1159096601.3552017     
   3242332640.7011566        226397418.81896508        1248425556.2705555     
   3165208564.4371567        152419296.94479525        1231464902.2248902     
   3094030935.4563317        98262666.014539838        1222577481.0019643     
   3028799753.7586813        63927526.028206110        1221763292.6017783     
   2969515019.3442068        49413876.985786796        1229022337.0243325     
   2740330265.7797747        198914507.22445071        1276820908.4604778     
   2685777270.8049006        140862956.70932508        1273226062.9994185     
   2635616809.7476540        97453185.919626355        1275244992.3167043     
   2589848882.6080351        68685194.855352163        1282877696.4123383     
   2548473489.3860455        54558983.516507983        1296124175.2863188     
   2262797791.5431547        178772565.83536577        1309643958.9491391     
   2223788854.8734255        134539479.78408825        1317602023.1462131     
   2187618538.7557778        99768462.239750624        1328714404.0772395     
   2154286843.1902099        74459513.202345371        1342981101.7422204     
   2123793768.1767235        58612632.671879768        1360402116.1411529     
   1809735217.9912989        165971594.65170914        1346894707.7365375     
   1779243316.6427333        133448866.16908765        1364592782.6652744     
   1750036122.4807017        105208494.97491467        1382985716.2835701     
   1722113635.5052028        81250481.069183946        1402073508.5914259     
   1695475855.7162414        61574824.451907635        1421856159.5888417     
   3386918358.0512047        43177313.079715729        1159096601.3552017     
   3294463455.7727809        36049059.524129033        1151482592.5808794     
   3202651762.8622394        31064837.194816232        1147684556.2996416     
   3111483279.3195772        28224646.091772676        1147702492.5114868     
   3020958005.1448002        27528486.215006590        1151536401.2164185     
   2969515019.3442068        49413876.985786796        1229022337.0243325     
   2886206174.8547316        38044240.680869341        1221213786.5891058     
   2803775880.2864804        29603104.113372684        1217603473.3636751     
   2722224135.6394548        24090467.283284545        1218191397.3480444     
   2641550940.9136524        21506330.190616488        1222977558.5422091     
   2548473489.3860455        54558983.516507983        1296124175.2863188     
   2475402887.5904150        39275619.933732510        1288395647.1690853     
   2403446176.2693510        27705224.599512815        1285247620.9783640     
   2332603355.4228549        19847797.513851762        1286680096.7141531     
   2262874425.0509248        15703338.676749349        1292693074.3764548     
   2123793768.1767235        58612632.671879768        1360402116.1411529     
   2062053593.9798307        39743197.282711387        1353028174.3208156     
   2001662650.8108482        25371198.653244972        1350616999.1437018     
   1942620938.6697755        15496636.783473372        1353168590.6098132     
   1884928457.5566142        10119511.673408985        1360682948.7191496     
   1695475855.7162414        61574824.451907635        1421856159.5888417     
   1646158294.0229833        39446972.727817178        1415111368.0443008     
   1598425303.9109755        22601026.274564803        1413711607.8596940     
   1552276885.3802218        11036985.092156529        1417656879.0350287     
   1507713038.4307220        4754849.1805940270        1426947181.5702972     
   3020958005.1448002        27528486.215006590        1151536401.2164185     
   2928413773.7666135        27640653.942628145        1144951515.2283244     
   2836158650.4482989        28716515.203149438        1143548605.7779095     
   2744192635.1898456        30756069.996544719        1147327672.8651712     
   2652515727.9912615        33759318.322832942        1156288716.4901128     
   2641550940.9136524        21506330.190616488        1222977558.5422091     
   2561902464.0895748        21088486.953598976        1216858560.8321452     
   2482601071.5103025        21827591.199268222        1215599708.0024815     
   2403646763.1758323        23723642.927607894        1219201000.0532138     
   2325039539.0861635        26776642.138620019        1227662436.9843409     
   2262874425.0509248        15703338.676749349        1292693074.3764548     
   2195202183.7601552        14479628.768856168        1287107603.8268454     
   2127935002.8991253        14606120.293432593        1286060446.5003560     
   2061072882.4678349        16082813.250471115        1289551602.3969839     
   1994615822.4662843        18909707.639977694        1297581071.5167267     
   1884928457.5566142        10119511.673408985        1360682948.7191496     
   1828312932.7783501        7814079.3883956671        1355698644.2124224     
   1772160444.6147652        7052102.4856439829        1354930821.2715366     
   1716470993.0658565        7833580.9651488066        1358379479.8964875     
   1661244578.1316233        10158514.826903343        1366044620.0872753     
   1507713038.4307220        4754849.1805940270        1426947181.5702972     
   1461234711.1441653        1091838.8122247458        1422631681.9888818     
   1415277396.6572223       -834462.22410118580        1422210832.3160210     
   1369841094.9698935       -1024053.9283783436        1425684632.5517197     
   1324925806.0821779        523063.69938695431        1433053082.6959765     
   2652515727.9912615        33759318.322832942        1156288716.4901128     
   2542461227.8223238        31961258.811822534        1142544119.5420010     
   2432587050.3982334        30764275.116966844        1133023027.5979998     
   2322893195.7189903        30168367.238271356        1127725440.6581028     
   2213379663.7845922        30173535.175720811        1126651358.7223146     
   2325039539.0861635        26776642.138620019        1227662436.9843409     
   2226401651.8162403        24452561.145562649        1213260245.1340091     
   2127833461.8949194        22360804.647840500        1203537947.7746708     
   2029334969.3222024        20501372.645471334        1198495544.9063184     
   1930906174.0980906        18874265.138445497        1198133036.5289619     
   1994615822.4662843        18909707.639977694        1297581071.5167267     
   1908698518.0578959        16450796.153621435        1282392221.8018918     
   1822740285.6018670        13855457.841795683        1272339656.0649316     
   1736741125.0982006        11123692.704504013        1267423374.3058462     
   1650701036.5468922        8255500.7417512536        1267643376.5246313     
   1661244578.1316233        10158514.826903343        1366044620.0872753     
   1589351826.5472908        7955963.8360002041        1349940049.5456512     
   1517307521.5190785        5248234.6988269687        1339428152.4687877     
   1445111663.0469801        2035327.4153727293        1334508928.8566785     
   1372764251.1310053       -1682758.0143446922        1335182378.7093277     
   1324925806.0821779        523063.69938695431        1433053082.6959765     
   1268361577.2844281       -1031935.8072898388        1415903728.3652852     
   1211535169.6465511       -3460864.7810609937        1404803436.9862325     
   1154446583.1685476       -6763723.2219190001        1399752208.5588200     
   1097095817.8504207       -10940511.129853249        1400750043.0830467     
   2213379663.7845922        30173535.175720811        1126651358.7223146     
   2150459792.0455012        47619622.137643814        1134190672.5016661     
   2089642776.2203741        72075228.812777162        1145166251.8678083     
   2030928616.3092155        103540355.20114112        1159578096.8207512     
   1974317312.3120251        142015001.30273139        1177426207.3604867     
   1930906174.0980906        18874265.138445497        1198133036.5289619     
   1875615678.4018612        33107077.491863370        1208643628.0656521     
   1822179724.9188340        53521697.222624898        1222328229.7274051     
   1770598313.6490238        80118124.330774486        1239186841.5142176     
   1720871444.5924165        112896358.81626803        1259219463.4260879     
   1650701036.5468922        8255500.7417512536        1267643376.5246313     
   1602290615.5742829        19050248.090901673        1280835546.5011146     
   1555486423.1141200        35199090.481540084        1296939471.1409180     
   1510288459.1664078        56702027.913673937        1315955150.4440489     
   1466696723.7311378        83559060.387295187        1337882584.4105055     
   1372764251.1310053       -1682758.0143446922        1335182378.7093277     
   1330484603.5627704        5449133.9347628951        1350766427.8080425     
   1289562870.8062215        17107408.589490116        1368999976.1083474     
   1249999052.8613622        33292065.949844480        1389883023.6102438     
   1211793149.7281888        54003106.015828788        1413415570.3137240     
   1097095817.8504207       -10940511.129853249        1400750043.0830467     
   1060197642.3673172       -7696264.9765663743        1418436271.9864442     
   1024409067.9951419       -753348.45351248980        1438509744.6296935     
   989730094.73389220        9888238.4392898083        1460970461.0128002     
   956160722.58357036        24228495.701851606        1485818421.1357560     
   1974317312.3120251        142015001.30273139        1177426207.3604867     
   1853503952.7625847        182489888.76134467        1152933374.2700906     
   1744605885.4460156        262682416.99619025        1130259108.9935091     
   1647623110.3623173        382592586.00727475        1109403411.5307333     
   1562555627.5114768        542220395.79455209        1090366281.8817818     
   1720871444.5924165        112896358.81626803        1259219463.4260879     
   1602567992.1523819        136004432.94226170        1245684336.9843006     
   1489598666.5027933        176892929.70307475        1236269066.6588392     
   1381963467.6436357        235561849.09866893        1230973652.4497130     
   1279662395.5749347        312011191.12909651        1229798094.3569238     
   1466696723.7311378        83559060.387295187        1337882584.4105055     
   1357478287.8362784        91272854.011408508        1327627138.2678211     
   1247012813.2894382        94829852.128905654        1323792836.5439880     
   1135300300.0906074        94230054.739780724        1326379679.2390091     
   1022340748.2397965        89473461.844055474        1335387666.3528821     
   1211793149.7281888        54003106.015828788        1413415570.3137240     
   1118234839.8142757        48295151.968778729        1398761778.1206534     
   1016848325.8059533        16493184.273704469        1392830418.6489534     
   907633607.70322120       -41402797.069405794        1395621491.8986247     
   790590685.50607669       -125392792.06055671        1407134997.8696752     
   956160722.58357036        24228495.701851606        1485818421.1357560     
   884837648.08637726        7071326.8143903613        1459088256.5427961     
   799105204.05234170       -58117073.862537205        1443381812.9737351     
   698963390.48146629       -171336706.32893509        1438699090.4285607     
   584412207.37376881       -332587570.58474529        1445040088.9072833     
   1756138233.0472574        526841469.91417718        680064196.83482003     
   1784183631.4046140        500065642.88441151        806484669.28298533     
   1809308530.2631898        463554817.52537632        925770597.23036635     
   1831512929.6229849        417308993.83707213        1037921980.6769634     
   1850796829.4839990        361328171.81949866        1142938819.6227770     
   1326551399.2006946        397965419.76020837        669710991.02468812     
   1339727114.1190507        375522081.38739944        791870070.28887200     
   1350714210.4004061        345783347.55792087        908725670.94915688     
   1359512688.0447605        308749218.27177233        1020277793.0055432     
   1366122547.0521140        264419693.52895400        1126526436.4580312     
   890688544.72589040        267206563.41776711        662312929.20748854     
   894226193.05348980        250665198.75638813        781064476.29310083     
   896307103.60586822        229268041.51093882        896343610.67169976     
   896931276.38302541        203015091.68141928        1008150332.3432852     
   896098711.38496137        171906349.26782954        1116484641.3078570     
   448549669.62284464        134564900.88685340        657870011.38322127     
   447680868.20793062        125494994.99137734        774067887.29567194     
   446087209.87957549        114008899.38443047        888624416.39799440     
   443768694.63777900        100106614.06601283        1001539598.6901890     
   440725322.48254126        83788139.036124527        1112813434.1722546     
   134773.89155721827        40432.167467165484        656382237.55188644     
   91139.582373392564        11470.092367199733        770880303.29658556     
   54529.221528178561        5921.1783958529213        885568088.12804139     
   24942.809021607700        23785.425553186527        1000445592.0462543     
   2380.3448537343320        65062.833839685212        1115512815.0512242     
   1850796829.4839990        361328171.81949866        1142938819.6227770     
   1835478595.9769974        295646258.74812847        1190440404.8958106     
   1823528916.2258794        241192858.19637227        1240266914.6724489     
   1814947790.2306464        197967970.16423291        1292418348.9526906     
   1809735217.9912989        165971594.65170914        1346894707.7365375     
   1366122547.0521140        264419693.52895400        1126526436.4580312     
   1360526884.3354154        216934340.51548928        1181906834.0369291     
   1357453353.3853230        177856093.39071110        1238242001.5529394     
   1356901954.2018371        147184952.15462208        1295531939.0060635     
   1358872686.7849579        124920916.80722058        1353776646.3962991     
   896098711.38496137        171906349.26782954        1116484641.3078570     
   896310892.12573409        141443138.11242032        1178756358.8717937     
   898198782.64383459        116565626.21477032        1240612691.8063526     
   901762382.93926322        97273813.574881762        1302053640.1115332     
   907001693.01202023        83567700.192753404        1363079203.7873340     
   440725322.48254126        83788139.036124527        1112813434.1722546     
   442830619.34795260        69172651.538921118        1180988979.4004061     
   445765204.00141394        57321456.668550715        1247378985.4326882     
   449529076.44292462        48234554.425012216        1311983452.2690997     
   454122236.67248553        41911944.808307350        1374802379.9096415     
   2380.3448537343320        65062.833839685212        1115512815.0512242     
   86066.002071497613        122880.79499271815        1188604695.6227655     
   152617.45806039183        123584.75204960768        1258540882.4319458     
   202034.71282118483        67174.705013043131        1325321375.4787650     
   234317.76635351765       -46349.346118735484        1388946174.7632225     
   1809735217.9912989        165971594.65170914        1346894707.7365375     
   1779243316.6427333        133448866.16908765        1364592782.6652744     
   1750036122.4807017        105208494.97491467        1382985716.2835701     
   1722113635.5052028        81250481.069183946        1402073508.5914259     
   1695475855.7162414        61574824.451907635        1421856159.5888417     
   1358872686.7849579        124920916.80722058        1353776646.3962991     
   1333199508.8284235        99680759.148435295        1372763147.8072755     
   1308509946.9188082        77719321.646046758        1393080907.5632153     
   1284804001.0561104        59036604.300050199        1414729925.6641185     
   1262081671.2403321        43632607.110453010        1437710202.1099854     
   907001693.01202023        83567700.192753404        1363079203.7873340     
   887965523.17724109        66155598.776721269        1383002858.6843324     
   869611878.24976587        51018580.385034293        1404894171.5816982     
   851940758.22959304        38156645.017689049        1428753142.4794295     
   834952163.11672401        27569792.674689770        1454579771.3775296     
   454122236.67248553        41911944.808307350        1374802379.9096415     
   443541359.68918628        32873385.053945482        1395311915.2964444     
   433341916.47357482        25106271.191876337        1418425508.3390174     
   423523907.02565187        18610603.222102031        1444143159.0373600     
   414087331.34541523        13386381.144615829        1472464867.3914752     
   234317.76635351765       -46349.346118735484        1388946174.7632225     
  -72981.635741587015       -165882.01989225173        1409690317.6436114     
  -299938.40976413793       -17605.933423922295        1433674917.8351736     
  -446552.55571484438        398478.91328406241        1460899975.3379107     
  -512824.07359295129        1082372.5202336987        1491365490.1518204     
   1695475855.7162414        61574824.451907635        1421856159.5888417     
   1646158294.0229833        39446972.727817178        1415111368.0443008     
   1598425303.9109755        22601026.274564803        1413711607.8596940     
   1552276885.3802218        11036985.092156529        1417656879.0350287     
   1507713038.4307220        4754849.1805940270        1426947181.5702972     
   1262081671.2403321        43632607.110453010        1437710202.1099854     
   1227807165.5062175        27983641.720272899        1434440525.1061034     
   1194672572.0163395        16134383.810881436        1435902270.6337998     
   1162677890.7706978        8084833.3822787404        1442095438.6930757     
   1131823121.7692947        3834990.4344702959        1453020029.2839291     
   834952163.11672401        27569792.674689770        1454579771.3775296     
   813967545.26072764        17873763.194115937        1454266439.6877909     
   793678180.31195116        10495243.404275596        1458070921.7012711     
   774084068.27039719        5434233.3051753044        1465993217.4179702     
   755185209.13606346        2690732.8968102336        1478033326.8378890     
   414087331.34541523        13386381.144615829        1472464867.3914752     
   404639433.28650928        9117337.1493356675        1474589111.7893603     
   395442128.79780900        5683605.0547411591        1480217561.0621049     
   386495417.87931395        3085184.8608300686        1489350215.2097099     
   377799300.53102416        1322076.5676044971        1501987074.2321744     
  -512824.07359295129        1082372.5202336987        1491365490.1518204     
  -177170.41643355857        1714363.5859438733        1495408541.4108117     
  -35582.526085190824        1699468.7622836181        1502342188.7163038     
  -88060.402546406782        1037688.0492577367        1512166432.0682964     
  -334604.04581924243       -270978.55313916958        1524881271.4667892     
   1507713038.4307220        4754849.1805940270        1426947181.5702972     
   1461234711.1441653        1091838.8122247458        1422631681.9888818     
   1415277396.6572223       -834462.22410118580        1422210832.3160210     
   1369841094.9698935       -1024053.9283783436        1425684632.5517197     
   1324925806.0821779        523063.69938695431        1433053082.6959765     
   1131823121.7692947        3834990.4344702959        1453020029.2839291     
   1095794020.6270144        358825.10221481323        1449079037.2551990     
   1060158618.6192806       -1805009.7815560699        1449238143.4974840     
   1024916915.7460871       -2656514.2168549299        1453497348.0107808     
   990068912.00744176       -2195688.2036626339        1461856650.7950921     
   755185209.13606346        2690732.8968102336        1478033326.8378890     
   730192329.45936012       -422488.80294123292        1474318309.7525990     
   705465835.25213063       -2647758.9377799928        1474908839.3007779     
   681005726.51437891       -3985077.5076937973        1479804915.4824235     
   656812003.24610031       -4434444.5126954913        1489006538.2975380     
   377799300.53102416        1322076.5676044971        1501987074.2321744     
   364429637.64119810       -1252102.9032545835        1498349499.4810784     
   351199046.55577654       -3362709.6927651912        1499222919.7259059     
   338107527.27476341       -5009743.8009140044        1504607334.9666553     
   325155079.79815602       -6193205.2277100384        1514502745.2033315     
  -334604.04581924243       -270978.55313916958        1524881271.4667892     
  -1494054.8274676492       -2130017.1987148770        1521172606.4406378     
  -2641747.4697810477       -3949862.0465068775        1522180384.7728653     
  -3777681.9727543145       -5730513.0964979166        1527904606.4634714     
  -4901858.3363922071       -7471970.3487057630        1538345271.5124557     
   1324925806.0821779        523063.69938695431        1433053082.6959765     
   1268361577.2844281       -1031935.8072898388        1415903728.3652852     
   1211535169.6465511       -3460864.7810609937        1404803436.9862325     
   1154446583.1685476       -6763723.2219190001        1399752208.5588200     
   1097095817.8504207       -10940511.129853249        1400750043.0830467     
   990068912.00744176       -2195688.2036626339        1461856650.7950921     
   949067668.24023986       -3166033.0035792589        1444913475.1233723     
   907946220.63220668       -4537057.2729335427        1433757843.1296425     
   866704569.18334162       -6308761.0117248297        1428389754.8139031     
   825342713.89364421       -8481144.2199603319        1428809210.1761532     
   656812003.24610031       -4434444.5126954913        1489006538.2975380     
   630626546.58473837       -5044293.9832518101        1472435178.7839673     
   604462861.08183670       -5581572.9256064892        1461389843.6747394     
   578320946.73739445       -6046281.3397628665        1455870532.9698503     
   552200803.55141413       -6438419.2257152796        1455877246.6693044     
   325155079.79815602       -6193205.2277100384        1514502745.2033315     
   313038212.31792212       -6666718.7463192046        1498468839.3470800     
   301085090.99544007       -6594411.7390893996        1487699438.6215229     
   289295715.83070982       -5976284.2060205489        1482194543.0266576     
   277670086.82373571       -4812336.1470955163        1481954152.5624862     
  -4901858.3363922071       -7471970.3487057630        1538345271.5124557     
  -3697334.5602115276       -8033307.2927884627        1523014456.8127029     
  -2187089.6269847713       -7575573.7133849300        1512686627.9699945     
  -371123.53671184531       -6098769.6104945149        1507361784.9843285     
   1750563.7106055107       -3602894.9841212765        1507039927.8557048     
   1097095817.8504207       -10940511.129853249        1400750043.0830467     
   1060197642.3673172       -7696264.9765663743        1418436271.9864442     
   1024409067.9951419       -753348.45351248980        1438509744.6296935     
   989730094.73389220        9888238.4392898083        1460970461.0128002     
   956160722.58357036        24228495.701851606        1485818421.1357560     
   825342713.89364421       -8481144.2199603319        1428809210.1761532     
   794812282.64425755       -7097759.1091488898        1447121169.9625802     
   764604038.38315296       -4640417.3707307875        1468373580.2756646     
   734717981.11032426       -1109119.0047262609        1492566441.1153975     
   705154110.82577515        3496135.9888741374        1519699752.4817884     
   552200803.55141413       -6438419.2257152796        1455877246.6693044     
   529618707.35517997       -6441717.9115359485        1473896287.5290036     
   506571384.02457505       -7995773.7119266093        1495408985.7021573     
   483058833.55959934       -11100586.626886278        1520415341.1887667     
   459081055.96025586       -15756156.656405479        1548915353.9888303     
   277670086.82373571       -4812336.1470955163        1481954152.5624862     
   264616916.50008076       -5728141.3837365359        1498761624.6857033     
   250311104.91940677       -10819417.477104113        1519615960.9091730     
   234752652.08171496       -20086164.427199006        1544517161.2329037     
   217941557.98701009       -33528382.234003901        1573465225.6568842     
   1750563.7106055107       -3602894.9841212765        1507039927.8557048     
  -193089.92103378638       -4957029.5257284129        1521717181.4326816     
  -4176798.9323478849       -13111348.666250860        1540994505.8967137     
  -10200563.323323769       -28065852.405645579        1564871901.2478032     
  -18264383.093966629       -49820540.743931614        1593349367.4859483     
   956160722.58357036        24228495.701851606        1485818421.1357560     
   884837648.08637726        7071326.8143903613        1459088256.5427961     
   799105204.05234170       -58117073.862537205        1443381812.9737351     
   698963390.48146629       -171336706.32893509        1438699090.4285607     
   584412207.37376881       -332587570.58474529        1445040088.9072833     
   705154110.82577515        3496135.9888741374        1519699752.4817884     
   661817091.56900108       -7026991.5930446386        1480848205.7138259     
   610907486.71920276       -42792071.151709467        1450969740.1133292     
   552425296.27638328       -103799102.68711200        1430064355.6802864     
   486370520.24055135       -190048086.19923213        1418132052.4147053     
   459081055.96025586       -15756156.656405479        1548915353.9888303     
   437871120.92552221       -21402934.238302112        1505918672.9803181     
   415925384.24158263       -29502383.984216571        1469844433.2828286     
   393243845.90843683       -40054505.894151405        1440692634.8963645     
   369826505.92608708       -53059299.968099564        1418463277.8209386     
   217941557.98701009       -33528382.234003901        1573465225.6568842     
   212999736.15593874       -36056501.121388435        1534299658.3422701     
   214158896.61947674       -18248012.360074162        1500005892.4822502     
   221419039.37762508        19897084.049941353        1470583928.0768199     
   234780164.43038630        78378788.108665377        1446033765.1259909     
  -18264383.093966629       -49820540.743931614        1593349367.4859483     
  -12797062.739752907       -50987692.242313899        1565991161.7996829     
   5608023.8528884854       -9028956.2792706322        1541454117.7115798     
   36950876.683953702        76055667.145184338        1519738235.2216418     
   81231495.753443837        204266178.03105780        1500843514.3298655     
   134773.89155721827        40432.167467165484        656382237.55188644     
   91139.582373392564        11470.092367199733        770880303.29658556     
   54529.221528178561        5921.1783958529213        885568088.12804139     
   24942.809021607700        23785.425553186527        1000445592.0462543     
   2380.3448537343320        65062.833839685212        1115512815.0512242     
  -448290873.59916633       -134487262.07974991        657852190.39977336     
  -447499977.66447699       -125465995.23623663        774058784.59985566     
  -445974761.85059905       -113996995.46209472        888629091.68878818     
  -443715226.15753245       -100080262.75732425        1001563111.6665707     
  -440721370.58527726       -83715797.121925026        1112860844.5332031     
  -890462003.98052061       -267138601.19415620        662282452.61317146     
  -894053738.36740637       -250632253.60166413        781046087.18796182     
  -896183856.94425344       -229253853.30904347        896347428.45369565     
  -896852359.71106195       -203003400.31629434        1008186476.4103729     
  -896059246.66783214       -171880894.62341669        1116563231.0579929     
  -1326378617.2525058       -397913585.17575175        669673024.19208050     
  -1339570142.5264146       -375487305.00391531        791842211.06090426     
  -1350572756.0594354       -345764652.36245060        908723098.42276490     
  -1359386457.8515670       -308745627.25135714        1020315686.2776610     
  -1366011247.9028108       -264430229.67063549        1126619974.6255941     
  -1756040713.4151218       -526812214.02453655        680023905.13650084     
  -1784049190.1415024       -500031149.44299030        806447156.21868289     
  -1809141459.1961441       -463529392.62231541        925756101.59599423     
  -1831317520.5790474       -417306943.56251258        1037950741.2684351     
  -1850577374.2902129       -361363802.26358151        1143031075.2360058     
   2380.3448537343320        65062.833839685212        1115512815.0512242     
   86066.002071497613        122880.79499271815        1188604695.6227655     
   152617.45806039183        123584.75204960768        1258540882.4319458     
   202034.71282118483        67174.705013043131        1325321375.4787650     
   234317.76635351765       -46349.346118735484        1388946174.7632225     
  -440721370.58527726       -83715797.121925026        1112860844.5332031     
  -442678679.45003998       -69013698.171208069        1181012320.6300168     
  -445487022.93261379       -57148381.279861867        1247370045.2439225     
  -449146401.03299856       -48119846.447885051        1311934018.3749213     
  -453656813.75119418       -41928093.675278053        1374704240.0230112     
  -896059246.66783214       -171880894.62341669        1116563231.0579929     
  -896166286.39899325       -141367135.58646142        1178801418.8607323     
  -897958261.16454875       -116469826.66415197        1240607797.4600174     
  -901435170.96449697       -97188967.856487572        1301982366.8558495     
  -906597015.79883957       -83524559.163468331        1362925127.0482266     
  -1366011247.9028108       -264430229.67063549        1126619974.6255941     
  -1360376754.8447893       -216937431.45076776        1181971990.3149128     
  -1357261097.2377429       -177840751.40081924        1238254139.0802310     
  -1356664275.0816743       -147140189.52079296        1295466420.9215496     
  -1358586288.3765814       -124835745.81068760        1353608835.8388669     
  -1850577374.2902129       -361363802.26358151        1143031075.2360058     
  -1835310084.7874262       -295724585.76412576        1190524034.9925578     
  -1823395531.1521986       -241261155.48986608        1240309070.1045630     
  -1814833713.3845303       -197973511.44080257        1292386180.5720210     
  -1809624631.4844203       -165861653.61693466        1346755366.3949327     
   234317.76635351765       -46349.346118735484        1388946174.7632225     
  -72981.635741587015       -165882.01989225173        1409690317.6436114     
  -299938.40976413793       -17605.933423922295        1433674917.8351736     
  -446552.55571484438        398478.91328406241        1460899975.3379107     
  -512824.07359295129        1082372.5202336987        1491365490.1518204     
  -453656813.75119418       -41928093.675278053        1374704240.0230112     
  -443630915.19159424       -33087489.975415483        1395366021.4514792     
  -433882801.21599692       -25172834.888893902        1418668235.6069288     
  -424412471.82440138       -18184128.415712401        1444610882.4893613     
  -415219927.01680827       -12121370.555871934        1473193962.0987775     
  -906597015.79883957       -83524559.163468331        1362925127.0482266     
  -887952275.23237586       -66238125.876419097        1383086731.9440186     
  -869943446.46198916       -51071398.576292485        1405288744.9826024     
  -852570529.48767889       -38024377.263087779        1429531166.1639783     
  -835833524.30944502       -27097061.936804771        1455813995.4881463     
  -1358586288.3765814       -124835745.81068760        1353608835.8388669     
  -1333037061.7580850       -99617789.722900987        1372852449.1212299     
  -1308481874.1477401       -77713296.995619237        1393536445.9621947     
  -1284920725.5455456       -59122267.628838360        1415660826.3617597     
  -1262353615.9515033       -43844701.622564495        1439225590.3199275     
  -1809624631.4844203       -165861653.61693466        1346755366.3949327     
  -1778885274.7687223       -133226481.51486003        1364663172.9831138     
  -1749498084.2732506       -105098530.14687282        1383411338.5457056     
  -1721463059.9980040       -81477799.512968540        1402999863.0827076     
  -1694780201.9429824       -62364289.613149643        1423428746.5941200     
  -512824.07359295129        1082372.5202336987        1491365490.1518204     
  -177170.41643355857        1714363.5859438733        1495408541.4108117     
  -35582.526085190824        1699468.7622836181        1502342188.7163038     
  -88060.402546406782        1037688.0492577367        1512166432.0682964     
  -334604.04581924243       -270978.55313916958        1524881271.4667892     
  -415219927.01680827       -12121370.555871934        1473193962.0987775     
  -405252170.04693067       -7071714.4217838645        1475043802.7340376     
  -395827946.32235289       -3833835.7720278054        1480392896.3937242     
  -386947255.84307146       -2407734.6065942347        1489241243.0778368     
  -378610098.60909081       -2793410.9254962057        1501588842.7863762     
  -835833524.30944502       -27097061.936804771        1455813995.4881463     
  -814494644.08991826       -17108034.753259122        1455062913.4414387     
  -794048764.59417760       -10095676.649001300        1458419741.3970842     
  -774495885.82222390       -6059987.6240327656        1465884479.3550801     
  -755836007.77405715       -5000967.6783559024        1477457127.3154302     
  -1262353615.9515033       -43844701.622564495        1439225590.3199275     
  -1227904592.5453954       -28394597.408480287        1435465873.5330174     
  -1194698037.3415627       -17086053.868644714        1436422723.7263830     
  -1162733950.3400047       -9919071.0030606389        1442096140.9000278     
  -1132012331.5407219       -6893648.8117253780        1452486125.0539508     
  -1694780201.9429824       -62364289.613149643        1423428746.5941200     
  -1645482015.4133630       -40931402.387447178        1416252683.0087683     
  -1597775764.5645070       -24804967.430957258        1414401843.3816216     
  -1551661449.3964128       -13984984.743674219        1417876227.7126775     
  -1507139069.9090843       -8471454.3256076574        1426675836.0019379     
  -334604.04581924243       -270978.55313916958        1524881271.4667892     
  -1494054.8274676492       -2130017.1987148770        1521172606.4406378     
  -2641747.4697810477       -3949862.0465068775        1522180384.7728653     
  -3777681.9727543145       -5730513.0964979166        1527904606.4634714     
  -4901858.3363922071       -7471970.3487057630        1538345271.5124557     
  -378610098.60909081       -2793410.9254962057        1501588842.7863762     
  -367210102.71290028       -3090667.3382702023        1498185963.2331064     
  -355814110.95110905       -3401270.8657093942        1499367341.8660729     
  -344422123.32371914       -3725221.5078192353        1505132978.6852746     
  -333034139.83072621       -4062519.2645857185        1515482873.6907136     
  -755836007.77405715       -5000967.6783559024        1477457127.3154302     
  -732254237.12043750       -3849743.4344564676        1474341643.9156826     
  -708692232.87495387       -2764407.2176750898        1475678233.5300288     
  -685149995.03760505       -1744959.0280101895        1481466896.1584685     
  -661627523.60839128       -791398.86546334624        1491707631.8009970     
  -1132012331.5407219       -6893648.8117253780        1452486125.0539508     
  -1096626458.0500808       -4407245.4872723222        1449639648.4883683     
  -1061276113.2413120       -2039271.1023923159        1451113059.7647352     
  -1025961297.1144128        210274.34292232990        1456906358.8830519     
  -990682009.66938722        2341390.8486589789        1467019545.8433166     
  -1507139069.9090843       -8471454.3256076574        1426675836.0019379     
  -1460326765.5018311       -4763173.4967260361        1424079976.9511595     
  -1413565752.0501842       -1225862.5198634267        1425671820.5701895     
  -1366856029.5541472        2140478.6049686074        1431451366.8590262     
  -1320197598.0137146        5335849.8777818680        1441418615.8176694     
  -4901858.3363922071       -7471970.3487057630        1538345271.5124557     
  -3697334.5602115276       -8033307.2927884627        1523014456.8127029     
  -2187089.6269847713       -7575573.7133849300        1512686627.9699945     
  -371123.53671184531       -6098769.6104945149        1507361784.9843285     
   1750563.7106055107       -3602894.9841212765        1507039927.8557048     
  -333034139.83072621       -4062519.2645857185        1515482873.6907136     
  -318333689.23500818       -3370351.5329755396        1500228206.8731148     
  -303605679.32408506       -2586319.4173472077        1490062766.0575712     
  -288850110.09795046       -1710422.9176802933        1484986551.2440858     
  -274066981.55661696       -742662.03401920199        1484999562.4326539     
  -661627523.60839128       -791398.86546334624        1491707631.8009970     
  -633184745.77881908        1228193.6661231220        1476204590.7167418     
  -604992570.47587419        2412444.4422842860        1465877015.7795541     
  -577050997.69956481        2761353.4629946351        1460724906.9894371     
  -549360027.44988585        2274920.7282706499        1460748264.3463852     
  -990682009.66938722        2341390.8486589789        1467019545.8433166     
  -948250504.19163609        5762328.3045282960        1450943608.3435934     
  -906347763.08235288        7420717.8655053377        1440129377.1359487     
  -864973786.34154367        7316559.5315701365        1434576852.2203848     
  -824128573.96920037        5449853.3027492762        1434286033.5969019     
  -1320197598.0137146        5335849.8777818680        1441418615.8176694     
  -1263530964.4734676        10232052.382219136        1424445259.7536635     
  -1207671257.1435194        12438500.852325022        1412819850.1267505     
  -1152618476.0238905        11955195.288034916        1406542386.9369321     
  -1098372621.1145639        8782135.6894031763        1405612870.1842065     
   1750563.7106055107       -3602894.9841212765        1507039927.8557048     
  -193089.92103378638       -4957029.5257284129        1521717181.4326816     
  -4176798.9323478849       -13111348.666250860        1540994505.8967137     
  -10200563.323323769       -28065852.405645579        1564871901.2478032     
  -18264383.093966629       -49820540.743931614        1593349367.4859483     
  -274066981.55661696       -742662.03401920199        1484999562.4326539     
  -264832641.99623546       -2927634.8064132482        1497876960.4466264     
  -256607024.58301553       -8475014.7360151559        1514944475.7745085     
  -249390129.31695241       -17384801.822805069        1536202108.4163046     
  -243181956.19804683       -29656996.066787094        1561649858.3720071     
  -549360027.44988585        2274920.7282706499        1460748264.3463852     
  -530118990.62075430       -1092279.0518865287        1473029028.9019465     
  -510855342.70627671       -4384108.5475575328        1489089957.1982768     
  -491569083.70644426       -7600567.7587135136        1508931049.2353704     
  -472260213.62126517       -10741656.685378999        1532552305.0132263     
  -824128573.96920037        5449853.3027492762        1434286033.5969019     
  -796052135.79459381        549037.73784232140        1447173386.7986481     
  -766921753.30212963       -838630.10087412596        1463430950.1680143     
  -736737426.49180901        1286849.7866011560        1483058723.7049956     
  -705499155.36362588        6925477.4002838731        1506056707.4096005     
  -1098372621.1145639        8782135.6894031763        1405612870.1842065     
  -1062632077.5177528        1996315.5627752542        1420310034.1367288     
  -1024806256.3705778        2161420.6040257215        1437967454.6837227     
  -984895157.67303240        9277450.8131786585        1458585131.8251929     
  -942898781.42512369        23344406.190208972        1482163065.5611334     
  -18264383.093966629       -49820540.743931614        1593349367.4859483     
  -12797062.739752907       -50987692.242313899        1565991161.7996829     
   5608023.8528884854       -9028956.2792706322        1541454117.7115798     
   36950876.683953702        76055667.145184338        1519738235.2216418     
   81231495.753443837        204266178.03105780        1500843514.3298655     
  -243181956.19804683       -29656996.066787094        1561649858.3720071     
  -228363751.83612332       -29824742.394010231        1545292972.7496023     
  -206258953.75967762       -5703843.0061606690        1533077281.2646976     
  -176867561.96869969        42705702.096796468        1525002783.9172952     
  -140189576.46319425        115403892.91484913        1521069480.7073905     
  -472260213.62126517       -10741656.685378999        1532552305.0132263     
  -444319603.71067172       -8778541.3791732788        1520603704.8434668     
  -414743572.60944903       -1364022.1042052209        1514116331.3505456     
  -383532120.31759334        11501901.139539957        1513090184.5344665     
  -350685246.83510804        29819228.352051109        1517525264.3952215     
  -705499155.36362588        6925477.4002838731        1506056707.4096005     
  -660664618.36339450        12150910.802211314        1491923358.0812736     
  -619845832.69642889        3990506.4265874624        1484571267.9691257     
  -583042798.36273062       -17555735.726594687        1484000437.0731549     
  -550255515.36229908       -52487815.657330096        1490210865.3933561     
  -942898781.42512369        23344406.190208972        1482163065.5611334     
  -877398795.79428959        32963614.150147617        1459251932.4630263     
  -821565734.02061749        10359742.586211741        1444442091.1204362     
  -775399596.10410798       -44467208.501599491        1437733541.5333598     
  -738900382.04476154       -131517239.11328603        1439126283.7018023     
  -1756040713.4151218       -526812214.02453655        680023905.13650084     
  -1784049190.1415024       -500031149.44299030        806447156.21868289     
  -1809141459.1961441       -463529392.62231541        925756101.59599423     
  -1831317520.5790474       -417306943.56251258        1037950741.2684351     
  -1850577374.2902129       -361363802.26358151        1143031075.2360058     
  -2201707346.0780826       -660512203.82342482        696428738.96370924     
  -2238338005.7328854       -613865385.82248187        813855800.22805607     
  -2272930265.8536935       -560423902.70822573        927180314.15555000     
  -2305484126.4405079       -500187754.48065686        1036402280.7461903     
  -2335999587.4933295       -433156941.13977569        1141521699.9999778     
  -2685637568.8511033       -805691270.65533102        721981169.19098258     
  -2722285387.5257068       -736597192.06240523        829387931.14345932     
  -2757772614.8040609       -663634475.48198175        935703904.12709999     
  -2792099250.6861663       -586803120.91406107        1040929088.1419048     
  -2825265295.1720219       -506103128.35864240        1145063483.1878738     
  -3207831381.7341824       -962349414.52025473        756681195.81832099     
  -3235891335.5199666       -868226568.16275990        853043548.96489203     
  -3263668506.0472465       -773161110.94358325        951326871.51064456     
  -3291162893.3160205       -677153042.86272347        1051531163.4555781     
  -3318374497.3262906       -580202363.92018223        1153656424.7996931     
  -3768288784.7273221       -1130486635.4181967        800528818.84572458     
  -3779155849.7156658       -1008753514.1235466        884822653.69235468     
  -3790617939.5832491       -889003809.09302950        974049216.30618322     
  -3802675054.3300734       -771237520.32664597        1068208506.6872101     
  -3815327193.9561362       -655454647.82439494        1167300524.8354361     
  -1850577374.2902129       -361363802.26358151        1143031075.2360058     
  -1835310084.7874262       -295724585.76412576        1190524034.9925578     
  -1823395531.1521986       -241261155.48986608        1240309070.1045630     
  -1814833713.3845303       -197973511.44080257        1292386180.5720210     
  -1809624631.4844203       -165861653.61693466        1346755366.3949327     
  -2335999587.4933295       -433156941.13977569        1141521699.9999778     
  -2312489597.5512395       -352110423.96002549        1182781985.7256210     
  -2292463236.6769490       -282676003.67294049        1224535203.9690535     
  -2275920504.8704567       -224853680.27851790        1266781354.7302752     
  -2262861402.1317654       -178643453.77676058        1309520438.0092869     
  -2825265295.1720219       -506103128.35864240        1145063483.1878738     
  -2798653012.8982391       -411191432.93088192        1179938386.1489935     
  -2775655252.8924966       -328328145.06325316        1213507078.7902398     
  -2756272015.1547928       -257513264.75575626        1245769561.1116107     
  -2740503299.6851296       -198746792.00839353        1276725833.1131077     
  -3318374497.3262906       -580202363.92018223        1153656424.7996931     
  -3293800330.8284259       -472967612.67669284        1181993236.2626762     
  -3272971579.7988415       -378217579.66080463        1207224694.5681212     
  -3255888244.2375360       -295952264.87251806        1229350799.7160282     
  -3242550324.1445122       -226171668.31183016        1248371551.7063975     
  -3815327193.9561362       -655454647.82439494        1167300524.8354361     
  -3797931551.3417997       -537438963.19746184        1188946536.0666683     
  -3784412217.3959837       -432344307.46559680        1205688051.3026986     
  -3774769192.1186891       -340170680.62880015        1217525070.5435276     
  -3769002475.5099144       -260918082.68707550        1224457593.7891543     
  -1809624631.4844203       -165861653.61693466        1346755366.3949327     
  -1778885274.7687223       -133226481.51486003        1364663172.9831138     
  -1749498084.2732506       -105098530.14687282        1383411338.5457056     
  -1721463059.9980040       -81477799.512968540        1402999863.0827076     
  -1694780201.9429824       -62364289.613149643        1423428746.5941200     
  -2262861402.1317654       -178643453.77676058        1309520438.0092869     
  -2223279326.6274476       -134182334.94965303        1317592881.1747692     
  -2186613182.1680784       -99440986.272375107        1328897992.1128495     
  -2152862968.7536592       -74419407.744933248        1343435770.8235271     
  -2122028686.3841898       -59117599.367319584        1361206217.3068016     
  -2740503299.6851296       -198746792.00839353        1276725833.1131077     
  -2685243337.3973689       -140409176.05780101        1273138520.5603802     
  -2634463070.9792838       -97003879.672789216        1275176184.5784369     
  -2588162500.4308729       -68530902.853360415        1282838825.1672773     
  -2546341625.7521367       -54990245.599512339        1296126442.3269029     
  -3242550324.1445122       -226171668.31183016        1248371551.7063975     
  -3164777307.0784922       -151907004.83931077        1231300091.1399465     
  -3093047750.7068691       -97787210.348119497        1222245915.9424672     
  -3027361655.0296450       -63812284.838255763        1221209026.1139600     
  -2967719020.0468206       -49982228.309725881        1228189421.6544235     
  -3769002475.5099144       -260918082.68707550        1224457593.7891543     
  -3661881235.6708126       -168675821.29418027        1192077592.9134691     
  -3562367221.3508325       -101790978.29836023        1170107186.2049417     
  -3470460432.5499768       -60263553.699622393        1158546373.6635747     
  -3386160869.2682452       -44093547.497962117        1157395155.2893639     
  -1694780201.9429824       -62364289.613149643        1423428746.5941200     
  -1645482015.4133630       -40931402.387447178        1416252683.0087683     
  -1597775764.5645070       -24804967.430957258        1414401843.3816216     
  -1551661449.3964128       -13984984.743674219        1417876227.7126775     
  -1507139069.9090843       -8471454.3256076574        1426675836.0019379     
  -2122028686.3841898       -59117599.367319584        1361206217.3068016     
  -2060343613.8432226       -40764667.634173155        1353238069.9999964     
  -1999833234.6721961       -26327380.467498899        1350183831.5496900     
  -1940497548.8711095       -15805737.867290258        1352043501.9558847     
  -1882336556.4399657       -9199739.8335546255        1358817081.2185779     
  -2546341625.7521367       -54990245.599512339        1296126442.3269029     
  -2473444853.2046895       -40069825.160385251        1287852993.9946029     
  -2401305531.7163620       -27674241.584988475        1284082139.4170980     
  -2329923661.2871499       -17803494.873313665        1284813878.5943887     
  -2259299241.9170589       -10457585.025369525        1290048211.5264771     
  -2967719020.0468206       -49982228.309725881        1228189421.6544235     
  -2884785733.4977646       -38846874.966077685        1220097454.9925885     
  -2802192655.6970043       -28845550.783420205        1216096766.9838440     
  -2719939786.6445360       -19978255.761737704        1216187357.6281939     
  -2638027126.3403664       -12244989.901048303        1220369226.9256327     
  -3386160869.2682452       -44093547.497962117        1157395155.2893639     
  -3294366254.7224450       -37095817.051250696        1149971452.9939530     
  -3202494606.6141195       -29841308.062790751        1146227714.2499297     
  -3110545924.9432654       -22330020.532564640        1146163939.0572944     
  -3018520209.7098851       -14561954.460586905        1149780127.4160476     
  -1507139069.9090843       -8471454.3256076574        1426675836.0019379     
  -1460326765.5018311       -4763173.4967260361        1424079976.9511595     
  -1413565752.0501842       -1225862.5198634267        1425671820.5701895     
  -1366856029.5541472        2140478.6049686074        1431451366.8590262     
  -1320197598.0137146        5335849.8777818680        1441418615.8176694     
  -1882336556.4399657       -9199739.8335546255        1358817081.2185779     
  -1824251098.5708432       -5000469.4417703152        1355433244.6032515     
  -1766562859.8196983       -2125262.7765724659        1356420056.5435021     
  -1709271840.1865368       -574119.83798623085        1361777517.0393279     
  -1652378039.6713493       -347040.62598001957        1371505626.0907290     
  -2259299241.9170589       -10457585.025369525        1290048211.5264771     
  -2189417928.0553021       -5610514.3114529848        1285472814.4905040     
  -2120279761.4738915       -3240601.1986969709        1285451011.8958740     
  -2051884742.1728325       -3347845.6871130466        1289982803.7425902     
  -1984232870.1521220       -5932247.7766867876        1299068190.0306532     
  -2638027126.3403664       -12244989.901048303        1220369226.9256327     
  -2555827253.9552007       -6593308.1057639122        1214198686.6129112     
  -2474716457.0127544       -4571877.7862164974        1212764686.6273048     
  -2394694735.5130315       -6180698.9424057007        1216067226.9688113     
  -2315762089.4560261       -11419771.574329615        1224106307.6374333     
  -3018520209.7098851       -14561954.460586905        1149780127.4160476     
  -2923479076.2705441       -7948850.8247122765        1141610860.9704795     
  -2829872946.4362922       -6119092.5391360521        1138361080.7377939     
  -2737701820.2071362       -9072679.6038795710        1140030786.7179947     
  -2646965697.5830679       -16809612.018913507        1146619978.9110756     
  -1320197598.0137146        5335849.8777818680        1441418615.8176694     
  -1263530964.4734676        10232052.382219136        1424445259.7536635     
  -1207671257.1435194        12438500.852325022        1412819850.1267505     
  -1152618476.0238905        11955195.288034916        1406542386.9369321     
  -1098372621.1145639        8782135.6894031763        1405612870.1842065     
  -1652378039.6713493       -347040.62598001957        1371505626.0907290     
  -1582460472.6950116        2733905.1149961352        1353960155.9498923     
  -1512840145.9914842        4824049.9465993643        1341678670.4989843     
  -1443517059.5607717        5923393.8688223958        1334661169.7380035     
  -1374491213.4028702        6031936.8816761971        1332907653.6669567     
  -1984232870.1521220       -5932247.7766867876        1299068190.0306532     
  -1901304260.4458778       -4738526.0110366344        1281545239.4067259     
  -1818163205.0749450       -2836652.0297683477        1269202311.7255635     
  -1734809704.0393341       -226625.83290433884        1262039406.9871700     
  -1651243757.3390405        3091552.5795748234        1260056525.1915386     
  -2315762089.4560261       -11419771.574329615        1224106307.6374333     
  -2220062327.7260532       -12185240.995853901        1207200510.1241634     
  -2123640434.3939018       -10543605.076781631        1195390773.8064954     
  -2026496409.4595757       -6494863.8171265125        1188677098.6844292     
  -1928630252.9230716       -39017.216878890991        1187059484.7579675     
  -2646965697.5830679       -16809612.018913507        1146619978.9110756     
  -2538734674.5355506       -19606239.839471102        1130925968.1022058     
  -2429271833.9483604       -18296809.194456220        1120244056.7417741     
  -2318577175.8214941       -12881320.083856344        1114574244.8297801     
  -2206650700.1549606       -3359772.5076900721        1113916532.3662274     
  -1098372621.1145639        8782135.6894031763        1405612870.1842065     
  -1062632077.5177528        1996315.5627752542        1420310034.1367288     
  -1024806256.3705778        2161420.6040257215        1437967454.6837227     
  -984895157.67303240        9277450.8131786585        1458585131.8251929     
  -942898781.42512369        23344406.190208972        1482163065.5611334     
  -1374491213.4028702        6031936.8816761971        1332907653.6669567     
  -1330961959.0255134       -663325.45736402273        1349122755.2527580     
  -1286578207.9914091       -4510265.6072461009        1368348018.2781405     
  -1241339960.3005657       -5508883.5679974556        1390583442.7431021     
  -1195247215.9529858       -3659179.3396282792        1415829028.6476440     
  -1651243757.3390405        3091552.5795748234        1260056525.1915386     
  -1599783206.9093966       -3470376.3903251290        1276353653.3680599     
  -1548698940.7166352       -11286586.149837315        1295710847.8292646     
  -1497990958.7607653       -20357076.698983610        1318128108.5751543     
  -1447659261.0417809       -30681848.037753880        1343605435.6057320     
  -1928630252.9230716       -39017.216878890991        1187059484.7579675     
  -1869095821.1694107       -6424837.2361311913        1202002728.4826355     
  -1811168454.5462651       -18167541.023759127        1220055943.3370967     
  -1754848153.0536277       -35267128.579756975        1241219129.3213489     
  -1700134916.6915145       -57723599.904159904        1265492286.4353933     
  -2206650700.1549606       -3359772.5076900721        1113916532.3662274     
  -2138899801.8055558       -9526707.9947766066        1126069980.5964811     
  -2073986749.4802835       -25153130.228979349        1141383304.8016367     
  -2011911543.1791582       -50239039.210337758        1159856504.9816866     
  -1952674182.9021790       -84784434.938842058        1181489581.1366372     
  -942898781.42512369        23344406.190208972        1482163065.5611334     
  -877398795.79428959        32963614.150147617        1459251932.4630263     
  -821565734.02061749        10359742.586211741        1444442091.1204362     
  -775399596.10410798       -44467208.501599491        1437733541.5333598     
  -738900382.04476154       -131517239.11328603        1439126283.7018023     
  -1195247215.9529858       -3659179.3396282792        1415829028.6476440     
  -1110626134.6946573        2871568.1180007458        1383722297.0803118     
  -1031394137.6824946       -8561298.5782496929        1358935530.5099099     
  -957551224.91650057       -37957779.428389788        1341468728.9364438     
  -889097396.39666855       -85317874.432421088        1331321892.3599164     
  -1447659261.0417809       -30681848.037753880        1343605435.6057320     
  -1346149446.3233347       -27909269.732640743        1307293918.4486656     
  -1245750876.2400513       -28840840.211418688        1277521039.5299563     
  -1146463550.7919407       -33476559.474104345        1254286798.8496060     
  -1048287469.9790015       -41816427.520683885        1237591196.4076021     
  -1700134916.6915145       -57723599.904159904        1265492286.4353933     
  -1583968730.6803093       -59378899.401763916        1229966796.5680981     
  -1464635949.6932845       -50478882.313292146        1200198618.1805730     
  -1342136573.7304311       -31023548.638722360        1176187751.2728271     
  -1216470602.7917483       -1012898.3780708909        1157934195.8448489     
  -1952674182.9021790       -84784434.938842058        1181489581.1366372     
  -1824083987.7656000       -91537320.889388442        1151740931.4385982     
  -1688049358.0421987       -73475424.883869052        1126968266.4617605     
  -1544570293.7319744       -30598746.922267675        1107171586.2061102     
  -1393646794.8349237        37092712.995413601        1092350890.6716630     
  -3768288784.7273221       -1130486635.4181967        800528818.84572458     
  -3779155849.7156658       -1008753514.1235466        884822653.69235468     
  -3790617939.5832491       -889003809.09302950        974049216.30618322     
  -3802675054.3300734       -771237520.32664597        1068208506.6872101     
  -3815327193.9561362       -655454647.82439494        1167300524.8354361     
  -4339839243.9468699       -1301951773.1840608        858690621.38608623     
  -4335287769.3733196       -1125757714.1625175        942317592.75115907     
  -4331868423.1749802       -953337416.39167309        1020304342.6904374     
  -4329581205.3518496       -784690879.87152839        1092650871.2039211     
  -4328426115.9039288       -619818104.60208249        1159357178.2916100     
  -4895312225.5091734       -1468593667.6527522        936333186.55229878     
  -4905550637.6394262       -1247001198.7840242        1018666673.6905162     
  -4917458281.6408577       -1030972836.1525612        1084786990.2099466     
  -4931035157.5134687       -820508579.75836337        1134694136.1105888     
  -4946281265.2572575       -615608429.60143054        1168388111.3924432     
  -5434707729.4142342       -1630412318.8242702        1033456514.3443626     
  -5489944454.5139828       -1372483967.9880660        1113869896.5104270     
  -5547387514.9808817       -1121910068.3756928        1167497158.8647103     
  -5607036910.8149281       -878690619.98715055        1194338301.4072130     
  -5668892642.0161228       -642825622.82243967        1194393324.1379347     
  -5958025755.6620531       -1787407726.6986160        1150060604.7622774     
  -6088469219.9969921       -1502206021.7746439        1227927261.2108901     
  -6221656123.1950512       -1226149113.0610683        1268434848.6547289     
  -6357586465.2562265       -959237000.55789018        1271583367.0937943     
  -6496260246.1805248       -701469684.26510954        1237372816.5280850     
  -3815327193.9561362       -655454647.82439494        1167300524.8354361     
  -3797931551.3417997       -537438963.19746184        1188946536.0666683     
  -3784412217.3959837       -432344307.46559680        1205688051.3026986     
  -3774769192.1186891       -340170680.62880015        1217525070.5435276     
  -3769002475.5099144       -260918082.68707550        1224457593.7891543     
  -4328426115.9039288       -619818104.60208249        1159357178.2916100     
  -4298191307.5822372       -464056716.53081155        1141365369.4013226     
  -4278583911.2327871       -343720035.03368866        1129443790.8708949     
  -4269603926.8555846       -258808060.11071777        1123592442.7003274     
  -4271251354.4506249       -209320791.76189566        1123811324.8896191     
  -4946281265.2572575       -615608429.60143054        1168388111.3924432     
  -4871850930.2137461       -412694429.78148270        1102882195.1929572     
  -4814799110.4462042       -267708814.21476507        1054421235.7083932     
  -4775125805.9546299       -180651582.90127850        1023005232.9387506     
  -4752831016.7390251       -151522735.84102225        1008634186.8840300     
  -5668892642.0161228       -642825622.82243967        1194393324.1379347     
  -5518910419.2363319       -383352102.94947696        1073497013.4415720     
  -5393057815.0362291       -204310645.00882435        980620385.81519353     
  -5291334829.4158249       -105701249.00048542        915763441.25879800     
  -5213741462.3751097       -87523914.924455166        878926179.77238548     
  -6496260246.1805248       -701469684.26510954        1237372816.5280850     
  -6239369774.6499872       -376029736.03479218        1053209824.1471680     
  -6013360025.0028687       -153525527.41586614        908041241.19129574     
  -5818230997.2391682       -33957058.408335686        801867067.66046953     
  -5653982691.3588839       -17324329.012193918        734687303.55468714     
  -3769002475.5099144       -260918082.68707550        1224457593.7891543     
  -3661881235.6708126       -168675821.29418027        1192077592.9134691     
  -3562367221.3508325       -101790978.29836023        1170107186.2049417     
  -3470460432.5499768       -60263553.699622393        1158546373.6635747     
  -3386160869.2682452       -44093547.497962117        1157395155.2893639     
  -4271251354.4506249       -209320791.76189566        1123811324.8896191     
  -4148284194.2705660       -145208799.70643067        1090604403.6123412     
  -4029695986.4869771       -95693315.639202833        1065668658.2772793     
  -3915486731.0998645       -60774339.560220480        1049004088.8844323     
  -3805656428.1092200       -40451871.469471216        1040610695.4338013     
  -4752831016.7390251       -151522735.84102225        1008634186.8840300     
  -4620127702.5749893       -117373943.03008461        978366663.84825301     
  -4488575067.6847706       -87060747.798542500        954231898.52974880     
  -4358173112.0683727       -60583150.146400690        936229890.92851865     
  -4228921835.7257938       -37941150.073656797        924360641.04455900     
  -5213741462.3751097       -87523914.924455166        878926179.77238548     
  -5077411760.5840759       -85171251.265135527        855364373.62120521     
  -4939004464.9442101       -75893274.776375532        835796906.96235406     
  -4798519575.4555120       -59689985.458171129        820223779.79583156     
  -4655957092.1179800       -36561383.310526848        808644992.12164187     
  -5653982691.3588839       -17324329.012193918        734687303.55468714     
  -5520136368.2978334       -48600724.411589146        721597532.93119681     
  -5380984178.2652969       -62190896.572703123        710363683.57509220     
  -5236526121.2612753       -58094845.495532036        700985755.48637342     
  -5086762197.2857695       -36312571.180080414        693463748.66504347     
  -3386160869.2682452       -44093547.497962117        1157395155.2893639     
  -3294366254.7224450       -37095817.051250696        1149971452.9939530     
  -3202494606.6141195       -29841308.062790751        1146227714.2499297     
  -3110545924.9432654       -22330020.532564640        1146163939.0572944     
  -3018520209.7098851       -14561954.460586905        1149780127.4160476     
  -3805656428.1092200       -40451871.469471216        1040610695.4338013     
  -3702162143.2398386       -29638362.433541059        1031920285.7845858     
  -3599305270.9971371       -20949562.153206587        1027669094.6969169     
  -3497085811.3811083       -14385470.628451347        1027857122.1707933     
  -3395503764.3917589       -9946087.8592901230        1032484368.2062149     
  -4228921835.7257938       -37941150.073656797        924360641.04455900     
  -4111558580.5038147       -22661072.439804077        913570003.48746884     
  -3995547184.0977120       -11887190.858886242        907977839.50208366     
  -3880887646.5074930       -5619505.3309018612        907584149.08840048     
  -3767579967.7331500       -3858015.8558518887        912388932.24642217     
  -4655957092.1179800       -36561383.310526848        808644992.12164187     
  -4522555566.5143757       -16163947.070044041        794920606.10260630     
  -4391220345.9158516       -2654194.1798355579        787153948.66543031     
  -4261951430.3224163        3967875.3600895405        785345019.81011784     
  -4134748819.7340617        3702261.5497322083        789493819.53666592     
  -5086762197.2857695       -36312571.180080414        693463748.66504347     
  -4935153101.2715187       -10146986.324257374        675972093.62999201     
  -4786324756.4515562        6749427.8839416504        665197422.18695784     
  -4640277162.8258801        14376671.444512844        661139734.33594346     
  -4497010320.3944902        12734744.357460737        663799030.07694840     
  -3018520209.7098851       -14561954.460586905        1149780127.4160476     
  -2923479076.2705441       -7948850.8247122765        1141610860.9704795     
  -2829872946.4362922       -6119092.5391360521        1138361080.7377939     
  -2737701820.2071362       -9072679.6038795710        1140030786.7179947     
  -2646965697.5830679       -16809612.018913507        1146619978.9110756     
  -3395503764.3917589       -9946087.8592901230        1032484368.2062149     
  -3289027155.7486978       -6250611.6884450912        1024531961.0931658     
  -3183371777.3983636       -5292569.8266848326        1021129885.8004833     
  -3078537629.3407536       -7071962.2740162611        1022278142.3281734     
  -2974524711.5758724       -11588789.030431986        1027976730.6762286     
  -3767579967.7331500       -3858015.8558518887        912388932.24642217     
  -3650722610.7221260       -3396585.2007615566        905369453.33031631     
  -3534072710.6914601       -3626677.8135404587        902531151.84206498     
  -3417630267.6411552       -4548293.6941885948        903874027.78167164     
  -3301395281.5712075       -6161432.8427016735        909398081.14912987     
  -4134748819.7340617        3702261.5497322083        789493819.53666592     
  -4008565441.1908255        613228.63834261894        784123337.68193114     
  -3881975746.3155880       -1121416.4997060299        782564878.86253679     
  -3754979735.1083398       -1501673.8643953800        784818443.07848263     
  -3627577407.5690899       -527543.45573592186        790884030.32977092     
  -4497010320.3944902        12734744.357460737        663799030.07694840     
  -4362555647.1548014        5778829.8288590908        660793614.14801252     
  -4227080884.2707405        2223214.1148252487        661231066.86190152     
  -4090586031.7423086        2067897.2153556347        665111388.21861875     
  -3953071089.5695081        5312879.1304626465        672434578.21815968     
  -2646965697.5830679       -16809612.018913507        1146619978.9110756     
  -2538734674.5355506       -19606239.839471102        1130925968.1022058     
  -2429271833.9483604       -18296809.194456220        1120244056.7417741     
  -2318577175.8214941       -12881320.083856344        1114574244.8297801     
  -2206650700.1549606       -3359772.5076900721        1113916532.3662274     
  -2974524711.5758724       -11588789.030431986        1027976730.6762286     
  -2852080955.1978841       -10605028.006193638        1013728399.6973433     
  -2728834867.7381306       -6946830.0427429676        1004528443.6369673     
  -2604786449.1966114       -614195.14007401466        1000376862.4950994     
  -2479935699.5733232        8392876.7018331289        1001273656.2717382     
  -3301395281.5712075       -6161432.8427016735        909398081.14912987     
  -3164635147.6625586       -1366189.7136268616        896094362.46600688     
  -3027502169.1300468        4671868.8283200264        887875294.17146218     
  -2889996345.9736743        11952742.783144474        884740876.26549351     
  -2752117678.1934333        20476432.150840402        886691108.74810290     
  -3627577407.5690899       -527543.45573592186        790884030.32977092     
  -3476397251.9295759        8110275.0382447243        778023856.40818763     
  -3325273738.1241074        16559287.418742895        770284608.34525359     
  -3174206866.1526818        24819493.685771346        767666286.14096546     
  -3023196636.0152941        32890893.839326739        770168889.79532123     
  -3953071089.5695081        5312879.1304626465        672434578.21815968     
  -3787367267.9989367        17824366.249404907        659516881.52389503     
  -3622149574.7203145        28715425.728519440        651756386.15834641     
  -3457418009.7336373        37986057.567812920        649153092.12151384     
  -3293172573.0389142        45636261.767268419        651706999.41339326     
  -2206650700.1549606       -3359772.5076900721        1113916532.3662274     
  -2138899801.8055558       -9526707.9947766066        1126069980.5964811     
  -2073986749.4802835       -25153130.228979349        1141383304.8016367     
  -2011911543.1791582       -50239039.210337758        1159856504.9816866     
  -1952674182.9021790       -84784434.938842058        1181489581.1366372     
  -2479935699.5733232        8392876.7018331289        1001273656.2717382     
  -2404874147.3512392        697115.44507431984        1010838782.9018586     
  -2331779370.5262909       -13554563.802154422        1023220419.4059904     
  -2260651369.0984821       -34362161.039835811        1038418565.7841338     
  -2191490143.0678086       -61725676.267972827        1056433222.0362887     
  -2752117678.1934333        20476432.150840402        886691108.74810290     
  -2670726518.1012058        10957531.323625207        894684162.84292555     
  -2590431062.7791119       -2213718.7373625040        905150360.71087503     
  -2511231312.2271500       -19037318.032126904        918089702.35195065     
  -2433127266.4453168       -39513266.560665488        933502187.76614928     
  -3023196636.0152941        32890893.839326739        770168889.79532123     
  -2936456914.0554585        21254539.640902996        777606120.41968572     
  -2849941826.2387481        8869404.9653810263        787173128.71629167     
  -2763651372.5651636       -4264510.1872267723        798869914.68513620     
  -2677585553.0347085       -18147205.816930652        812696478.32622075     
  -3293172573.0389142        45636261.767268419        651706999.41339326     
  -3202065335.2139959        31588140.396882057        659604655.63214087     
  -3110311660.9051986        19694807.306079507        669288723.42223811     
  -3017911550.1125274        9956262.4948740005        680759202.78369009     
  -2924865002.8359780        2372505.9632507563        694016093.71649814     
  -1952674182.9021790       -84784434.938842058        1181489581.1366372     
  -1824083987.7656000       -91537320.889388442        1151740931.4385982     
  -1688049358.0421987       -73475424.883869052        1126968266.4617605     
  -1544570293.7319744       -30598746.922267675        1107171586.2061102     
  -1393646794.8349237        37092712.995413601        1092350890.6716630     
  -2191490143.0678086       -61725676.267972827        1056433222.0362887     
  -2048053200.2988589       -63341833.798511505        1032661195.9768034     
  -1900365102.3463261       -50787474.050433636        1014148361.4317919     
  -1748425849.2102089       -24062597.023743749        1000894718.4012567     
  -1592235440.8905010        16832797.281570256        992900266.88517976     
  -2433127266.4453168       -39513266.560665488        933502187.76614928     
  -2274034413.7774954       -35749946.991247773        911981292.70810652     
  -2113883685.3293281       -28460374.820674181        896002795.95781243     
  -1952675081.1008024       -17644550.048932791        885566697.51526999     
  -1790408601.0919440       -3302472.6760394573        880672997.38046694     
  -2677585553.0347085       -18147205.816930652        812696478.32622075     
  -2502027628.2015038       -8761660.4675990343        789701221.63250649     
  -2328605106.9911952       -6494127.1945708990        772531570.03982127     
  -2157317989.4037733       -11344605.997829199        761187523.54816532     
  -1988166275.4392374       -23313096.877394438        755669082.15752459     
  -2924865002.8359780        2372505.9632507563        694016093.71649814     
  -2732032843.5708909        17623025.772442698        665820982.75000429     
  -2544529367.3319297        15111268.827874780        643734683.67781973     
  -2362354574.1191039       -5162764.8704510927        627757196.49993193     
  -2185508463.9323912       -43199075.322520733        617888521.21635020     
  -5958025755.6620531       -1787407726.6986160        1150060604.7622774     
  -6088469219.9969921       -1502206021.7746439        1227927261.2108901     
  -6221656123.1950512       -1226149113.0610683        1268434848.6547289     
  -6357586465.2562265       -959237000.55789018        1271583367.0937943     
  -6496260246.1805248       -701469684.26510954        1237372816.5280850     
  -6810651029.6145058       -2043195308.8843517        1353810680.5811272     
  -6828579868.8814287       -1395478692.0608392        1202774896.2566884     
  -6897877608.6896124       -918991743.70819736        1091990605.1663723     
  -7018544249.0390568       -613734463.82642651        1021457807.3101796     
  -7190579789.9297657       -479706852.41552782        991176502.68811071     
  -8337968276.6334686       -2501390482.9900408        1712371964.5759969     
  -8021638027.2926683       -1424635615.2050757        1275704034.1873400     
  -7805302140.1712723       -681195288.15145588        956898159.27170360     
  -7688960615.2692776       -271069501.82918024        755954339.82908726     
  -7672613452.5866871       -194258256.23825121        672872575.85949278     
  -10539977496.718943       -3161993249.0156832        2225744456.7468863     
  -9667643695.2307129       -1589676791.2073545        1446714675.0028453     
  -8943929717.6400280       -512759746.39084387        863157510.97072244     
  -8368835563.9468880        68757885.433848858        475072964.65051734     
  -7942361234.1512947        154876104.26672077        282461036.04223090     
  -13416678689.870930       -4025003606.9612784        2893928157.0937953     
  -11766596872.695560       -1890602220.0676727        1715806818.7032044     
  -10313760341.095882       -413685118.42636108        810768660.26342893     
  -9058169095.0718918        405747697.96265984        178813681.77446893     
  -7999823134.6235886        567696229.09938478       -180058116.76367542     
  -6496260246.1805248       -701469684.26510954        1237372816.5280850     
  -6239369774.6499872       -376029736.03479218        1053209824.1471680     
  -6013360025.0028687       -153525527.41586614        908041241.19129574     
  -5818230997.2391682       -33957058.408335686        801867067.66046953     
  -5653982691.3588839       -17324329.012193918        734687303.55468714     
  -7190579789.9297657       -479706852.41552782        991176502.68811071     
  -6900623619.2546520       -304416626.88163233        846876641.66361904     
  -6623475404.7504225       -171819588.58401060        723667460.40908349     
  -6359135146.4170732       -81915737.522660017        621548958.92450380     
  -6107602844.2546062       -34705073.697580338        540521137.20988035     
  -7672613452.5866871       -194258256.23825121        672872575.85949278     
  -7400745096.0672569       -184463807.39085484        589520739.52271795     
  -7123611930.0061684       -157119993.40461159        509355853.30080986     
  -6841213954.4034252       -112226814.27951527        432377917.19376940     
  -6553551169.2590303       -49784270.015574217        358586931.20159686     
  -7942361234.1512947        154876104.26672077        282461036.04223090     
  -7739734205.0877962       -16171277.562457085        281142117.72446477     
  -7513769600.7701054       -109426741.87766552        265106419.86647794     
  -7264467421.1982260       -124890288.67890930        234353942.46826890     
  -6991827666.3721514       -62561917.966181278        188884685.52983755     
  -7999823134.6235886        567696229.09938478       -180058116.76367542     
  -7917590946.3162737        200460962.60355806       -78259223.731139675     
  -7793948417.0422344       -28739834.003183842       -9080839.8939157128     
  -7628895546.8014679       -119906160.72083092        27477034.748000849     
  -7422432335.5939741       -73038017.549395084        31414400.194602363     
  -5653982691.3588839       -17324329.012193918        734687303.55468714     
  -5520136368.2978334       -48600724.411589146        721597532.93119681     
  -5380984178.2652969       -62190896.572703123        710363683.57509220     
  -5236526121.2612753       -58094845.495532036        700985755.48637342     
  -5086762197.2857695       -36312571.180080414        693463748.66504347     
  -6107602844.2546062       -34705073.697580338        540521137.20988035     
  -5959219566.2083893       -36378666.135120153        534102583.86356699     
  -5809856606.0755186       -34786651.617146015        530178966.24725997     
  -5659513963.8559914       -29929030.143657923        528750284.36095792     
  -5508191639.5498095       -21805801.714648724        529816538.20466101     
  -6553551169.2590303       -49784270.015574217        358586931.20159686     
  -6388805180.6201649       -21307332.809015989        353792379.43349636     
  -6227405694.7794790       -3985404.9297161102        352131777.85801595     
  -6069352711.7369633        2181513.6223437786        353605126.47515815     
  -5914646231.4926271       -2806577.1528513432        358212425.28492814     
  -6991827666.3721514       -62561917.966181278        188884685.52983755     
  -6808893211.5331602       -3386724.4332799911        180666919.64097643     
  -6633631444.3771763        30212843.489603043        176222118.40735832     
  -6466042364.9041958        38236785.802467823        175550281.82897899     
  -6306125973.1142216        20685102.505305052        178651409.90584642     
  -7422432335.5939741       -73038017.549395084        31414400.194602363     
  -7219483658.9473734        17383158.992094040        14726204.486015035     
  -7028533854.8686123        67808093.640788555        2449987.8952889577     
  -6849582923.3576813        78236786.396711349       -5414249.5775789088     
  -6682630864.4145889        48669237.259842873       -8866507.9325871244     
  -5086762197.2857695       -36312571.180080414        693463748.66504347     
  -4935153101.2715187       -10146986.324257374        675972093.62999201     
  -4786324756.4515562        6749427.8839416504        665197422.18695784     
  -4640277162.8258801        14376671.444512844        661139734.33594346     
  -4497010320.3944902        12734744.357460737        663799030.07694840     
  -5508191639.5498095       -21805801.714648724        529816538.20466101     
  -5345217381.2141638       -10092811.269056320        514730558.20647097     
  -5183160707.0699577       -1438434.7949173450        505005241.26584917     
  -5022021617.1171865        4157327.7077631950        500640587.38279349     
  -4861800111.3558502        6694476.2389960289        501636596.55730397     
  -5914646231.4926271       -2806577.1528513432        358212425.28492814     
  -5744182012.3625965       -6708741.5755965710        347705815.16026253     
  -5572772210.4211502       -7458963.2936198711        341203547.55870950     
  -5400416825.6682911       -5057242.3069272041        338705622.48027599     
  -5227115858.1040106        496421.38449048996        340212039.92495108     
  -6306125973.1142216        20685102.505305052        178651409.90584642     
  -6132046994.7168112        5222.7561261653900        174897864.49136487     
  -5955159266.5051365       -11312157.612163067        173792341.06554529     
  -5775462788.4791889       -13267038.599550009        175334839.62838575     
  -5592957560.6389780       -5859420.2060585022        179525360.17989433     
  -6682630864.4145889        48669237.259842873       -8866507.9325871244     
  -6508812328.2768030        10049081.726128578       -3693293.8002233780     
  -6330321875.3219061       -12998017.750530481        2771621.7863479671     
  -6147159505.5498857       -20472061.170121193        10528238.827129954     
  -5959325218.9607458       -12373048.532647610        19576557.322122421     
  -4497010320.3944902        12734744.357460737        663799030.07694840     
  -4362555647.1548014        5778829.8288590908        660793614.14801252     
  -4227080884.2707405        2223214.1148252487        661231066.86190152     
  -4090586031.7423086        2067897.2153556347        665111388.21861875     
  -3953071089.5695081        5312879.1304626465        672434578.21815968     
  -4861800111.3558502        6694476.2389960289        501636596.55730397     
  -4717158417.6478682        3493396.8345918655        499210031.66364110     
  -4572300865.6734791        1011844.9848818779        500310267.30486685     
  -4427227455.4326811       -750179.31014418602        504937303.48098546     
  -4281938186.9254851       -1792676.0504856110        513091140.19199657     
  -5227115858.1040106        496421.38449048996        340212039.92495108     
  -5072047338.5218382        1122118.7260527611        337426056.12560385     
  -4917567192.0512180       -213427.63757252693        338250804.75321162     
  -4763675418.6921539       -3510217.7063758373        342686285.80777210     
  -4610372018.4446497       -8768251.4803833961        350732499.28929532     
  -5592957560.6389780       -5859420.2060585022        179525360.17989433     
  -5427222409.7767067       -1335004.4967556000        175441687.53389719     
  -5262879863.4039536       -1452603.7525081635        175052679.20692956     
  -5099929921.5207243       -6212217.9733388424        178358335.19897678     
  -4938372584.1270151       -15613847.159244776        185358655.51004928     
  -5959325218.9607458       -12373048.532647610        19576557.322122421     
  -5782683631.4124775       -3877972.8338294029        13256925.888526484     
  -5608238879.7316914       -2705683.3599560261        10715890.666022802     
  -5435990963.9183865       -8856180.1110224724        11953451.654599048     
  -5265939883.9725790       -22329463.087072134        16969608.854265306     
  -3953071089.5695081        5312879.1304626465        672434578.21815968     
  -3787367267.9989367        17824366.249404907        659516881.52389503     
  -3622149574.7203145        28715425.728519440        651756386.15834641     
  -3457418009.7336373        37986057.567812920        649153092.12151384     
  -3293172573.0389142        45636261.767268419        651706999.41339326     
  -4281938186.9254851       -1792676.0504856110        513091140.19199657     
  -4104175334.9741125        7435446.8269724846        499978617.75969732     
  -3926279850.3543005        17105678.599256992        491742770.65502101     
  -3748251733.0660329        27218019.266377687        488383598.87796581     
  -3570090983.1093163        37772468.828339577        489901102.42853749     
  -4610372018.4446497       -8768251.4803833961        350732499.28929532     
  -4421351638.9727497       -3063943.7025005817        338147038.90609008     
  -4231579865.8720050        5145009.5048718452        330157727.84941536     
  -4041056699.1424050        15858608.141749144        326764566.11927432     
  -3849782138.7839546        29076852.208143473        327967553.71567100     
  -4938372584.1270151       -15613847.159244776        185358655.51004928     
  -4738896179.9948406       -13673805.339011908        174022144.96307415     
  -4538049621.2734213       -7166581.5546286106        167001257.74153602     
  -4335832907.9627495        3907824.1939411163        164295993.84544408     
  -4132246040.0628257        19549411.906665802        165906353.27479810     
  -5265939883.9725790       -22329463.087072134        16969608.854265306     
  -5056808958.0403891       -24394138.082557440        7603935.9306560969     
  -4845689116.5585556       -19829094.579235792        2273360.3313821116     
  -4632580359.5270720       -8634332.5770847797        977882.05647105479     
  -4417482686.9459333        9190147.9239306450        3717501.1059102751     
  -3293172573.0389142        45636261.767268419        651706999.41339326     
  -3202065335.2139959        31588140.396882057        659604655.63214087     
  -3110311660.9051986        19694807.306079507        669288723.42223811     
  -3017911550.1125274        9956262.4948740005        680759202.78369009     
  -2924865002.8359780        2372505.9632507563        694016093.71649814     
  -3570090983.1093163        37772468.828339577        489901102.42853749     
  -3473113543.2728195        23547737.876875877        497456604.01006353     
  -3376548420.1557789        7948617.8605456352        507781990.08631921     
  -3280395613.7582011       -9024891.2206575871        520877260.65729505     
  -3184655124.0800838       -27372789.366720080        536742415.72300249     
  -3849782138.7839546        29076852.208143473        327967553.71567100     
  -3744124574.2976680        15518488.467057467        333945688.58942163     
  -3639938079.7341747       -2943441.6833422184        343677180.88126999     
  -3537222655.0934787       -26308938.243059635        357162030.59121585     
  -3435978300.3755827       -54578001.212107301        374400237.71926737     
  -4132246040.0628257        19549411.906665802        165906353.27479810     
  -4015098428.2885361        7500392.1674492359        169071909.37020954     
  -3900480639.6403852       -12981371.325559855        176974295.80709255     
  -3788392674.1183615       -41895878.572332144        189613512.58545277     
  -3678834531.7224779       -79243129.572894096        206989559.70528075     
  -4417482686.9459333        9190147.9239306450        3717501.1059102751     
  -4286035105.2454424       -506551.02199745178        2835266.3524236274     
  -4158176099.8744154       -22165171.066138029        7673334.8637928125     
  -4033905670.8328600       -55785712.208506346        18231706.639995251     
  -3913223818.1207733       -101368174.44912791        34510381.681053847     
  -2924865002.8359780        2372505.9632507563        694016093.71649814     
  -2732032843.5708909        17623025.772442698        665820982.75000429     
  -2544529367.3319297        15111268.827874780        643734683.67781973     
  -2362354574.1191039       -5162764.8704510927        627757196.49993193     
  -2185508463.9323912       -43199075.322520733        617888521.21635020     
  -3184655124.0800838       -27372789.366720080        536742415.72300249     
  -2978292371.2768359       -14569136.437573195        507237706.99475813     
  -2772859144.3007159       -4863902.9321824312        482596996.83542454     
  -2568355443.1517296        1742911.1494104862        462820285.24499875     
  -2364781267.8298731        5251305.8072736263        447907572.22346896     
  -3435978300.3755827       -54578001.212107301        374400237.71926737     
  -3219641563.5353036       -45288198.013339400        348718281.29476559     
  -2999835195.3231554       -24432956.908335209        326655510.11377740     
  -2776559195.7391520        7987722.1028500795        308211924.17630231     
  -2549813564.7832756        51973839.020278692        293387523.48233235     
  -3678834531.7224779       -79243129.572894096        206989559.70528075     
  -3456080420.3462939       -74534158.954845548        190262705.65002114     
  -3225457520.3992462       -43595893.100583553        175910223.51287466     
  -2986965831.8813491        13571667.989845276        163932113.29384282     
  -2740605354.7925744        96968524.316541433        154328374.99293962     
  -3913223818.1207733       -101368174.44912791        34510381.681053847     
  -3687608941.7098155       -102307019.26214457        31870980.060518719     
  -3449726119.5289907       -62352711.508928299        30361137.032718621     
  -3199575351.5783286        18494748.810419321        29980852.597643945     
  -2937156637.8577924        140235361.69598830        30730126.755277395     
 </DataArray>
 <DataArray  type="Float64" Name="VM" NumberOfComponents="1" format="ascii">
   12935096272.389229     
   11340423741.892305     
   10210050659.429634     
   9272742761.1305084     
   8304122095.8524809     
   10130038242.246607     
   9321806120.1272793     
   8826171550.9692230     
   8443370420.6199703     
   8035620341.5658197     
   7982262407.1790342     
   7734842544.5085850     
   7668969369.4136267     
   7669367760.3283672     
   7666114488.8276920     
   6491683545.5792933     
   6586817241.6368427     
   6757276333.2231493     
   6960983072.7198591     
   7171278891.6698666     
   5657856882.8814936     
   5890883930.4123087     
   6116280846.5216808     
   6331576775.4735746     
   6536537873.2853041     
   8304122095.8524809     
   8020590051.9917049     
   7779043318.9276247     
   7568843691.6288157     
   7385022243.0166941     
   8035620341.5658197     
   7746724034.6034145     
   7473453524.1113930     
   7213857901.3507700     
   6967934895.2374220     
   7666114488.8276920     
   7380982185.8561459     
   7101237039.2131910     
   6826952182.0792789     
   6558324381.9622803     
   7171278891.6698666     
   6910804915.6089945     
   6658243587.0497494     
   6409736999.6338043     
   6162139954.7762642     
   6536537873.2853041     
   6328546639.7921028     
   6142764174.8501444     
   5965299943.6305161     
   5787144581.4298658     
   7385022243.0166941     
   7227838562.7321148     
   7063359088.9065599     
   6890913048.6519375     
   6710304736.1309061     
   6967934895.2374220     
   6814059059.0238209     
   6655672018.5804234     
   6492496208.6697025     
   6324472119.7670803     
   6558324381.9622803     
   6407236661.5069790     
   6254522129.4982414     
   6100147065.2662210     
   5944135872.2848730     
   6162139954.7762642     
   6012367475.4471178     
   5863854061.1137419     
   5716637179.6794405     
   5570770777.3866844     
   5787144581.4298658     
   5635909894.3004770     
   5488748795.2139692     
   5345579304.4304781     
   5206440762.7283421     
   6710304736.1309061     
   6516500371.2518711     
   6325484646.7935839     
   6137168799.1154280     
   5951523921.5177202     
   6324472119.7670803     
   6140418589.1461258     
   5958338153.3514299     
   5778216372.5470877     
   5600078978.8239918     
   5944135872.2848730     
   5771803027.3563337     
   5600927204.9759836     
   5431538228.1835871     
   5263703143.4104080     
   5570770777.3866844     
   5412454239.6172953     
   5255413756.1834059     
   5099697771.6400156     
   4945410640.9996948     
   5206440762.7283421     
   5064756164.8366613     
   4924550202.4905243     
   4785867357.9703360     
   4648853722.1711102     
   5951523921.5177202     
   5777713868.4489031     
   5603220488.0015135     
   5428043282.1192608     
   5252213482.6067286     
   5600078978.8239918     
   5436046373.6619310     
   5271828714.8889732     
   5107460559.9383488     
   4943010541.7846022     
   5263703143.4104080     
   5109606565.9610825     
   4955871964.7063465     
   4802571773.3814287     
   4649815129.2531605     
   4945410640.9996948     
   4801423731.9674406     
   4658392991.3552217     
   4516430533.2259188     
   4375687724.0273104     
   4648853722.1711102     
   4515159034.2605076     
   4383056661.4642572     
   4252698379.3603568     
   4124277161.8201799     
   5252213482.6067286     
   5040971503.6813459     
   4830233155.7208443     
   4619971553.8366051     
   4410190467.4474411     
   4943010541.7846022     
   4742534373.4512825     
   4542986482.4352713     
   4344386985.6415777     
   4146804856.8477807     
   4649815129.2531605     
   4461454075.5765886     
   4274627614.5159392     
   4089422975.5588956     
   3905999142.0840755     
   4375687724.0273104     
   4200823414.1742969     
   4028302304.0140023     
   3858296864.1156936     
   3691076990.0069790     
   4124277161.8201799     
   3964271840.8842463     
   3807630602.7606349     
   3654621960.5894480     
   3505636378.6523824     
   4410190467.4474411     
   4278751135.3116708     
   4146351793.5310678     
   4013181779.1457996     
   3879517525.4209218     
   4146804856.8477807     
   4027258367.8708959     
   3907733722.3944631     
   3788427507.7538357     
   3669601258.3488445     
   3905999142.0840755     
   3797966200.2153559     
   3690903945.1151047     
   3585008461.6951909     
   3480523204.6716905     
   3691076990.0069790     
   3593947005.9440832     
   3498652887.8773341     
   3405383823.5480256     
   3314365436.5458541     
   3505636378.6523824     
   3418508538.5096884     
   3333945885.1429334     
   3252129159.2344947     
   3173274056.0454903     
   3879517525.4209218     
   3640821765.1600099     
   3394180446.2922769     
   3145668839.1275492     
   2906907154.3843527     
   3669601258.3488445     
   3437278649.1148620     
   3198681313.7508698     
   2955550661.2564135     
   2711597943.1392565     
   3480523204.6716905     
   3263898175.8198829     
   3046285077.8820500     
   2827919687.1153111     
   2609344067.0622730     
   3314365436.5458541     
   3118467008.8341994     
   2929417644.0549636     
   2748428749.8654122     
   2577271004.1138253     
   3173274056.0454903     
   2998146558.8243585     
   2839512840.0168376     
   2701570504.5665903     
   2590583713.4207969     
   5657856882.8814936     
   5890883930.4123087     
   6116280846.5216808     
   6331576775.4735746     
   6536537873.2853041     
   5151467065.1964035     
   5311316314.9574795     
   5467807282.9643002     
   5618037043.2919273     
   5760532509.5134726     
   4643472595.7022047     
   4755546309.6673717     
   4868754801.7286272     
   4980461066.3402672     
   5088737189.7161179     
   4134136859.9584875     
   4224411563.7447309     
   4320618037.7608528     
   4421102767.2006502     
   4524413676.9831247     
   3624981221.7356367     
   3719736709.3168797     
   3825753630.2640100     
   3942975564.3798180     
   4071316156.1111264     
   6536537873.2853041     
   6328546639.7921028     
   6142764174.8501444     
   5965299943.6305161     
   5787144581.4298658     
   5760532509.5134726     
   5652038325.7772408     
   5559552472.0373259     
   5474020661.6412621     
   5389898975.2163095     
   5088737189.7161179     
   5054043008.4890909     
   5029852406.0635128     
   5010959065.1818438     
   4994159276.1365299     
   4524413676.9831247     
   4539152062.0602579     
   4558539101.4716158     
   4580089768.3065758     
   4602078277.8103313     
   4071316156.1111264     
   4112686534.7228060     
   4151383669.3886118     
   4186497930.8412147     
   4217288987.8641543     
   5787144581.4298658     
   5635909894.3004770     
   5488748795.2139692     
   5345579304.4304781     
   5206440762.7283421     
   5389898975.2163095     
   5248384655.9143982     
   5110049383.1200905     
   4974936392.5113564     
   4843139349.6922178     
   4994159276.1365299     
   4866794729.6879311     
   4742654388.3904152     
   4621711670.0880327     
   4504015866.4772158     
   4602078277.8103313     
   4493803178.7156925     
   4389855902.6587181     
   4289933714.4271483     
   4193961832.2413702     
   4217288987.8641543     
   4133363819.0027184     
   4056107445.7768135     
   3984695207.2579508     
   3918846386.8806567     
   5206440762.7283421     
   5064756164.8366613     
   4924550202.4905243     
   4785867357.9703360     
   4648853722.1711102     
   4843139349.6922178     
   4717439620.0475206     
   4593796433.8854256     
   4472323756.5008278     
   4353227458.4795961     
   4504015866.4772158     
   4393392758.4674406     
   4285374877.3082643     
   4180129699.3868613     
   4077903800.0766935     
   4193961832.2413702     
   4097558690.8932157     
   4004246126.8932595     
   3914225947.3573933     
   3827763577.5452037     
   3918846386.8806567     
   3835852339.4348798     
   3756327063.0997586     
   3680484662.0661645     
   3608585725.1256175     
   4648853722.1711102     
   4515159034.2605076     
   4383056661.4642572     
   4252698379.3603568     
   4124277161.8201799     
   4353227458.4795961     
   4230122936.0678082     
   4109331635.9763288     
   3991066303.2744546     
   3875594389.0868406     
   4077903800.0766935     
   3966828999.4119902     
   3858965645.0709267     
   3754591891.5286775     
   3654052959.3951139     
   3827763577.5452037     
   3730061169.5655379     
   3636644074.3729358     
   3547850283.6119738     
   3464093036.8915491     
   3608585725.1256175     
   3525360957.5596356     
   3447649369.8002105     
   3375828926.4811015     
   3310353915.1643763     
   4124277161.8201799     
   3964271840.8842463     
   3807630602.7606349     
   3654621960.5894480     
   3505636378.6523824     
   3875594389.0868406     
   3730566850.6240945     
   3589396686.6795883     
   3452399607.2088246     
   3320006702.6675959     
   3654052959.3951139     
   3523797956.9257021     
   3397899882.7694092     
   3276715206.5350404     
   3160705498.7930894     
   3464093036.8915491     
   3348504370.0648732     
   3237751024.6138058     
   3132217093.3007569     
   3032377125.6816297     
   3310353915.1643763     
   3209375570.2664657     
   3113649460.7335362     
   3023567271.0621490     
   2939592546.8456130     
   3505636378.6523824     
   3418508538.5096884     
   3333945885.1429334     
   3252129159.2344947     
   3173274056.0454903     
   3320006702.6675959     
   3240420172.5916924     
   3163488877.3092585     
   3089439910.9305854     
   3018531914.8028450     
   3160705498.7930894     
   3090665192.8112183     
   3023637765.4087720     
   2959934061.6083274     
   2899905368.5208797     
   3032377125.6816297     
   2974124335.1208453     
   2919512099.2687788     
   2868966155.0769305     
   2822971052.3324513     
   2939592546.8456130     
   2895428518.8322043     
   2855767413.9950981     
   2821165125.8402672     
   2792259274.4850712     
   3173274056.0454903     
   2998146558.8243585     
   2839512840.0168376     
   2701570504.5665903     
   2590583713.4207969     
   3018531914.8028450     
   2849416081.1409111     
   2690220436.9991932     
   2542309780.5409522     
   2407762356.4393601     
   2899905368.5208797     
   2738618116.1987514     
   2582537334.5454178     
   2432057347.5489955     
   2287737717.8095818     
   2822971052.3324513     
   2675284234.6868262     
   2530401656.6657829     
   2389883035.9779415     
   2256128758.7228847     
   2792259274.4850712     
   2668014210.7503381     
   2546925875.9189482     
   2433721102.0692062     
   2335600437.1204443     
   3624981221.7356367     
   3719736709.3168797     
   3825753630.2640100     
   3942975564.3798180     
   4071316156.1111264     
   3137976606.3476958     
   3255584813.1638088     
   3382610965.0316868     
   3518590145.8466525     
   3663068216.6818776     
   2694779794.1827283     
   2830613332.1225166     
   2973750030.7250624     
   3123108869.0741835     
   3277780150.3904834     
   2298875402.5182538     
   2449612497.1681180     
   2605053542.6912551     
   2763274182.8698182     
   2922843625.6084304     
   1955463861.9443567     
   2119533087.3729765     
   2284933333.1696305     
   2448698777.6715403     
   2608867446.4552212     
   4071316156.1111264     
   4112686534.7228060     
   4151383669.3886118     
   4186497930.8412147     
   4217288987.8641543     
   3663068216.6818776     
   3702408756.4561024     
   3740360945.9627357     
   3776017885.2830100     
   3808624438.3038268     
   3277780150.3904834     
   3320964987.6447239     
   3364401646.4598689     
   3407263326.7880783     
   3448869437.8199773     
   2922843625.6084304     
   2975738966.9036927     
   3030883680.0842366     
   3087596115.8459129     
   3145344052.1162534     
   2608867446.4552212     
   2676785587.1388154     
   2749253646.1268826     
   2825767300.1535048     
   2905976522.7248397     
   4217288987.8641543     
   4133363819.0027184     
   4056107445.7768135     
   3984695207.2579508     
   3918846386.8806567     
   3808624438.3038268     
   3756175641.6104388     
   3709817022.9545007     
   3669088119.8613262     
   3633897858.5247173     
   3448869437.8199773     
   3423189918.1932383     
   3402627397.7007165     
   3386956770.8264656     
   3376161328.9312892     
   3145344052.1162534     
   3142033676.0118423     
   3142263385.2676663     
   3145931275.6506386     
   3153020142.5385828     
   2905976522.7248397     
   2921030257.2827315     
   2937264895.2958574     
   2954620927.1931882     
   2973054998.4531093     
   3918846386.8806567     
   3835852339.4348798     
   3756327063.0997586     
   3680484662.0661645     
   3608585725.1256175     
   3633897858.5247173     
   3563133349.0782642     
   3496671233.6730413     
   3434745374.1890182     
   3377642099.9009109     
   3376161328.9312892     
   3318407611.8145909     
   3265932857.1266012     
   3218970693.1810637     
   3177810366.9882779     
   3153020142.5385828     
   3108656890.8292341     
   3070669523.0437164     
   3039261073.0001702     
   3014690265.9972548     
   2973054998.4531093     
   2941781396.2313190     
   2918062668.4277463     
   2902034797.7081218     
   2893887876.8386345     
   3608585725.1256175     
   3525360957.5596356     
   3447649369.8002105     
   3375828926.4811015     
   3310353915.1643763     
   3377642099.9009109     
   3309380090.6380215     
   3246943681.8320436     
   3190675563.4846358     
   3140976643.1364880     
   3177810366.9882779     
   3123663638.4264970     
   3075564055.0706244     
   3033803263.0999436     
   2998713418.4003744     
   3014690265.9972548     
   2973593633.8638978     
   2938642119.7255244     
   2910063977.7744184     
   2888112649.8676095     
   2893887876.8386345     
   2864481689.2744684     
   2841169258.5995770     
   2824110210.2771626     
   2813478106.9164062     
   3310353915.1643763     
   3209375570.2664657     
   3113649460.7335362     
   3023567271.0621490     
   2939592546.8456130     
   3140976643.1364880     
   3052707370.1386695     
   2970876293.9544697     
   2895892139.7466812     
   2828228911.4627171     
   2998713418.4003744     
   2923284194.6867199     
   2855497123.5269294     
   2795739710.1258073     
   2744451473.7663269     
   2888112649.8676095     
   2824972940.1105814     
   2770647902.5167460     
   2725463782.4488916     
   2689782612.8055210     
   2813478106.9164062     
   2761231813.4027228     
   2718904281.8716826     
   2686730309.2421246     
   2664965997.3301430     
   2939592546.8456130     
   2895428518.8322043     
   2855767413.9950981     
   2821165125.8402672     
   2792259274.4850712     
   2828228911.4627171     
   2799891490.2239032     
   2776317034.1339173     
   2757958007.4497519     
   2745316915.7267509     
   2744451473.7663269     
   2731079124.9086418     
   2722532140.5858440     
   2719147624.7956953     
   2721289221.1000218     
   2689782612.8055210     
   2690107583.7325106     
   2695122777.5394354     
   2705053678.0005436     
   2720137699.1743093     
   2664965997.3301430     
   2677334907.7803850     
   2694089289.4066195     
   2715360162.9194574     
   2741283121.6817369     
   2792259274.4850712     
   2668014210.7503381     
   2546925875.9189482     
   2433721102.0692062     
   2335600437.1204443     
   2745316915.7267509     
   2650274217.2181373     
   2563548212.7627163     
   2487099302.3809128     
   2423391817.3509817     
   2721289221.1000218     
   2648576707.0320196     
   2589027237.9662743     
   2543355229.9419341     
   2512268775.0913119     
   2720137699.1743093     
   2658642471.8164511     
   2614844393.3334517     
   2589665919.2758193     
   2584565353.0973945     
   2741283121.6817369     
   2676480209.5457277     
   2634092168.4056096     
   2616721114.6277127     
   2628867233.6489267     
   1955463861.9443567     
   2119533087.3729765     
   2284933333.1696305     
   2448698777.6715403     
   2608867446.4552212     
   1654004818.6530936     
   1820429368.0854728     
   1988539050.5307243     
   2155632778.0432668     
   2319949206.0801849     
   1393808758.3000371     
   1571148397.8850129     
   1749494581.2355297     
   1926839779.1485662     
   2101930897.5881174     
   1207196890.5136817     
   1399117124.3469782     
   1590626913.0079436     
   1780947082.3988881     
   1969617456.6007252     
   1136887390.9365098     
   1335203854.6321361     
   1533848923.0748518     
   1732822595.8040125     
   1932124873.2197633     
   2608867446.4552212     
   2676785587.1388154     
   2749253646.1268826     
   2825767300.1535048     
   2905976522.7248397     
   2319949206.0801849     
   2407002326.9031167     
   2496519739.4391899     
   2588115103.5462551     
   2681514910.9174633     
   2101930897.5881174     
   2205674956.1297054     
   2309330865.8584409     
   2412664661.6029973     
   2515510750.0225010     
   1969617456.6007252     
   2086733560.7177393     
   2200977840.7709517     
   2312276338.4138865     
   2420577456.3632612     
   1932124873.2197633     
   2058723725.8312855     
   2179856756.2942824     
   2295523965.6038489     
   2405725357.7833271     
   2905976522.7248397     
   2921030257.2827315     
   2937264895.2958574     
   2954620927.1931882     
   2973054998.4531093     
   2681514910.9174633     
   2703312565.1469975     
   2727373335.9685841     
   2753677262.1482725     
   2782214569.6072607     
   2515510750.0225010     
   2544053097.7377753     
   2575974427.4460492     
   2611275246.0126619     
   2649960883.4911375     
   2420577456.3632612     
   2454366499.5676827     
   2492654952.0286112     
   2535445761.6697407     
   2582743258.5224094     
   2405725357.7833271     
   2441655257.3431125     
   2483197816.3411384     
   2530353088.0024095     
   2583121186.7105317     
   2973054998.4531093     
   2941781396.2313190     
   2918062668.4277463     
   2902034797.7081218     
   2893887876.8386345     
   2782214569.6072607     
   2765283686.0349884     
   2755662090.9134984     
   2753434754.6458769     
   2758713354.4060965     
   2649960883.4911375     
   2644425571.9916596     
   2645679080.4031301     
   2653759119.2049327     
   2668712701.6946630     
   2582743258.5224094     
   2585220707.8880396     
   2593702243.5010552     
   2608196313.0161304     
   2628712630.4043345     
   2583121186.7105317     
   2590124203.8442106     
   2602133568.0403233     
   2619149314.3295274     
   2641171855.6219015     
   2893887876.8386345     
   2864481689.2744684     
   2841169258.5995770     
   2824110210.2771626     
   2813478106.9164062     
   2758713354.4060965     
   2738587525.4651399     
   2725202146.8276005     
   2718666597.7333722     
   2719097231.9177423     
   2668712701.6946630     
   2655999425.8276010     
   2650589596.9668088     
   2652539595.3028278     
   2661908278.2035170     
   2628712630.4043345     
   2620767158.6285362     
   2620599387.0964937     
   2628224748.1766081     
   2643659136.4120378     
   2641171855.6219015     
   2634748922.1113319     
   2636496068.0918183     
   2646413218.1052723     
   2664500282.4488668     
   2813478106.9164062     
   2761231813.4027228     
   2718904281.8716826     
   2686730309.2421246     
   2664965997.3301430     
   2719097231.9177423     
   2677138228.4080000     
   2644899050.3722539     
   2622513358.9126859     
   2610124451.6353312     
   2661908278.2035170     
   2627754253.9239702     
   2603029232.1659684     
   2587791605.2904406     
   2582103435.7792830     
   2643659136.4120378     
   2614641637.5310349     
   2594692670.8897195     
   2583826354.5993776     
   2582058172.9278045     
   2664500282.4488668     
   2637947613.1010828     
   2620058798.4885254     
   2610833913.1051435     
   2610274005.7083602     
   2664965997.3301430     
   2677334907.7803850     
   2694089289.4066195     
   2715360162.9194574     
   2741283121.6817369     
   2610124451.6353312     
   2630569780.6002693     
   2656417110.4330292     
   2687729594.8475566     
   2724564413.1487164     
   2582103435.7792830     
   2607884185.3884187     
   2639975953.1521659     
   2678398724.1069422     
   2723169724.2215538     
   2582058172.9278045     
   2609680039.7948308     
   2644461936.8282700     
   2686415330.1489091     
   2735563626.0244994     
   2610274005.7083602     
   2635695959.9079843     
   2669105991.0122771     
   2710549327.7200150     
   2760107308.2638183     
   2741283121.6817369     
   2676480209.5457277     
   2634092168.4056096     
   2616721114.6277127     
   2628867233.6489267     
   2724564413.1487164     
   2649799247.0260577     
   2591740858.0904555     
   2551184312.4128976     
   2529506651.2741828     
   2723169724.2215538     
   2646683600.2501340     
   2582143117.7356334     
   2529581403.8028011     
   2489040755.1689973     
   2735563626.0244994     
   2667691007.0075207     
   2607711262.6963348     
   2555947566.0250535     
   2513146260.1545267     
   2760107308.2638183     
   2712765373.8173785     
   2669907488.5874162     
   2633088000.6180167     
   2605633156.0168862     
   1136887390.9365098     
   1335203854.6321361     
   1533848923.0748518     
   1732822595.8040125     
   1932124873.2197633     
   1207091807.6309104     
   1399054295.5700741     
   1590608062.3667521     
   1780976733.2696979     
   1969702032.8507998     
   1393650953.3376808     
   1571040700.0714664     
   1749447161.1664500     
   1926865426.2056105     
   2102044266.2738128     
   1653849226.7048981     
   1820299305.5923121     
   1988454840.7156315     
   2155616635.3327866     
   2320024376.9023571     
   1955352636.8757033     
   2119399335.5118661     
   2284805277.1264267     
   2448606267.4548221     
   2608840519.5278463     
   1932124873.2197633     
   2058723725.8312855     
   2179856756.2942824     
   2295523965.6038489     
   2405725357.7833271     
   1969702032.8507998     
   2086755068.3882852     
   2200922954.6165318     
   2312130567.0400276     
   2420325752.2347016     
   2102044266.2738128     
   2205703646.0750861     
   2309249301.7522264     
   2412446011.8062549     
   2515127450.2047749     
   2320024376.9023571     
   2407019626.6237893     
   2496443194.7076068     
   2587908053.8746657     
   2681139902.2099648     
   2608840519.5278463     
   2676772731.6789880     
   2749211425.7663441     
   2825652497.1676908     
   2905745018.3993044     
   2405725357.7833271     
   2441655257.3431125     
   2483197816.3411384     
   2530353088.0024095     
   2583121186.7105317     
   2420325752.2347016     
   2454457891.0446620     
   2493155547.6647406     
   2536422843.9472642     
   2584264466.0930753     
   2515127450.2047749     
   2544173178.4746170     
   2576720790.0014973     
   2612772849.4193573     
   2652336039.5556149     
   2681139902.2099648     
   2703384702.0935311     
   2728059605.2283969     
   2755147185.2397108     
   2784640442.0369749     
   2905745018.3993044     
   2920976586.1914763     
   2937584103.5812712     
   2955509858.5709295     
   2974714047.4445214     
   2583121186.7105317     
   2590124203.8442106     
   2602133568.0403233     
   2619149314.3295274     
   2641171855.6219015     
   2584264466.0930753     
   2586247506.1001992     
   2594198586.2931390     
   2608125907.6094584     
   2628041657.7118812     
   2652336039.5556149     
   2646012859.6900110     
   2646424631.4527593     
   2653608691.1157327     
   2667615387.9534464     
   2784640442.0369749     
   2766835178.9053931     
   2756286157.5595455     
   2753078136.4552665     
   2757325438.9195232     
   2974714047.4445214     
   2942660283.2547011     
   2918127418.0749779     
   2901252809.2157531     
   2892228224.8963723     
   2641171855.6219015     
   2634748922.1113319     
   2636496068.0918183     
   2646413218.1052723     
   2664500282.4488668     
   2628041657.7118812     
   2620572729.1518564     
   2621013603.0913391     
   2629378876.8807263     
   2645683334.4329643     
   2667615387.9534464     
   2656019944.6381474     
   2652012812.1304016     
   2655648789.8728018     
   2666983871.5966787     
   2757325438.9195232     
   2739003695.0884576     
   2727880909.0781693     
   2724066955.1960754     
   2727675740.2308741     
   2892228224.8963723     
   2865245626.8837485     
   2845005662.6898084     
   2831675256.8598404     
   2825430484.6101394     
   2664500282.4488668     
   2637947613.1010828     
   2620058798.4885254     
   2610833913.1051435     
   2610274005.7083602     
   2645683334.4329643     
   2617695325.7831745     
   2598510922.9471664     
   2588145750.9053621     
   2586615708.6161819     
   2666983871.5966787     
   2634244120.2744422     
   2610338602.0506563     
   2595330553.6073303     
   2589287129.8700571     
   2727675740.2308741     
   2687078044.5730729     
   2655214672.0003295     
   2632222264.5669694     
   2618250993.6363368     
   2825430484.6101394     
   2774288485.7559962     
   2731634307.2109580     
   2697690960.0045371     
   2672711772.8254848     
   2610274005.7083602     
   2635695959.9079843     
   2669105991.0122771     
   2710549327.7200150     
   2760107308.2638183     
   2586615708.6161819     
   2607733830.7354445     
   2636079387.3979816     
   2671687261.5761943     
   2714600485.4080210     
   2589287129.8700571     
   2605742093.7969413     
   2628862768.9917703     
   2658680210.6679010     
   2695222057.3231297     
   2618250993.6363368     
   2630032091.3221235     
   2648096854.9224358     
   2672474751.2088270     
   2703198726.8258214     
   2672711772.8254848     
   2680140676.4585700     
   2693640431.5315943     
   2713236742.2374654     
   2738984582.6882501     
   2760107308.2638183     
   2712765373.8173785     
   2669907488.5874162     
   2633088000.6180167     
   2605633156.0168862     
   2714600485.4080210     
   2685147992.7983127     
   2663151642.7214737     
   2649067692.1790533     
   2643880990.9179196     
   2695222057.3231297     
   2670262791.6657624     
   2655012837.4009495     
   2649521890.6777315     
   2653860447.8034906     
   2703198726.8258214     
   2668737337.8817172     
   2645477996.1795015     
   2633777373.8480897     
   2634167736.2942524     
   2738984582.6882501     
   2681060627.6753063     
   2634924600.9908004     
   2601917604.4042006     
   2584443035.1369085     
   1955352636.8757033     
   2119399335.5118661     
   2284805277.1264267     
   2448606267.4548221     
   2608840519.5278463     
   2298820567.8576479     
   2449496541.5414367     
   2604893951.5573068     
   2763088666.9475870     
   2922649473.9049191     
   2694765899.9375920     
   2830519104.8684936     
   2973582505.6459250     
   3122874264.8099189     
   3277483775.9932895     
   3137983940.9228425     
   3255514271.0580487     
   3382460214.4486194     
   3518354989.0804682     
   3662742797.3211207     
   3624988201.0618944     
   3719690743.9109840     
   3825644256.4261594     
   3942789297.3567657     
   4071036722.4933877     
   2608840519.5278463     
   2676772731.6789880     
   2749211425.7663441     
   2825652497.1676908     
   2905745018.3993044     
   2922649473.9049191     
   2975610504.4374027     
   3030796671.7573581     
   3087528011.6235280     
   3145272828.4255705     
   3277483775.9932895     
   3320770802.6592050     
   3364302900.1644878     
   3407256564.4591303     
   3448953311.1413598     
   3662742797.3211207     
   3702199634.6244030     
   3740276794.5769153     
   3776071856.8746500     
   3808832866.5208354     
   4071036722.4933877     
   4112511387.1534767     
   4151334650.8372197     
   4186601800.1040258     
   4217575868.1597953     
   2905745018.3993044     
   2920976586.1914763     
   2937584103.5812712     
   2955509858.5709295     
   2974714047.4445214     
   3145272828.4255705     
   3141783578.3988466     
   3141916034.3770728     
   3145568539.1315026     
   3152728737.5809579     
   3448953311.1413598     
   3422843670.2314563     
   3401834092.2851529     
   3385696214.1436181     
   3374416529.4559798     
   3808832866.5208354     
   3755853969.8902369     
   3708867947.6033463     
   3667405375.7646651     
   3631372875.6307650     
   4217575868.1597953     
   4133195114.4989333     
   4055324556.6938062     
   3983123665.0331540     
   3916300864.9529834     
   2974714047.4445214     
   2942660283.2547011     
   2918127418.0749779     
   2901252809.2157531     
   2892228224.8963723     
   3152728737.5809579     
   3107482608.9446278     
   3068609597.8399696     
   3036309347.9548712     
   3010832130.9828887     
   3374416529.4559798     
   3316039887.0254822     
   3263001782.5929532     
   3215528036.8522296     
   3173891739.7856288     
   3631372875.6307650     
   3560526126.3234577     
   3494132080.3445692     
   3432414163.1692758     
   3375638842.3001885     
   3916300864.9529834     
   3833969345.2236624     
   3755370753.9573078     
   3680707996.0535679     
   3610222122.9884391     
   2892228224.8963723     
   2865245626.8837485     
   2845005662.6898084     
   2831675256.8598404     
   2825430484.6101394     
   3010832130.9828887     
   2971597685.6206732     
   2938812779.5979452     
   2912720934.8198271     
   2893589969.4517279     
   3173891739.7856288     
   3120676152.9072704     
   3073414827.0657649     
   3032414831.7145958     
   2998029152.7221637     
   3375638842.3001885     
   3307307124.9793358     
   3244275404.2882867     
   3186888559.6513910     
   3135561791.6500578     
   3610222122.9884391     
   3526099951.5345483     
   3446519974.1547761     
   3371834198.5349030     
   3302488096.7155666     
   2825430484.6101394     
   2774288485.7559962     
   2731634307.2109580     
   2697690960.0045371     
   2672711772.8254848     
   2893589969.4517279     
   2829865585.2106204     
   2774222694.7061534     
   2726955889.2577071     
   2688397620.1149559     
   2998029152.7221637     
   2921137717.8530135     
   2851875087.5179567     
   2790591693.9351382     
   2737690221.8438334     
   3135561791.6500578     
   3045286922.3653646     
   2962169195.4445271     
   2886594498.2649913     
   2819019344.6106663     
   3302488096.7155666     
   3198869135.7096462     
   3101949182.8864818     
   3012129969.9083738     
   2929903561.4582310     
   2672711772.8254848     
   2680140676.4585700     
   2693640431.5315943     
   2713236742.2374654     
   2738984582.6882501     
   2688397620.1149559     
   2689047032.2487612     
   2695668732.5613360     
   2708372902.9107776     
   2727264414.7574749     
   2737690221.8438334     
   2727820090.8690233     
   2723548434.5861158     
   2725120499.7406240     
   2732776710.6350131     
   2819019344.6106663     
   2795708051.3987541     
   2777294775.0838346     
   2764185618.9775028     
   2756821543.4278302     
   2929903561.4582310     
   2891142896.8642926     
   2856248239.1446600     
   2825780750.9036880     
   2800414501.2420650     
   2738984582.6882501     
   2681060627.6753063     
   2634924600.9908004     
   2601917604.4042006     
   2584443035.1369085     
   2727264414.7574749     
   2642110914.0006409     
   2568099378.5602140     
   2506115255.7922263     
   2457472555.9369740     
   2732776710.6350131     
   2627237975.2916074     
   2532385941.5731211     
   2448841730.1636472     
   2377333696.5165725     
   2756821543.4278302     
   2637590460.1610379     
   2528873971.9892797     
   2431235916.6836843     
   2345422008.5178008     
   2800414501.2420650     
   2673613890.1633339     
   2557547956.5937619     
   2452928560.7162299     
   2361146501.9651647     
   3624988201.0618944     
   3719690743.9109840     
   3825644256.4261594     
   3942789297.3567657     
   4071036722.4933877     
   4134134786.6001329     
   4224388022.1415386     
   4320563258.3765545     
   4421005325.0606718     
   4524260984.1973982     
   4643466821.1413994     
   4755550115.2489576     
   4868759952.1504240     
   4980459592.0288620     
   5088722038.7921438     
   5151463394.3574429     
   5311351997.9496851     
   5467876131.0513754     
   5618135039.3226051     
   5760658414.0165634     
   5657861274.2743263     
   5890955892.3414421     
   6116416379.0057306     
   6331775571.9179916     
   6536803633.3902626     
   4071036722.4933877     
   4112511387.1534767     
   4151334650.8372197     
   4186601800.1040258     
   4217575868.1597953     
   4524260984.1973982     
   4539089922.7621422     
   4558587343.2775812     
   4580269787.5046806     
   4602412116.8451366     
   5088722038.7921438     
   5054078535.8355055     
   5029950968.9022236     
   5011132261.4315767     
   4994419748.4152775     
   5760658414.0165634     
   5652152921.5681190     
   5559658742.9856119     
   5474117679.7470016     
   5389987671.2706747     
   6536803633.3902626     
   6328720074.3004465     
   6142839839.6509943     
   5965263396.6857815     
   5786982396.0506907     
   4217575868.1597953     
   4133195114.4989333     
   4055324556.6938062     
   3983123665.0331540     
   3916300864.9529834     
   4602412116.8451366     
   4493910755.5437593     
   4389640196.1784792     
   4289288691.2770810     
   4192770341.4784393     
   4994419748.4152775     
   4867101602.7650585     
   4742971912.0632715     
   4622000709.9554863     
   4504231016.4627676     
   5389987671.2706747     
   5248796000.1035938     
   5110807869.6013298     
   4976065774.6398144     
   4844663571.0151472     
   5786982396.0506907     
   5636319182.5219460     
   5489814194.7333012     
   5347383354.6849079     
   5209071966.5151396     
   3916300864.9529834     
   3833969345.2236624     
   3755370753.9573078     
   3680707996.0535679     
   3610222122.9884391     
   4192770341.4784393     
   4097772001.0535097     
   4006038536.1457281     
   3917777390.2424760     
   3833255101.3030272     
   4504231016.4627676     
   4395006895.5692949     
   4288392944.3062038     
   4184571519.0286808     
   4083809374.2673721     
   4844663571.0151472     
   4719784326.2818890     
   4596738195.3235397     
   4475651576.1339264     
   4356761515.6060219     
   5209071966.5151396     
   5067206032.6568708     
   4926329060.6924677     
   4786481779.1003923     
   4647840329.5772524     
   3610222122.9884391     
   3526099951.5345483     
   3446519974.1547761     
   3371834198.5349030     
   3302488096.7155666     
   3833255101.3030272     
   3734458125.0456858     
   3639389289.1583242     
   3548356020.2986083     
   3461743620.9075079     
   4083809374.2673721     
   3971708532.5975323     
   3862713239.9766407     
   3757078349.1127634     
   3655122713.8242369     
   4356761515.6060219     
   4232682797.6566262     
   4111278026.3309197     
   3992750465.1502509     
   3877356969.6093526     
   4647840329.5772524     
   4512990165.9095888     
   4380558756.8350811     
   4250703088.5446100     
   4123627800.9439969     
   3302488096.7155666     
   3198869135.7096462     
   3101949182.8864818     
   3012129969.9083738     
   2929903561.4582310     
   3461743620.9075079     
   3344722357.4273686     
   3233398123.3397875     
   3128190303.8374362     
   3029622437.3977494     
   3655122713.8242369     
   3524138094.8594389     
   3397779115.4601707     
   3276440810.5708213     
   3160630936.5071268     
   3877356969.6093526     
   3732232780.9316578     
   3590654388.9093657     
   3452958445.2034526     
   3319595714.3827024     
   4123627800.9439969     
   3964449962.2384882     
   3807776627.5224648     
   3653863041.3832641     
   3503073277.7155905     
   2929903561.4582310     
   2891142896.8642926     
   2856248239.1446600     
   2825780750.9036880     
   2800414501.2420650     
   3029622437.3977494     
   2974975926.0429997     
   2923476113.6068168     
   2875584089.8178954     
   2831840629.8774247     
   3160630936.5071268     
   3092498023.4733324     
   3026961352.9520211     
   2964372466.2293916     
   2905134728.4405651     
   3319595714.3827024     
   3240317552.1830440     
   3163297167.7022643     
   3088783077.1135921     
   3017056465.5682716     
   3503073277.7155905     
   3414762424.5555305     
   3328592148.0592308     
   3244724279.1289301     
   3163345568.8989635     
   2800414501.2420650     
   2673613890.1633339     
   2557547956.5937619     
   2452928560.7162299     
   2361146501.9651647     
   2831840629.8774247     
   2695918042.2943578     
   2569619202.0217290     
   2453746320.2411771     
   2349436451.2868009     
   2905134728.4405651     
   2754331788.0665832     
   2611056364.2168479     
   2476183021.6171365     
   2350833017.1773205     
   3017056465.5682716     
   2847662402.8775878     
   2682859806.3199911     
   2523468847.2229524     
   2370676192.8780251     
   3163345568.8989635     
   2973619588.6177807     
   2785047961.5043869     
   2598227626.6847968     
   2414386078.3292723     
   5657861274.2743263     
   5890955892.3414421     
   6116416379.0057306     
   6331775571.9179916     
   6536803633.3902626     
   6491728148.9481678     
   6586936196.3529568     
   6757477281.0039711     
   6961267056.5512896     
   7171644062.5545540     
   7982406157.9885168     
   7735025171.2311583     
   7669210894.2922916     
   7669664411.5722628     
   7666455338.8689785     
   10130340784.444443     
   9322066732.3868084     
   8826428319.7726192     
   8443615501.9835930     
   8035827478.1563501     
   12935617554.580757     
   11340776149.198053     
   10210297549.241079     
   9272880502.0753212     
   8304106297.3096457     
   6536803633.3902626     
   6328720074.3004465     
   6142839839.6509943     
   5965263396.6857815     
   5786982396.0506907     
   7171644062.5545540     
   6911021009.2554550     
   6658302288.8029966     
   6409630728.6727648     
   6161861848.3193769     
   7666455338.8689785     
   7381225464.8014345     
   7101380282.5978470     
   6826996965.7010021     
   6558277319.7198544     
   8035827478.1563501     
   7746980596.1167669     
   7473777140.1230888     
   7214262843.5326633     
   6968441592.9397383     
   8304106297.3096457     
   8020846115.6921682     
   7779634214.2030067     
   7569804365.9096298     
   7386384581.0322533     
   5786982396.0506907     
   5636319182.5219460     
   5489814194.7333012     
   5347383354.6849079     
   5209071966.5151396     
   6161861848.3193769     
   6012705671.8980446     
   5864879167.1561308     
   5718421187.6652622     
   5573388268.2585506     
   6558277319.7198544     
   6407547454.6311941     
   6255219357.0170956     
   6101261937.5419807     
   5945704031.8611784     
   6968441592.9397383     
   6814389187.4855022     
   6655791653.0932636     
   6492369390.1203413     
   6324068666.8631859     
   7386384581.0322533     
   7228235918.3693428     
   7062683312.7153511     
   6889040899.6518230     
   6707115501.9599018     
   5209071966.5151396     
   5067206032.6568708     
   4926329060.6924677     
   4786481779.1003923     
   4647840329.5772524     
   5573388268.2585506     
   5414087650.7226295     
   5255738980.0881329     
   5098384017.4106913     
   4942126077.8265133     
   5945704031.8611784     
   5772333476.7984600     
   5600315904.0016975     
   5429675933.8209476     
   5260472221.0936041     
   6324068666.8631859     
   6139527682.2113667     
   5957121409.5033121     
   5776828720.4692621     
   5598671733.9217691     
   6707115501.9599018     
   6513845823.8628750     
   6323834707.1381044     
   6136976177.0744362     
   5953244901.9257774     
   4647840329.5772524     
   4512990165.9095888     
   4380558756.8350811     
   4250703088.5446100     
   4123627800.9439969     
   4942126077.8265133     
   4797468771.5953817     
   4654190990.9758787     
   4512417016.6117735     
   4372311662.8085127     
   5260472221.0936041     
   5106165482.3078651     
   4952237717.4253302     
   4798770253.9213390     
   4645882261.4858322     
   5598671733.9217691     
   5435056472.4087057     
   5270881521.0678444     
   5106180275.6030989     
   4941025609.1882343     
   5953244901.9257774     
   5780791223.3449392     
   5606917247.9339638     
   5431607748.3273335     
   5254892935.0797424     
   4123627800.9439969     
   3964449962.2384882     
   3807776627.5224648     
   3653863041.3832641     
   3503073277.7155905     
   4372311662.8085127     
   4198185643.6086588     
   4025985668.9044313     
   3855866631.7509103     
   3688066811.7505345     
   4645882261.4858322     
   4458457490.0351057     
   4272596227.9137425     
   4088373945.8150773     
   3905930833.3082385     
   4941025609.1882343     
   4741663880.3955469     
   4543687014.1530409     
   4347112313.9829569     
   4152011229.4198465     
   5254892935.0797424     
   5044673317.0380497     
   4835806663.2190380     
   4628269543.6221895     
   4422089610.9275961     
   3503073277.7155905     
   3414762424.5555305     
   3328592148.0592308     
   3244724279.1289301     
   3163345568.8989635     
   3688066811.7505345     
   3589880968.2742248     
   3493065839.0058861     
   3397853878.5327778     
   3304524458.6049976     
   3905930833.3082385     
   3796231285.6505265     
   3686839562.0985017     
   3578025970.8170581     
   3470147464.4513664     
   4152011229.4198465     
   4029508951.3667884     
   3906052208.1519694     
   3781906414.8866534     
   3657473808.1611309     
   4422089610.9275961     
   4285784665.6981306     
   4147159235.9110289     
   4006428570.6119599     
   3863999573.2629728     
   3163345568.8989635     
   2973619588.6177807     
   2785047961.5043869     
   2598227626.6847968     
   2414386078.3292723     
   3304524458.6049976     
   3098211877.0068192     
   2893783709.6136007     
   2691381984.1759171     
   2491284766.9950933     
   3470147464.4513664     
   3253789233.0311608     
   3040793447.6525097     
   2831343660.7058301     
   2625833736.4822550     
   3657473808.1611309     
   3435265762.1827602     
   3218337045.2369556     
   3007209402.8971324     
   2803127682.5000305     
   3863999573.2629728     
   3637953467.5759368     
   3419380613.3279481     
   3209282845.6145840     
   3010196225.7502489     
 </DataArray>
 <DataArray  type="Float64" Name="strain" NumberOfComponents="3" format="ascii">
  0.20347829373214554        0.0000000000000000       0.12539780090189348     
  0.18665097294573491       -2.7320132229704207E-002   7.4351006584705281E-002
  0.16982365215932430       -4.4670413863953443E-002   3.5135773879996925E-002
  0.15299633137291366       -5.2050844902747737E-002   7.7521027877683578E-003
  0.13616901058650305       -4.9461425346087037E-002  -7.8000066919802907E-003
  0.15985142342908754        0.0000000000000000        9.6446501478036406E-002
  0.15317440904049079       -2.1841460659263900E-002   6.2691466471466117E-002
  0.14649739465189399       -3.6170759996490748E-002   3.7405482648043664E-002
  0.13982038026329724       -4.2987898011680500E-002   2.0588550007769102E-002
  0.13314336587470046       -4.2292874704833186E-002   1.2240668550642445E-002
  0.12645656169256736        0.0000000000000000        7.4202718261328598E-002
  0.12656734327245250       -1.6362789088823604E-002   5.5281753291958252E-002
  0.12667812485233765       -2.7671106129028025E-002   4.1467329076403853E-002
  0.12678890643222276       -3.3924951120613278E-002   3.2759445614665351E-002
  0.12689968801210791       -3.5124324063579355E-002   2.9158102906742821E-002
  0.10329370852258503        0.0000000000000000        5.8666451251770030E-002
  0.10682977564162011       -1.0884117518383300E-002   5.2121867046181776E-002
  0.11036584276065520       -1.9171452261565320E-002   4.7321313165077490E-002
  0.11390190987969030       -2.4862004229546056E-002   4.4264789608457172E-002
  0.11743797699872538       -2.7955773422325518E-002   4.2952296376320871E-002
   9.0362863919140515E-002   0.0000000000000000        4.9837700449360721E-002
   9.3961706147993609E-002  -5.4054459479429976E-003   5.3211807734136654E-002
   9.7560548376846704E-002  -1.0671798394102611E-002   5.4967434914064597E-002
  0.10115939060569978       -1.5799057338478834E-002   5.5104581989144585E-002
  0.10475823283455291       -2.0787222781071674E-002   5.3623248959376590E-002
  0.13616901058650305       -4.9461425346087037E-002  -7.8000066919802907E-003
  0.13295663697239121       -4.2932266397013391E-002  -3.3963292156380179E-003
  0.12974426335827940       -3.8493479258568913E-002  -4.0076714641782557E-004
  0.12653188974416757       -3.6145063930753556E-002   1.1866795156802758E-003
  0.12331951613005576       -3.5887020413567228E-002   1.3660107706562896E-003
  0.13314336587470046       -4.2292874704833186E-002   1.2240668550642445E-002
  0.12890993017771063       -3.8430688381167075E-002   1.2179262650924561E-002
  0.12467649448072081       -3.5746337345900339E-002   1.1483847992572814E-002
  0.12044305878373102       -3.4239821599033014E-002   1.0154424575587219E-002
  0.11620962308674115       -3.3911141140565135E-002   8.1909923999676088E-003
  0.12689968801210791       -3.5124324063579355E-002   2.9158102906742821E-002
  0.12241929688072831       -3.3929110365320703E-002   2.5544150153194532E-002
  0.11793890574934866       -3.2999195433231751E-002   2.2070295289500524E-002
  0.11345851461796905       -3.2334579267312508E-002   1.8736538315660887E-002
  0.10897812348658943       -3.1935261867562931E-002   1.5542879231675452E-002
  0.11743797699872538       -2.7955773422325518E-002   4.2952296376320871E-002
  0.11348473708144416       -2.9427532349474317E-002   3.6698333291171913E-002
  0.10953149716416291       -3.0252053520563156E-002   3.1358574744365354E-002
  0.10557825724688170       -3.0429336935591973E-002   2.6933020735901370E-002
  0.10162501732960048       -2.9959382594560796E-002   2.3421671265779823E-002
  0.10475823283455291       -2.0787222781071674E-002   5.3623248959376590E-002
  0.10210625077985826       -2.4925954333627987E-002   4.5641812064856596E-002
   9.9454268725163608E-002  -2.7504911607894568E-002   3.9348686357167283E-002
   9.6802286670468946E-002  -2.8524094603871439E-002   3.4743871836308594E-002
   9.4150304615774325E-002  -2.7983503321558620E-002   3.1827368502280629E-002
  0.12331951613005576       -3.5887020413567228E-002   1.3660107706562896E-003
  0.12040735792029206       -3.6375151712960532E-002   6.5300131195893119E-004
  0.11749519971052835       -3.6265260834883670E-002   1.1445120938584352E-004
  0.11458304150076463       -3.5557347779336876E-002  -2.4963953706337583E-004
  0.11167088329100094       -3.4251412546320026E-002  -4.3927092738843543E-004
  0.11620962308674115       -3.3911141140565135E-002   8.1909923999676088E-003
  0.11346048454110859       -3.3979563660379658E-002   7.8357624470924009E-003
  0.11071134599547600       -3.3664356848359500E-002   7.6321124663554299E-003
  0.10796220744984343       -3.2965520704504994E-002   7.5800424577563766E-003
  0.10521306890421078       -3.1883055228815932E-002   7.6795524212956989E-003
  0.10897812348658943       -3.1935261867562931E-002   1.5542879231675452E-002
  0.10636912522110196       -3.1583975607798749E-002   1.5331035938986947E-002
  0.10376012695561448       -3.1063452861835421E-002   1.5247893234450513E-002
  0.10115112869012702       -3.0373693629673092E-002   1.5293451118066338E-002
   9.8542130424639565E-002  -2.9514697911311560E-002   1.5467709589834178E-002
  0.10162501732960048       -2.9959382594560796E-002   2.3421671265779823E-002
   9.9133279960272186E-002  -2.9188387555217816E-002   2.3138821787642413E-002
   9.6641542590943902E-002  -2.8462548875311213E-002   2.2961793513671294E-002
   9.4149805221615618E-002  -2.7781866554841089E-002   2.2890586443866205E-002
   9.1658067852287306E-002  -2.7146340593807355E-002   2.2925200578227369E-002
   9.4150304615774325E-002  -2.7983503321558620E-002   3.1827368502280629E-002
   9.1752948758619224E-002  -2.6792799502636896E-002   3.1259119993058887E-002
   8.9355592901464137E-002  -2.5861644888787071E-002   3.0773813304017399E-002
   8.6958237044309036E-002  -2.5190039480009165E-002   3.0371448435156056E-002
   8.4560881187153963E-002  -2.4777983276303067E-002   3.0052025386475001E-002
  0.11167088329100094       -3.4251412546320026E-002  -4.3927092738843543E-004
  0.10856940827558148       -3.2746857825025288E-002  -2.3512911999426511E-004
  0.10546793326016193       -3.1443086304644902E-002   4.8256745262875711E-005
  0.10236645824474243       -3.0340097985178623E-002   4.1088666838305643E-004
   9.9264983229322923E-002  -2.9437892866626569E-002   8.5276064936651297E-004
  0.10521306890421078       -3.1883055228815932E-002   7.6795524212956989E-003
  0.10221552604921619       -3.0672554587577561E-002   7.5310871376451649E-003
   9.9217983194221593E-002  -2.9589612947075426E-002   7.5112421169813981E-003
   9.6220440339226943E-002  -2.8634230307309737E-002   7.6200173593046344E-003
   9.3222897484232403E-002  -2.7806406668280270E-002   7.8574128646141939E-003
   9.8542130424639565E-002  -2.9514697911311560E-002   1.5467709589834178E-002
   9.5697895935193483E-002  -2.8598251350129722E-002   1.5039861415317303E-002
   9.2853661445747387E-002  -2.7736139589506173E-002   1.4790009708910777E-002
   9.0009426956301278E-002  -2.6928362629440847E-002   1.4718154470614322E-002
   8.7165192466855182E-002  -2.6174920469933749E-002   1.4824295700428425E-002
   9.1658067852287306E-002  -2.7146340593807355E-002   2.2925200578227369E-002
   8.9016517933513339E-002  -2.6523948112681883E-002   2.2291193713021872E-002
   8.6374968014739359E-002  -2.5882666231936864E-002   2.1884559521050381E-002
   8.3733418095965337E-002  -2.5222494951571903E-002   2.1705298002312731E-002
   8.1091868177191342E-002  -2.4543434271587339E-002   2.1753409156809268E-002
   8.4560881187153963E-002  -2.4777983276303067E-002   3.0052025386475001E-002
   8.2171392044175701E-002  -2.4449644875234156E-002   2.9285084030759162E-002
   7.9781902901197466E-002  -2.4029192874367417E-002   2.8794891553400731E-002
   7.7392413758219203E-002  -2.3516627273703079E-002   2.8581447954399798E-002
   7.5002924615240996E-002  -2.2911948073240901E-002   2.8644753233756509E-002
   9.9264983229322923E-002  -2.9437892866626569E-002   8.5276064936651297E-004
   9.6359665822374319E-002  -2.8608472048391648E-002   6.4274872339908917E-004
   9.3454348415425686E-002  -2.7723836629876569E-002   6.0179980107111231E-004
   9.0549031008477068E-002  -2.6783986611080980E-002   7.2991388238265176E-004
   8.7643713601528450E-002  -2.5788921992005109E-002   1.0270909673334438E-003
   9.3222897484232403E-002  -2.7806406668280270E-002   7.8574128646141939E-003
   9.0483482770201518E-002  -2.7020973768716455E-002   7.6776174166807987E-003
   8.7744068056170632E-002  -2.6192763347348769E-002   7.6605643509432969E-003
   8.5004653342139747E-002  -2.5321775404176683E-002   7.8062536674017649E-003
   8.2265238628108861E-002  -2.4408009939200115E-002   8.1146853660564178E-003
   8.7165192466855182E-002  -2.6174920469933749E-002   1.4824295700428425E-002
   8.4585359824298684E-002  -2.5433475489041665E-002   1.4662279652052801E-002
   8.2005527181742116E-002  -2.4661690064821176E-002   1.4656685364430114E-002
   7.9425694539185562E-002  -2.3859564197272382E-002   1.4807512837559794E-002
   7.6845861896629120E-002  -2.3027097886395231E-002   1.5114762071442162E-002
   8.1091868177191342E-002  -2.4543434271587339E-002   2.1753409156809268E-002
   7.8665296984665761E-002  -2.3845977209366702E-002   2.1596735429515762E-002
   7.6238725792140166E-002  -2.3130616782293591E-002   2.1590162841531504E-002
   7.3812154599614571E-002  -2.2397352990368137E-002   2.1733691392856316E-002
   7.1385583407088921E-002  -2.1646185833590237E-002   2.2027321083490543E-002
   7.5002924615240996E-002  -2.2911948073240901E-002   2.8644753233756509E-002
   7.2723294251302861E-002  -2.2258478929691600E-002   2.8480984749069183E-002
   7.0443663887364699E-002  -2.1599543499765998E-002   2.8460996782247575E-002
   6.8164033523426551E-002  -2.0935141783463826E-002   2.8584789333291734E-002
   6.5884403159488458E-002  -2.0265273780785298E-002   2.8852362402201737E-002
   8.7643713601528450E-002  -2.5788921992005109E-002   1.0270909673334438E-003
   8.4113098877388603E-002  -2.4783281688071757E-002   6.2803690504809051E-004
   8.0582484153248701E-002  -2.3811704614703694E-002   4.0384761914963319E-004
   7.7051869429108799E-002  -2.2874190771900164E-002   3.5452310963879352E-004
   7.3521254704968952E-002  -2.1970740159661939E-002   4.8006337651484987E-004
   8.2265238628108861E-002  -2.4408009939200115E-002   8.1146853660564178E-003
   7.8918555480154279E-002  -2.3489006964670545E-002   7.6506134788769109E-003
   7.5571872332199586E-002  -2.2602306492838481E-002   7.3795399676805651E-003
   7.2225189184244976E-002  -2.1747908523704319E-002   7.3014648324674636E-003
   6.8878506036290310E-002  -2.0925813057267817E-002   7.4163880732374676E-003
   7.6845861896629120E-002  -2.3027097886395231E-002   1.5114762071442162E-002
   7.3701243924455428E-002  -2.2194732241269111E-002   1.4587433087236062E-002
   7.0556625952281793E-002  -2.1392908370973615E-002   1.4271236078608987E-002
   6.7412007980108157E-002  -2.0621626275508256E-002   1.4166171045560928E-002
   6.4267390007934494E-002  -1.9880885954873639E-002   1.4272237988091546E-002
   7.1385583407088921E-002  -2.1646185833590237E-002   2.2027321083490543E-002
   6.8461164210292080E-002  -2.0900457517867788E-002   2.1438495730125261E-002
   6.5536745013495268E-002  -2.0183510249108465E-002   2.1078935951934722E-002
   6.2612325816698400E-002  -1.9495344027312636E-002   2.0948641748918910E-002
   5.9687906619901560E-002  -1.8835958852479601E-002   2.1047613121077509E-002
   6.5884403159488458E-002  -2.0265273780785298E-002   2.8852362402201737E-002
   6.3198316337664207E-002  -1.9606182794466354E-002   2.8203801407544332E-002
   6.0512229515839927E-002  -1.8974112127243536E-002   2.7802639587657663E-002
   5.7826142694015745E-002  -1.8369061779116347E-002   2.7648876942541326E-002
   5.5140055872191451E-002  -1.7791031750085395E-002   2.7742513472195474E-002
   7.3521254704968952E-002  -2.1970740159661939E-002   4.8006337651484987E-004
   7.1393198938347613E-002  -2.1039921429747921E-002   6.9379523805834786E-004
   6.9265143171726384E-002  -2.0020303233917430E-002   1.0890320113581820E-003
   6.7137087405105100E-002  -1.8911885572169378E-002   1.6657736964135472E-003
   6.5009031638483816E-002  -1.7714668444505755E-002   2.4240202932254151E-003
   6.8878506036290310E-002  -2.0925813057267817E-002   7.4163880732374676E-003
   6.6919621482928293E-002  -2.0094410212252223E-002   7.7192772394935050E-003
   6.4960736929566332E-002  -1.9212090107380314E-002   8.1790039205116016E-003
   6.3001852376204287E-002  -1.8278852742652084E-002   8.7955681162924099E-003
   6.1042967822842298E-002  -1.7294698118067720E-002   9.5689698268356382E-003
   6.4267390007934494E-002  -1.9880885954873639E-002   1.4272237988091546E-002
   6.2453009270838078E-002  -1.9148898994756386E-002   1.4626402252999521E-002
   6.0638628533741690E-002  -1.8403876980843323E-002   1.5112736635676263E-002
   5.8824247796645260E-002  -1.7645819913134572E-002   1.5731241136121461E-002
   5.7009867059548830E-002  -1.6874727791629907E-002   1.6481915754335941E-002
   5.9687906619901560E-002  -1.8835958852479601E-002   2.1047613121077509E-002
   5.7993362302077064E-002  -1.8203387777260618E-002   2.1415170278577152E-002
   5.6298817984252583E-002  -1.7595663854306491E-002   2.1890230156851601E-002
   5.4604273666428102E-002  -1.7012787083616948E-002   2.2472792755901208E-002
   5.2909729348603558E-002  -1.6454757465192205E-002   2.3162858075725878E-002
   5.5140055872191451E-002  -1.7791031750085395E-002   2.7742513472195474E-002
   5.3540680576645239E-002  -1.7257876559764823E-002   2.8085581316225960E-002
   5.1941305281098943E-002  -1.6787450727769590E-002   2.8511484484037869E-002
   5.0341929985552744E-002  -1.6379754254099443E-002   2.9020222975631241E-002
   4.8742554690006490E-002  -1.6034787138754392E-002   2.9611796791005895E-002
   6.5009031638483816E-002  -1.7714668444505755E-002   2.4240202932254151E-003
   6.1157874562353554E-002  -1.5977213896678388E-002   6.3219788136015254E-004
   5.7306717486223346E-002  -1.3248083974441438E-002  -1.1391850782563884E-003
   5.3455560410093056E-002  -9.5272786777950980E-003  -2.8901285856242909E-003
   4.9604403333962876E-002  -4.8147980067394514E-003  -4.6206326407434162E-003
   6.1042967822842298E-002  -1.7294698118067720E-002   9.5689698268356382E-003
   5.7254593346533433E-002  -1.5986531702719575E-002   8.5468444629318019E-003
   5.3466218870224624E-002  -1.4081258965699589E-002   7.6298448464216517E-003
   4.9677844393915788E-002  -1.1578879907008628E-002   6.8179709773050767E-003
   4.5889469917607006E-002  -8.4793945266459225E-003   6.1112228555830761E-003
   5.7009867059548830E-002  -1.6874727791629907E-002   1.6481915754335941E-002
   5.3368961478206661E-002  -1.5995849508760818E-002   1.5834918385654789E-002
   4.9728055896864479E-002  -1.4914433956958184E-002   1.5377733059513066E-002
   4.6087150315522303E-002  -1.3630481136221881E-002   1.5110359775910728E-002
   4.2446244734180072E-002  -1.2143991046552172E-002   1.5032798534847513E-002
   5.2909729348603558E-002  -1.6454757465192205E-002   2.3162858075725878E-002
   4.9500978957373210E-002  -1.6005167314802032E-002   2.2496419649530107E-002
   4.6092228566142812E-002  -1.5747608948216446E-002   2.2104479561018776E-002
   4.2683478174912359E-002  -1.5682082365435050E-002   2.1987037810192081E-002
   3.9274727783682073E-002  -1.5808587566458532E-002   2.2144094397049702E-002
   4.8742554690006490E-002  -1.6034787138754392E-002   2.9611796791005895E-002
   4.5650645784033050E-002  -1.6014485120843247E-002   2.8531348254557720E-002
   4.2558736878059694E-002  -1.6580783939474597E-002   2.7810084350938680E-002
   3.9466827972086213E-002  -1.7733683594648553E-002   2.7448005080149357E-002
   3.6374919066112898E-002  -1.9473184086364892E-002   2.7445110442189780E-002
   9.0362863919140515E-002   0.0000000000000000        4.9837700449360721E-002
   9.3961706147993609E-002  -5.4054459479429976E-003   5.3211807734136654E-002
   9.7560548376846704E-002  -1.0671798394102611E-002   5.4967434914064597E-002
  0.10115939060569978       -1.5799057338478834E-002   5.5104581989144585E-002
  0.10475823283455291       -2.0787222781071674E-002   5.3623248959376590E-002
   8.2426040958869518E-002   0.0000000000000000        4.4784802698955038E-002
   8.4635517708856106E-002  -4.5749074351967133E-003   4.8269501447193303E-002
   8.6844994458842736E-002  -9.0380241368334842E-003   5.0593949342546581E-002
   8.9054471208829325E-002  -1.3389350104910323E-002   5.1758146385014830E-002
   9.1263947958815941E-002  -1.7628885339427212E-002   5.1762092574598087E-002
   7.4245252718407706E-002   0.0000000000000000        4.0576094845407362E-002
   7.5523593241490800E-002  -3.7443689224504278E-003   4.4144082288884529E-002
   7.6801933764573893E-002  -7.4042498795643640E-003   4.7010048131439663E-002
   7.8080274287656973E-002  -1.0979642871341806E-002   4.9173992373072753E-002
   7.9358614810740066E-002  -1.4470547897782762E-002   5.0635915013783804E-002
   6.5820499197755122E-002   0.0000000000000000        3.7211576888717693E-002
   6.6625932745897648E-002  -2.9138304097041431E-003   4.0835550259210318E-002
   6.7431366294040160E-002  -5.7704756222952402E-003   4.4215731280743867E-002
   6.8236799842182699E-002  -8.5699356377732933E-003   4.7352119953318332E-002
   6.9042233390325239E-002  -1.1312210456138304E-002   5.0244716276933721E-002
   5.7151780396911725E-002   0.0000000000000000        3.4691248828886030E-002
   5.7942536222076658E-002  -2.0832918969578579E-003   3.8343905358170657E-002
   5.8733292047241592E-002  -4.1367013650261165E-003   4.2210998790459184E-002
   5.9524047872406526E-002  -6.1602284042047793E-003   4.6292529125751589E-002
   6.0314803697571473E-002  -8.1538730144938443E-003   5.0588496364047879E-002
  0.10475823283455291       -2.0787222781071674E-002   5.3623248959376590E-002
  0.10210625077985826       -2.4925954333627987E-002   4.5641812064856596E-002
   9.9454268725163608E-002  -2.7504911607894568E-002   3.9348686357167283E-002
   9.6802286670468946E-002  -2.8524094603871439E-002   3.4743871836308594E-002
   9.4150304615774325E-002  -2.7983503321558620E-002   3.1827368502280629E-002
   9.1263947958815941E-002  -1.7628885339427212E-002   5.1762092574598087E-002
   9.0062581064399003E-002  -2.1202948128430783E-002   4.6521375599064406E-002
   8.8861214169982078E-002  -2.3557856759967580E-002   4.2493577757255464E-002
   8.7659847275565167E-002  -2.4693611234037668E-002   3.9678699049171220E-002
   8.6458480381148201E-002  -2.4610211550640970E-002   3.8076739474811785E-002
   7.9358614810740066E-002  -1.4470547897782762E-002   5.0635915013783804E-002
   7.9132471023494910E-002  -1.7479941923233586E-002   4.7795297836413453E-002
   7.8906327236249740E-002  -1.9610801912040610E-002   4.5692207739661914E-002
   7.8680183449004612E-002  -2.0863127864203863E-002   4.4326644723529214E-002
   7.8454039661759442E-002  -2.1236919779723328E-002   4.3698608788015264E-002
   6.9042233390325239E-002  -1.1312210456138304E-002   5.0244716276933721E-002
   6.9315920657145910E-002  -1.3756935718036380E-002   4.9463578776903765E-002
   6.9589607923966595E-002  -1.5663747064113644E-002   4.8944576304386679E-002
   6.9863295190787308E-002  -1.7032644494370083E-002   4.8687708859382443E-002
   7.0136982457607980E-002  -1.7863628008805695E-002   4.8692976441891155E-002
   6.0314803697571473E-002  -8.1538730144938443E-003   5.0588496364047879E-002
   6.0612929965352051E-002  -1.0033929512839187E-002   5.1526218420535369E-002
   6.0911056233132657E-002  -1.1716692216186654E-002   5.2250683451429761E-002
   6.1209182500913249E-002  -1.3202161124536285E-002   5.2761891456731096E-002
   6.1507308768693834E-002  -1.4490336237888035E-002   5.3059842436439408E-002
   9.4150304615774325E-002  -2.7983503321558620E-002   3.1827368502280629E-002
   9.1752948758619224E-002  -2.6792799502636896E-002   3.1259119993058887E-002
   8.9355592901464137E-002  -2.5861644888787071E-002   3.0773813304017399E-002
   8.6958237044309036E-002  -2.5190039480009165E-002   3.0371448435156056E-002
   8.4560881187153963E-002  -2.4777983276303067E-002   3.0052025386475001E-002
   8.6458480381148201E-002  -2.4610211550640970E-002   3.8076739474811785E-002
   8.4190750692181127E-002  -2.3967167627979985E-002   3.7062851386830131E-002
   8.1923021003214067E-002  -2.3423989384257118E-002   3.6225273815044250E-002
   7.9655291314246951E-002  -2.2980676819472422E-002   3.5564006759454203E-002
   7.7387561625279905E-002  -2.2637229933625824E-002   3.5079050220059860E-002
   7.8454039661759442E-002  -2.1236919779723328E-002   4.3698608788015264E-002
   7.6409304836995928E-002  -2.1141535753323094E-002   4.2398764647407425E-002
   7.4364570012232387E-002  -2.0986333879727238E-002   4.1368599719010982E-002
   7.2319835187468845E-002  -2.0771314158935721E-002   4.0608114002825837E-002
   7.0275100362705331E-002  -2.0496476590948595E-002   4.0117307498852062E-002
   7.0136982457607980E-002  -1.7863628008805695E-002   4.8692976441891155E-002
   6.8408611193063545E-002  -1.8315903878666221E-002   4.7266859774790948E-002
   6.6680239928519153E-002  -1.8548678375197299E-002   4.6203791015917671E-002
   6.4951868663974732E-002  -1.8561951498399031E-002   4.5503770165271254E-002
   6.3223497399430340E-002  -1.8355723248271345E-002   4.5166797222851711E-002
   6.1507308768693834E-002  -1.4490336237888035E-002   5.3059842436439408E-002
   6.0188669760384075E-002  -1.5490272004009306E-002   5.1667136768980569E-002
   5.8870030752074337E-002  -1.6111022870667395E-002   5.0730847705764179E-002
   5.7551391743764592E-002  -1.6352588837862309E-002   5.0250975246790237E-002
   5.6232752735454833E-002  -1.6214969905594095E-002   5.0227519392058745E-002
   8.4560881187153963E-002  -2.4777983276303067E-002   3.0052025386475001E-002
   8.2171392044175701E-002  -2.4449644875234156E-002   2.9285084030759162E-002
   7.9781902901197466E-002  -2.4029192874367417E-002   2.8794891553400731E-002
   7.7392413758219203E-002  -2.3516627273703079E-002   2.8581447954399798E-002
   7.5002924615240996E-002  -2.2911948073240901E-002   2.8644753233756509E-002
   7.7387561625279905E-002  -2.2637229933625824E-002   3.5079050220059860E-002
   7.5260897601868659E-002  -2.2305108561457683E-002   3.4443707530542454E-002
   7.3134233578457511E-002  -2.1895772537708323E-002   3.4057266201801689E-002
   7.1007569555046335E-002  -2.1409221862377724E-002   3.3919726233837384E-002
   6.8880905531635117E-002  -2.0845456535465795E-002   3.4031087626649775E-002
   7.0275100362705331E-002  -2.0496476590948595E-002   4.0117307498852062E-002
   6.8383413941280224E-002  -2.0160572247681280E-002   3.9598664527316731E-002
   6.6491727519855146E-002  -1.9762352201049202E-002   3.9301075398977009E-002
   6.4600041098430039E-002  -1.9301816451052365E-002   3.9224540113832800E-002
   6.2708354677004946E-002  -1.8778964997690731E-002   3.9369058671884290E-002
   6.3223497399430340E-002  -1.8355723248271345E-002   4.5166797222851711E-002
   6.1538941062410348E-002  -1.8016035933904828E-002   4.4749955021081915E-002
   5.9854384725390397E-002  -1.7628931864390011E-002   4.4526319144926815E-002
   5.8169828388370398E-002  -1.7194411039726992E-002   4.4495889594386419E-002
   5.6485272051350469E-002  -1.6712473459915604E-002   4.4658666369460462E-002
   5.6232752735454833E-002  -1.6214969905594095E-002   5.0227519392058745E-002
   5.4727478965259035E-002  -1.5871499620128418E-002   4.9897579011838111E-002
   5.3222205195063238E-002  -1.5495511527730925E-002   4.9732997439651136E-002
   5.1716931424867427E-002  -1.5087005628401677E-002   4.9733774675497756E-002
   5.0211657654671643E-002  -1.4645981922140561E-002   4.9899910719378132E-002
   7.5002924615240996E-002  -2.2911948073240901E-002   2.8644753233756509E-002
   7.2723294251302861E-002  -2.2258478929691600E-002   2.8480984749069183E-002
   7.0443663887364699E-002  -2.1599543499765998E-002   2.8460996782247575E-002
   6.8164033523426551E-002  -2.0935141783463826E-002   2.8584789333291734E-002
   6.5884403159488458E-002  -2.0265273780785298E-002   2.8852362402201737E-002
   6.8880905531635117E-002  -2.0845456535465795E-002   3.4031087626649775E-002
   6.6755152160408643E-002  -2.0239207023049419E-002   3.3833493848686044E-002
   6.4629398789182113E-002  -1.9625203791205033E-002   3.3799873538279956E-002
   6.2503645417955611E-002  -1.9003446839932964E-002   3.3930226695431241E-002
   6.0377892046729081E-002  -1.8373936169232830E-002   3.4224553320140072E-002
   6.2708354677004946E-002  -1.8778964997690731E-002   3.9369058671884290E-002
   6.0756671248181807E-002  -1.8219935116407113E-002   3.9139927033695850E-002
   5.8804987819358674E-002  -1.7650864082644154E-002   3.9094961812756540E-002
   5.6853304390535514E-002  -1.7071751896401997E-002   3.9234163009066417E-002
   5.4901620961712361E-002  -1.6482598557680500E-002   3.9557530622625597E-002
   5.6485272051350469E-002  -1.6712473459915604E-002   4.4658666369460462E-002
   5.4727851514622422E-002  -1.6200663209764730E-002   4.4400284304098432E-002
   5.2970430977894389E-002  -1.5676524374083289E-002   4.4346261605677485E-002
   5.1213010441166350E-002  -1.5140056952871083E-002   4.4496598274197351E-002
   4.9455589904438282E-002  -1.4591260946128157E-002   4.4851294309658438E-002
   5.0211657654671643E-002  -1.4645981922140561E-002   4.9899910719378132E-002
   4.8668692959730420E-002  -1.4181391303122598E-002   4.9614565659894055E-002
   4.7125728264789238E-002  -1.3702184665522338E-002   4.9553772917042743E-002
   4.5582763569848035E-002  -1.3208362009340148E-002   4.9717532490824085E-002
   4.4039798874906860E-002  -1.2699923334575758E-002   5.0105844381238218E-002
   6.5884403159488458E-002  -2.0265273780785298E-002   2.8852362402201737E-002
   6.3198316337664207E-002  -1.9606182794466354E-002   2.8203801407544332E-002
   6.0512229515839927E-002  -1.8974112127243536E-002   2.7802639587657663E-002
   5.7826142694015745E-002  -1.8369061779116347E-002   2.7648876942541326E-002
   5.5140055872191451E-002  -1.7791031750085395E-002   2.7742513472195474E-002
   6.0377892046729081E-002  -1.8373936169232830E-002   3.4224553320140072E-002
   5.7931156821601312E-002  -1.7749541718911716E-002   3.3575681535510576E-002
   5.5484421596473460E-002  -1.7143133428776325E-002   3.3158113769503367E-002
   5.3037686371345642E-002  -1.6554711298826658E-002   3.2971850022118637E-002
   5.0590951146217783E-002  -1.5984275329062547E-002   3.3016890293356166E-002
   5.4901620961712361E-002  -1.6482598557680500E-002   3.9557530622625597E-002
   5.2678142177132875E-002  -1.5892900643357133E-002   3.8917382206934151E-002
   5.0454663392553369E-002  -1.5312154730309280E-002   3.8492442653716846E-002
   4.8231184607973862E-002  -1.4740360818536746E-002   3.8282711962973774E-002
   4.6007705823394390E-002  -1.4177518908039838E-002   3.8288190134705066E-002
   4.9455589904438282E-002  -1.4591260946128157E-002   4.4851294309658438E-002
   4.7439272404259006E-002  -1.4036259567802606E-002   4.4228903421815007E-002
   4.5422954904079674E-002  -1.3481176031842013E-002   4.3805626240297837E-002
   4.3406637403900390E-002  -1.2926010338246974E-002   4.3581462765106972E-002
   4.1390319903721010E-002  -1.2370762487017087E-002   4.3556412996241967E-002
   4.4039798874906860E-002  -1.2699923334575758E-002   5.0105844381238218E-002
   4.2214547502979621E-002  -1.2179618492247912E-002   4.9510245180153373E-002
   4.0389296131052382E-002  -1.1650197333375051E-002   4.9097664529246660E-002
   3.8564044759125150E-002  -1.1111659857957097E-002   4.8868102428517787E-002
   3.6738793387197932E-002  -1.0564006065994280E-002   4.8821558877966964E-002
   5.5140055872191451E-002  -1.7791031750085395E-002   2.7742513472195474E-002
   5.3540680576645239E-002  -1.7257876559764823E-002   2.8085581316225960E-002
   5.1941305281098943E-002  -1.6787450727769590E-002   2.8511484484037869E-002
   5.0341929985552744E-002  -1.6379754254099443E-002   2.9020222975631241E-002
   4.8742554690006490E-002  -1.6034787138754392E-002   2.9611796791005895E-002
   5.0590951146217783E-002  -1.5984275329062547E-002   3.3016890293356166E-002
   4.9082669864242118E-002  -1.5433067067640471E-002   3.3292476922914482E-002
   4.7574388582266439E-002  -1.4902328062715992E-002   3.3667416255832486E-002
   4.6066107300290739E-002  -1.4392058314289614E-002   3.4141708292110086E-002
   4.4557826018315039E-002  -1.3902257822361097E-002   3.4715353031747331E-002
   4.6007705823394390E-002  -1.4177518908039838E-002   3.8288190134705066E-002
   4.4607035934567482E-002  -1.3608257575515856E-002   3.8538555651618414E-002
   4.3206366045740609E-002  -1.3017205397662567E-002   3.8904791251469485E-002
   4.1805696156913694E-002  -1.2404362374479899E-002   3.9386896934258689E-002
   4.0405026268086827E-002  -1.1769728505967858E-002   3.9984872699985824E-002
   4.1390319903721010E-002  -1.2370762487017087E-002   4.3556412996241967E-002
   4.0113778787621221E-002  -1.1783448083391344E-002   4.3823817502337589E-002
   3.8837237671521467E-002  -1.1132082732609110E-002   4.4223609470949381E-002
   3.7560696555421651E-002  -1.0416666434670128E-002   4.4755788902077501E-002
   3.6284155439321869E-002  -9.6371991895745357E-003   4.5420355795721665E-002
   3.6738793387197932E-002  -1.0564006065994280E-002   4.8821558877966964E-002
   3.5602898423403473E-002  -9.9586385912667774E-003   4.9148262475072202E-002
   3.4467003459609014E-002  -9.2469600675555846E-003   4.9623870914271700E-002
   3.3331108495814554E-002  -8.4289704948603932E-003   5.0248384195565890E-002
   3.2195213532020095E-002  -7.5046698731812689E-003   5.1021802318954423E-002
   4.8742554690006490E-002  -1.6034787138754392E-002   2.9611796791005895E-002
   4.5650645784033050E-002  -1.6014485120843247E-002   2.8531348254557720E-002
   4.2558736878059694E-002  -1.6580783939474597E-002   2.7810084350938680E-002
   3.9466827972086213E-002  -1.7733683594648553E-002   2.7448005080149357E-002
   3.6374919066112898E-002  -1.9473184086364892E-002   2.7445110442189780E-002
   4.4557826018315039E-002  -1.3902257822361097E-002   3.4715353031747331E-002
   4.1790054241725716E-002  -1.3567369245080119E-002   3.3193808208646702E-002
   3.9022282465136365E-002  -1.3521835240596136E-002   3.1961353011484978E-002
   3.6254510688547043E-002  -1.3765655808908983E-002   3.1017987440261463E-002
   3.3486738911957692E-002  -1.4298830950019159E-002   3.0363711494976187E-002
   4.0405026268086827E-002  -1.1769728505967858E-002   3.9984872699985824E-002
   3.7891296613990461E-002  -1.1120253369316879E-002   3.8319477853978795E-002
   3.5377566959894045E-002  -1.0462886541717398E-002   3.6873077627018941E-002
   3.2863837305797755E-002  -9.7976280231694690E-003   3.5645672019106775E-002
   3.0350107651701264E-002  -9.1244778136732041E-003   3.4637261030242006E-002
   3.6284155439321869E-002  -9.6371991895745357E-003   4.5420355795721665E-002
   3.3954372900827354E-002  -8.6731374935535843E-003   4.3908357190553263E-002
   3.1624590362332831E-002  -7.4039378428386871E-003   4.2545258197541513E-002
   2.9294807823838278E-002  -5.8296002374300382E-003   4.1331058816685903E-002
   2.6965025285343794E-002  -3.9501246773274157E-003   4.0265759047986738E-002
   3.2195213532020095E-002  -7.5046698731812689E-003   5.1021802318954423E-002
   2.9979283102236354E-002  -6.2260216177905114E-003   4.9960446218370591E-002
   2.7763352672452640E-002  -4.3449891439602401E-003   4.8977894723052057E-002
   2.5547422242668913E-002  -1.8615724516903402E-003   4.8074147832998446E-002
   2.3331491812885186E-002   1.2242284590184838E-003   4.7249205548210549E-002
   5.7151780396911725E-002   0.0000000000000000        3.4691248828886030E-002
   5.7942536222076658E-002  -2.0832918969578579E-003   3.8343905358170657E-002
   5.8733292047241592E-002  -4.1367013650261165E-003   4.2210998790459184E-002
   5.9524047872406526E-002  -6.1602284042047793E-003   4.6292529125751589E-002
   6.0314803697571473E-002  -8.1538730144938443E-003   5.0588496364047879E-002
   4.8651440741476690E-002   0.0000000000000000        3.2791211476622964E-002
   4.9591183407390785E-002  -1.7090916166224461E-003   3.6966832705606203E-002
   5.0530926073304873E-002  -3.4326832802428417E-003   4.1225990713083874E-002
   5.1470668739218968E-002  -5.1707749908611860E-003   4.5568685499055954E-002
   5.2410411405133063E-002  -6.9233667484774677E-003   4.9994917063522486E-002
   4.0731824657049179E-002   0.0000000000000000        3.1287565642639084E-002
   4.1689654039202967E-002  -1.3348913362870351E-003   3.5941769095433403E-002
   4.2647483421356755E-002  -2.7286651954595634E-003   4.0548609202212670E-002
   4.3605312803510536E-002  -4.1813215775175850E-003   4.5108085962976906E-002
   4.4563142185664317E-002  -5.6928604824610972E-003   4.9620199377726111E-002
   3.3392932143629192E-002   0.0000000000000000        3.0180311326934384E-002
   3.4237948117513212E-002  -9.6069105595162360E-004   3.5268714527652220E-002
   3.5082964091397217E-002  -2.0246471106762877E-003   4.0178854257845564E-002
   3.5927980065281230E-002  -3.1918681641739878E-003   4.4910730517514395E-002
   3.6772996039165243E-002  -4.4623542164447232E-003   4.9464343306658720E-002
   2.6634763201216737E-002   0.0000000000000000        2.9469448529508870E-002
   2.7236065642321509E-002  -5.8649077561621216E-004   3.4947669002262698E-002
   2.7837368083426281E-002  -1.3206290258930102E-003   4.0116725879982544E-002
   2.8438670524531053E-002  -2.2024147508303872E-003   4.4976619162668416E-002
   2.9039972965635825E-002  -3.2318479504283510E-003   4.9527348850320341E-002
   6.0314803697571473E-002  -8.1538730144938443E-003   5.0588496364047879E-002
   6.0612929965352051E-002  -1.0033929512839187E-002   5.1526218420535369E-002
   6.0911056233132657E-002  -1.1716692216186654E-002   5.2250683451429761E-002
   6.1209182500913249E-002  -1.3202161124536285E-002   5.2761891456731096E-002
   6.1507308768693834E-002  -1.4490336237888035E-002   5.3059842436439408E-002
   5.2410411405133063E-002  -6.9233667484774677E-003   4.9994917063522486E-002
   5.2534531116580907E-002  -8.5879359681500997E-003   5.1222932121181508E-002
   5.2658650828028751E-002  -1.0061960064937451E-002   5.2316191091768105E-002
   5.2782770539476616E-002  -1.1345439038839540E-002   5.3274693975282290E-002
   5.2906890250924453E-002  -1.2438372889856365E-002   5.4098440771724071E-002
   4.4563142185664317E-002  -5.6928604824610972E-003   4.9620199377726111E-002
   4.4591756279300072E-002  -7.1419424234610155E-003   5.1131758764444077E-002
   4.4620370372935828E-002  -8.4072279136882550E-003   5.2587063002610297E-002
   4.4648984466571569E-002  -9.4887169531428141E-003   5.3986112092224703E-002
   4.4677598560207331E-002  -1.0386409541824695E-002   5.5328906033287377E-002
   3.6772996039165243E-002  -4.4623542164447232E-003   4.9464343306658720E-002
   3.6784605453509540E-002  -5.6959488787719330E-003   5.1252698350323062E-002
   3.6796214867853824E-002  -6.7524957624390631E-003   5.3063299183956303E-002
   3.6807824282198136E-002  -7.6319948674460790E-003   5.4896145807558389E-002
   3.6819433696542420E-002  -8.3344461937930117E-003   5.6751238221129367E-002
   2.9039972965635825E-002  -3.2318479504283510E-003   4.9527348850320341E-002
   2.9113078639209315E-002  -4.2499553340828462E-003   5.1585750878818455E-002
   2.9186184312782793E-002  -5.0977636111898591E-003   5.3744899635806122E-002
   2.9259289986356275E-002  -5.7752727817493490E-003   5.6004795121283257E-002
   2.9332395659929768E-002  -6.2824828457613419E-003   5.8365437335249959E-002
   6.1507308768693834E-002  -1.4490336237888035E-002   5.3059842436439408E-002
   6.0188669760384075E-002  -1.5490272004009306E-002   5.1667136768980569E-002
   5.8870030752074337E-002  -1.6111022870667395E-002   5.0730847705764179E-002
   5.7551391743764592E-002  -1.6352588837862309E-002   5.0250975246790237E-002
   5.6232752735454833E-002  -1.6214969905594095E-002   5.0227519392058745E-002
   5.2906890250924453E-002  -1.2438372889856365E-002   5.4098440771724071E-002
   5.1991379589228635E-002  -1.3285721206439196E-002   5.3363479096411912E-002
   5.1075868927532825E-002  -1.3832443577039328E-002   5.2978357510085124E-002
   5.0160358265836993E-002  -1.4078540001656639E-002   5.2943076012743728E-002
   4.9244847604141183E-002  -1.4024010480291255E-002   5.3257634604387746E-002
   4.4677598560207331E-002  -1.0386409541824695E-002   5.5328906033287377E-002
   4.4058639729868385E-002  -1.1081170408869086E-002   5.5173129396641464E-002
   4.3439680899529431E-002  -1.1553864283411163E-002   5.5260616333723853E-002
   4.2820722069190492E-002  -1.1804491165450973E-002   5.5591366844534661E-002
   4.2201763238851553E-002  -1.1833051054988428E-002   5.6165380929073812E-002
   3.6819433696542420E-002  -8.3344461937930117E-003   5.6751238221129367E-002
   3.6390450182303316E-002  -8.8766196112989894E-003   5.7096087669669233E-002
   3.5961466668064213E-002  -9.2752849897830471E-003   5.7577624176680380E-002
   3.5532483153825102E-002  -9.5304423292452908E-003   5.8195847742162882E-002
   3.5103499639585992E-002  -9.6420916296856216E-003   5.8950758366116629E-002
   2.9332395659929768E-002  -6.2824828457613419E-003   5.8365437335249959E-002
   2.8986810946533451E-002  -6.6720688137288722E-003   5.9132353915495220E-002
   2.8641226233137123E-002  -6.9967056961549312E-003   5.9929381038954704E-002
   2.8295641519740795E-002  -7.2563934930396159E-003   6.0756518705628454E-002
   2.7950056806344485E-002  -7.4511322043827460E-003   6.1613766915516469E-002
   5.6232752735454833E-002  -1.6214969905594095E-002   5.0227519392058745E-002
   5.4727478965259035E-002  -1.5871499620128418E-002   4.9897579011838111E-002
   5.3222205195063238E-002  -1.5495511527730925E-002   4.9732997439651136E-002
   5.1716931424867427E-002  -1.5087005628401677E-002   4.9733774675497756E-002
   5.0211657654671643E-002  -1.4645981922140561E-002   4.9899910719378132E-002
   4.9244847604141183E-002  -1.4024010480291255E-002   5.3257634604387746E-002
   4.7913215044174506E-002  -1.3796960196259166E-002   5.2919264085527919E-002
   4.6581582484207809E-002  -1.3525494332876191E-002   5.2762817179092585E-002
   4.5249949924241153E-002  -1.3209612890142530E-002   5.2788293885081924E-002
   4.3918317364274456E-002  -1.2849315868057987E-002   5.2995694203495730E-002
   4.2201763238851553E-002  -1.1833051054988428E-002   5.6165380929073812E-002
   4.1060336693504916E-002  -1.1722420772389865E-002   5.5830478043993693E-002
   3.9918910148158293E-002  -1.1555477138021544E-002   5.5694063575729105E-002
   3.8777483602811656E-002  -1.1332220151883413E-002   5.5756137524279964E-002
   3.7636057057464999E-002  -1.1052649813975468E-002   5.6016699889646374E-002
   3.5103499639585992E-002  -9.6420916296856216E-003   5.8950758366116629E-002
   3.4168843913250285E-002  -9.6478813485206295E-003   5.8631220887235345E-002
   3.3234188186914579E-002  -9.5854599431668252E-003   5.8526736629560407E-002
   3.2299532460578893E-002  -9.4548274136243213E-003   5.8637305593091910E-002
   3.1364876734243194E-002  -9.2559837598929218E-003   5.8962927777829820E-002
   2.7950056806344485E-002  -7.4511322043827460E-003   6.1613766915516469E-002
   2.7238736703410635E-002  -7.5733419246512973E-003   6.1321492615253034E-002
   2.6527416600476767E-002  -7.6154427483121311E-003   6.1260836340586745E-002
   2.5816096497542913E-002  -7.5774346753651666E-003   6.1431798091517914E-002
   2.5104776394609063E-002  -7.4593177058103755E-003   6.1834377868046214E-002
   5.0211657654671643E-002  -1.4645981922140561E-002   4.9899910719378132E-002
   4.8668692959730420E-002  -1.4181391303122598E-002   4.9614565659894055E-002
   4.7125728264789238E-002  -1.3702184665522338E-002   4.9553772917042743E-002
   4.5582763569848035E-002  -1.3208362009340148E-002   4.9717532490824085E-002
   4.4039798874906860E-002  -1.2699923334575758E-002   5.0105844381238218E-002
   4.3918317364274456E-002  -1.2849315868057987E-002   5.2995694203495730E-002
   4.2592931966724923E-002  -1.2458037537887892E-002   5.2730537636059630E-002
   4.1267546569175369E-002  -1.2049212170897043E-002   5.2675987346774200E-002
   3.9942161171625828E-002  -1.1622839767085695E-002   5.2832043335639269E-002
   3.8616775774076295E-002  -1.1178920326453817E-002   5.3198705602654772E-002
   3.7636057057464999E-002  -1.1052649813975468E-002   5.6016699889646374E-002
   3.6514304918824972E-002  -1.0734683772653172E-002   5.5774662832496637E-002
   3.5392552780184924E-002  -1.0396239676271748E-002   5.5729286015015422E-002
   3.4270800641544898E-002  -1.0037317524831325E-002   5.5880569437202633E-002
   3.3149048502904850E-002  -9.6579173183317935E-003   5.6228513099058158E-002
   3.1364876734243194E-002  -9.2559837598929218E-003   5.8962927777829820E-002
   3.0432811816030522E-002  -9.0113300074184874E-003   5.8746941249204973E-002
   2.9500746897817866E-002  -8.7432671816464261E-003   5.8713668921766590E-002
   2.8568681979605198E-002  -8.4517952825768020E-003   5.8863110795514456E-002
   2.7636617061392539E-002  -8.1369143102097280E-003   5.9195266870448592E-002
   2.5104776394609063E-002  -7.4593177058103755E-003   6.1834377868046214E-002
   2.4348452658341631E-002  -7.2879762421837468E-003   6.1647372886184881E-002
   2.3592128922074213E-002  -7.0902946870211314E-003   6.1629136067027579E-002
   2.2835805185806780E-002  -6.8662730403224390E-003   6.1779667410574515E-002
   2.2079481449539362E-002  -6.6159113020877736E-003   6.2098966916825649E-002
   4.4039798874906860E-002  -1.2699923334575758E-002   5.0105844381238218E-002
   4.2214547502979621E-002  -1.2179618492247912E-002   4.9510245180153373E-002
   4.0389296131052382E-002  -1.1650197333375051E-002   4.9097664529246660E-002
   3.8564044759125150E-002  -1.1111659857957097E-002   4.8868102428517787E-002
   3.6738793387197932E-002  -1.0564006065994280E-002   4.8821558877966964E-002
   3.8616775774076295E-002  -1.1178920326453817E-002   5.3198705602654772E-002
   3.6984431391209521E-002  -1.0724465573321823E-002   5.2574610622473733E-002
   3.5352087008342789E-002  -1.0266487232010589E-002   5.2153311070235742E-002
   3.3719742625476015E-002  -9.8049853025198221E-003   5.1934806945940465E-002
   3.2087398242609283E-002  -9.3399597848496940E-003   5.1919098249588347E-002
   3.3149048502904850E-002  -9.6579173183317935E-003   5.6228513099058158E-002
   3.1729387986863491E-002  -9.2693126543957893E-003   5.5570329611415316E-002
   3.0309727470822136E-002  -8.8827771306460718E-003   5.5134718429480367E-002
   2.8890066954780823E-002  -8.4983107470826026E-003   5.4921679553253340E-002
   2.7470406438739450E-002  -8.1159135037052743E-003   5.4931212982734026E-002
   2.7636617061392539E-002  -8.1369143102097280E-003   5.9195266870448592E-002
   2.6449417289941511E-002  -7.8141597354697834E-003   5.8497402146978218E-002
   2.5262217518490507E-002  -7.4990670292816100E-003   5.8041886606980800E-002
   2.4075017747039473E-002  -7.1916361916453553E-003   5.7828720250456066E-002
   2.2887817975588476E-002  -6.8918672225607713E-003   5.7857903077404196E-002
   2.2079481449539362E-002  -6.6159113020877736E-003   6.2098966916825649E-002
   2.1144519300443587E-002  -6.3590068165436386E-003   6.1355828229162357E-002
   2.0209557151347826E-002  -6.1153569279171066E-003   6.0874815602736748E-002
   1.9274595002252058E-002  -5.8849616362080560E-003   6.0655929037548864E-002
   1.8339632853156276E-002  -5.6678209414163239E-003   6.0699168533598691E-002
   3.6738793387197932E-002  -1.0564006065994280E-002   4.8821558877966964E-002
   3.5602898423403473E-002  -9.9586385912667774E-003   4.9148262475072202E-002
   3.4467003459609014E-002  -9.2469600675555846E-003   4.9623870914271700E-002
   3.3331108495814554E-002  -8.4289704948603932E-003   5.0248384195565890E-002
   3.2195213532020095E-002  -7.5046698731812689E-003   5.1021802318954423E-002
   3.2087398242609283E-002  -9.3399597848496940E-003   5.1919098249588347E-002
   3.1094725919238370E-002  -8.8262937671449160E-003   5.2374557216178258E-002
   3.0102053595867442E-002  -8.2188703375504213E-003   5.2967556621520889E-002
   2.9109381272496522E-002  -7.5176894960655438E-003   5.3698096465616102E-002
   2.8116708949125602E-002  -6.7227512426909497E-003   5.4566176748463813E-002
   2.7470406438739450E-002  -8.1159135037052743E-003   5.4931212982734026E-002
   2.6609592352450209E-002  -7.6939489430230545E-003   5.5502873681714970E-002
   2.5748778266160968E-002  -7.1907806075449318E-003   5.6200710416106449E-002
   2.4887964179871762E-002  -6.6064084972708072E-003   5.7024723185908788E-002
   2.4027150093582486E-002  -5.9408326122007693E-003   5.7974911991121911E-002
   2.2887817975588476E-002  -6.8918672225607713E-003   5.7857903077404196E-002
   2.2147497723039027E-002  -6.5616041189011376E-003   5.8533211871681839E-002
   2.1407177470489574E-002  -6.1626908775396054E-003   5.9323332298028393E-002
   2.0666857217940149E-002  -5.6951274984760698E-003   6.0228264356443899E-002
   1.9926536965390668E-002  -5.1589139817104640E-003   6.1248008046928037E-002
   1.8339632853156276E-002  -5.6678209414163239E-003   6.0699168533598691E-002
   1.7708442031004787E-002  -5.4292592947793594E-003   6.1465571786079254E-002
   1.7077251208853263E-002  -5.1346011475342512E-003   6.2335422267286722E-002
   1.6446060386701756E-002  -4.7838464996812977E-003   6.3308719977221345E-002
   1.5814869564550249E-002  -4.3769953512203252E-003   6.4385464915882762E-002
   3.2195213532020095E-002  -7.5046698731812689E-003   5.1021802318954423E-002
   2.9979283102236354E-002  -6.2260216177905114E-003   4.9960446218370591E-002
   2.7763352672452640E-002  -4.3449891439602401E-003   4.8977894723052057E-002
   2.5547422242668913E-002  -1.8615724516903402E-003   4.8074147832998446E-002
   2.3331491812885186E-002   1.2242284590184838E-003   4.7249205548210549E-002
   2.8116708949125602E-002  -6.7227512426909497E-003   5.4566176748463813E-002
   2.6029444371161725E-002  -5.7460994117242148E-003   5.3979654602653027E-002
   2.3942179793197849E-002  -4.4997778374627206E-003   5.3571659555216367E-002
   2.1854915215233917E-002  -2.9837865199070293E-003   5.3342191606154235E-002
   1.9767650637270096E-002  -1.1981254590563983E-003   5.3291250755466701E-002
   2.4027150093582486E-002  -5.9408326122007693E-003   5.7974911991121911E-002
   2.2168273860547601E-002  -5.2661772056579181E-003   5.7530509324938917E-002
   2.0309397627512778E-002  -4.6545665309654302E-003   5.7364356250239480E-002
   1.8450521394477889E-002  -4.1060005881233593E-003   5.7476452767023734E-002
   1.6591645161443000E-002  -3.6204793771313915E-003   5.7866798875291559E-002
   1.9926536965390668E-002  -5.1589139817104640E-003   6.1248008046928037E-002
   1.8395771570394032E-002  -4.7862549995917325E-003   6.0613010385228309E-002
   1.6865006175397365E-002  -4.8093552244680253E-003   6.0355984808121314E-002
   1.5334240780400715E-002  -5.2282146563395358E-003   6.0476931315607066E-002
   1.3803475385404062E-002  -6.0428332952063291E-003   6.0975849907685925E-002
   1.5814869564550249E-002  -4.3769953512203252E-003   6.4385464915882762E-002
   1.4711937500701003E-002  -4.3063327935253803E-003   6.3227157783521171E-002
   1.3609005436851715E-002  -4.9641439179706620E-003   6.2546545228861855E-002
   1.2506073373002448E-002  -6.3504287245562500E-003   6.2343627251904302E-002
   1.1403141309153209E-002  -8.4651872132812667E-003   6.2618403852648941E-002
   2.6634763201216737E-002   0.0000000000000000        2.9469448529508870E-002
   2.7236065642321509E-002  -5.8649077561621216E-004   3.4947669002262698E-002
   2.7837368083426281E-002  -1.3206290258930102E-003   4.0116725879982544E-002
   2.8438670524531053E-002  -2.2024147508303872E-003   4.4976619162668416E-002
   2.9039972965635825E-002  -3.2318479504283510E-003   4.9527348850320341E-002
   2.0119362887877201E-002   0.0000000000000000        2.9020809611069818E-002
   2.0451174828380516E-002  -4.3993421413859694E-004   3.4314369712517785E-002
   2.0782986768883831E-002  -9.9051525937001676E-004   3.9378112407796796E-002
   2.1114798709387150E-002  -1.6517431356942655E-003   4.4212037696906875E-002
   2.1446610649890462E-002  -2.4236178431113363E-003   4.8816145579848022E-002
   1.3508776261676004E-002   0.0000000000000000        2.8700226932324501E-002
   1.3650443890442890E-002  -2.9337765266098000E-004   3.3846127306034368E-002
   1.3792111519209775E-002  -6.6040149284702677E-004   3.8841556462440321E-002
   1.3933779147976659E-002  -1.1010715205581386E-003   4.3686514401542358E-002
   1.4075446776743541E-002  -1.6153877357943142E-003   4.8381001123340477E-002
   6.8030033226131438E-003   0.0000000000000000        2.8507700493272923E-002
   6.8338728285086241E-003  -1.4682109118336435E-004   3.3542941782812453E-002
   6.8647423344041052E-003  -3.3028772632403593E-004   3.8507058043913092E-002
   6.8956118402995854E-003  -5.5039990542201430E-004   4.3400049276574856E-002
   6.9264813461950656E-003  -8.0715762847729752E-004   4.8221915480797697E-002
   2.0440706886178106E-006   0.0000000000000000        2.8443230293915080E-002
   1.4616425777205441E-006  -2.6452970574696727E-007   3.3404813142852041E-002
   8.7921446682371132E-007  -1.7395980104334408E-007   3.8374617152215129E-002
   2.9678635592752904E-007   2.7170971411173694E-007   4.3352642322004351E-002
  -2.8564175496952060E-007   1.0724788397260820E-006   4.8338888652219719E-002
   2.9039972965635825E-002  -3.2318479504283510E-003   4.9527348850320341E-002
   2.9113078639209315E-002  -4.2499553340828462E-003   5.1585750878818455E-002
   2.9186184312782793E-002  -5.0977636111898591E-003   5.3744899635806122E-002
   2.9259289986356275E-002  -5.7752727817493490E-003   5.6004795121283257E-002
   2.9332395659929768E-002  -6.2824828457613419E-003   5.8365437335249959E-002
   2.1446610649890462E-002  -2.4236178431113363E-003   4.8816145579848022E-002
   2.1590776369679477E-002  -3.1870620797522556E-003   5.1215962808266929E-002
   2.1734942089468495E-002  -3.8229985437480971E-003   5.3657153400627378E-002
   2.1879107809257510E-002  -4.3314272350988177E-003   5.6139717356929415E-002
   2.2023273529046528E-002  -4.7123481538044465E-003   5.8663654677172959E-002
   1.4075446776743541E-002  -1.6153877357943142E-003   4.8381001123340477E-002
   1.4231299178200135E-002  -2.1241688254216651E-003   5.1079442217777729E-002
   1.4387151579656726E-002  -2.5482334763063342E-003   5.3759883311608615E-002
   1.4543003981113313E-002  -2.8875816884482873E-003   5.6422324404833100E-002
   1.4698856382569904E-002  -3.1422134618475442E-003   5.9066765497451143E-002
   6.9264813461950656E-003  -8.0715762847729752E-004   4.8221915480797697E-002
   7.0346470647712715E-003  -1.0612755710910781E-003   5.1176189107350938E-002
   7.1428127833474790E-003  -1.2734684088645579E-003   5.4053089368749821E-002
   7.2509785019236822E-003  -1.4437361417977529E-003   5.6852616264994327E-002
   7.3591442204998889E-003  -1.5720787698906384E-003   5.9574769796084469E-002
  -2.8564175496952060E-007   1.0724788397260820E-006   4.8338888652219719E-002
   8.2002939289470278E-007   1.6176832395211477E-006   5.1506203476986506E-002
   1.9257005407584925E-006   1.2966585771915021E-006   5.4536771572050988E-002
   3.0313716886211980E-006   1.0940485277812807E-007   5.7430592937413150E-002
   4.1370428364856382E-006  -1.9440779337465131E-006   6.0187667573072978E-002
   2.9332395659929768E-002  -6.2824828457613419E-003   5.8365437335249959E-002
   2.8986810946533451E-002  -6.6720688137288722E-003   5.9132353915495220E-002
   2.8641226233137123E-002  -6.9967056961549312E-003   5.9929381038954704E-002
   2.8295641519740795E-002  -7.2563934930396159E-003   6.0756518705628454E-002
   2.7950056806344485E-002  -7.4511322043827460E-003   6.1613766915516469E-002
   2.2023273529046528E-002  -4.7123481538044465E-003   5.8663654677172959E-002
   2.1721588018064883E-002  -5.0046515583348633E-003   5.9486403071648611E-002
   2.1419902507083234E-002  -5.2472277071599280E-003   6.0366839327739327E-002
   2.1118216996101589E-002  -5.4400766002797151E-003   6.1304963445445136E-002
   2.0816531485119940E-002  -5.5831982376941119E-003   6.2300775424766031E-002
   1.4698856382569904E-002  -3.1422134618475442E-003   5.9066765497451143E-002
   1.4468647392403746E-002  -3.3372343029408509E-003   5.9930123876321066E-002
   1.4238438402237593E-002  -3.4977497181649247E-003   6.0878747435206923E-002
   1.4008229412071438E-002  -3.6237597075198143E-003   6.1912636174108616E-002
   1.3778020421905285E-002  -3.7152642710054570E-003   6.3031790093026285E-002
   7.3591442204998889E-003  -1.5720787698906384E-003   5.9574769796084469E-002
   7.2279890695500443E-003  -1.6698170475468403E-003   6.0463516329512593E-002
   7.0968339186001988E-003  -1.7482717291699354E-003   6.1465105361357422E-002
   6.9656787676503551E-003  -1.8074428147598926E-003   6.2579536891618937E-002
   6.8345236167005087E-003  -1.8473303043168125E-003   6.3806810920297261E-002
   4.1370428364856382E-006  -1.9440779337465131E-006   6.0187667573072978E-002
  -3.8695049623185818E-007  -2.3997921528295940E-006   6.1086580431223163E-002
  -4.9109438289493546E-006   1.2062598250886514E-006   6.2125913106190853E-002
  -9.4349371616677183E-006   8.8740779999752634E-006   6.3305665597976124E-002
  -1.3958930494384347E-005   2.0603662371859732E-005   6.4625837906578887E-002
   2.7950056806344485E-002  -7.4511322043827460E-003   6.1613766915516469E-002
   2.7238736703410635E-002  -7.5733419246512973E-003   6.1321492615253034E-002
   2.6527416600476767E-002  -7.6154427483121311E-003   6.1260836340586745E-002
   2.5816096497542913E-002  -7.5774346753651666E-003   6.1431798091517914E-002
   2.5104776394609063E-002  -7.4593177058103755E-003   6.1834377868046214E-002
   2.0816531485119940E-002  -5.5831982376941119E-003   6.2300775424766031E-002
   2.0323534549835594E-002  -5.6726417988598732E-003   6.2159089421264482E-002
   1.9830537614551252E-002  -5.7044564632336738E-003   6.2222431727464660E-002
   1.9337540679266907E-002  -5.6786422308155110E-003   6.2490802343366611E-002
   1.8844543743982561E-002  -5.5951991016053026E-003   6.2964201268970260E-002
   1.3778020421905285E-002  -3.7152642710054570E-003   6.3031790093026285E-002
   1.3476756938374881E-002  -3.7719416730683727E-003   6.3018212386470943E-002
   1.3175493454844475E-002  -3.7934701781551627E-003   6.3183073273721746E-002
   1.2874229971314077E-002  -3.7798497862657310E-003   6.3526372754778709E-002
   1.2572966487783672E-002  -3.7310804974001466E-003   6.4048110829641861E-002
   6.8345236167005087E-003  -1.8473303043168125E-003   6.3806810920297261E-002
   6.6984038690284771E-003  -1.8712415472769521E-003   6.3898861510872276E-002
   6.5622841213564447E-003  -1.8824838930766924E-003   6.4142760979357880E-002
   6.4261643736844157E-003  -1.8810573417160686E-003   6.4538509325754098E-002
   6.2900446260123807E-003  -1.8669618931950460E-003   6.5086106550060890E-002
  -1.3958930494384347E-005   2.0603662371859732E-005   6.4625837906578887E-002
  -1.1524658203612009E-005   2.9458578514565681E-005   6.4801036794468511E-002
  -9.0903859128379366E-006   2.8502392001819588E-005   6.5101494844373164E-002
  -6.6561136220621292E-006   1.7735102833694311E-005   6.5527212056292847E-002
  -4.2218413312915259E-006  -2.8432889898899472E-006   6.6078188430227530E-002
   2.5104776394609063E-002  -7.4593177058103755E-003   6.1834377868046214E-002
   2.4348452658341631E-002  -7.2879762421837468E-003   6.1647372886184881E-002
   2.3592128922074213E-002  -7.0902946870211314E-003   6.1629136067027579E-002
   2.2835805185806780E-002  -6.8662730403224390E-003   6.1779667410574515E-002
   2.2079481449539362E-002  -6.6159113020877736E-003   6.2098966916825649E-002
   1.8844543743982561E-002  -5.5951991016053026E-003   6.2964201268970260E-002
   1.8261439551605835E-002  -5.4729896847648257E-003   6.2793424947725288E-002
   1.7678335359229122E-002  -5.3308765894556701E-003   6.2800319551557640E-002
   1.7095231166852392E-002  -5.1688598156780178E-003   6.2984885080467165E-002
   1.6512126974475676E-002  -4.9869393634315862E-003   6.3347121534453987E-002
   1.2572966487783672E-002  -3.7310804974001466E-003   6.4048110829641861E-002
   1.2171984601670708E-002  -3.6580031273458213E-003   6.3887126755945961E-002
   1.1771002715557744E-002  -3.5714584918903197E-003   6.3912716369700376E-002
   1.1370020829444783E-002  -3.4714465910334578E-003   6.4124879670905022E-002
   1.0969038943331816E-002  -3.3579674247754265E-003   6.4523616659559982E-002
   6.2900446260123807E-003  -1.8669618931950460E-003   6.5086106550060890E-002
   6.0800878085362411E-003  -1.8430165699269002E-003   6.4928478310846735E-002
   5.8701309910601024E-003  -1.8120403943249694E-003   6.4966326521455925E-002
   5.6601741735839602E-003  -1.7740333663890506E-003   6.5199651181888391E-002
   5.4502173561078171E-003  -1.7289954861192808E-003   6.5628452292144368E-002
  -4.2218413312915259E-006  -2.8432889898899472E-006   6.6078188430227530E-002
  -1.4250827797553101E-005  -2.8030012507909707E-005   6.5917479612427637E-002
  -2.4279814263816410E-005  -5.2622296759542719E-005   6.5961150006824162E-002
  -3.4308800730082321E-005  -7.6620141744527040E-005   6.6209199613417091E-002
  -4.4337787196341294E-005  -1.0002354746313502E-004   6.6661628432206410E-002
   2.2079481449539362E-002  -6.6159113020877736E-003   6.2098966916825649E-002
   2.1144519300443587E-002  -6.3590068165436386E-003   6.1355828229162357E-002
   2.0209557151347826E-002  -6.1153569279171066E-003   6.0874815602736748E-002
   1.9274595002252058E-002  -5.8849616362080560E-003   6.0655929037548864E-002
   1.8339632853156276E-002  -5.6678209414163239E-003   6.0699168533598691E-002
   1.6512126974475676E-002  -4.9869393634315862E-003   6.3347121534453987E-002
   1.5833624635688562E-002  -4.7981055579275206E-003   6.2612917255346137E-002
   1.5155122296901444E-002  -4.6153487243765917E-003   6.2129506535617843E-002
   1.4476619958114318E-002  -4.4386688627787892E-003   6.1896889375269139E-002
   1.3798117619327206E-002  -4.2680659731342274E-003   6.1915065774299977E-002
   1.0969038943331816E-002  -3.3579674247754265E-003   6.4523616659559982E-002
   1.0535663912995232E-002  -3.2372042993112221E-003   6.3805524413971915E-002
   1.0102288882658645E-002  -3.1153405208359589E-003   6.3326893225905373E-002
   9.6689138523220561E-003  -2.9923760893496871E-003   6.3087723095360176E-002
   9.2355388219854777E-003  -2.8683110048523253E-003   6.3088014022336519E-002
   5.4502173561078171E-003  -1.7289954861192808E-003   6.5628452292144368E-002
   5.2506371323636312E-003  -1.6763030406949306E-003   6.4933649705040133E-002
   5.0510569086194487E-003  -1.6153323172953572E-003   6.4466975673599325E-002
   4.8514766848752663E-003  -1.5460833159205581E-003   6.4228430197821831E-002
   4.6518964611310725E-003  -1.4685560365702705E-003   6.4218013277707736E-002
  -4.4337787196341294E-005  -1.0002354746313502E-004   6.6661628432206410E-002
  -2.1455706206249814E-005  -1.1540178207875007E-004   6.5997293128550460E-002
   1.4263747838451357E-006  -1.1532411375482499E-004   6.5549753878699768E-002
   2.4308455773941820E-005  -9.9790542491349360E-005   6.5319010682654235E-002
   4.7190536764031565E-005  -6.8801068288382172E-005   6.5305063540413877E-002
   1.8339632853156276E-002  -5.6678209414163239E-003   6.0699168533598691E-002
   1.7708442031004787E-002  -5.4292592947793594E-003   6.1465571786079254E-002
   1.7077251208853263E-002  -5.1346011475342512E-003   6.2335422267286722E-002
   1.6446060386701756E-002  -4.7838464996812977E-003   6.3308719977221345E-002
   1.5814869564550249E-002  -4.3769953512203252E-003   6.4385464915882762E-002
   1.3798117619327206E-002  -4.2680659731342274E-003   6.1915065774299977E-002
   1.3282360172950036E-002  -4.0923573983737693E-003   6.2708584031711812E-002
   1.2766602726572870E-002  -3.9003604814279447E-003   6.3629521811945464E-002
   1.2250845280195702E-002  -3.6920752222970588E-003   6.4677879115000558E-002
   1.1735087833818547E-002  -3.4675016209809728E-003   6.5853655940877498E-002
   9.2355388219854777E-003  -2.8683110048523253E-003   6.3088014022336519E-002
   8.8591870454773451E-003  -2.7554555019681654E-003   6.3868839126256821E-002
   8.4828352689692178E-003  -2.6661198153216520E-003   6.4801056047093478E-002
   8.1064834924610869E-003  -2.6003039449127678E-003   6.5884664784846558E-002
   7.7301317159529578E-003  -2.5580078907413706E-003   6.7119665339515980E-002
   4.6518964611310725E-003  -1.4685560365702705E-003   6.4218013277707736E-002
   4.4389226485866953E-003  -1.4185536055626793E-003   6.4946337069713811E-002
   4.2259488360422998E-003  -1.4318791492154356E-003   6.5850024972730833E-002
   4.0129750234979113E-003  -1.5085326675285584E-003   6.6929076986759165E-002
   3.8000012109535210E-003  -1.6485141605017822E-003   6.8183493111798318E-002
   4.7190536764031565E-005  -6.8801068288382172E-005   6.5305063540413877E-002
   2.1566982278078961E-005  -8.1651709156971286E-005   6.5941077862082864E-002
  -4.0565722078771127E-006  -1.9763848310910825E-004   6.6776428588857600E-002
  -2.9680126693834921E-005  -4.1676139014414082E-004   6.7811115720738141E-002
  -5.5303681179785791E-005  -7.3902043026236042E-004   6.9045139257724431E-002
   1.5814869564550249E-002  -4.3769953512203252E-003   6.4385464915882762E-002
   1.4711937500701003E-002  -4.3063327935253803E-003   6.3227157783521171E-002
   1.3609005436851715E-002  -4.9641439179706620E-003   6.2546545228861855E-002
   1.2506073373002448E-002  -6.3504287245562500E-003   6.2343627251904302E-002
   1.1403141309153209E-002  -8.4651872132812667E-003   6.2618403852648941E-002
   1.1735087833818547E-002  -3.4675016209809728E-003   6.5853655940877498E-002
   1.1065419817448574E-002  -3.4262019843957492E-003   6.4170088914265788E-002
   1.0395751801078594E-002  -3.7677386194578388E-003   6.2875355404910932E-002
   9.7260837847086140E-003  -4.4921115261671168E-003   6.1969455412812416E-002
   9.0564157683386826E-003  -5.5993207045232918E-003   6.1452388937970559E-002
   7.7301317159529578E-003  -2.5580078907413706E-003   6.7119665339515980E-002
   7.4048666866168809E-003  -2.5460711752659793E-003   6.5256475829147120E-002
   7.0796016572807936E-003  -2.5713333209448561E-003   6.3693258775589234E-002
   6.7543366279447046E-003  -2.6337943277780409E-003   6.2430014178842461E-002
   6.4290715986086155E-003  -2.7334541957654279E-003   6.1466742038907340E-002
   3.8000012109535210E-003  -1.6485141605017822E-003   6.8183493111798318E-002
   3.7302781082059217E-003  -1.6659403661361677E-003   6.6486318528165042E-002
   3.6605550054583163E-003  -1.3749280224319531E-003   6.5000255340897511E-002
   3.5908319027107114E-003  -7.7547712938910284E-004   6.3725303549995532E-002
   3.5211087999631116E-003   1.3241231299249145E-004   6.2661463155459604E-002
  -5.5303681179785791E-005  -7.3902043026236042E-004   6.9045139257724431E-002
   4.1654082215687727E-005  -7.8580955700646715E-004   6.7859617011319595E-002
   1.3861184561116124E-004  -1.7852272391895296E-004   6.6796345100835125E-002
   2.3556960900663997E-004   1.0828400689999705E-003   6.5855323526271145E-002
   3.3252737240210828E-004   2.9982788217504108E-003   6.5036552287627503E-002
   2.0440706886178106E-006   0.0000000000000000        2.8443230293915080E-002
   1.4616425777205441E-006  -2.6452970574696727E-007   3.3404813142852041E-002
   8.7921446682371132E-007  -1.7395980104334408E-007   3.8374617152215129E-002
   2.9678635592752904E-007   2.7170971411173694E-007   4.3352642322004351E-002
  -2.8564175496952060E-007   1.0724788397260820E-006   4.8338888652219719E-002
  -6.7990782495873561E-003   0.0000000000000000        2.8506928250656847E-002
  -6.8310029848934334E-003   1.4639996771844115E-004   3.3542547332660412E-002
  -6.8629277201995107E-003   3.2992388488474987E-004   3.8507260639847489E-002
  -6.8948524555055863E-003   5.5057175149892442E-004   4.3401068172218060E-002
  -6.9267771908116628E-003   8.0834356756096914E-004   4.8223969929772133E-002
  -1.3505340393704563E-002   0.0000000000000000        2.8698906279904096E-002
  -1.3647734371448453E-002   2.9306446514263057E-004   3.3845330444811680E-002
  -1.3790128349192340E-002   6.6002172957054309E-004   3.8841721899660148E-002
  -1.3932522326936229E-002   1.1008717932837380E-003   4.3688080644449491E-002
  -1.4074916304680119E-002   1.6156146562822157E-003   4.8384406679179696E-002
  -2.0116742361663005E-002   0.0000000000000000        2.9019164381656824E-002
  -2.0448732517087335E-002   4.3972896256681848E-004   3.4313162479305853E-002
  -2.0780722672511673E-002   9.9011957425633457E-004   3.9378000931653147E-002
  -2.1112712827935996E-002   1.6511718350685494E-003   4.4213679738698643E-002
  -2.1444702983360337E-002   2.4228857450034622E-003   4.8820198900442417E-002
  -2.6633284153462680E-002   0.0000000000000000        2.9467702555915035E-002
  -2.7233997421810090E-002   5.8639345999100811E-004   3.4946043436142923E-002
  -2.7834710690157489E-002   1.3202174189421295E-003   4.0116097735826417E-002
  -2.8435423958504895E-002   2.2014718768533607E-003   4.4977865454965522E-002
  -2.9036137226852308E-002   3.2301568337247052E-003   4.9531346593560246E-002
  -2.8564175496952060E-007   1.0724788397260820E-006   4.8338888652219719E-002
   8.2002939289470278E-007   1.6176832395211477E-006   5.1506203476986506E-002
   1.9257005407584925E-006   1.2966585771915021E-006   5.4536771572050988E-002
   3.0313716886211980E-006   1.0940485277812807E-007   5.7430592937413150E-002
   4.1370428364856382E-006  -1.9440779337465131E-006   6.0187667573072978E-002
  -6.9267771908116628E-003   8.0834356756096914E-004   4.8223969929772133E-002
  -7.0329094999779587E-003   1.0631650943967318E-003   5.1177200560634066E-002
  -7.1390418091442547E-003   1.2749620933320382E-003   5.4052701960569979E-002
  -7.2451741183105507E-003   1.4437345643669088E-003   5.6850474129579921E-002
  -7.3513064274768457E-003   1.5694825075013366E-003   5.9570517067663822E-002
  -1.4074916304680119E-002   1.6156146562822157E-003   4.8384406679179696E-002
  -1.4229269095384248E-002   2.1247125055539424E-003   5.1081394817298405E-002
  -1.4383621886088386E-002   2.5486275280868780E-003   5.3759671223267427E-002
  -1.4537974676792513E-002   2.8873597238810254E-003   5.6419235897086813E-002
  -1.4692327467496651E-002   3.1409090929363920E-003   5.9060088838756485E-002
  -2.1444702983360337E-002   2.4228857450034622E-003   4.8820198900442417E-002
  -2.1588258756825979E-002   3.1862599167111496E-003   5.1218786246979550E-002
  -2.1731814530291622E-002   3.8222929628417279E-003   5.3657679360143345E-002
  -2.1875370303757274E-002   4.3309848833951560E-003   5.6136878239933810E-002
  -2.2018926077222920E-002   4.7123356783714473E-003   5.8656382886350902E-002
  -2.9036137226852308E-002   3.2301568337247052E-003   4.9531346593560246E-002
  -2.9109878484303141E-002   4.2478073278683689E-003   5.1589374849677502E-002
  -2.9183619741753982E-002   5.0959583975965592E-003   5.3746726371197734E-002
  -2.9257360999204826E-002   5.7746100429092746E-003   5.6003401158120913E-002
  -2.9331102256655667E-002   6.2837622638065235E-003   5.8359399210447090E-002
   4.1370428364856382E-006  -1.9440779337465131E-006   6.0187667573072978E-002
  -3.8695049623185818E-007  -2.3997921528295940E-006   6.1086580431223163E-002
  -4.9109438289493546E-006   1.2062598250886514E-006   6.2125913106190853E-002
  -9.4349371616677183E-006   8.8740779999752634E-006   6.3305665597976124E-002
  -1.3958930494384347E-005   2.0603662371859732E-005   6.4625837906578887E-002
  -7.3513064274768457E-003   1.5694825075013366E-003   5.9570517067663822E-002
  -7.2284111366494926E-003   1.6666964097010462E-003   6.0465860929564103E-002
  -7.1055158458221464E-003   1.7498667579317530E-003   6.1475623542966915E-002
  -6.9826205549947951E-003   1.8189935521934673E-003   6.2599804907872328E-002
  -6.8597252641674454E-003   1.8740767924861762E-003   6.3838405024280356E-002
  -1.4692327467496651E-002   3.1409090929363920E-003   5.9060088838756485E-002
  -1.4468013957824169E-002   3.3357926115548941E-003   5.9933758384240803E-002
  -1.4243700448151689E-002   3.4985272560384036E-003   6.0895845615912769E-002
  -1.4019386938479211E-002   3.6291130263869315E-003   6.1946350533772399E-002
  -1.3795073428806728E-002   3.7275499226004788E-003   6.3085273137819670E-002
  -2.2018926077222920E-002   4.7123356783714473E-003   5.8656382886350902E-002
  -2.1719195414020245E-002   5.0048888134087421E-003   5.9490272795253298E-002
  -2.1419464750817574E-002   5.2471877541450471E-003   6.0386579325028437E-002
  -2.1119734087614903E-002   5.4392325005804230E-003   6.1345302475676253E-002
  -2.0820003424412231E-002   5.5810230527147744E-003   6.2366442247196854E-002
  -2.9331102256655667E-002   6.2837622638065235E-003   5.8359399210447090E-002
  -2.8981955505237741E-002   6.6739850152626110E-003   5.9135404162601594E-002
  -2.8632808753819815E-002   6.9958482522517063E-003   5.9947824670313912E-002
  -2.8283662002401889E-002   7.2493519747738773E-003   6.0796660733584001E-002
  -2.7934515250983959E-002   7.4344961828290840E-003   6.1681912352411869E-002
  -1.3958930494384347E-005   2.0603662371859732E-005   6.4625837906578887E-002
  -1.1524658203612009E-005   2.9458578514565681E-005   6.4801036794468511E-002
  -9.0903859128379366E-006   2.8502392001819588E-005   6.5101494844373164E-002
  -6.6561136220621292E-006   1.7735102833694311E-005   6.5527212056292847E-002
  -4.2218413312915259E-006  -2.8432889898899472E-006   6.6078188430227530E-002
  -6.8597252641674454E-003   1.8740767924861762E-003   6.3838405024280356E-002
  -6.7188442620065925E-003   1.9083989432049225E-003   6.3918564785141629E-002
  -6.5779632598457422E-003   1.9152424687446344E-003   6.4150358843728050E-002
  -6.4370822576848858E-003   1.8946073691054532E-003   6.4533787200039591E-002
  -6.2962012555240320E-003   1.8464936442871838E-003   6.5068849854076308E-002
  -1.3795073428806728E-002   3.7275499226004788E-003   6.3085273137819670E-002
  -1.3489370561065675E-002   3.7873393078952725E-003   6.3052726249129012E-002
  -1.3183667693324620E-002   3.8019825454875325E-003   6.3198188793873650E-002
  -1.2877964825583567E-002   3.7714796353772399E-003   6.3521660772053470E-002
  -1.2572261957842508E-002   3.6958305775643546E-003   6.4023142183668641E-002
  -2.0820003424412231E-002   5.5810230527147744E-003   6.2366442247196854E-002
  -2.0323103555380858E-002   5.6662796725856397E-003   6.2203521186430751E-002
  -1.9826203686349492E-002   5.6887226222304028E-003   6.2244984694809928E-002
  -1.9329303817318108E-002   5.6483519016490126E-003   6.2490832772334540E-002
  -1.8832403948286735E-002   5.5451675108415185E-003   6.2941065419004530E-002
  -2.7934515250983959E-002   7.4344961828290840E-003   6.1681912352411869E-002
  -2.7220043244952145E-002   7.5452200372760278E-003   6.1370949597046628E-002
  -2.6505571238920334E-002   7.5754626989732489E-003   6.1290746546536941E-002
  -2.5791099232888512E-002   7.5252241679208279E-003   6.1441303200882688E-002
  -2.5076627226856697E-002   7.3945044441186270E-003   6.1822619560083975E-002
  -4.2218413312915259E-006  -2.8432889898899472E-006   6.6078188430227530E-002
  -1.4250827797553101E-005  -2.8030012507909707E-005   6.5917479612427637E-002
  -2.4279814263816410E-005  -5.2622296759542719E-005   6.5961150006824162E-002
  -3.4308800730082321E-005  -7.6620141744527040E-005   6.6209199613417091E-002
  -4.4337787196341294E-005  -1.0002354746313502E-004   6.6661628432206410E-002
  -6.2962012555240320E-003   1.8464936442871838E-003   6.5068849854076308E-002
  -6.1047150418569876E-003   1.7845393912599983E-003   6.4921391740101281E-002
  -5.9132288281899372E-003   1.7223827069937220E-003   6.4972584814196488E-002
  -5.7217426145228893E-003   1.6600235914882751E-003   6.5222429076361901E-002
  -5.5302564008558423E-003   1.5974620447438692E-003   6.5670924526597590E-002
  -1.2572261957842508E-002   3.6958305775643546E-003   6.4023142183668641E-002
  -1.2184988568168343E-002   3.5971087950279132E-003   6.3888137903012912E-002
  -1.1797715178494190E-002   3.4973877107468514E-003   6.3946056786301247E-002
  -1.1410441788820034E-002   3.3966673247211891E-003   6.4196898833533633E-002
  -1.1023168399145872E-002   3.2949476369509012E-003   6.4640664044709875E-002
  -1.8832403948286735E-002   5.5451675108415185E-003   6.2941065419004530E-002
  -1.8255071406731653E-002   5.4096781987958663E-003   6.2817718101162628E-002
  -1.7677738865176571E-002   5.2723927145000207E-003   6.2881565923138524E-002
  -1.7100406323621493E-002   5.1333110579541031E-003   6.3132608884932245E-002
  -1.6523073782066414E-002   4.9924332291579193E-003   6.3570846986543722E-002
  -2.5076627226856697E-002   7.3945044441186270E-003   6.1822619560083975E-002
  -2.4314963557546889E-002   7.2222476025637222E-003   6.1710132334550249E-002
  -2.3553299888237088E-002   7.0473977182531969E-003   6.1779112224708208E-002
  -2.2791636218927297E-002   6.8699547911868792E-003   6.2029559230557800E-002
  -2.2029972549617485E-002   6.6899188213649374E-003   6.2461473352099006E-002
  -4.4337787196341294E-005  -1.0002354746313502E-004   6.6661628432206410E-002
  -2.1455706206249814E-005  -1.1540178207875007E-004   6.5997293128550460E-002
   1.4263747838451357E-006  -1.1532411375482499E-004   6.5549753878699768E-002
   2.4308455773941820E-005  -9.9790542491349360E-005   6.5319010682654235E-002
   4.7190536764031565E-005  -6.8801068288382172E-005   6.5305063540413877E-002
  -5.5302564008558423E-003   1.5974620447438692E-003   6.5670924526597590E-002
  -5.2887097295852585E-003   1.5354959206254487E-003   6.5009888964501647E-002
  -5.0471630583146816E-003   1.4749230729979718E-003   6.4569386529161416E-002
  -4.8056163870441055E-003   1.4157435018617472E-003   6.4349417220577049E-002
  -4.5640697157735208E-003   1.3579572072160984E-003   6.4349981038748338E-002
  -1.1023168399145872E-002   3.2949476369509012E-003   6.4640664044709875E-002
  -1.0559220064644267E-002   3.1863936233294810E-003   6.3968865597725480E-002
  -1.0095271730142658E-002   3.0651702597507754E-003   6.3521337350447349E-002
  -9.6313233956410536E-003   2.9312775462144013E-003   6.3298079302875607E-002
  -9.1673750611394496E-003   2.7847154827206066E-003   6.3299091455010031E-002
  -1.6523073782066414E-002   4.9924332291579193E-003   6.3570846986543722E-002
  -1.5832986711383244E-002   4.8372913260336520E-003   6.2874223028222376E-002
  -1.5142899640700076E-002   4.6554174465035202E-003   6.2405606342557776E-002
  -1.4452812570016913E-002   4.4468115905672212E-003   6.2164996929550013E-002
  -1.3762725499333753E-002   4.2114737582251566E-003   6.2152394789199081E-002
  -2.2029972549617485E-002   6.6899188213649374E-003   6.2461473352099006E-002
  -2.1110009669802220E-002   6.4881890287376565E-003   6.1725961255992084E-002
  -2.0190046789986951E-002   6.2456646332563481E-003   6.1222193505492517E-002
  -1.9270083910171681E-002   5.9623456349200341E-003   6.0950170100600387E-002
  -1.8350121030356416E-002   5.6382320337295400E-003   6.0909891041315611E-002
   4.7190536764031565E-005  -6.8801068288382172E-005   6.5305063540413877E-002
   2.1566982278078961E-005  -8.1651709156971286E-005   6.5941077862082864E-002
  -4.0565722078771127E-006  -1.9763848310910825E-004   6.6776428588857600E-002
  -2.9680126693834921E-005  -4.1676139014414082E-004   6.7811115720738141E-002
  -5.5303681179785791E-005  -7.3902043026236042E-004   6.9045139257724431E-002
  -4.5640697157735208E-003   1.3579572072160984E-003   6.4349981038748338E-002
  -4.3992391925718587E-003   1.2753692965409569E-003   6.4908001619353811E-002
  -4.2344086693701828E-003   1.1417848773148248E-003   6.5647593950228705E-002
  -4.0695781461685147E-003   9.5720394953801094E-004   6.6568758031373201E-002
  -3.9047476229668449E-003   7.2162651321044935E-004   6.7671493862786980E-002
  -9.1673750611394496E-003   2.7847154827206066E-003   6.3299091455010031E-002
  -8.8298551150864726E-003   2.6323903022389961E-003   6.3831257919084353E-002
  -8.4923351690334905E-003   2.4812082377387579E-003   6.4527231478591990E-002
  -8.1548152229805031E-003   2.3311692892203292E-003   6.5387012133532721E-002
  -7.8172952769275245E-003   2.1822734566833424E-003   6.6410599883906477E-002
  -1.3762725499333753E-002   4.2114737582251566E-003   6.2152394789199081E-002
  -1.3270280785265775E-002   3.9894113079370075E-003   6.2710846761274752E-002
  -1.2777836071197791E-002   3.8206315981627464E-003   6.3415341173947287E-002
  -1.2285391357129822E-002   3.7051346289023977E-003   6.4265878027216478E-002
  -1.1792946643061851E-002   3.6429204001561938E-003   6.5262457321082684E-002
  -1.8350121030356416E-002   5.6382320337295400E-003   6.0909891041315611E-002
  -1.7720516203109757E-002   5.3464323136350189E-003   6.1546768145924913E-002
  -1.7090911375863094E-002   5.1600549585866518E-003   6.2311923036294653E-002
  -1.6461306548616432E-002   5.0790999685848062E-003   6.3205355712425026E-002
  -1.5831701721369773E-002   5.1035673436291007E-003   6.4227066174315783E-002
  -5.5303681179785791E-005  -7.3902043026236042E-004   6.9045139257724431E-002
   4.1654082215687727E-005  -7.8580955700646715E-004   6.7859617011319595E-002
   1.3861184561116124E-004  -1.7852272391895296E-004   6.6796345100835125E-002
   2.3556960900663997E-004   1.0828400689999705E-003   6.5855323526271145E-002
   3.3252737240210828E-004   2.9982788217504108E-003   6.5036552287627503E-002
  -3.9047476229668449E-003   7.2162651321044935E-004   6.7671493862786980E-002
  -3.6569388186320044E-003   6.4473971928044604E-004   6.6962695485816098E-002
  -3.4091300142971570E-003   9.3623071869571028E-004   6.6433348854803564E-002
  -3.1613212099623105E-003   1.5960995114567729E-003   6.6083453969749462E-002
  -2.9135124056274830E-003   2.6243460975634569E-003   6.5913010830653596E-002
  -7.8172952769275245E-003   2.1822734566833424E-003   6.6410599883906477E-002
  -7.3614340216153294E-003   2.0752889955671372E-003   6.5892827209883556E-002
  -6.9055727663031238E-003   2.0509841613104915E-003   6.5611707691856980E-002
  -6.4497115109909218E-003   2.1093589539136325E-003   6.5567241329826886E-002
  -5.9938502556787232E-003   2.2504133733763920E-003   6.5759428123792929E-002
  -1.1792946643061851E-002   3.6429204001561938E-003   6.5262457321082684E-002
  -1.1071831526734299E-002   3.5058382718538283E-003   6.4650012183521857E-002
  -1.0350716410406753E-002   3.1657376039252692E-003   6.4331421611995454E-002
  -9.6296012940792035E-003   2.6226183963704080E-003   6.4306685606503378E-002
  -8.9084861777516677E-003   1.8764806491893271E-003   6.4575804167045434E-002
  -1.5831701721369773E-002   5.1035673436291007E-003   6.4227066174315783E-002
  -1.4788131333988899E-002   4.9363875481405750E-003   6.3234250406731141E-002
  -1.3744560946608017E-002   4.2804910465399498E-003   6.2592490615218904E-002
  -1.2700990559227136E-002   3.1358778388272147E-003   6.2301786799778922E-002
  -1.1657420171846261E-002   1.5025479250023732E-003   6.2362138960411428E-002
  -2.6633284153462680E-002   0.0000000000000000        2.9467702555915035E-002
  -2.7233997421810090E-002   5.8639345999100811E-004   3.4946043436142923E-002
  -2.7834710690157489E-002   1.3202174189421295E-003   4.0116097735826417E-002
  -2.8435423958504895E-002   2.2014718768533607E-003   4.4977865454965522E-002
  -2.9036137226852308E-002   3.2301568337247052E-003   4.9531346593560246E-002
  -3.3392561415517587E-002   0.0000000000000000        3.0178578688427399E-002
  -3.4236306499769012E-002   9.6060026495639432E-004   3.5267084676549099E-002
  -3.5080051584020430E-002   2.0242529507980382E-003   4.0177813613407165E-002
  -3.5923796668271848E-002   3.1909580575249256E-003   4.4910765499001581E-002
  -3.6767541752523281E-002   4.4607155851370522E-003   4.9465940333332369E-002
  -4.0732169794241734E-002   0.0000000000000000        3.1285850664942577E-002
  -4.1688437165116422E-002   1.3348070699217805E-003   3.5940143682883237E-002
  -4.2644704535991104E-002   2.7282884826539417E-003   4.0547169178840999E-002
  -4.3600971906865800E-002   4.1804442381964801E-003   4.5106927152815876E-002
  -4.4557239277740489E-002   5.6912743365494026E-003   4.9619417604807863E-002
  -4.8652109289635100E-002   0.0000000000000000        3.2789518485460578E-002
  -4.9590389417852314E-002   1.7090138748871676E-003   3.6965220455145324E-002
  -5.0528669546069528E-002   3.4323240145098456E-003   4.1224164432127931E-002
  -5.1466949674286729E-002   5.1699304188680449E-003   4.5566350416408385E-002
  -5.2405229802503936E-002   6.9218330879617512E-003   4.9991778407986701E-002
  -5.7152379901697720E-002   0.0000000000000000        3.4689582149981399E-002
  -5.7942163257976700E-002   2.0832206798525529E-003   3.8342314993335368E-002
  -5.8731946614255674E-002   4.1363595463657539E-003   4.2208799373267943E-002
  -5.9521729970534655E-002   6.1594165995395994E-003   4.6289035289779103E-002
  -6.0311513326813629E-002   8.1523918393740999E-003   5.0583022742868897E-002
  -2.9036137226852308E-002   3.2301568337247052E-003   4.9531346593560246E-002
  -2.9109878484303141E-002   4.2478073278683689E-003   5.1589374849677502E-002
  -2.9183619741753982E-002   5.0959583975965592E-003   5.3746726371197734E-002
  -2.9257360999204826E-002   5.7746100429092746E-003   5.6003401158120913E-002
  -2.9331102256655667E-002   6.2837622638065235E-003   5.8359399210447090E-002
  -3.6767541752523281E-002   4.4607155851370522E-003   4.9465940333332369E-002
  -3.6780941172720530E-002   5.6939409217557713E-003   5.1253886048110243E-002
  -3.6794340592917779E-002   6.7510494555024017E-003   5.3063192171992318E-002
  -3.6807740013115021E-002   7.6320411863769842E-003   5.4893858704978593E-002
  -3.6821139433312285E-002   8.3369161143794848E-003   5.6745885647069096E-002
  -4.4557239277740489E-002   5.6912743365494026E-003   4.9619417604807863E-002
  -4.4588259716982916E-002   7.1400745156431659E-003   5.1130663399789722E-002
  -4.4619280156225342E-002   8.4061405134082633E-003   5.2585306747577054E-002
  -4.4650300595467769E-002   9.4894723298446938E-003   5.3983347648169797E-002
  -4.4681321034710189E-002   1.0390069964952422E-002   5.5324786101568005E-002
  -5.2405229802503936E-002   6.9218330879617512E-003   4.9991778407986701E-002
  -5.2531834117090302E-002   8.5862081095305822E-003   5.1219706904715973E-002
  -5.2658438431676668E-002   1.0061231571314130E-002   5.2313070097951921E-002
  -5.2785042746263014E-002   1.1346903473312381E-002   5.3271867987694552E-002
  -5.2911647060849387E-002   1.2443223815525392E-002   5.4096100573943894E-002
  -6.0311513326813629E-002   8.1523918393740999E-003   5.0583022742868897E-002
  -6.0611664373042690E-002   1.0032341703417970E-002   5.1521016562888960E-002
  -6.0911815419271743E-002   1.1716322629219973E-002   5.2246482223116945E-002
  -6.1211966465500818E-002   1.3204334616780111E-002   5.2759419723552858E-002
  -6.1512117511729865E-002   1.4496377666098313E-002   5.3059829064196685E-002
  -2.9331102256655667E-002   6.2837622638065235E-003   5.8359399210447090E-002
  -2.8981955505237741E-002   6.6739850152626110E-003   5.9135404162601594E-002
  -2.8632808753819815E-002   6.9958482522517063E-003   5.9947824670313912E-002
  -2.8283662002401889E-002   7.2493519747738773E-003   6.0796660733584001E-002
  -2.7934515250983959E-002   7.4344961828290840E-003   6.1681912352411869E-002
  -3.6821139433312285E-002   8.3369161143794848E-003   5.6745885647069096E-002
  -3.6383743769042527E-002   8.8800243839763544E-003   5.7095691517573335E-002
  -3.5946348104772763E-002   9.2757161396341391E-003   5.7585579658223474E-002
  -3.5508952440502992E-002   9.5239913813527435E-003   5.8215550069019510E-002
  -3.5071556776233234E-002   9.6248501091322908E-003   5.8985602749961404E-002
  -4.4681321034710189E-002   1.0390069964952422E-002   5.5324786101568005E-002
  -4.4052009743000484E-002   1.1086063752690164E-002   5.5169335890949814E-002
  -4.3422698451290785E-002   1.1555584027016598E-002   5.5257634665065600E-002
  -4.2793387159581080E-002   1.1798630787931691E-002   5.5589682423915349E-002
  -4.2164075867871381E-002   1.1815204035435477E-002   5.6165479167499130E-002
  -5.2911647060849387E-002   1.2443223815525392E-002   5.4096100573943894E-002
  -5.1986753427111648E-002   1.3292103121403947E-002   5.3356337282731016E-002
  -5.1061859793373895E-002   1.3835451914399024E-002   5.2963989690840242E-002
  -5.0136966159636136E-002   1.4073270194510627E-002   5.2919057798271600E-002
  -4.9212072525898383E-002   1.4005557961738673E-002   5.3221541605025013E-002
  -6.1512117511729865E-002   1.4496377666098313E-002   5.3059829064196685E-002
  -6.0187974821375979E-002   1.5498142490117727E-002   5.1656695692916997E-002
  -5.8863832131022073E-002   1.6115319801781491E-002   5.0704644735547477E-002
  -5.7539689440668174E-002   1.6347909601089512E-002   5.0203676192088237E-002
  -5.6215546750314274E-002   1.6195911888041856E-002   5.0153790062539103E-002
  -2.7934515250983959E-002   7.4344961828290840E-003   6.1681912352411869E-002
  -2.7220043244952145E-002   7.5452200372760278E-003   6.1370949597046628E-002
  -2.6505571238920334E-002   7.5754626989732489E-003   6.1290746546536941E-002
  -2.5791099232888512E-002   7.5252241679208279E-003   6.1441303200882688E-002
  -2.5076627226856697E-002   7.3945044441186270E-003   6.1822619560083975E-002
  -3.5071556776233234E-002   9.6248501091322908E-003   5.8985602749961404E-002
  -3.4135236892549513E-002   9.6223069419798940E-003   5.8640316366666514E-002
  -3.3198917008865778E-002   9.5603764989026681E-003   5.8507966033819900E-002
  -3.2262597125182042E-002   9.4390587799007102E-003   5.8588551751421671E-002
  -3.1326277241498321E-002   9.2583537849739161E-003   5.8882073519471709E-002
  -4.2164075867871381E-002   1.1815204035435477E-002   5.6165479167499130E-002
  -4.1023731760942900E-002   1.1699393846683694E-002   5.5806963073099458E-002
  -3.9883387654014425E-002   1.1545290298832002E-002   5.5643559374740914E-002
  -3.8743043547085937E-002   1.1352893391880524E-002   5.5675268072423512E-002
  -3.7602699440157469E-002   1.1122203125829136E-002   5.5902089166147341E-002
  -4.9212072525898383E-002   1.4005557961738673E-002   5.3221541605025013E-002
  -4.7885527850132358E-002   1.3776480751387528E-002   5.2870889716345508E-002
  -4.6558983174366304E-002   1.3530204098761350E-002   5.2697526569299914E-002
  -4.5232438498600251E-002   1.3266728003860386E-002   5.2701452163888399E-002
  -4.3905893822834205E-002   1.2986052466684363E-002   5.2882666500110753E-002
  -5.6215546750314274E-002   1.6195911888041856E-002   5.0153790062539103E-002
  -5.4720625160117831E-002   1.5853567656091382E-002   4.9832096296404629E-002
  -5.3225703569921373E-002   1.5515117898690752E-002   4.9669867617496956E-002
  -5.1730781979724930E-002   1.5180562615840248E-002   4.9667104025816089E-002
  -5.0235860389528486E-002   1.4849901807539645E-002   4.9823805521362063E-002
  -2.5076627226856697E-002   7.3945044441186270E-003   6.1822619560083975E-002
  -2.4314963557546889E-002   7.2222476025637222E-003   6.1710132334550249E-002
  -2.3553299888237088E-002   7.0473977182531969E-003   6.1779112224708208E-002
  -2.2791636218927297E-002   6.8699547911868792E-003   6.2029559230557800E-002
  -2.2029972549617485E-002   6.6899188213649374E-003   6.2461473352099006E-002
  -3.1326277241498321E-002   9.2583537849739161E-003   5.8882073519471709E-002
  -3.0379182628971872E-002   9.0379143354913788E-003   5.8735440599474234E-002
  -2.9432088016445444E-002   8.7973932528222845E-003   5.8778202450218427E-002
  -2.8484993403919016E-002   8.5367905369662465E-003   5.9010359071704210E-002
  -2.7537898791392589E-002   8.2561061879237452E-003   5.9431910463931592E-002
  -3.7602699440157469E-002   1.1122203125829136E-002   5.5902089166147341E-002
  -3.6462246229364434E-002   1.0853581068418959E-002   5.5703821961255180E-002
  -3.5321793018571371E-002   1.0547388787391174E-002   5.5702877182154539E-002
  -3.4181339807778308E-002   1.0203626282745612E-002   5.5899254828845571E-002
  -3.3040886596985265E-002   9.8222935544824974E-003   5.6292954901328310E-002
  -4.3905893822834205E-002   1.2986052466684363E-002   5.2882666500110753E-002
  -4.2564154358724522E-002   1.2669247801346605E-002   5.2615276419892817E-002
  -4.1222414894614826E-002   1.2297384321960163E-002   5.2553136420516545E-002
  -3.9880675430505164E-002   1.1870462028525063E-002   5.2696246501981826E-002
  -3.8538935966395460E-002   1.1388480921041305E-002   5.3044606664288778E-002
  -5.0235860389528486E-002   1.4849901807539645E-002   4.9823805521362063E-002
  -4.8684907017052172E-002   1.4484914534274182E-002   4.9469803975387444E-002
  -4.7133953644575857E-002   1.4047379856529194E-002   4.9328980165304404E-002
  -4.5583000272099543E-002   1.3537297774304357E-002   4.9401334091113108E-002
  -4.4032046899623228E-002   1.2954668287600113E-002   4.9686865752813281E-002
  -2.2029972549617485E-002   6.6899188213649374E-003   6.2461473352099006E-002
  -2.1110009669802220E-002   6.4881890287376565E-003   6.1725961255992084E-002
  -2.0190046789986951E-002   6.2456646332563481E-003   6.1222193505492517E-002
  -1.9270083910171681E-002   5.9623456349200341E-003   6.0950170100600387E-002
  -1.8350121030356416E-002   5.6382320337295400E-003   6.0909891041315611E-002
  -2.7537898791392589E-002   8.2561061879237452E-003   5.9431910463931592E-002
  -2.6388010737158511E-002   7.9578674487249951E-003   5.8671606757828662E-002
  -2.5238122682924403E-002   7.6446015624007449E-003   5.8139409054955987E-002
  -2.4088234628690308E-002   7.3163085289508992E-003   5.7835317355313484E-002
  -2.2938346574456214E-002   6.9729883483756194E-003   5.7759331658901458E-002
  -3.3040886596985265E-002   9.8222935544824974E-003   5.6292954901328310E-002
  -3.1664711710709448E-002   9.4275458687121116E-003   5.5533627040958121E-002
  -3.0288536824433575E-002   9.0435384915452527E-003   5.4998766841441088E-002
  -2.8912361938157716E-002   8.6702714229815979E-003   5.4688374302777364E-002
  -2.7536187051881884E-002   8.3077446630214491E-003   5.4602449424966670E-002
  -3.8538935966395460E-002   1.1388480921041305E-002   5.3044606664288778E-002
  -3.6940112590454953E-002   1.0897224288699367E-002   5.2312022105380419E-002
  -3.5341289214514460E-002   1.0442475420689816E-002   5.1800266864948138E-002
  -3.3742465838573960E-002   1.0024234317012435E-002   5.1509340942991928E-002
  -3.2143642462633466E-002   9.6425009776673759E-003   5.1439244339511921E-002
  -4.4032046899623228E-002   1.2954668287600113E-002   4.9686865752813281E-002
  -4.2214213376395152E-002   1.2366902708686567E-002   4.9006791951095585E-002
  -4.0396379853167061E-002   1.1841412349834199E-002   4.8543909125476875E-002
  -3.8578546329938956E-002   1.1378197211043200E-002   4.8298217275957137E-002
  -3.6760712806710893E-002   1.0977257292313303E-002   4.8269716402536522E-002
  -1.8350121030356416E-002   5.6382320337295400E-003   6.0909891041315611E-002
  -1.7720516203109757E-002   5.3464323136350189E-003   6.1546768145924913E-002
  -1.7090911375863094E-002   5.1600549585866518E-003   6.2311923036294653E-002
  -1.6461306548616432E-002   5.0790999685848062E-003   6.3205355712425026E-002
  -1.5831701721369773E-002   5.1035673436291007E-003   6.4227066174315783E-002
  -2.2938346574456214E-002   6.9729883483756194E-003   5.7759331658901458E-002
  -2.2179382689805072E-002   6.6437543708381674E-003   5.8461986060952847E-002
  -2.1420418805153919E-002   6.3577199465029433E-003   5.9295080792052757E-002
  -2.0661454920502774E-002   6.1148850753695375E-003   6.0258615852201089E-002
  -1.9902491035851622E-002   5.9152497574377905E-003   6.1352591241397914E-002
  -2.7536187051881884E-002   8.3077446630214491E-003   5.4602449424966670E-002
  -2.6645701566538321E-002   7.9410764280415658E-003   5.5308658312615930E-002
  -2.5755216081194732E-002   7.5553849344192209E-003   5.6147470072601471E-002
  -2.4864730595851169E-002   7.1506701821540987E-003   5.7118884704923358E-002
  -2.3974245110507584E-002   6.7269321712463415E-003   5.8222902209581720E-002
  -3.2143642462633466E-002   9.6425009776673759E-003   5.1439244339511921E-002
  -3.1119472833309521E-002   9.2383984852448670E-003   5.2086784900914208E-002
  -3.0095303203985620E-002   8.7530499223353389E-003   5.2869090877940852E-002
  -2.9071133574661678E-002   8.1864552889388559E-003   5.3786162270591784E-002
  -2.8046963945337774E-002   7.5386145850549063E-003   5.4837999078867050E-002
  -3.6760712806710893E-002   1.0977257292313303E-002   4.8269716402536522E-002
  -3.5600696490118711E-002   1.0535720542448168E-002   4.8796365825847510E-002
  -3.4440680173526500E-002   9.9507149102517622E-003   4.9459943208070928E-002
  -3.3280663856934282E-002   9.2222403957234952E-003   5.0260448549206416E-002
  -3.2120647540342107E-002   8.3502969988635267E-003   5.1197881849254279E-002
  -1.5831701721369773E-002   5.1035673436291007E-003   6.4227066174315783E-002
  -1.4788131333988899E-002   4.9363875481405750E-003   6.3234250406731141E-002
  -1.3744560946608017E-002   4.2804910465399498E-003   6.2592490615218904E-002
  -1.2700990559227136E-002   3.1358778388272147E-003   6.2301786799778922E-002
  -1.1657420171846261E-002   1.5025479250023732E-003   6.2362138960411428E-002
  -1.9902491035851622E-002   5.9152497574377905E-003   6.1352591241397914E-002
  -1.8524793418834291E-002   5.6009901421066322E-003   5.9961299540146840E-002
  -1.7147095801816996E-002   5.0142823787749785E-003   5.8887206322096097E-002
  -1.5769398184799728E-002   4.1551264674426734E-003   5.8130311587245895E-002
  -1.4391700567782370E-002   3.0235224081096579E-003   5.7690615335596385E-002
  -2.3974245110507584E-002   6.7269321712463415E-003   5.8222902209581720E-002
  -2.2296277756725710E-002   6.2655927360726615E-003   5.6649403132775514E-002
  -2.0618310402943762E-002   5.7480737110099447E-003   5.5359245046298113E-002
  -1.8940343049161822E-002   5.1743750960579638E-003   5.4352427950149593E-002
  -1.7262375695379938E-002   4.5444968912169426E-003   5.3628951844329420E-002
  -2.8046963945337774E-002   7.5386145850549063E-003   5.4837999078867050E-002
  -2.6102584347663004E-002   6.9301953300388158E-003   5.3298561184617579E-002
  -2.4158204749988279E-002   6.4818650432448867E-003   5.2008606787824832E-002
  -2.2213825152313574E-002   6.1936237246734494E-003   5.0968135888489176E-002
  -2.0269445554638783E-002   6.0654713743242272E-003   5.0177148486610118E-002
  -3.2120647540342107E-002   8.3502969988635267E-003   5.1197881849254279E-002
  -2.9943713191646390E-002   7.5947979240048591E-003   4.9908773695672592E-002
  -2.7766778842950632E-002   7.2156563754798425E-003   4.8835291546676290E-002
  -2.5589844494254901E-002   7.2128723532887441E-003   4.7977435402264776E-002
  -2.3412910145559129E-002   7.5864458574315119E-003   4.7335205262438729E-002
  -5.7152379901697720E-002   0.0000000000000000        3.4689582149981399E-002
  -5.7942163257976700E-002   2.0832206798525529E-003   3.8342314993335368E-002
  -5.8731946614255674E-002   4.1363595463657539E-003   4.2208799373267943E-002
  -5.9521729970534655E-002   6.1594165995395994E-003   4.6289035289779103E-002
  -6.0311513326813629E-002   8.1523918393740999E-003   5.0583022742868897E-002
  -6.5820895199860854E-002   0.0000000000000000        3.7209926926730405E-002
  -6.6626007585409416E-002   2.9138102774913062E-003   4.0833762352550228E-002
  -6.7431119970957965E-002   5.7703851760136787E-003   4.4213188183252289E-002
  -6.8236232356506527E-002   8.5697246955671116E-003   4.7348204418836581E-002
  -6.9041344742055075E-002   1.1311828836151606E-002   5.0238811059303105E-002
  -7.4245568753555799E-002   0.0000000000000000        4.0574438083932948E-002
  -7.5524171300070317E-002   3.7443998751300594E-003   4.4142222526589038E-002
  -7.6802773846584821E-002   7.4044108056616010E-003   4.7007436242431019E-002
  -7.8081376393099325E-002   1.0980032791594619E-002   4.9170079231458844E-002
  -7.9359978939613815E-002   1.4471265832929115E-002   5.0630151493672539E-002
  -8.2426400562782554E-002   0.0000000000000000        4.4783115621589049E-002
  -8.4636654401959388E-002   4.5749894727688152E-003   4.8267695515451840E-002
  -8.6846908241136223E-002   9.0384364353095249E-003   5.0591543550804113E-002
  -8.9057162080313043E-002   1.3390340887622129E-002   5.1754659727645896E-002
  -9.1267415919489864E-002   1.7630702829706624E-002   5.1757044045977169E-002
  -9.0363390627541146E-002   0.0000000000000000        4.9835959539698688E-002
  -9.3963456891076658E-002   5.4055790704075658E-003   5.3210181319138572E-002
  -9.7563523154612170E-002   1.0672462064957448E-002   5.4965510108371585E-002
 -0.10116358941814767        1.5800648983649634E-002   5.5101945907397754E-002
 -0.10476365568168319        2.0790139826484130E-002   5.3619488716217016E-002
  -6.0311513326813629E-002   8.1523918393740999E-003   5.0583022742868897E-002
  -6.0611664373042690E-002   1.0032341703417970E-002   5.1521016562888960E-002
  -6.0911815419271743E-002   1.1716322629219973E-002   5.2246482223116945E-002
  -6.1211966465500818E-002   1.3204334616780111E-002   5.2759419723552858E-002
  -6.1512117511729865E-002   1.4496377666098313E-002   5.3059829064196685E-002
  -6.9041344742055075E-002   1.1311828836151606E-002   5.0238811059303105E-002
  -6.9316238210383227E-002   1.3756677929064326E-002   4.9459166007390649E-002
  -6.9591131678711352E-002   1.5664252305602460E-002   4.8942564271072117E-002
  -6.9866025147039490E-002   1.7034551965765962E-002   4.8689005850347522E-002
  -7.0140918615367601E-002   1.7867576909554865E-002   4.8698490745216830E-002
  -7.9359978939613815E-002   1.4471265832929115E-002   5.0630151493672539E-002
  -7.9134043354655029E-002   1.7481014154710688E-002   4.7791561791694810E-002
  -7.8908107769696242E-002   1.9612181981984937E-002   4.5691586880697042E-002
  -7.8682172184737442E-002   2.0864769314751841E-002   4.4330226760679194E-002
  -7.8456236599778642E-002   2.1238776153011420E-002   4.3707481431641299E-002
  -9.1267415919489864E-002   1.7630702829706624E-002   5.1757044045977169E-002
  -9.0065079805858150E-002   2.1205350380357042E-002   4.6518203915801450E-002
  -8.8862743692226367E-002   2.3560111658367407E-002   4.2493550051991721E-002
  -8.7660407578594654E-002   2.4694986663737699E-002   3.9683082454547915E-002
  -8.6458071464962885E-002   2.4609975396467962E-002   3.8086801123470036E-002
 -0.10476365568168319        2.0790139826484130E-002   5.3619488716217016E-002
 -0.10210934756399249        2.4929686606003400E-002   4.5639092379710616E-002
  -9.9455039446301810E-002   2.7508041334749905E-002   3.9348453784956147E-002
  -9.6800731328611125E-002   2.8525204012723581E-002   3.4747572931953678E-002
  -9.4146423210920427E-002   2.7981174639924521E-002   3.1836449820703112E-002
  -6.1512117511729865E-002   1.4496377666098313E-002   5.3059829064196685E-002
  -6.0187974821375979E-002   1.5498142490117727E-002   5.1656695692916997E-002
  -5.8863832131022073E-002   1.6115319801781491E-002   5.0704644735547477E-002
  -5.7539689440668174E-002   1.6347909601089512E-002   5.0203676192088237E-002
  -5.6215546750314274E-002   1.6195911888041856E-002   5.0153790062539103E-002
  -7.0140918615367601E-002   1.7867576909554865E-002   4.8698490745216830E-002
  -6.8412025905977281E-002   1.8321274309578986E-002   4.7259524156534782E-002
  -6.6683133196586947E-002   1.8553591338448173E-002   4.6178975192015435E-002
  -6.4954240487196641E-002   1.8564527996162317E-002   4.5456843851658733E-002
  -6.3225347777806307E-002   1.8354084282721575E-002   4.5093130135464725E-002
  -7.8456236599778642E-002   2.1238776153011420E-002   4.3707481431641299E-002
  -7.6415258661099411E-002   2.1144406129040207E-002   4.2395888766757629E-002
  -7.4374280722420139E-002   2.0991862875114814E-002   4.1350048936289116E-002
  -7.2333302783740880E-002   2.0781146391235187E-002   4.0569961940235807E-002
  -7.0292324845061621E-002   2.0512256677401357E-002   4.0055627778597558E-002
  -8.6458071464962885E-002   2.4609975396467962E-002   3.8086801123470036E-002
  -8.4197673086742267E-002   2.3967537948501458E-002   3.7065789523585559E-002
  -8.1937274708521635E-002   2.3430134411781461E-002   3.6217865968368679E-002
  -7.9676876330301016E-002   2.2997764786308040E-002   3.5543030457819369E-002
  -7.7416477952080370E-002   2.2670429072081121E-002   3.5041282991937817E-002
  -9.4146423210920427E-002   2.7981174639924521E-002   3.1836449820703112E-002
  -9.1759269182905945E-002   2.6790669767962679E-002   3.1269226427018529E-002
  -8.9372115154891435E-002   2.5868405948448102E-002   3.0782426288253995E-002
  -8.6984961126876925E-002   2.5214383181380841E-002   3.0376049404409515E-002
  -8.4597807098862429E-002   2.4828601466760844E-002   3.0050095775485217E-002
  -5.6215546750314274E-002   1.6195911888041856E-002   5.0153790062539103E-002
  -5.4720625160117831E-002   1.5853567656091382E-002   4.9832096296404629E-002
  -5.3225703569921373E-002   1.5515117898690752E-002   4.9669867617496956E-002
  -5.1730781979724930E-002   1.5180562615840248E-002   4.9667104025816089E-002
  -5.0235860389528486E-002   1.4849901807539645E-002   4.9823805521362063E-002
  -6.3225347777806307E-002   1.8354084282721575E-002   4.5093130135464725E-002
  -6.1554510575162938E-002   1.8016838008973510E-002   4.4716545717332051E-002
  -5.9883673372519583E-002   1.7647366985765574E-002   4.4532327436866401E-002
  -5.8212836169876221E-002   1.7245671213098022E-002   4.4540475294067711E-002
  -5.6541998967232866E-002   1.6811750690970628E-002   4.4740989288935981E-002
  -7.0292324845061621E-002   2.0512256677401357E-002   4.0055627778597558E-002
  -6.8412670979531215E-002   2.0180108361855669E-002   3.9588033484456983E-002
  -6.6533017114000767E-002   1.9779616072840456E-002   3.9345706378423627E-002
  -6.4653363248470375E-002   1.9310779810355769E-002   3.9328646460497357E-002
  -6.2773709382939913E-002   1.8773599574401556E-002   3.9536853730678292E-002
  -7.7416477952080370E-002   2.2670429072081121E-002   3.5041282991937817E-002
  -7.5295106373222717E-002   2.2343378714737815E-002   3.4446559597779605E-002
  -7.3173734794365022E-002   2.1911865159915334E-002   3.4110004442168648E-002
  -7.1052363215507383E-002   2.1375888407613571E-002   3.4031617525105105E-002
  -6.8930991636649688E-002   2.0735448457832512E-002   3.4211398846588859E-002
  -8.4597807098862429E-002   2.4828601466760844E-002   3.0050095775485217E-002
  -8.2201816756237361E-002   2.4506649067619971E-002   2.9292124057299654E-002
  -7.9805826413612307E-002   2.4044114246990139E-002   2.8825221628101506E-002
  -7.7409836070987240E-002   2.3440997004871286E-002   2.8649388487890882E-002
  -7.5013845728362144E-002   2.2697297341263467E-002   2.8764624636667763E-002
  -5.0235860389528486E-002   1.4849901807539645E-002   4.9823805521362063E-002
  -4.8684907017052172E-002   1.4484914534274182E-002   4.9469803975387444E-002
  -4.7133953644575857E-002   1.4047379856529194E-002   4.9328980165304404E-002
  -4.5583000272099543E-002   1.3537297774304357E-002   4.9401334091113108E-002
  -4.4032046899623228E-002   1.2954668287600113E-002   4.9686865752813281E-002
  -5.6541998967232866E-002   1.6811750690970628E-002   4.4740989288935981E-002
  -5.4785866204036075E-002   1.6340958917269402E-002   4.4396384980703849E-002
  -5.3029733440839305E-002   1.5828649389880406E-002   4.4248961718020945E-002
  -5.1273600677642472E-002   1.5274822108803494E-002   4.4298719500887512E-002
  -4.9517467914445709E-002   1.4679477074038827E-002   4.4545658329303239E-002
  -6.2773709382939913E-002   1.8773599574401556E-002   3.9536853730678292E-002
  -6.0828393919364954E-002   1.8197003300264601E-002   3.9232676310980374E-002
  -5.8883078455789967E-002   1.7609918923231625E-002   3.9109683246489481E-002
  -5.6937762992214980E-002   1.7012346443302635E-002   3.9167874537205771E-002
  -5.4992447528639951E-002   1.6404285860477680E-002   3.9407250183128961E-002
  -6.8930991636649688E-002   2.0735448457832512E-002   3.4211398846588859E-002
  -6.6812490163038807E-002   2.0053047683259839E-002   3.3978677966217015E-002
  -6.4693988689427939E-002   1.9391188456582841E-002   3.3911144750709929E-002
  -6.2575487215817016E-002   1.8749870777801773E-002   3.4008799200067580E-002
  -6.0456985742206149E-002   1.8129094646916519E-002   3.4271641314290072E-002
  -7.5013845728362144E-002   2.2697297341263467E-002   2.8764624636667763E-002
  -7.2738154935057656E-002   2.1909092066254993E-002   2.8634389946413874E-002
  -7.0462464141753139E-002   2.1172457989934126E-002   2.8653346230682400E-002
  -6.8186773348448582E-002   2.0487395112300803E-002   2.8821493489473479E-002
  -6.5911082555144107E-002   1.9853903433355247E-002   2.9138831722786918E-002
  -4.4032046899623228E-002   1.2954668287600113E-002   4.9686865752813281E-002
  -4.2214213376395152E-002   1.2366902708686567E-002   4.9006791951095585E-002
  -4.0396379853167061E-002   1.1841412349834199E-002   4.8543909125476875E-002
  -3.8578546329938956E-002   1.1378197211043200E-002   4.8298217275957137E-002
  -3.6760712806710893E-002   1.0977257292313303E-002   4.8269716402536522E-002
  -4.9517467914445709E-002   1.4679477074038827E-002   4.4545658329303239E-002
  -4.7481657446600434E-002   1.4083654309219526E-002   4.3928230653551545E-002
  -4.5445846978755131E-002   1.3528393837978270E-002   4.3529565890935248E-002
  -4.3410036510909820E-002   1.3013695660315155E-002   4.3349664041454308E-002
  -4.1374226043064552E-002   1.2539559776230502E-002   4.3388525105108655E-002
  -5.4992447528639951E-002   1.6404285860477680E-002   3.9407250183128961E-002
  -5.2737088179141176E-002   1.5800405909752346E-002   3.8830755706860301E-002
  -5.0481728829642386E-002   1.5215375326122237E-002   3.8474596080763361E-002
  -4.8226369480143624E-002   1.4649194109587446E-002   3.8338771304838051E-002
  -4.5971010130644759E-002   1.4101862260147840E-002   3.8423281379084462E-002
  -6.0456985742206149E-002   1.8129094646916519E-002   3.4271641314290072E-002
  -5.7980505574017488E-002   1.7517157510285292E-002   3.3714367111021465E-002
  -5.5504025405828841E-002   1.6902356814266255E-002   3.3378999694960991E-002
  -5.3027545237640215E-002   1.6284692558859597E-002   3.3265539066108504E-002
  -5.0551065069451534E-002   1.5664164744065248E-002   3.3373985224463922E-002
  -6.5911082555144107E-002   1.9853903433355247E-002   2.9138831722786918E-002
  -6.3211909631229302E-002   1.9233909110818098E-002   2.8579064866035453E-002
  -6.0512736707314510E-002   1.8589338302410233E-002   2.8242776733528346E-002
  -5.7813563783399684E-002   1.7920191008131737E-002   2.8129967325265598E-002
  -5.5114390859484913E-002   1.7226467227982378E-002   2.8240636641247041E-002
  -3.6760712806710893E-002   1.0977257292313303E-002   4.8269716402536522E-002
  -3.5600696490118711E-002   1.0535720542448168E-002   4.8796365825847510E-002
  -3.4440680173526500E-002   9.9507149102517622E-003   4.9459943208070928E-002
  -3.3280663856934282E-002   9.2222403957234952E-003   5.0260448549206416E-002
  -3.2120647540342107E-002   8.3502969988635267E-003   5.1197881849254279E-002
  -4.1374226043064552E-002   1.2539559776230502E-002   4.3388525105108655E-002
  -4.0084721366412696E-002   1.2035989327507435E-002   4.3803013925747203E-002
  -3.8795216689760749E-002   1.1432987455928884E-002   4.4339551507592917E-002
  -3.7505712013108858E-002   1.0730554161495147E-002   4.4998137850645797E-002
  -3.6216207336456946E-002   9.9286894442061624E-003   4.5778772954905844E-002
  -4.5971010130644759E-002   1.4101862260147840E-002   3.8423281379084462E-002
  -4.4566896291638229E-002   1.3536258112566452E-002   3.8769647056526774E-002
  -4.3162782452631721E-002   1.2915260001606185E-002   3.9223182297471251E-002
  -4.1758668613625198E-002   1.2238867927266969E-002   3.9783887101917860E-002
  -4.0354554774618620E-002   1.1507081889548826E-002   4.0451761469866468E-002
  -5.0551065069451534E-002   1.5664164744065248E-002   3.3373985224463922E-002
  -4.9047221265795492E-002   1.5036526897625677E-002   3.3696265218186382E-002
  -4.7543377462139373E-002   1.4397532547283425E-002   3.4110835577705972E-002
  -4.6039533658483262E-002   1.3747181693038705E-002   3.4617696303022569E-002
  -4.4535689854827157E-002   1.3085474334891364E-002   3.5216847394136233E-002
  -5.5114390859484913E-002   1.7226467227982378E-002   2.8240636641247041E-002
  -5.3525696288884345E-002   1.6536795682684680E-002   2.8582868410726103E-002
  -5.1937001718283707E-002   1.5879805092960650E-002   2.9002511348296983E-002
  -5.0348307147683159E-002   1.5255495458810536E-002   2.9499565453959903E-002
  -4.8759612577082556E-002   1.4663866780234069E-002   3.0074030727714918E-002
  -3.2120647540342107E-002   8.3502969988635267E-003   5.1197881849254279E-002
  -2.9943713191646390E-002   7.5947979240048591E-003   4.9908773695672592E-002
  -2.7766778842950632E-002   7.2156563754798425E-003   4.8835291546676290E-002
  -2.5589844494254901E-002   7.2128723532887441E-003   4.7977435402264776E-002
  -2.3412910145559129E-002   7.5864458574315119E-003   4.7335205262438729E-002
  -3.6216207336456946E-002   9.9286894442061624E-003   4.5778772954905844E-002
  -3.3817510835988426E-002   9.1845687715191027E-003   4.4748651825661484E-002
  -3.1418814335519935E-002   8.6553676108910710E-003   4.3946428995377651E-002
  -2.9020117835051429E-002   8.3410859623219806E-003   4.3372104464054456E-002
  -2.6621421334582868E-002   8.2417238258120085E-003   4.3025678231691122E-002
  -4.0354554774618620E-002   1.1507081889548826E-002   4.0451761469866468E-002
  -3.7721823828002016E-002   1.0774339619033346E-002   3.9519189350684616E-002
  -3.5089092881385432E-002   1.0095078846302070E-002   3.8826787824838539E-002
  -3.2456361934768710E-002   9.4692995713551321E-003   3.8374556892328368E-002
  -2.9823630988152203E-002   8.8970017941923940E-003   3.8162496553153569E-002
  -4.4535689854827157E-002   1.3085474334891364E-002   3.5216847394136233E-002
  -4.1656652167687068E-002   1.2364110466547534E-002   3.4220386270741948E-002
  -3.8777614480547069E-002   1.1534790081713129E-002   3.3476368035058920E-002
  -3.5898576793407078E-002   1.0597513180388381E-002   3.2984792687087164E-002
  -3.3019539106266982E-002   9.5522797625729461E-003   3.2745660226826068E-002
  -4.8759612577082556E-002   1.4663866780234069E-002   3.0074030727714918E-002
  -4.5621995855043729E-002   1.3953881314061833E-002   2.8852242585833521E-002
  -4.2484379133004874E-002   1.2974501317124229E-002   2.7895169626038857E-002
  -3.9346762410966143E-002   1.1725726789421336E-002   2.7202811848330385E-002
  -3.6209145688927247E-002   1.0207557730953276E-002   2.6775169252708508E-002
  -9.0363390627541146E-002   0.0000000000000000        4.9835959539698688E-002
  -9.3963456891076658E-002   5.4055790704075658E-003   5.3210181319138572E-002
  -9.7563523154612170E-002   1.0672462064957448E-002   5.4965510108371585E-002
 -0.10116358941814767        1.5800648983649634E-002   5.5101945907397754E-002
 -0.10476365568168319        2.0790139826484130E-002   5.3619488716217016E-002
 -0.10329487394915333        0.0000000000000000        5.8665129491848850E-002
 -0.10683227102105294        1.0884921143393157E-002   5.2120245504456493E-002
 -0.11036966809295255        1.9172858981644773E-002   4.7319592890542800E-002
 -0.11390706516485215        2.4863813514754841E-002   4.4263171650107784E-002
 -0.11744446223675178        2.7957784742723361E-002   4.2950981783151466E-002
 -0.12645918552894095        0.0000000000000000        7.4202785131626536E-002
 -0.12657078904551911        1.6364263216378749E-002   5.5280508148118072E-002
 -0.12668239256209726        2.7673255898332100E-002   4.1465586901773821E-002
 -0.12679399607867539        3.3926978045860048E-002   3.2758021392593782E-002
 -0.12690559959525352        3.5125429658962579E-002   2.9157811620578018E-002
 -0.15985632536690397        0.0000000000000000        9.6448926459031747E-002
 -0.15317901096447512        2.1843605289364323E-002   6.2690969250123296E-002
 -0.14650169656204626        3.6173652815019414E-002   3.7403492142064641E-002
 -0.13982438215961737        4.2990142576965255E-002   2.0586495134855751E-002
 -0.13314706775718851        4.2293074575201817E-002   1.2239978228496672E-002
 -0.20348629346304242        0.0000000000000000       0.12540355347406446     
 -0.18665693677792100        2.7322947362349928E-002   7.4351628810472192E-002
 -0.16982758009279958        4.4674049731706730E-002   3.5133308611415254E-002
 -0.15299822340767816        5.2053307108070455E-002   7.7485928768936535E-003
 -0.13616886672255674        4.9460719491441027E-002  -7.8025183930926015E-003
 -0.10476365568168319        2.0790139826484130E-002   5.3619488716217016E-002
 -0.10210934756399249        2.4929686606003400E-002   4.5639092379710616E-002
  -9.9455039446301810E-002   2.7508041334749905E-002   3.9348453784956147E-002
  -9.6800731328611125E-002   2.8525204012723581E-002   3.4747572931953678E-002
  -9.4146423210920427E-002   2.7981174639924521E-002   3.1836449820703112E-002
 -0.11744446223675178        2.7957784742723361E-002   4.2950981783151466E-002
 -0.11348831051983603        2.9429507648246055E-002   3.6697987805423493E-002
 -0.10953215880292032        3.0253717214018604E-002   3.1358923284393617E-002
 -0.10557600708600459        3.0430413440041035E-002   2.6933788220061830E-002
 -0.10161985536908887        2.9959596326313356E-002   2.3422582612428151E-002
 -0.12690559959525352        3.5125429658962579E-002   2.9157811620578018E-002
 -0.12242343256416667        3.3929328690488703E-002   2.5545898712651113E-002
 -0.11794126553307975        3.2999393093287317E-002   2.2072086976368428E-002
 -0.11345909850199286        3.2335622867358541E-002   1.8736376411730007E-002
 -0.10897693147090598        3.1938018012702254E-002   1.5538767018735864E-002
 -0.13314706775718851        4.2293074575201817E-002   1.2239978228496672E-002
 -0.12891471369698432        3.8429149732731364E-002   1.2182825101393473E-002
 -0.12468235963678009        3.5745068972556103E-002   1.1487944860880710E-002
 -0.12045000557657588        3.4240832294675977E-002   1.0155337506958319E-002
 -0.11621765151637163        3.3916439699091076E-002   8.1850030396262933E-003
 -0.13616886672255674        4.9460719491441027E-002  -7.8025183930926015E-003
 -0.13296215391828903        4.2928970774974012E-002  -3.3912330283493858E-003
 -0.12975544111402132        3.8490744851824771E-002  -3.9350306206968090E-004
 -0.12654872830975364        3.6146041721993490E-002   1.1906715057467035E-003
 -0.12334201550548593        3.5894861385479954E-002   1.3612906750994358E-003
  -9.4146423210920427E-002   2.7981174639924521E-002   3.1836449820703112E-002
  -9.1759269182905945E-002   2.6790669767962679E-002   3.1269226427018529E-002
  -8.9372115154891435E-002   2.5868405948448102E-002   3.0782426288253995E-002
  -8.6984961126876925E-002   2.5214383181380841E-002   3.0376049404409515E-002
  -8.4597807098862429E-002   2.4828601466760844E-002   3.0050095775485217E-002
 -0.10161985536908887        2.9959596326313356E-002   2.3422582612428151E-002
  -9.9138432772797561E-002   2.9189786728789944E-002   2.3144445300754570E-002
  -9.6657010176506242E-002   2.8469505503425158E-002   2.2974421870714599E-002
  -9.4175587580214909E-002   2.7798752650218996E-002   2.2912512322308176E-002
  -9.1694164983923590E-002   2.7177528169171572E-002   2.2958716655535311E-002
 -0.10897693147090598        3.1938018012702254E-002   1.5538767018735864E-002
 -0.10637354967962434        3.1588903689617226E-002   1.5331003108784842E-002
 -0.10377016788834274        3.1070605058402128E-002   1.5259043707180692E-002
 -0.10116678609706110        3.0383122119057211E-002   1.5322888813923520E-002
  -9.8563404305779534E-002   2.9526454871582279E-002   1.5522538429013553E-002
 -0.11621765151637163        3.3916439699091076E-002   8.1850030396262933E-003
 -0.11346461990338627        3.3988020650444470E-002   7.8288998511089787E-003
 -0.11071158829040095        3.3671704613379268E-002   7.6362917976521933E-003
 -0.10795855667741561        3.2967491587895442E-002   7.6071788792557559E-003
 -0.10520552506443022        3.1875381573992861E-002   7.7415610959200116E-003
 -0.12334201550548593        3.5894861385479954E-002   1.3612906750994358E-003
 -0.12041164344408337        3.6387137611271769E-002   6.3813552772731819E-004
 -0.11748127138268082        3.6272804168356203E-002   1.0616614212918818E-004
 -0.11455089932127824        3.5551861056733594E-002  -2.3461748169508606E-004
 -0.11162052725987570        3.4224308276403659E-002  -3.8421534374544208E-004
  -8.4597807098862429E-002   2.4828601466760844E-002   3.0050095775485217E-002
  -8.2201816756237361E-002   2.4506649067619971E-002   2.9292124057299654E-002
  -7.9805826413612307E-002   2.4044114246990139E-002   2.8825221628101506E-002
  -7.7409836070987240E-002   2.3440997004871286E-002   2.8649388487890882E-002
  -7.5013845728362144E-002   2.2697297341263467E-002   2.8764624636667763E-002
  -9.1694164983923590E-002   2.7177528169171572E-002   2.2958716655535311E-002
  -8.9036492297224129E-002   2.6557873384919883E-002   2.2304990855613743E-002
  -8.6378819610524710E-002   2.5891829622101167E-002   2.1883560454853464E-002
  -8.3721146923825263E-002   2.5179396880715323E-002   2.1694425453254385E-002
  -8.1063474237125815E-002   2.4420575160762514E-002   2.1737585850816504E-002
  -9.8563404305779534E-002   2.9526454871582279E-002   1.5522538429013553E-002
  -9.5702823164831960E-002   2.8609097702219706E-002   1.5067251990278044E-002
  -9.2842242023884414E-002   2.7739544997212089E-002   1.4785487060877412E-002
  -8.9981660882936881E-002   2.6917796756559333E-002   1.4677243640811959E-002
  -8.7121079741989307E-002   2.6143852980261562E-002   1.4742521730081212E-002
 -0.10520552506443022        3.1875381573992861E-002   7.7415610959200116E-003
 -0.10220080935906081        3.0660322019519490E-002   7.5789074612924775E-003
  -9.9196093653691461E-002   2.9587260372322965E-002   7.5310014461736300E-003
  -9.6191377948322068E-002   2.8656196632403444E-002   7.5978430505633824E-003
  -9.3186662242952675E-002   2.7867130799760581E-002   7.7794322744620878E-003
 -0.11162052725987570        3.4224308276403659E-002  -3.8421534374544208E-004
 -0.10853045087991070        3.2711546336819497E-002  -1.6004273134301306E-004
 -0.10544037449994578        3.1434975747434021E-002   1.2010361074174525E-004
 -0.10235029811998082        3.0394596508247409E-002   4.5622368250896467E-004
  -9.9260221740015864E-002   2.9590408619259601E-002   8.4831748395863826E-004
  -7.5013845728362144E-002   2.2697297341263467E-002   2.8764624636667763E-002
  -7.2738154935057656E-002   2.1909092066254993E-002   2.8634389946413874E-002
  -7.0462464141753139E-002   2.1172457989934126E-002   2.8653346230682400E-002
  -6.8186773348448582E-002   2.0487395112300803E-002   2.8821493489473479E-002
  -6.5911082555144107E-002   1.9853903433355247E-002   2.9138831722786918E-002
  -8.1063474237125815E-002   2.4420575160762514E-002   2.1737585850816504E-002
  -7.8636773944970761E-002   2.3644015368815871E-002   2.1632434705424447E-002
  -7.6210073652815735E-002   2.2878368411448760E-002   2.1680111583210898E-002
  -7.3783373360660640E-002   2.2123634288661004E-002   2.1880616484176038E-002
  -7.1356673068505655E-002   2.1379813000452663E-002   2.2233949408319853E-002
  -8.7121079741989307E-002   2.6143852980261562E-002   1.4742521730081212E-002
  -8.4539732902327566E-002   2.5378938671376736E-002   1.4621795765442834E-002
  -8.1958386062665783E-002   2.4584278832963220E-002   1.4657534872639169E-002
  -7.9377039223004028E-002   2.3759873465021175E-002   1.4849739051670124E-002
  -7.6795692383342246E-002   2.2905722567550191E-002   1.5198408302536132E-002
  -9.3186662242952675E-002   2.7867130799760581E-002   7.7794322744620878E-003
  -9.0447031807128001E-002   2.7113861973937607E-002   7.6024731264688790E-003
  -8.7707401371303340E-002   2.6290189254477962E-002   7.5856160989669474E-003
  -8.4967770935478706E-002   2.5396112641381308E-002   7.7288611919556606E-003
  -8.2228140499654018E-002   2.4431632134647663E-002   8.0322084054354689E-003
  -9.9260221740015864E-002   2.9590408619259601E-002   8.4831748395863826E-004
  -9.6358670659372148E-002   2.8848785276498562E-002   5.7446678850281430E-004
  -9.3457119578728404E-002   2.7996099675992522E-002   4.6435526219432144E-004
  -9.0555568498084674E-002   2.7032351817741562E-002   5.1798290503262540E-004
  -8.7654017417440944E-002   2.5957541701745024E-002   7.3534971701816332E-004
  -6.5911082555144107E-002   1.9853903433355247E-002   2.9138831722786918E-002
  -6.3211909631229302E-002   1.9233909110818098E-002   2.8579064866035453E-002
  -6.0512736707314510E-002   1.8589338302410233E-002   2.8242776733528346E-002
  -5.7813563783399684E-002   1.7920191008131737E-002   2.8129967325265598E-002
  -5.5114390859484913E-002   1.7226467227982378E-002   2.8240636641247041E-002
  -7.1356673068505655E-002   2.1379813000452663E-002   2.2233949408319853E-002
  -6.8440099483703415E-002   2.0644800788653439E-002   2.1665740102920217E-002
  -6.5523525898901286E-002   1.9916493895092452E-002   2.1308853395050911E-002
  -6.2606952314099101E-002   1.9194892319769792E-002   2.1163289284711853E-002
  -5.9690378729296972E-002   1.8479996062685577E-002   2.1229047771903292E-002
  -7.6795692383342246E-002   2.2905722567550191E-002   1.5198408302536132E-002
  -7.3673874264366668E-002   2.2055692466488738E-002   1.4653038352597236E-002
  -7.0552056145391104E-002   2.1243649487774553E-002   1.4306834873474665E-002
  -6.7430238026415498E-002   2.0469593631407844E-002   1.4159797865168553E-002
  -6.4308419907439962E-002   1.9733524897388832E-002   1.4211927327679078E-002
  -8.2228140499654018E-002   2.4431632134647663E-002   8.0322084054354689E-003
  -7.8913233973218949E-002   2.3466584144324003E-002   7.5409596150665462E-003
  -7.5598327446783881E-002   2.2570805080456630E-002   7.2367211687998940E-003
  -7.2283420920348854E-002   2.1744294943046093E-002   7.1194930666359105E-003
  -6.8968514393913757E-002   2.0987053732091893E-002   7.1892753085745845E-003
  -8.7654017417440944E-002   2.5957541701745024E-002   7.3534971701816332E-004
  -8.4158178610260370E-002   2.4877475822159323E-002   3.2950389032843086E-004
  -8.0662339803079741E-002   2.3897960673138846E-002   9.8512281026558179E-005
  -7.7166500995899112E-002   2.3018996254683947E-002   4.2374889113745706E-005
  -7.3670662188718539E-002   2.2240582566795175E-002   1.6109171458944527E-004
  -5.5114390859484913E-002   1.7226467227982378E-002   2.8240636641247041E-002
  -5.3525696288884345E-002   1.6536795682684680E-002   2.8582868410726103E-002
  -5.1937001718283707E-002   1.5879805092960650E-002   2.9002511348296983E-002
  -5.0348307147683159E-002   1.5255495458810536E-002   2.9499565453959903E-002
  -4.8759612577082556E-002   1.4663866780234069E-002   3.0074030727714918E-002
  -5.9690378729296972E-002   1.8479996062685577E-002   2.1229047771903292E-002
  -5.8002964410598046E-002   1.7758030014312032E-002   2.1556452840436086E-002
  -5.6315550091899050E-002   1.7015219065121323E-002   2.2003886237073833E-002
  -5.4628135773200068E-002   1.6251563215113382E-002   2.2571347961816118E-002
  -5.2940721454501127E-002   1.5467062464288417E-002   2.3258838014663441E-002
  -6.4308419907439962E-002   1.9733524897388832E-002   1.4211927327679078E-002
  -6.2479668680629756E-002   1.8979264345939301E-002   1.4470979838874937E-002
  -6.0650917453819536E-002   1.8150633037281837E-002   1.4892677838188366E-002
  -5.8822166227009351E-002   1.7247630971416399E-002   1.5477021325619355E-002
  -5.6993415000199180E-002   1.6270258148342792E-002   1.6224010301168254E-002
  -6.8968514393913757E-002   2.0987053732091893E-002   7.1892753085745845E-003
  -6.6955809098979510E-002   2.0200498677566833E-002   7.3264494060424137E-003
  -6.4943103804045291E-002   1.9286047009442597E-002   7.6688861516406772E-003
  -6.2930398509111030E-002   1.8243698727719606E-002   8.2165855453696195E-003
  -6.0917693214176824E-002   1.7073453832397487E-002   8.9695475872288329E-003
  -7.3670662188718539E-002   2.2240582566795175E-002   1.6109171458944527E-004
  -7.1431385665647384E-002   2.1421733009193922E-002   1.2286154193835719E-004
  -6.9192109142576230E-002   2.0421460981603107E-002   3.3251117743102188E-004
  -6.6952832619505132E-002   1.9239766484022529E-002   7.9004062106646095E-004
  -6.4713556096433922E-002   1.7876649516451737E-002   1.4954498728456667E-003
  -4.8759612577082556E-002   1.4663866780234069E-002   3.0074030727714918E-002
  -4.5621995855043729E-002   1.3953881314061833E-002   2.8852242585833521E-002
  -4.2484379133004874E-002   1.2974501317124229E-002   2.7895169626038857E-002
  -3.9346762410966143E-002   1.1725726789421336E-002   2.7202811848330385E-002
  -3.6209145688927247E-002   1.0207557730953276E-002   2.6775169252708508E-002
  -5.2940721454501127E-002   1.5467062464288417E-002   2.3258838014663441E-002
  -4.9565360505759395E-002   1.4648642915757959E-002   2.1980300636439520E-002
  -4.6189999557017691E-002   1.3783230672633873E-002   2.0912536529535064E-002
  -4.2814638608275883E-002   1.2870825734915492E-002   2.0055545693949947E-002
  -3.9439277659534255E-002   1.1911428102603927E-002   1.9409328129683656E-002
  -5.6993415000199180E-002   1.6270258148342792E-002   1.6224010301168254E-002
  -5.3434251735521701E-002   1.5343404517454196E-002   1.5111125522773175E-002
  -4.9875088470844244E-002   1.4591960028143523E-002   1.4155072104930354E-002
  -4.6315925206166786E-002   1.4015924680409927E-002   1.3355850047639766E-002
  -4.2756761941489321E-002   1.3615298474254356E-002   1.2713459350901068E-002
  -6.0917693214176824E-002   1.7073453832397487E-002   8.9695475872288329E-003
  -5.7228669544330674E-002   1.6038166119150710E-002   8.2447172448342487E-003
  -5.3539645874484516E-002   1.5400689383653170E-002   7.6227763522245685E-003
  -4.9850622204638380E-002   1.5161023625904168E-002   7.1037249093998554E-003
  -4.6161598534792278E-002   1.5319168845905229E-002   6.6875629163607175E-003
  -6.4713556096433922E-002   1.7876649516451737E-002   1.4954498728456667E-003
  -6.0948613932186202E-002   1.6732927720846669E-002   1.3810758026224779E-003
  -5.7183671767938538E-002   1.6209418739162818E-002   1.3156492714178070E-003
  -5.3418729603690901E-002   1.6306122571398629E-002   1.2991702792312376E-003
  -4.9653787439443153E-002   1.7023039217555436E-002   1.3316388260620204E-003
 </DataArray>
 </PointData>
 </Piece>
 <Piece  NumberOfPoints="          1600 "  NumberOfCells="         1024 ">
 <Points>
 <DataArray  type="Float64" NumberOfComponents="3"  format="ascii" >
  0.50000000000000000        0.0000000000000000        0.0000000000000000     
  0.53125000000000000        0.0000000000000000        0.0000000000000000     
  0.56250000000000000        0.0000000000000000        0.0000000000000000     
  0.59375000000000000        0.0000000000000000        0.0000000000000000     
  0.62500000000000000        0.0000000000000000        0.0000000000000000     
  0.50000000000000000        3.1250000000000000E-002   0.0000000000000000     
  0.53125000000000000        3.1250000000000000E-002   0.0000000000000000     
  0.56250000000000000        3.1250000000000000E-002   0.0000000000000000     
  0.59375000000000000        3.1250000000000000E-002   0.0000000000000000     
  0.62500000000000000        3.1250000000000000E-002   0.0000000000000000     
  0.50000000000000000        6.2500000000000000E-002   0.0000000000000000     
  0.53125000000000000        6.2500000000000000E-002   0.0000000000000000     
  0.56250000000000000        6.2500000000000000E-002   0.0000000000000000     
  0.59375000000000000        6.2500000000000000E-002   0.0000000000000000     
  0.62500000000000000        6.2500000000000000E-002   0.0000000000000000     
  0.50000000000000000        9.3750000000000000E-002   0.0000000000000000     
  0.53125000000000000        9.3750000000000000E-002   0.0000000000000000     
  0.56250000000000000        9.3750000000000000E-002   0.0000000000000000     
  0.59375000000000000        9.3750000000000000E-002   0.0000000000000000     
  0.62500000000000000        9.3750000000000000E-002   0.0000000000000000     
  0.50000000000000000       0.12500000000000000        0.0000000000000000     
  0.53125000000000000       0.12500000000000000        0.0000000000000000     
  0.56250000000000000       0.12500000000000000        0.0000000000000000     
  0.59375000000000000       0.12500000000000000        0.0000000000000000     
  0.62500000000000000       0.12500000000000000        0.0000000000000000     
  0.62500000000000000        0.0000000000000000        0.0000000000000000     
  0.65625000000000000        0.0000000000000000        0.0000000000000000     
  0.68750000000000000        0.0000000000000000        0.0000000000000000     
  0.71875000000000000        0.0000000000000000        0.0000000000000000     
  0.75000000000000000        0.0000000000000000        0.0000000000000000     
  0.62500000000000000        3.1250000000000000E-002   0.0000000000000000     
  0.65625000000000000        3.1250000000000000E-002   0.0000000000000000     
  0.68750000000000000        3.1250000000000000E-002   0.0000000000000000     
  0.71875000000000000        3.1250000000000000E-002   0.0000000000000000     
  0.75000000000000000        3.1250000000000000E-002   0.0000000000000000     
  0.62500000000000000        6.2500000000000000E-002   0.0000000000000000     
  0.65625000000000000        6.2500000000000000E-002   0.0000000000000000     
  0.68750000000000000        6.2500000000000000E-002   0.0000000000000000     
  0.71875000000000000        6.2500000000000000E-002   0.0000000000000000     
  0.75000000000000000        6.2500000000000000E-002   0.0000000000000000     
  0.62500000000000000        9.3750000000000000E-002   0.0000000000000000     
  0.65625000000000000        9.3750000000000000E-002   0.0000000000000000     
  0.68750000000000000        9.3750000000000000E-002   0.0000000000000000     
  0.71875000000000000        9.3750000000000000E-002   0.0000000000000000     
  0.75000000000000000        9.3750000000000000E-002   0.0000000000000000     
  0.62500000000000000       0.12500000000000000        0.0000000000000000     
  0.65625000000000000       0.12500000000000000        0.0000000000000000     
  0.68750000000000000       0.12500000000000000        0.0000000000000000     
  0.71875000000000000       0.12500000000000000        0.0000000000000000     
  0.75000000000000000       0.12500000000000000        0.0000000000000000     
  0.75000000000000000        0.0000000000000000        0.0000000000000000     
  0.78125000000000000        0.0000000000000000        0.0000000000000000     
  0.81250000000000000        0.0000000000000000        0.0000000000000000     
  0.84375000000000000        0.0000000000000000        0.0000000000000000     
  0.87500000000000000        0.0000000000000000        0.0000000000000000     
  0.75000000000000000        3.1250000000000000E-002   0.0000000000000000     
  0.78125000000000000        3.1250000000000000E-002   0.0000000000000000     
  0.81250000000000000        3.1250000000000000E-002   0.0000000000000000     
  0.84375000000000000        3.1250000000000000E-002   0.0000000000000000     
  0.87500000000000000        3.1250000000000000E-002   0.0000000000000000     
  0.75000000000000000        6.2500000000000000E-002   0.0000000000000000     
  0.78125000000000000        6.2500000000000000E-002   0.0000000000000000     
  0.81250000000000000        6.2500000000000000E-002   0.0000000000000000     
  0.84375000000000000        6.2500000000000000E-002   0.0000000000000000     
  0.87500000000000000        6.2500000000000000E-002   0.0000000000000000     
  0.75000000000000000        9.3750000000000000E-002   0.0000000000000000     
  0.78125000000000000        9.3750000000000000E-002   0.0000000000000000     
  0.81250000000000000        9.3750000000000000E-002   0.0000000000000000     
  0.84375000000000000        9.3750000000000000E-002   0.0000000000000000     
  0.87500000000000000        9.3750000000000000E-002   0.0000000000000000     
  0.75000000000000000       0.12500000000000000        0.0000000000000000     
  0.78125000000000000       0.12500000000000000        0.0000000000000000     
  0.81250000000000000       0.12500000000000000        0.0000000000000000     
  0.84375000000000000       0.12500000000000000        0.0000000000000000     
  0.87500000000000000       0.12500000000000000        0.0000000000000000     
  0.87500000000000000        0.0000000000000000        0.0000000000000000     
  0.90625000000000000        0.0000000000000000        0.0000000000000000     
  0.93750000000000000        0.0000000000000000        0.0000000000000000     
  0.96875000000000000        0.0000000000000000        0.0000000000000000     
   1.0000000000000000        0.0000000000000000        0.0000000000000000     
  0.87500000000000000        3.1250000000000000E-002   0.0000000000000000     
  0.90625000000000000        3.1250000000000000E-002   0.0000000000000000     
  0.93750000000000000        3.1250000000000000E-002   0.0000000000000000     
  0.96875000000000000        3.1250000000000000E-002   0.0000000000000000     
   1.0000000000000000        3.1250000000000000E-002   0.0000000000000000     
  0.87500000000000000        6.2500000000000000E-002   0.0000000000000000     
  0.90625000000000000        6.2500000000000000E-002   0.0000000000000000     
  0.93750000000000000        6.2500000000000000E-002   0.0000000000000000     
  0.96875000000000000        6.2500000000000000E-002   0.0000000000000000     
   1.0000000000000000        6.2500000000000000E-002   0.0000000000000000     
  0.87500000000000000        9.3750000000000000E-002   0.0000000000000000     
  0.90625000000000000        9.3750000000000000E-002   0.0000000000000000     
  0.93750000000000000        9.3750000000000000E-002   0.0000000000000000     
  0.96875000000000000        9.3750000000000000E-002   0.0000000000000000     
   1.0000000000000000        9.3750000000000000E-002   0.0000000000000000     
  0.87500000000000000       0.12500000000000000        0.0000000000000000     
  0.90625000000000000       0.12500000000000000        0.0000000000000000     
  0.93750000000000000       0.12500000000000000        0.0000000000000000     
  0.96875000000000000       0.12500000000000000        0.0000000000000000     
   1.0000000000000000       0.12500000000000000        0.0000000000000000     
   1.0000000000000000        0.0000000000000000        0.0000000000000000     
   1.0312500000000000        0.0000000000000000        0.0000000000000000     
   1.0625000000000000        0.0000000000000000        0.0000000000000000     
   1.0937500000000000        0.0000000000000000        0.0000000000000000     
   1.1250000000000000        0.0000000000000000        0.0000000000000000     
   1.0000000000000000        3.1250000000000000E-002   0.0000000000000000     
   1.0312500000000000        3.1250000000000000E-002   0.0000000000000000     
   1.0625000000000000        3.1250000000000000E-002   0.0000000000000000     
   1.0937500000000000        3.1250000000000000E-002   0.0000000000000000     
   1.1250000000000000        3.1250000000000000E-002   0.0000000000000000     
   1.0000000000000000        6.2500000000000000E-002   0.0000000000000000     
   1.0312500000000000        6.2500000000000000E-002   0.0000000000000000     
   1.0625000000000000        6.2500000000000000E-002   0.0000000000000000     
   1.0937500000000000        6.2500000000000000E-002   0.0000000000000000     
   1.1250000000000000        6.2500000000000000E-002   0.0000000000000000     
   1.0000000000000000        9.3750000000000000E-002   0.0000000000000000     
   1.0312500000000000        9.3750000000000000E-002   0.0000000000000000     
   1.0625000000000000        9.3750000000000000E-002   0.0000000000000000     
   1.0937500000000000        9.3750000000000000E-002   0.0000000000000000     
   1.1250000000000000        9.3750000000000000E-002   0.0000000000000000     
   1.0000000000000000       0.12500000000000000        0.0000000000000000     
   1.0312500000000000       0.12500000000000000        0.0000000000000000     
   1.0625000000000000       0.12500000000000000        0.0000000000000000     
   1.0937500000000000       0.12500000000000000        0.0000000000000000     
   1.1250000000000000       0.12500000000000000        0.0000000000000000     
   1.1250000000000000        0.0000000000000000        0.0000000000000000     
   1.1562500000000000        0.0000000000000000        0.0000000000000000     
   1.1875000000000000        0.0000000000000000        0.0000000000000000     
   1.2187500000000000        0.0000000000000000        0.0000000000000000     
   1.2500000000000000        0.0000000000000000        0.0000000000000000     
   1.1250000000000000        3.1250000000000000E-002   0.0000000000000000     
   1.1562500000000000        3.1250000000000000E-002   0.0000000000000000     
   1.1875000000000000        3.1250000000000000E-002   0.0000000000000000     
   1.2187500000000000        3.1250000000000000E-002   0.0000000000000000     
   1.2500000000000000        3.1250000000000000E-002   0.0000000000000000     
   1.1250000000000000        6.2500000000000000E-002   0.0000000000000000     
   1.1562500000000000        6.2500000000000000E-002   0.0000000000000000     
   1.1875000000000000        6.2500000000000000E-002   0.0000000000000000     
   1.2187500000000000        6.2500000000000000E-002   0.0000000000000000     
   1.2500000000000000        6.2500000000000000E-002   0.0000000000000000     
   1.1250000000000000        9.3750000000000000E-002   0.0000000000000000     
   1.1562500000000000        9.3750000000000000E-002   0.0000000000000000     
   1.1875000000000000        9.3750000000000000E-002   0.0000000000000000     
   1.2187500000000000        9.3750000000000000E-002   0.0000000000000000     
   1.2500000000000000        9.3750000000000000E-002   0.0000000000000000     
   1.1250000000000000       0.12500000000000000        0.0000000000000000     
   1.1562500000000000       0.12500000000000000        0.0000000000000000     
   1.1875000000000000       0.12500000000000000        0.0000000000000000     
   1.2187500000000000       0.12500000000000000        0.0000000000000000     
   1.2500000000000000       0.12500000000000000        0.0000000000000000     
   1.2500000000000000        0.0000000000000000        0.0000000000000000     
   1.2812500000000000        0.0000000000000000        0.0000000000000000     
   1.3125000000000000        0.0000000000000000        0.0000000000000000     
   1.3437500000000000        0.0000000000000000        0.0000000000000000     
   1.3750000000000000        0.0000000000000000        0.0000000000000000     
   1.2500000000000000        3.1250000000000000E-002   0.0000000000000000     
   1.2812500000000000        3.1250000000000000E-002   0.0000000000000000     
   1.3125000000000000        3.1250000000000000E-002   0.0000000000000000     
   1.3437500000000000        3.1250000000000000E-002   0.0000000000000000     
   1.3750000000000000        3.1250000000000000E-002   0.0000000000000000     
   1.2500000000000000        6.2500000000000000E-002   0.0000000000000000     
   1.2812500000000000        6.2500000000000000E-002   0.0000000000000000     
   1.3125000000000000        6.2500000000000000E-002   0.0000000000000000     
   1.3437500000000000        6.2500000000000000E-002   0.0000000000000000     
   1.3750000000000000        6.2500000000000000E-002   0.0000000000000000     
   1.2500000000000000        9.3750000000000000E-002   0.0000000000000000     
   1.2812500000000000        9.3750000000000000E-002   0.0000000000000000     
   1.3125000000000000        9.3750000000000000E-002   0.0000000000000000     
   1.3437500000000000        9.3750000000000000E-002   0.0000000000000000     
   1.3750000000000000        9.3750000000000000E-002   0.0000000000000000     
   1.2500000000000000       0.12500000000000000        0.0000000000000000     
   1.2812500000000000       0.12500000000000000        0.0000000000000000     
   1.3125000000000000       0.12500000000000000        0.0000000000000000     
   1.3437500000000000       0.12500000000000000        0.0000000000000000     
   1.3750000000000000       0.12500000000000000        0.0000000000000000     
   1.3750000000000000        0.0000000000000000        0.0000000000000000     
   1.4062500000000000        0.0000000000000000        0.0000000000000000     
   1.4375000000000000        0.0000000000000000        0.0000000000000000     
   1.4687500000000000        0.0000000000000000        0.0000000000000000     
   1.5000000000000000        0.0000000000000000        0.0000000000000000     
   1.3750000000000000        3.1250000000000000E-002   0.0000000000000000     
   1.4062500000000000        3.1250000000000000E-002   0.0000000000000000     
   1.4375000000000000        3.1250000000000000E-002   0.0000000000000000     
   1.4687500000000000        3.1250000000000000E-002   0.0000000000000000     
   1.5000000000000000        3.1250000000000000E-002   0.0000000000000000     
   1.3750000000000000        6.2500000000000000E-002   0.0000000000000000     
   1.4062500000000000        6.2500000000000000E-002   0.0000000000000000     
   1.4375000000000000        6.2500000000000000E-002   0.0000000000000000     
   1.4687500000000000        6.2500000000000000E-002   0.0000000000000000     
   1.5000000000000000        6.2500000000000000E-002   0.0000000000000000     
   1.3750000000000000        9.3750000000000000E-002   0.0000000000000000     
   1.4062500000000000        9.3750000000000000E-002   0.0000000000000000     
   1.4375000000000000        9.3750000000000000E-002   0.0000000000000000     
   1.4687500000000000        9.3750000000000000E-002   0.0000000000000000     
   1.5000000000000000        9.3750000000000000E-002   0.0000000000000000     
   1.3750000000000000       0.12500000000000000        0.0000000000000000     
   1.4062500000000000       0.12500000000000000        0.0000000000000000     
   1.4375000000000000       0.12500000000000000        0.0000000000000000     
   1.4687500000000000       0.12500000000000000        0.0000000000000000     
   1.5000000000000000       0.12500000000000000        0.0000000000000000     
  0.50000000000000000       0.12500000000000000        0.0000000000000000     
  0.53125000000000000       0.12500000000000000        0.0000000000000000     
  0.56250000000000000       0.12500000000000000        0.0000000000000000     
  0.59375000000000000       0.12500000000000000        0.0000000000000000     
  0.62500000000000000       0.12500000000000000        0.0000000000000000     
  0.50000000000000000       0.15625000000000000        0.0000000000000000     
  0.53125000000000000       0.15625000000000000        0.0000000000000000     
  0.56250000000000000       0.15625000000000000        0.0000000000000000     
  0.59375000000000000       0.15625000000000000        0.0000000000000000     
  0.62500000000000000       0.15625000000000000        0.0000000000000000     
  0.50000000000000000       0.18750000000000000        0.0000000000000000     
  0.53125000000000000       0.18750000000000000        0.0000000000000000     
  0.56250000000000000       0.18750000000000000        0.0000000000000000     
  0.59375000000000000       0.18750000000000000        0.0000000000000000     
  0.62500000000000000       0.18750000000000000        0.0000000000000000     
  0.50000000000000000       0.21875000000000000        0.0000000000000000     
  0.53125000000000000       0.21875000000000000        0.0000000000000000     
  0.56250000000000000       0.21875000000000000        0.0000000000000000     
  0.59375000000000000       0.21875000000000000        0.0000000000000000     
  0.62500000000000000       0.21875000000000000        0.0000000000000000     
  0.50000000000000000       0.25000000000000000        0.0000000000000000     
  0.53125000000000000       0.25000000000000000        0.0000000000000000     
  0.56250000000000000       0.25000000000000000        0.0000000000000000     
  0.59375000000000000       0.25000000000000000        0.0000000000000000     
  0.62500000000000000       0.25000000000000000        0.0000000000000000     
  0.62500000000000000       0.12500000000000000        0.0000000000000000     
  0.65625000000000000       0.12500000000000000        0.0000000000000000     
  0.68750000000000000       0.12500000000000000        0.0000000000000000     
  0.71875000000000000       0.12500000000000000        0.0000000000000000     
  0.75000000000000000       0.12500000000000000        0.0000000000000000     
  0.62500000000000000       0.15625000000000000        0.0000000000000000     
  0.65625000000000000       0.15625000000000000        0.0000000000000000     
  0.68750000000000000       0.15625000000000000        0.0000000000000000     
  0.71875000000000000       0.15625000000000000        0.0000000000000000     
  0.75000000000000000       0.15625000000000000        0.0000000000000000     
  0.62500000000000000       0.18750000000000000        0.0000000000000000     
  0.65625000000000000       0.18750000000000000        0.0000000000000000     
  0.68750000000000000       0.18750000000000000        0.0000000000000000     
  0.71875000000000000       0.18750000000000000        0.0000000000000000     
  0.75000000000000000       0.18750000000000000        0.0000000000000000     
  0.62500000000000000       0.21875000000000000        0.0000000000000000     
  0.65625000000000000       0.21875000000000000        0.0000000000000000     
  0.68750000000000000       0.21875000000000000        0.0000000000000000     
  0.71875000000000000       0.21875000000000000        0.0000000000000000     
  0.75000000000000000       0.21875000000000000        0.0000000000000000     
  0.62500000000000000       0.25000000000000000        0.0000000000000000     
  0.65625000000000000       0.25000000000000000        0.0000000000000000     
  0.68750000000000000       0.25000000000000000        0.0000000000000000     
  0.71875000000000000       0.25000000000000000        0.0000000000000000     
  0.75000000000000000       0.25000000000000000        0.0000000000000000     
  0.75000000000000000       0.12500000000000000        0.0000000000000000     
  0.78125000000000000       0.12500000000000000        0.0000000000000000     
  0.81250000000000000       0.12500000000000000        0.0000000000000000     
  0.84375000000000000       0.12500000000000000        0.0000000000000000     
  0.87500000000000000       0.12500000000000000        0.0000000000000000     
  0.75000000000000000       0.15625000000000000        0.0000000000000000     
  0.78125000000000000       0.15625000000000000        0.0000000000000000     
  0.81250000000000000       0.15625000000000000        0.0000000000000000     
  0.84375000000000000       0.15625000000000000        0.0000000000000000     
  0.87500000000000000       0.15625000000000000        0.0000000000000000     
  0.75000000000000000       0.18750000000000000        0.0000000000000000     
  0.78125000000000000       0.18750000000000000        0.0000000000000000     
  0.81250000000000000       0.18750000000000000        0.0000000000000000     
  0.84375000000000000       0.18750000000000000        0.0000000000000000     
  0.87500000000000000       0.18750000000000000        0.0000000000000000     
  0.75000000000000000       0.21875000000000000        0.0000000000000000     
  0.78125000000000000       0.21875000000000000        0.0000000000000000     
  0.81250000000000000       0.21875000000000000        0.0000000000000000     
  0.84375000000000000       0.21875000000000000        0.0000000000000000     
  0.87500000000000000       0.21875000000000000        0.0000000000000000     
  0.75000000000000000       0.25000000000000000        0.0000000000000000     
  0.78125000000000000       0.25000000000000000        0.0000000000000000     
  0.81250000000000000       0.25000000000000000        0.0000000000000000     
  0.84375000000000000       0.25000000000000000        0.0000000000000000     
  0.87500000000000000       0.25000000000000000        0.0000000000000000     
  0.87500000000000000       0.12500000000000000        0.0000000000000000     
  0.90625000000000000       0.12500000000000000        0.0000000000000000     
  0.93750000000000000       0.12500000000000000        0.0000000000000000     
  0.96875000000000000       0.12500000000000000        0.0000000000000000     
   1.0000000000000000       0.12500000000000000        0.0000000000000000     
  0.87500000000000000       0.15625000000000000        0.0000000000000000     
  0.90625000000000000       0.15625000000000000        0.0000000000000000     
  0.93750000000000000       0.15625000000000000        0.0000000000000000     
  0.96875000000000000       0.15625000000000000        0.0000000000000000     
   1.0000000000000000       0.15625000000000000        0.0000000000000000     
  0.87500000000000000       0.18750000000000000        0.0000000000000000     
  0.90625000000000000       0.18750000000000000        0.0000000000000000     
  0.93750000000000000       0.18750000000000000        0.0000000000000000     
  0.96875000000000000       0.18750000000000000        0.0000000000000000     
   1.0000000000000000       0.18750000000000000        0.0000000000000000     
  0.87500000000000000       0.21875000000000000        0.0000000000000000     
  0.90625000000000000       0.21875000000000000        0.0000000000000000     
  0.93750000000000000       0.21875000000000000        0.0000000000000000     
  0.96875000000000000       0.21875000000000000        0.0000000000000000     
   1.0000000000000000       0.21875000000000000        0.0000000000000000     
  0.87500000000000000       0.25000000000000000        0.0000000000000000     
  0.90625000000000000       0.25000000000000000        0.0000000000000000     
  0.93750000000000000       0.25000000000000000        0.0000000000000000     
  0.96875000000000000       0.25000000000000000        0.0000000000000000     
   1.0000000000000000       0.25000000000000000        0.0000000000000000     
   1.0000000000000000       0.12500000000000000        0.0000000000000000     
   1.0312500000000000       0.12500000000000000        0.0000000000000000     
   1.0625000000000000       0.12500000000000000        0.0000000000000000     
   1.0937500000000000       0.12500000000000000        0.0000000000000000     
   1.1250000000000000       0.12500000000000000        0.0000000000000000     
   1.0000000000000000       0.15625000000000000        0.0000000000000000     
   1.0312500000000000       0.15625000000000000        0.0000000000000000     
   1.0625000000000000       0.15625000000000000        0.0000000000000000     
   1.0937500000000000       0.15625000000000000        0.0000000000000000     
   1.1250000000000000       0.15625000000000000        0.0000000000000000     
   1.0000000000000000       0.18750000000000000        0.0000000000000000     
   1.0312500000000000       0.18750000000000000        0.0000000000000000     
   1.0625000000000000       0.18750000000000000        0.0000000000000000     
   1.0937500000000000       0.18750000000000000        0.0000000000000000     
   1.1250000000000000       0.18750000000000000        0.0000000000000000     
   1.0000000000000000       0.21875000000000000        0.0000000000000000     
   1.0312500000000000       0.21875000000000000        0.0000000000000000     
   1.0625000000000000       0.21875000000000000        0.0000000000000000     
   1.0937500000000000       0.21875000000000000        0.0000000000000000     
   1.1250000000000000       0.21875000000000000        0.0000000000000000     
   1.0000000000000000       0.25000000000000000        0.0000000000000000     
   1.0312500000000000       0.25000000000000000        0.0000000000000000     
   1.0625000000000000       0.25000000000000000        0.0000000000000000     
   1.0937500000000000       0.25000000000000000        0.0000000000000000     
   1.1250000000000000       0.25000000000000000        0.0000000000000000     
   1.1250000000000000       0.12500000000000000        0.0000000000000000     
   1.1562500000000000       0.12500000000000000        0.0000000000000000     
   1.1875000000000000       0.12500000000000000        0.0000000000000000     
   1.2187500000000000       0.12500000000000000        0.0000000000000000     
   1.2500000000000000       0.12500000000000000        0.0000000000000000     
   1.1250000000000000       0.15625000000000000        0.0000000000000000     
   1.1562500000000000       0.15625000000000000        0.0000000000000000     
   1.1875000000000000       0.15625000000000000        0.0000000000000000     
   1.2187500000000000       0.15625000000000000        0.0000000000000000     
   1.2500000000000000       0.15625000000000000        0.0000000000000000     
   1.1250000000000000       0.18750000000000000        0.0000000000000000     
   1.1562500000000000       0.18750000000000000        0.0000000000000000     
   1.1875000000000000       0.18750000000000000        0.0000000000000000     
   1.2187500000000000       0.18750000000000000        0.0000000000000000     
   1.2500000000000000       0.18750000000000000        0.0000000000000000     
   1.1250000000000000       0.21875000000000000        0.0000000000000000     
   1.1562500000000000       0.21875000000000000        0.0000000000000000     
   1.1875000000000000       0.21875000000000000        0.0000000000000000     
   1.2187500000000000       0.21875000000000000        0.0000000000000000     
   1.2500000000000000       0.21875000000000000        0.0000000000000000     
   1.1250000000000000       0.25000000000000000        0.0000000000000000     
   1.1562500000000000       0.25000000000000000        0.0000000000000000     
   1.1875000000000000       0.25000000000000000        0.0000000000000000     
   1.2187500000000000       0.25000000000000000        0.0000000000000000     
   1.2500000000000000       0.25000000000000000        0.0000000000000000     
   1.2500000000000000       0.12500000000000000        0.0000000000000000     
   1.2812500000000000       0.12500000000000000        0.0000000000000000     
   1.3125000000000000       0.12500000000000000        0.0000000000000000     
   1.3437500000000000       0.12500000000000000        0.0000000000000000     
   1.3750000000000000       0.12500000000000000        0.0000000000000000     
   1.2500000000000000       0.15625000000000000        0.0000000000000000     
   1.2812500000000000       0.15625000000000000        0.0000000000000000     
   1.3125000000000000       0.15625000000000000        0.0000000000000000     
   1.3437500000000000       0.15625000000000000        0.0000000000000000     
   1.3750000000000000       0.15625000000000000        0.0000000000000000     
   1.2500000000000000       0.18750000000000000        0.0000000000000000     
   1.2812500000000000       0.18750000000000000        0.0000000000000000     
   1.3125000000000000       0.18750000000000000        0.0000000000000000     
   1.3437500000000000       0.18750000000000000        0.0000000000000000     
   1.3750000000000000       0.18750000000000000        0.0000000000000000     
   1.2500000000000000       0.21875000000000000        0.0000000000000000     
   1.2812500000000000       0.21875000000000000        0.0000000000000000     
   1.3125000000000000       0.21875000000000000        0.0000000000000000     
   1.3437500000000000       0.21875000000000000        0.0000000000000000     
   1.3750000000000000       0.21875000000000000        0.0000000000000000     
   1.2500000000000000       0.25000000000000000        0.0000000000000000     
   1.2812500000000000       0.25000000000000000        0.0000000000000000     
   1.3125000000000000       0.25000000000000000        0.0000000000000000     
   1.3437500000000000       0.25000000000000000        0.0000000000000000     
   1.3750000000000000       0.25000000000000000        0.0000000000000000     
   1.3750000000000000       0.12500000000000000        0.0000000000000000     
   1.4062500000000000       0.12500000000000000        0.0000000000000000     
   1.4375000000000000       0.12500000000000000        0.0000000000000000     
   1.4687500000000000       0.12500000000000000        0.0000000000000000     
   1.5000000000000000       0.12500000000000000        0.0000000000000000     
   1.3750000000000000       0.15625000000000000        0.0000000000000000     
   1.4062500000000000       0.15625000000000000        0.0000000000000000     
   1.4375000000000000       0.15625000000000000        0.0000000000000000     
   1.4687500000000000       0.15625000000000000        0.0000000000000000     
   1.5000000000000000       0.15625000000000000        0.0000000000000000     
   1.3750000000000000       0.18750000000000000        0.0000000000000000     
   1.4062500000000000       0.18750000000000000        0.0000000000000000     
   1.4375000000000000       0.18750000000000000        0.0000000000000000     
   1.4687500000000000       0.18750000000000000        0.0000000000000000     
   1.5000000000000000       0.18750000000000000        0.0000000000000000     
   1.3750000000000000       0.21875000000000000        0.0000000000000000     
   1.4062500000000000       0.21875000000000000        0.0000000000000000     
   1.4375000000000000       0.21875000000000000        0.0000000000000000     
   1.4687500000000000       0.21875000000000000        0.0000000000000000     
   1.5000000000000000       0.21875000000000000        0.0000000000000000     
   1.3750000000000000       0.25000000000000000        0.0000000000000000     
   1.4062500000000000       0.25000000000000000        0.0000000000000000     
   1.4375000000000000       0.25000000000000000        0.0000000000000000     
   1.4687500000000000       0.25000000000000000        0.0000000000000000     
   1.5000000000000000       0.25000000000000000        0.0000000000000000     
  0.50000000000000000       0.25000000000000000        0.0000000000000000     
  0.53125000000000000       0.25000000000000000        0.0000000000000000     
  0.56250000000000000       0.25000000000000000        0.0000000000000000     
  0.59375000000000000       0.25000000000000000        0.0000000000000000     
  0.62500000000000000       0.25000000000000000        0.0000000000000000     
  0.50000000000000000       0.28125000000000000        0.0000000000000000     
  0.53125000000000000       0.28125000000000000        0.0000000000000000     
  0.56250000000000000       0.28125000000000000        0.0000000000000000     
  0.59375000000000000       0.28125000000000000        0.0000000000000000     
  0.62500000000000000       0.28125000000000000        0.0000000000000000     
  0.50000000000000000       0.31250000000000000        0.0000000000000000     
  0.53125000000000000       0.31250000000000000        0.0000000000000000     
  0.56250000000000000       0.31250000000000000        0.0000000000000000     
  0.59375000000000000       0.31250000000000000        0.0000000000000000     
  0.62500000000000000       0.31250000000000000        0.0000000000000000     
  0.50000000000000000       0.34375000000000000        0.0000000000000000     
  0.53125000000000000       0.34375000000000000        0.0000000000000000     
  0.56250000000000000       0.34375000000000000        0.0000000000000000     
  0.59375000000000000       0.34375000000000000        0.0000000000000000     
  0.62500000000000000       0.34375000000000000        0.0000000000000000     
  0.50000000000000000       0.37500000000000000        0.0000000000000000     
  0.53125000000000000       0.37500000000000000        0.0000000000000000     
  0.56250000000000000       0.37500000000000000        0.0000000000000000     
  0.59375000000000000       0.37500000000000000        0.0000000000000000     
  0.62500000000000000       0.37500000000000000        0.0000000000000000     
  0.62500000000000000       0.25000000000000000        0.0000000000000000     
  0.65625000000000000       0.25000000000000000        0.0000000000000000     
  0.68750000000000000       0.25000000000000000        0.0000000000000000     
  0.71875000000000000       0.25000000000000000        0.0000000000000000     
  0.75000000000000000       0.25000000000000000        0.0000000000000000     
  0.62500000000000000       0.28125000000000000        0.0000000000000000     
  0.65625000000000000       0.28125000000000000        0.0000000000000000     
  0.68750000000000000       0.28125000000000000        0.0000000000000000     
  0.71875000000000000       0.28125000000000000        0.0000000000000000     
  0.75000000000000000       0.28125000000000000        0.0000000000000000     
  0.62500000000000000       0.31250000000000000        0.0000000000000000     
  0.65625000000000000       0.31250000000000000        0.0000000000000000     
  0.68750000000000000       0.31250000000000000        0.0000000000000000     
  0.71875000000000000       0.31250000000000000        0.0000000000000000     
  0.75000000000000000       0.31250000000000000        0.0000000000000000     
  0.62500000000000000       0.34375000000000000        0.0000000000000000     
  0.65625000000000000       0.34375000000000000        0.0000000000000000     
  0.68750000000000000       0.34375000000000000        0.0000000000000000     
  0.71875000000000000       0.34375000000000000        0.0000000000000000     
  0.75000000000000000       0.34375000000000000        0.0000000000000000     
  0.62500000000000000       0.37500000000000000        0.0000000000000000     
  0.65625000000000000       0.37500000000000000        0.0000000000000000     
  0.68750000000000000       0.37500000000000000        0.0000000000000000     
  0.71875000000000000       0.37500000000000000        0.0000000000000000     
  0.75000000000000000       0.37500000000000000        0.0000000000000000     
  0.75000000000000000       0.25000000000000000        0.0000000000000000     
  0.78125000000000000       0.25000000000000000        0.0000000000000000     
  0.81250000000000000       0.25000000000000000        0.0000000000000000     
  0.84375000000000000       0.25000000000000000        0.0000000000000000     
  0.87500000000000000       0.25000000000000000        0.0000000000000000     
  0.75000000000000000       0.28125000000000000        0.0000000000000000     
  0.78125000000000000       0.28125000000000000        0.0000000000000000     
  0.81250000000000000       0.28125000000000000        0.0000000000000000     
  0.84375000000000000       0.28125000000000000        0.0000000000000000     
  0.87500000000000000       0.28125000000000000        0.0000000000000000     
  0.75000000000000000       0.31250000000000000        0.0000000000000000     
  0.78125000000000000       0.31250000000000000        0.0000000000000000     
  0.81250000000000000       0.31250000000000000        0.0000000000000000     
  0.84375000000000000       0.31250000000000000        0.0000000000000000     
  0.87500000000000000       0.31250000000000000        0.0000000000000000     
  0.75000000000000000       0.34375000000000000        0.0000000000000000     
  0.78125000000000000       0.34375000000000000        0.0000000000000000     
  0.81250000000000000       0.34375000000000000        0.0000000000000000     
  0.84375000000000000       0.34375000000000000        0.0000000000000000     
  0.87500000000000000       0.34375000000000000        0.0000000000000000     
  0.75000000000000000       0.37500000000000000        0.0000000000000000     
  0.78125000000000000       0.37500000000000000        0.0000000000000000     
  0.81250000000000000       0.37500000000000000        0.0000000000000000     
  0.84375000000000000       0.37500000000000000        0.0000000000000000     
  0.87500000000000000       0.37500000000000000        0.0000000000000000     
  0.87500000000000000       0.25000000000000000        0.0000000000000000     
  0.90625000000000000       0.25000000000000000        0.0000000000000000     
  0.93750000000000000       0.25000000000000000        0.0000000000000000     
  0.96875000000000000       0.25000000000000000        0.0000000000000000     
   1.0000000000000000       0.25000000000000000        0.0000000000000000     
  0.87500000000000000       0.28125000000000000        0.0000000000000000     
  0.90625000000000000       0.28125000000000000        0.0000000000000000     
  0.93750000000000000       0.28125000000000000        0.0000000000000000     
  0.96875000000000000       0.28125000000000000        0.0000000000000000     
   1.0000000000000000       0.28125000000000000        0.0000000000000000     
  0.87500000000000000       0.31250000000000000        0.0000000000000000     
  0.90625000000000000       0.31250000000000000        0.0000000000000000     
  0.93750000000000000       0.31250000000000000        0.0000000000000000     
  0.96875000000000000       0.31250000000000000        0.0000000000000000     
   1.0000000000000000       0.31250000000000000        0.0000000000000000     
  0.87500000000000000       0.34375000000000000        0.0000000000000000     
  0.90625000000000000       0.34375000000000000        0.0000000000000000     
  0.93750000000000000       0.34375000000000000        0.0000000000000000     
  0.96875000000000000       0.34375000000000000        0.0000000000000000     
   1.0000000000000000       0.34375000000000000        0.0000000000000000     
  0.87500000000000000       0.37500000000000000        0.0000000000000000     
  0.90625000000000000       0.37500000000000000        0.0000000000000000     
  0.93750000000000000       0.37500000000000000        0.0000000000000000     
  0.96875000000000000       0.37500000000000000        0.0000000000000000     
   1.0000000000000000       0.37500000000000000        0.0000000000000000     
   1.0000000000000000       0.25000000000000000        0.0000000000000000     
   1.0312500000000000       0.25000000000000000        0.0000000000000000     
   1.0625000000000000       0.25000000000000000        0.0000000000000000     
   1.0937500000000000       0.25000000000000000        0.0000000000000000     
   1.1250000000000000       0.25000000000000000        0.0000000000000000     
   1.0000000000000000       0.28125000000000000        0.0000000000000000     
   1.0312500000000000       0.28125000000000000        0.0000000000000000     
   1.0625000000000000       0.28125000000000000        0.0000000000000000     
   1.0937500000000000       0.28125000000000000        0.0000000000000000     
   1.1250000000000000       0.28125000000000000        0.0000000000000000     
   1.0000000000000000       0.31250000000000000        0.0000000000000000     
   1.0312500000000000       0.31250000000000000        0.0000000000000000     
   1.0625000000000000       0.31250000000000000        0.0000000000000000     
   1.0937500000000000       0.31250000000000000        0.0000000000000000     
   1.1250000000000000       0.31250000000000000        0.0000000000000000     
   1.0000000000000000       0.34375000000000000        0.0000000000000000     
   1.0312500000000000       0.34375000000000000        0.0000000000000000     
   1.0625000000000000       0.34375000000000000        0.0000000000000000     
   1.0937500000000000       0.34375000000000000        0.0000000000000000     
   1.1250000000000000       0.34375000000000000        0.0000000000000000     
   1.0000000000000000       0.37500000000000000        0.0000000000000000     
   1.0312500000000000       0.37500000000000000        0.0000000000000000     
   1.0625000000000000       0.37500000000000000        0.0000000000000000     
   1.0937500000000000       0.37500000000000000        0.0000000000000000     
   1.1250000000000000       0.37500000000000000        0.0000000000000000     
   1.1250000000000000       0.25000000000000000        0.0000000000000000     
   1.1562500000000000       0.25000000000000000        0.0000000000000000     
   1.1875000000000000       0.25000000000000000        0.0000000000000000     
   1.2187500000000000       0.25000000000000000        0.0000000000000000     
   1.2500000000000000       0.25000000000000000        0.0000000000000000     
   1.1250000000000000       0.28125000000000000        0.0000000000000000     
   1.1562500000000000       0.28125000000000000        0.0000000000000000     
   1.1875000000000000       0.28125000000000000        0.0000000000000000     
   1.2187500000000000       0.28125000000000000        0.0000000000000000     
   1.2500000000000000       0.28125000000000000        0.0000000000000000     
   1.1250000000000000       0.31250000000000000        0.0000000000000000     
   1.1562500000000000       0.31250000000000000        0.0000000000000000     
   1.1875000000000000       0.31250000000000000        0.0000000000000000     
   1.2187500000000000       0.31250000000000000        0.0000000000000000     
   1.2500000000000000       0.31250000000000000        0.0000000000000000     
   1.1250000000000000       0.34375000000000000        0.0000000000000000     
   1.1562500000000000       0.34375000000000000        0.0000000000000000     
   1.1875000000000000       0.34375000000000000        0.0000000000000000     
   1.2187500000000000       0.34375000000000000        0.0000000000000000     
   1.2500000000000000       0.34375000000000000        0.0000000000000000     
   1.1250000000000000       0.37500000000000000        0.0000000000000000     
   1.1562500000000000       0.37500000000000000        0.0000000000000000     
   1.1875000000000000       0.37500000000000000        0.0000000000000000     
   1.2187500000000000       0.37500000000000000        0.0000000000000000     
   1.2500000000000000       0.37500000000000000        0.0000000000000000     
   1.2500000000000000       0.25000000000000000        0.0000000000000000     
   1.2812500000000000       0.25000000000000000        0.0000000000000000     
   1.3125000000000000       0.25000000000000000        0.0000000000000000     
   1.3437500000000000       0.25000000000000000        0.0000000000000000     
   1.3750000000000000       0.25000000000000000        0.0000000000000000     
   1.2500000000000000       0.28125000000000000        0.0000000000000000     
   1.2812500000000000       0.28125000000000000        0.0000000000000000     
   1.3125000000000000       0.28125000000000000        0.0000000000000000     
   1.3437500000000000       0.28125000000000000        0.0000000000000000     
   1.3750000000000000       0.28125000000000000        0.0000000000000000     
   1.2500000000000000       0.31250000000000000        0.0000000000000000     
   1.2812500000000000       0.31250000000000000        0.0000000000000000     
   1.3125000000000000       0.31250000000000000        0.0000000000000000     
   1.3437500000000000       0.31250000000000000        0.0000000000000000     
   1.3750000000000000       0.31250000000000000        0.0000000000000000     
   1.2500000000000000       0.34375000000000000        0.0000000000000000     
   1.2812500000000000       0.34375000000000000        0.0000000000000000     
   1.3125000000000000       0.34375000000000000        0.0000000000000000     
   1.3437500000000000       0.34375000000000000        0.0000000000000000     
   1.3750000000000000       0.34375000000000000        0.0000000000000000     
   1.2500000000000000       0.37500000000000000        0.0000000000000000     
   1.2812500000000000       0.37500000000000000        0.0000000000000000     
   1.3125000000000000       0.37500000000000000        0.0000000000000000     
   1.3437500000000000       0.37500000000000000        0.0000000000000000     
   1.3750000000000000       0.37500000000000000        0.0000000000000000     
   1.3750000000000000       0.25000000000000000        0.0000000000000000     
   1.4062500000000000       0.25000000000000000        0.0000000000000000     
   1.4375000000000000       0.25000000000000000        0.0000000000000000     
   1.4687500000000000       0.25000000000000000        0.0000000000000000     
   1.5000000000000000       0.25000000000000000        0.0000000000000000     
   1.3750000000000000       0.28125000000000000        0.0000000000000000     
   1.4062500000000000       0.28125000000000000        0.0000000000000000     
   1.4375000000000000       0.28125000000000000        0.0000000000000000     
   1.4687500000000000       0.28125000000000000        0.0000000000000000     
   1.5000000000000000       0.28125000000000000        0.0000000000000000     
   1.3750000000000000       0.31250000000000000        0.0000000000000000     
   1.4062500000000000       0.31250000000000000        0.0000000000000000     
   1.4375000000000000       0.31250000000000000        0.0000000000000000     
   1.4687500000000000       0.31250000000000000        0.0000000000000000     
   1.5000000000000000       0.31250000000000000        0.0000000000000000     
   1.3750000000000000       0.34375000000000000        0.0000000000000000     
   1.4062500000000000       0.34375000000000000        0.0000000000000000     
   1.4375000000000000       0.34375000000000000        0.0000000000000000     
   1.4687500000000000       0.34375000000000000        0.0000000000000000     
   1.5000000000000000       0.34375000000000000        0.0000000000000000     
   1.3750000000000000       0.37500000000000000        0.0000000000000000     
   1.4062500000000000       0.37500000000000000        0.0000000000000000     
   1.4375000000000000       0.37500000000000000        0.0000000000000000     
   1.4687500000000000       0.37500000000000000        0.0000000000000000     
   1.5000000000000000       0.37500000000000000        0.0000000000000000     
  0.50000000000000000       0.37500000000000000        0.0000000000000000     
  0.53125000000000000       0.37500000000000000        0.0000000000000000     
  0.56250000000000000       0.37500000000000000        0.0000000000000000     
  0.59375000000000000       0.37500000000000000        0.0000000000000000     
  0.62500000000000000       0.37500000000000000        0.0000000000000000     
  0.50000000000000000       0.40625000000000000        0.0000000000000000     
  0.53125000000000000       0.40625000000000000        0.0000000000000000     
  0.56250000000000000       0.40625000000000000        0.0000000000000000     
  0.59375000000000000       0.40625000000000000        0.0000000000000000     
  0.62500000000000000       0.40625000000000000        0.0000000000000000     
  0.50000000000000000       0.43750000000000000        0.0000000000000000     
  0.53125000000000000       0.43750000000000000        0.0000000000000000     
  0.56250000000000000       0.43750000000000000        0.0000000000000000     
  0.59375000000000000       0.43750000000000000        0.0000000000000000     
  0.62500000000000000       0.43750000000000000        0.0000000000000000     
  0.50000000000000000       0.46875000000000000        0.0000000000000000     
  0.53125000000000000       0.46875000000000000        0.0000000000000000     
  0.56250000000000000       0.46875000000000000        0.0000000000000000     
  0.59375000000000000       0.46875000000000000        0.0000000000000000     
  0.62500000000000000       0.46875000000000000        0.0000000000000000     
  0.50000000000000000       0.50000000000000000        0.0000000000000000     
  0.53125000000000000       0.50000000000000000        0.0000000000000000     
  0.56250000000000000       0.50000000000000000        0.0000000000000000     
  0.59375000000000000       0.50000000000000000        0.0000000000000000     
  0.62500000000000000       0.50000000000000000        0.0000000000000000     
  0.62500000000000000       0.37500000000000000        0.0000000000000000     
  0.65625000000000000       0.37500000000000000        0.0000000000000000     
  0.68750000000000000       0.37500000000000000        0.0000000000000000     
  0.71875000000000000       0.37500000000000000        0.0000000000000000     
  0.75000000000000000       0.37500000000000000        0.0000000000000000     
  0.62500000000000000       0.40625000000000000        0.0000000000000000     
  0.65625000000000000       0.40625000000000000        0.0000000000000000     
  0.68750000000000000       0.40625000000000000        0.0000000000000000     
  0.71875000000000000       0.40625000000000000        0.0000000000000000     
  0.75000000000000000       0.40625000000000000        0.0000000000000000     
  0.62500000000000000       0.43750000000000000        0.0000000000000000     
  0.65625000000000000       0.43750000000000000        0.0000000000000000     
  0.68750000000000000       0.43750000000000000        0.0000000000000000     
  0.71875000000000000       0.43750000000000000        0.0000000000000000     
  0.75000000000000000       0.43750000000000000        0.0000000000000000     
  0.62500000000000000       0.46875000000000000        0.0000000000000000     
  0.65625000000000000       0.46875000000000000        0.0000000000000000     
  0.68750000000000000       0.46875000000000000        0.0000000000000000     
  0.71875000000000000       0.46875000000000000        0.0000000000000000     
  0.75000000000000000       0.46875000000000000        0.0000000000000000     
  0.62500000000000000       0.50000000000000000        0.0000000000000000     
  0.65625000000000000       0.50000000000000000        0.0000000000000000     
  0.68750000000000000       0.50000000000000000        0.0000000000000000     
  0.71875000000000000       0.50000000000000000        0.0000000000000000     
  0.75000000000000000       0.50000000000000000        0.0000000000000000     
  0.75000000000000000       0.37500000000000000        0.0000000000000000     
  0.78125000000000000       0.37500000000000000        0.0000000000000000     
  0.81250000000000000       0.37500000000000000        0.0000000000000000     
  0.84375000000000000       0.37500000000000000        0.0000000000000000     
  0.87500000000000000       0.37500000000000000        0.0000000000000000     
  0.75000000000000000       0.40625000000000000        0.0000000000000000     
  0.78125000000000000       0.40625000000000000        0.0000000000000000     
  0.81250000000000000       0.40625000000000000        0.0000000000000000     
  0.84375000000000000       0.40625000000000000        0.0000000000000000     
  0.87500000000000000       0.40625000000000000        0.0000000000000000     
  0.75000000000000000       0.43750000000000000        0.0000000000000000     
  0.78125000000000000       0.43750000000000000        0.0000000000000000     
  0.81250000000000000       0.43750000000000000        0.0000000000000000     
  0.84375000000000000       0.43750000000000000        0.0000000000000000     
  0.87500000000000000       0.43750000000000000        0.0000000000000000     
  0.75000000000000000       0.46875000000000000        0.0000000000000000     
  0.78125000000000000       0.46875000000000000        0.0000000000000000     
  0.81250000000000000       0.46875000000000000        0.0000000000000000     
  0.84375000000000000       0.46875000000000000        0.0000000000000000     
  0.87500000000000000       0.46875000000000000        0.0000000000000000     
  0.75000000000000000       0.50000000000000000        0.0000000000000000     
  0.78125000000000000       0.50000000000000000        0.0000000000000000     
  0.81250000000000000       0.50000000000000000        0.0000000000000000     
  0.84375000000000000       0.50000000000000000        0.0000000000000000     
  0.87500000000000000       0.50000000000000000        0.0000000000000000     
  0.87500000000000000       0.37500000000000000        0.0000000000000000     
  0.90625000000000000       0.37500000000000000        0.0000000000000000     
  0.93750000000000000       0.37500000000000000        0.0000000000000000     
  0.96875000000000000       0.37500000000000000        0.0000000000000000     
   1.0000000000000000       0.37500000000000000        0.0000000000000000     
  0.87500000000000000       0.40625000000000000        0.0000000000000000     
  0.90625000000000000       0.40625000000000000        0.0000000000000000     
  0.93750000000000000       0.40625000000000000        0.0000000000000000     
  0.96875000000000000       0.40625000000000000        0.0000000000000000     
   1.0000000000000000       0.40625000000000000        0.0000000000000000     
  0.87500000000000000       0.43750000000000000        0.0000000000000000     
  0.90625000000000000       0.43750000000000000        0.0000000000000000     
  0.93750000000000000       0.43750000000000000        0.0000000000000000     
  0.96875000000000000       0.43750000000000000        0.0000000000000000     
   1.0000000000000000       0.43750000000000000        0.0000000000000000     
  0.87500000000000000       0.46875000000000000        0.0000000000000000     
  0.90625000000000000       0.46875000000000000        0.0000000000000000     
  0.93750000000000000       0.46875000000000000        0.0000000000000000     
  0.96875000000000000       0.46875000000000000        0.0000000000000000     
   1.0000000000000000       0.46875000000000000        0.0000000000000000     
  0.87500000000000000       0.50000000000000000        0.0000000000000000     
  0.90625000000000000       0.50000000000000000        0.0000000000000000     
  0.93750000000000000       0.50000000000000000        0.0000000000000000     
  0.96875000000000000       0.50000000000000000        0.0000000000000000     
   1.0000000000000000       0.50000000000000000        0.0000000000000000     
   1.0000000000000000       0.37500000000000000        0.0000000000000000     
   1.0312500000000000       0.37500000000000000        0.0000000000000000     
   1.0625000000000000       0.37500000000000000        0.0000000000000000     
   1.0937500000000000       0.37500000000000000        0.0000000000000000     
   1.1250000000000000       0.37500000000000000        0.0000000000000000     
   1.0000000000000000       0.40625000000000000        0.0000000000000000     
   1.0312500000000000       0.40625000000000000        0.0000000000000000     
   1.0625000000000000       0.40625000000000000        0.0000000000000000     
   1.0937500000000000       0.40625000000000000        0.0000000000000000     
   1.1250000000000000       0.40625000000000000        0.0000000000000000     
   1.0000000000000000       0.43750000000000000        0.0000000000000000     
   1.0312500000000000       0.43750000000000000        0.0000000000000000     
   1.0625000000000000       0.43750000000000000        0.0000000000000000     
   1.0937500000000000       0.43750000000000000        0.0000000000000000     
   1.1250000000000000       0.43750000000000000        0.0000000000000000     
   1.0000000000000000       0.46875000000000000        0.0000000000000000     
   1.0312500000000000       0.46875000000000000        0.0000000000000000     
   1.0625000000000000       0.46875000000000000        0.0000000000000000     
   1.0937500000000000       0.46875000000000000        0.0000000000000000     
   1.1250000000000000       0.46875000000000000        0.0000000000000000     
   1.0000000000000000       0.50000000000000000        0.0000000000000000     
   1.0312500000000000       0.50000000000000000        0.0000000000000000     
   1.0625000000000000       0.50000000000000000        0.0000000000000000     
   1.0937500000000000       0.50000000000000000        0.0000000000000000     
   1.1250000000000000       0.50000000000000000        0.0000000000000000     
   1.1250000000000000       0.37500000000000000        0.0000000000000000     
   1.1562500000000000       0.37500000000000000        0.0000000000000000     
   1.1875000000000000       0.37500000000000000        0.0000000000000000     
   1.2187500000000000       0.37500000000000000        0.0000000000000000     
   1.2500000000000000       0.37500000000000000        0.0000000000000000     
   1.1250000000000000       0.40625000000000000        0.0000000000000000     
   1.1562500000000000       0.40625000000000000        0.0000000000000000     
   1.1875000000000000       0.40625000000000000        0.0000000000000000     
   1.2187500000000000       0.40625000000000000        0.0000000000000000     
   1.2500000000000000       0.40625000000000000        0.0000000000000000     
   1.1250000000000000       0.43750000000000000        0.0000000000000000     
   1.1562500000000000       0.43750000000000000        0.0000000000000000     
   1.1875000000000000       0.43750000000000000        0.0000000000000000     
   1.2187500000000000       0.43750000000000000        0.0000000000000000     
   1.2500000000000000       0.43750000000000000        0.0000000000000000     
   1.1250000000000000       0.46875000000000000        0.0000000000000000     
   1.1562500000000000       0.46875000000000000        0.0000000000000000     
   1.1875000000000000       0.46875000000000000        0.0000000000000000     
   1.2187500000000000       0.46875000000000000        0.0000000000000000     
   1.2500000000000000       0.46875000000000000        0.0000000000000000     
   1.1250000000000000       0.50000000000000000        0.0000000000000000     
   1.1562500000000000       0.50000000000000000        0.0000000000000000     
   1.1875000000000000       0.50000000000000000        0.0000000000000000     
   1.2187500000000000       0.50000000000000000        0.0000000000000000     
   1.2500000000000000       0.50000000000000000        0.0000000000000000     
   1.2500000000000000       0.37500000000000000        0.0000000000000000     
   1.2812500000000000       0.37500000000000000        0.0000000000000000     
   1.3125000000000000       0.37500000000000000        0.0000000000000000     
   1.3437500000000000       0.37500000000000000        0.0000000000000000     
   1.3750000000000000       0.37500000000000000        0.0000000000000000     
   1.2500000000000000       0.40625000000000000        0.0000000000000000     
   1.2812500000000000       0.40625000000000000        0.0000000000000000     
   1.3125000000000000       0.40625000000000000        0.0000000000000000     
   1.3437500000000000       0.40625000000000000        0.0000000000000000     
   1.3750000000000000       0.40625000000000000        0.0000000000000000     
   1.2500000000000000       0.43750000000000000        0.0000000000000000     
   1.2812500000000000       0.43750000000000000        0.0000000000000000     
   1.3125000000000000       0.43750000000000000        0.0000000000000000     
   1.3437500000000000       0.43750000000000000        0.0000000000000000     
   1.3750000000000000       0.43750000000000000        0.0000000000000000     
   1.2500000000000000       0.46875000000000000        0.0000000000000000     
   1.2812500000000000       0.46875000000000000        0.0000000000000000     
   1.3125000000000000       0.46875000000000000        0.0000000000000000     
   1.3437500000000000       0.46875000000000000        0.0000000000000000     
   1.3750000000000000       0.46875000000000000        0.0000000000000000     
   1.2500000000000000       0.50000000000000000        0.0000000000000000     
   1.2812500000000000       0.50000000000000000        0.0000000000000000     
   1.3125000000000000       0.50000000000000000        0.0000000000000000     
   1.3437500000000000       0.50000000000000000        0.0000000000000000     
   1.3750000000000000       0.50000000000000000        0.0000000000000000     
   1.3750000000000000       0.37500000000000000        0.0000000000000000     
   1.4062500000000000       0.37500000000000000        0.0000000000000000     
   1.4375000000000000       0.37500000000000000        0.0000000000000000     
   1.4687500000000000       0.37500000000000000        0.0000000000000000     
   1.5000000000000000       0.37500000000000000        0.0000000000000000     
   1.3750000000000000       0.40625000000000000        0.0000000000000000     
   1.4062500000000000       0.40625000000000000        0.0000000000000000     
   1.4375000000000000       0.40625000000000000        0.0000000000000000     
   1.4687500000000000       0.40625000000000000        0.0000000000000000     
   1.5000000000000000       0.40625000000000000        0.0000000000000000     
   1.3750000000000000       0.43750000000000000        0.0000000000000000     
   1.4062500000000000       0.43750000000000000        0.0000000000000000     
   1.4375000000000000       0.43750000000000000        0.0000000000000000     
   1.4687500000000000       0.43750000000000000        0.0000000000000000     
   1.5000000000000000       0.43750000000000000        0.0000000000000000     
   1.3750000000000000       0.46875000000000000        0.0000000000000000     
   1.4062500000000000       0.46875000000000000        0.0000000000000000     
   1.4375000000000000       0.46875000000000000        0.0000000000000000     
   1.4687500000000000       0.46875000000000000        0.0000000000000000     
   1.5000000000000000       0.46875000000000000        0.0000000000000000     
   1.3750000000000000       0.50000000000000000        0.0000000000000000     
   1.4062500000000000       0.50000000000000000        0.0000000000000000     
   1.4375000000000000       0.50000000000000000        0.0000000000000000     
   1.4687500000000000       0.50000000000000000        0.0000000000000000     
   1.5000000000000000       0.50000000000000000        0.0000000000000000     
  0.50000000000000000       0.50000000000000000        0.0000000000000000     
  0.53125000000000000       0.50000000000000000        0.0000000000000000     
  0.56250000000000000       0.50000000000000000        0.0000000000000000     
  0.59375000000000000       0.50000000000000000        0.0000000000000000     
  0.62500000000000000       0.50000000000000000        0.0000000000000000     
  0.50000000000000000       0.53125000000000000        0.0000000000000000     
  0.53125000000000000       0.53125000000000000        0.0000000000000000     
  0.56250000000000000       0.53125000000000000        0.0000000000000000     
  0.59375000000000000       0.53125000000000000        0.0000000000000000     
  0.62500000000000000       0.53125000000000000        0.0000000000000000     
  0.50000000000000000       0.56250000000000000        0.0000000000000000     
  0.53125000000000000       0.56250000000000000        0.0000000000000000     
  0.56250000000000000       0.56250000000000000        0.0000000000000000     
  0.59375000000000000       0.56250000000000000        0.0000000000000000     
  0.62500000000000000       0.56250000000000000        0.0000000000000000     
  0.50000000000000000       0.59375000000000000        0.0000000000000000     
  0.53125000000000000       0.59375000000000000        0.0000000000000000     
  0.56250000000000000       0.59375000000000000        0.0000000000000000     
  0.59375000000000000       0.59375000000000000        0.0000000000000000     
  0.62500000000000000       0.59375000000000000        0.0000000000000000     
  0.50000000000000000       0.62500000000000000        0.0000000000000000     
  0.53125000000000000       0.62500000000000000        0.0000000000000000     
  0.56250000000000000       0.62500000000000000        0.0000000000000000     
  0.59375000000000000       0.62500000000000000        0.0000000000000000     
  0.62500000000000000       0.62500000000000000        0.0000000000000000     
  0.62500000000000000       0.50000000000000000        0.0000000000000000     
  0.65625000000000000       0.50000000000000000        0.0000000000000000     
  0.68750000000000000       0.50000000000000000        0.0000000000000000     
  0.71875000000000000       0.50000000000000000        0.0000000000000000     
  0.75000000000000000       0.50000000000000000        0.0000000000000000     
  0.62500000000000000       0.53125000000000000        0.0000000000000000     
  0.65625000000000000       0.53125000000000000        0.0000000000000000     
  0.68750000000000000       0.53125000000000000        0.0000000000000000     
  0.71875000000000000       0.53125000000000000        0.0000000000000000     
  0.75000000000000000       0.53125000000000000        0.0000000000000000     
  0.62500000000000000       0.56250000000000000        0.0000000000000000     
  0.65625000000000000       0.56250000000000000        0.0000000000000000     
  0.68750000000000000       0.56250000000000000        0.0000000000000000     
  0.71875000000000000       0.56250000000000000        0.0000000000000000     
  0.75000000000000000       0.56250000000000000        0.0000000000000000     
  0.62500000000000000       0.59375000000000000        0.0000000000000000     
  0.65625000000000000       0.59375000000000000        0.0000000000000000     
  0.68750000000000000       0.59375000000000000        0.0000000000000000     
  0.71875000000000000       0.59375000000000000        0.0000000000000000     
  0.75000000000000000       0.59375000000000000        0.0000000000000000     
  0.62500000000000000       0.62500000000000000        0.0000000000000000     
  0.65625000000000000       0.62500000000000000        0.0000000000000000     
  0.68750000000000000       0.62500000000000000        0.0000000000000000     
  0.71875000000000000       0.62500000000000000        0.0000000000000000     
  0.75000000000000000       0.62500000000000000        0.0000000000000000     
  0.75000000000000000       0.50000000000000000        0.0000000000000000     
  0.78125000000000000       0.50000000000000000        0.0000000000000000     
  0.81250000000000000       0.50000000000000000        0.0000000000000000     
  0.84375000000000000       0.50000000000000000        0.0000000000000000     
  0.87500000000000000       0.50000000000000000        0.0000000000000000     
  0.75000000000000000       0.53125000000000000        0.0000000000000000     
  0.78125000000000000       0.53125000000000000        0.0000000000000000     
  0.81250000000000000       0.53125000000000000        0.0000000000000000     
  0.84375000000000000       0.53125000000000000        0.0000000000000000     
  0.87500000000000000       0.53125000000000000        0.0000000000000000     
  0.75000000000000000       0.56250000000000000        0.0000000000000000     
  0.78125000000000000       0.56250000000000000        0.0000000000000000     
  0.81250000000000000       0.56250000000000000        0.0000000000000000     
  0.84375000000000000       0.56250000000000000        0.0000000000000000     
  0.87500000000000000       0.56250000000000000        0.0000000000000000     
  0.75000000000000000       0.59375000000000000        0.0000000000000000     
  0.78125000000000000       0.59375000000000000        0.0000000000000000     
  0.81250000000000000       0.59375000000000000        0.0000000000000000     
  0.84375000000000000       0.59375000000000000        0.0000000000000000     
  0.87500000000000000       0.59375000000000000        0.0000000000000000     
  0.75000000000000000       0.62500000000000000        0.0000000000000000     
  0.78125000000000000       0.62500000000000000        0.0000000000000000     
  0.81250000000000000       0.62500000000000000        0.0000000000000000     
  0.84375000000000000       0.62500000000000000        0.0000000000000000     
  0.87500000000000000       0.62500000000000000        0.0000000000000000     
  0.87500000000000000       0.50000000000000000        0.0000000000000000     
  0.90625000000000000       0.50000000000000000        0.0000000000000000     
  0.93750000000000000       0.50000000000000000        0.0000000000000000     
  0.96875000000000000       0.50000000000000000        0.0000000000000000     
   1.0000000000000000       0.50000000000000000        0.0000000000000000     
  0.87500000000000000       0.53125000000000000        0.0000000000000000     
  0.90625000000000000       0.53125000000000000        0.0000000000000000     
  0.93750000000000000       0.53125000000000000        0.0000000000000000     
  0.96875000000000000       0.53125000000000000        0.0000000000000000     
   1.0000000000000000       0.53125000000000000        0.0000000000000000     
  0.87500000000000000       0.56250000000000000        0.0000000000000000     
  0.90625000000000000       0.56250000000000000        0.0000000000000000     
  0.93750000000000000       0.56250000000000000        0.0000000000000000     
  0.96875000000000000       0.56250000000000000        0.0000000000000000     
   1.0000000000000000       0.56250000000000000        0.0000000000000000     
  0.87500000000000000       0.59375000000000000        0.0000000000000000     
  0.90625000000000000       0.59375000000000000        0.0000000000000000     
  0.93750000000000000       0.59375000000000000        0.0000000000000000     
  0.96875000000000000       0.59375000000000000        0.0000000000000000     
   1.0000000000000000       0.59375000000000000        0.0000000000000000     
  0.87500000000000000       0.62500000000000000        0.0000000000000000     
  0.90625000000000000       0.62500000000000000        0.0000000000000000     
  0.93750000000000000       0.62500000000000000        0.0000000000000000     
  0.96875000000000000       0.62500000000000000        0.0000000000000000     
   1.0000000000000000       0.62500000000000000        0.0000000000000000     
   1.0000000000000000       0.50000000000000000        0.0000000000000000     
   1.0312500000000000       0.50000000000000000        0.0000000000000000     
   1.0625000000000000       0.50000000000000000        0.0000000000000000     
   1.0937500000000000       0.50000000000000000        0.0000000000000000     
   1.1250000000000000       0.50000000000000000        0.0000000000000000     
   1.0000000000000000       0.53125000000000000        0.0000000000000000     
   1.0312500000000000       0.53125000000000000        0.0000000000000000     
   1.0625000000000000       0.53125000000000000        0.0000000000000000     
   1.0937500000000000       0.53125000000000000        0.0000000000000000     
   1.1250000000000000       0.53125000000000000        0.0000000000000000     
   1.0000000000000000       0.56250000000000000        0.0000000000000000     
   1.0312500000000000       0.56250000000000000        0.0000000000000000     
   1.0625000000000000       0.56250000000000000        0.0000000000000000     
   1.0937500000000000       0.56250000000000000        0.0000000000000000     
   1.1250000000000000       0.56250000000000000        0.0000000000000000     
   1.0000000000000000       0.59375000000000000        0.0000000000000000     
   1.0312500000000000       0.59375000000000000        0.0000000000000000     
   1.0625000000000000       0.59375000000000000        0.0000000000000000     
   1.0937500000000000       0.59375000000000000        0.0000000000000000     
   1.1250000000000000       0.59375000000000000        0.0000000000000000     
   1.0000000000000000       0.62500000000000000        0.0000000000000000     
   1.0312500000000000       0.62500000000000000        0.0000000000000000     
   1.0625000000000000       0.62500000000000000        0.0000000000000000     
   1.0937500000000000       0.62500000000000000        0.0000000000000000     
   1.1250000000000000       0.62500000000000000        0.0000000000000000     
   1.1250000000000000       0.50000000000000000        0.0000000000000000     
   1.1562500000000000       0.50000000000000000        0.0000000000000000     
   1.1875000000000000       0.50000000000000000        0.0000000000000000     
   1.2187500000000000       0.50000000000000000        0.0000000000000000     
   1.2500000000000000       0.50000000000000000        0.0000000000000000     
   1.1250000000000000       0.53125000000000000        0.0000000000000000     
   1.1562500000000000       0.53125000000000000        0.0000000000000000     
   1.1875000000000000       0.53125000000000000        0.0000000000000000     
   1.2187500000000000       0.53125000000000000        0.0000000000000000     
   1.2500000000000000       0.53125000000000000        0.0000000000000000     
   1.1250000000000000       0.56250000000000000        0.0000000000000000     
   1.1562500000000000       0.56250000000000000        0.0000000000000000     
   1.1875000000000000       0.56250000000000000        0.0000000000000000     
   1.2187500000000000       0.56250000000000000        0.0000000000000000     
   1.2500000000000000       0.56250000000000000        0.0000000000000000     
   1.1250000000000000       0.59375000000000000        0.0000000000000000     
   1.1562500000000000       0.59375000000000000        0.0000000000000000     
   1.1875000000000000       0.59375000000000000        0.0000000000000000     
   1.2187500000000000       0.59375000000000000        0.0000000000000000     
   1.2500000000000000       0.59375000000000000        0.0000000000000000     
   1.1250000000000000       0.62500000000000000        0.0000000000000000     
   1.1562500000000000       0.62500000000000000        0.0000000000000000     
   1.1875000000000000       0.62500000000000000        0.0000000000000000     
   1.2187500000000000       0.62500000000000000        0.0000000000000000     
   1.2500000000000000       0.62500000000000000        0.0000000000000000     
   1.2500000000000000       0.50000000000000000        0.0000000000000000     
   1.2812500000000000       0.50000000000000000        0.0000000000000000     
   1.3125000000000000       0.50000000000000000        0.0000000000000000     
   1.3437500000000000       0.50000000000000000        0.0000000000000000     
   1.3750000000000000       0.50000000000000000        0.0000000000000000     
   1.2500000000000000       0.53125000000000000        0.0000000000000000     
   1.2812500000000000       0.53125000000000000        0.0000000000000000     
   1.3125000000000000       0.53125000000000000        0.0000000000000000     
   1.3437500000000000       0.53125000000000000        0.0000000000000000     
   1.3750000000000000       0.53125000000000000        0.0000000000000000     
   1.2500000000000000       0.56250000000000000        0.0000000000000000     
   1.2812500000000000       0.56250000000000000        0.0000000000000000     
   1.3125000000000000       0.56250000000000000        0.0000000000000000     
   1.3437500000000000       0.56250000000000000        0.0000000000000000     
   1.3750000000000000       0.56250000000000000        0.0000000000000000     
   1.2500000000000000       0.59375000000000000        0.0000000000000000     
   1.2812500000000000       0.59375000000000000        0.0000000000000000     
   1.3125000000000000       0.59375000000000000        0.0000000000000000     
   1.3437500000000000       0.59375000000000000        0.0000000000000000     
   1.3750000000000000       0.59375000000000000        0.0000000000000000     
   1.2500000000000000       0.62500000000000000        0.0000000000000000     
   1.2812500000000000       0.62500000000000000        0.0000000000000000     
   1.3125000000000000       0.62500000000000000        0.0000000000000000     
   1.3437500000000000       0.62500000000000000        0.0000000000000000     
   1.3750000000000000       0.62500000000000000        0.0000000000000000     
   1.3750000000000000       0.50000000000000000        0.0000000000000000     
   1.4062500000000000       0.50000000000000000        0.0000000000000000     
   1.4375000000000000       0.50000000000000000        0.0000000000000000     
   1.4687500000000000       0.50000000000000000        0.0000000000000000     
   1.5000000000000000       0.50000000000000000        0.0000000000000000     
   1.3750000000000000       0.53125000000000000        0.0000000000000000     
   1.4062500000000000       0.53125000000000000        0.0000000000000000     
   1.4375000000000000       0.53125000000000000        0.0000000000000000     
   1.4687500000000000       0.53125000000000000        0.0000000000000000     
   1.5000000000000000       0.53125000000000000        0.0000000000000000     
   1.3750000000000000       0.56250000000000000        0.0000000000000000     
   1.4062500000000000       0.56250000000000000        0.0000000000000000     
   1.4375000000000000       0.56250000000000000        0.0000000000000000     
   1.4687500000000000       0.56250000000000000        0.0000000000000000     
   1.5000000000000000       0.56250000000000000        0.0000000000000000     
   1.3750000000000000       0.59375000000000000        0.0000000000000000     
   1.4062500000000000       0.59375000000000000        0.0000000000000000     
   1.4375000000000000       0.59375000000000000        0.0000000000000000     
   1.4687500000000000       0.59375000000000000        0.0000000000000000     
   1.5000000000000000       0.59375000000000000        0.0000000000000000     
   1.3750000000000000       0.62500000000000000        0.0000000000000000     
   1.4062500000000000       0.62500000000000000        0.0000000000000000     
   1.4375000000000000       0.62500000000000000        0.0000000000000000     
   1.4687500000000000       0.62500000000000000        0.0000000000000000     
   1.5000000000000000       0.62500000000000000        0.0000000000000000     
  0.50000000000000000       0.62500000000000000        0.0000000000000000     
  0.53125000000000000       0.62500000000000000        0.0000000000000000     
  0.56250000000000000       0.62500000000000000        0.0000000000000000     
  0.59375000000000000       0.62500000000000000        0.0000000000000000     
  0.62500000000000000       0.62500000000000000        0.0000000000000000     
  0.50000000000000000       0.65625000000000000        0.0000000000000000     
  0.53125000000000000       0.65625000000000000        0.0000000000000000     
  0.56250000000000000       0.65625000000000000        0.0000000000000000     
  0.59375000000000000       0.65625000000000000        0.0000000000000000     
  0.62500000000000000       0.65625000000000000        0.0000000000000000     
  0.50000000000000000       0.68750000000000000        0.0000000000000000     
  0.53125000000000000       0.68750000000000000        0.0000000000000000     
  0.56250000000000000       0.68750000000000000        0.0000000000000000     
  0.59375000000000000       0.68750000000000000        0.0000000000000000     
  0.62500000000000000       0.68750000000000000        0.0000000000000000     
  0.50000000000000000       0.71875000000000000        0.0000000000000000     
  0.53125000000000000       0.71875000000000000        0.0000000000000000     
  0.56250000000000000       0.71875000000000000        0.0000000000000000     
  0.59375000000000000       0.71875000000000000        0.0000000000000000     
  0.62500000000000000       0.71875000000000000        0.0000000000000000     
  0.50000000000000000       0.75000000000000000        0.0000000000000000     
  0.53125000000000000       0.75000000000000000        0.0000000000000000     
  0.56250000000000000       0.75000000000000000        0.0000000000000000     
  0.59375000000000000       0.75000000000000000        0.0000000000000000     
  0.62500000000000000       0.75000000000000000        0.0000000000000000     
  0.62500000000000000       0.62500000000000000        0.0000000000000000     
  0.65625000000000000       0.62500000000000000        0.0000000000000000     
  0.68750000000000000       0.62500000000000000        0.0000000000000000     
  0.71875000000000000       0.62500000000000000        0.0000000000000000     
  0.75000000000000000       0.62500000000000000        0.0000000000000000     
  0.62500000000000000       0.65625000000000000        0.0000000000000000     
  0.65625000000000000       0.65625000000000000        0.0000000000000000     
  0.68750000000000000       0.65625000000000000        0.0000000000000000     
  0.71875000000000000       0.65625000000000000        0.0000000000000000     
  0.75000000000000000       0.65625000000000000        0.0000000000000000     
  0.62500000000000000       0.68750000000000000        0.0000000000000000     
  0.65625000000000000       0.68750000000000000        0.0000000000000000     
  0.68750000000000000       0.68750000000000000        0.0000000000000000     
  0.71875000000000000       0.68750000000000000        0.0000000000000000     
  0.75000000000000000       0.68750000000000000        0.0000000000000000     
  0.62500000000000000       0.71875000000000000        0.0000000000000000     
  0.65625000000000000       0.71875000000000000        0.0000000000000000     
  0.68750000000000000       0.71875000000000000        0.0000000000000000     
  0.71875000000000000       0.71875000000000000        0.0000000000000000     
  0.75000000000000000       0.71875000000000000        0.0000000000000000     
  0.62500000000000000       0.75000000000000000        0.0000000000000000     
  0.65625000000000000       0.75000000000000000        0.0000000000000000     
  0.68750000000000000       0.75000000000000000        0.0000000000000000     
  0.71875000000000000       0.75000000000000000        0.0000000000000000     
  0.75000000000000000       0.75000000000000000        0.0000000000000000     
  0.75000000000000000       0.62500000000000000        0.0000000000000000     
  0.78125000000000000       0.62500000000000000        0.0000000000000000     
  0.81250000000000000       0.62500000000000000        0.0000000000000000     
  0.84375000000000000       0.62500000000000000        0.0000000000000000     
  0.87500000000000000       0.62500000000000000        0.0000000000000000     
  0.75000000000000000       0.65625000000000000        0.0000000000000000     
  0.78125000000000000       0.65625000000000000        0.0000000000000000     
  0.81250000000000000       0.65625000000000000        0.0000000000000000     
  0.84375000000000000       0.65625000000000000        0.0000000000000000     
  0.87500000000000000       0.65625000000000000        0.0000000000000000     
  0.75000000000000000       0.68750000000000000        0.0000000000000000     
  0.78125000000000000       0.68750000000000000        0.0000000000000000     
  0.81250000000000000       0.68750000000000000        0.0000000000000000     
  0.84375000000000000       0.68750000000000000        0.0000000000000000     
  0.87500000000000000       0.68750000000000000        0.0000000000000000     
  0.75000000000000000       0.71875000000000000        0.0000000000000000     
  0.78125000000000000       0.71875000000000000        0.0000000000000000     
  0.81250000000000000       0.71875000000000000        0.0000000000000000     
  0.84375000000000000       0.71875000000000000        0.0000000000000000     
  0.87500000000000000       0.71875000000000000        0.0000000000000000     
  0.75000000000000000       0.75000000000000000        0.0000000000000000     
  0.78125000000000000       0.75000000000000000        0.0000000000000000     
  0.81250000000000000       0.75000000000000000        0.0000000000000000     
  0.84375000000000000       0.75000000000000000        0.0000000000000000     
  0.87500000000000000       0.75000000000000000        0.0000000000000000     
  0.87500000000000000       0.62500000000000000        0.0000000000000000     
  0.90625000000000000       0.62500000000000000        0.0000000000000000     
  0.93750000000000000       0.62500000000000000        0.0000000000000000     
  0.96875000000000000       0.62500000000000000        0.0000000000000000     
   1.0000000000000000       0.62500000000000000        0.0000000000000000     
  0.87500000000000000       0.65625000000000000        0.0000000000000000     
  0.90625000000000000       0.65625000000000000        0.0000000000000000     
  0.93750000000000000       0.65625000000000000        0.0000000000000000     
  0.96875000000000000       0.65625000000000000        0.0000000000000000     
   1.0000000000000000       0.65625000000000000        0.0000000000000000     
  0.87500000000000000       0.68750000000000000        0.0000000000000000     
  0.90625000000000000       0.68750000000000000        0.0000000000000000     
  0.93750000000000000       0.68750000000000000        0.0000000000000000     
  0.96875000000000000       0.68750000000000000        0.0000000000000000     
   1.0000000000000000       0.68750000000000000        0.0000000000000000     
  0.87500000000000000       0.71875000000000000        0.0000000000000000     
  0.90625000000000000       0.71875000000000000        0.0000000000000000     
  0.93750000000000000       0.71875000000000000        0.0000000000000000     
  0.96875000000000000       0.71875000000000000        0.0000000000000000     
   1.0000000000000000       0.71875000000000000        0.0000000000000000     
  0.87500000000000000       0.75000000000000000        0.0000000000000000     
  0.90625000000000000       0.75000000000000000        0.0000000000000000     
  0.93750000000000000       0.75000000000000000        0.0000000000000000     
  0.96875000000000000       0.75000000000000000        0.0000000000000000     
   1.0000000000000000       0.75000000000000000        0.0000000000000000     
   1.0000000000000000       0.62500000000000000        0.0000000000000000     
   1.0312500000000000       0.62500000000000000        0.0000000000000000     
   1.0625000000000000       0.62500000000000000        0.0000000000000000     
   1.0937500000000000       0.62500000000000000        0.0000000000000000     
   1.1250000000000000       0.62500000000000000        0.0000000000000000     
   1.0000000000000000       0.65625000000000000        0.0000000000000000     
   1.0312500000000000       0.65625000000000000        0.0000000000000000     
   1.0625000000000000       0.65625000000000000        0.0000000000000000     
   1.0937500000000000       0.65625000000000000        0.0000000000000000     
   1.1250000000000000       0.65625000000000000        0.0000000000000000     
   1.0000000000000000       0.68750000000000000        0.0000000000000000     
   1.0312500000000000       0.68750000000000000        0.0000000000000000     
   1.0625000000000000       0.68750000000000000        0.0000000000000000     
   1.0937500000000000       0.68750000000000000        0.0000000000000000     
   1.1250000000000000       0.68750000000000000        0.0000000000000000     
   1.0000000000000000       0.71875000000000000        0.0000000000000000     
   1.0312500000000000       0.71875000000000000        0.0000000000000000     
   1.0625000000000000       0.71875000000000000        0.0000000000000000     
   1.0937500000000000       0.71875000000000000        0.0000000000000000     
   1.1250000000000000       0.71875000000000000        0.0000000000000000     
   1.0000000000000000       0.75000000000000000        0.0000000000000000     
   1.0312500000000000       0.75000000000000000        0.0000000000000000     
   1.0625000000000000       0.75000000000000000        0.0000000000000000     
   1.0937500000000000       0.75000000000000000        0.0000000000000000     
   1.1250000000000000       0.75000000000000000        0.0000000000000000     
   1.1250000000000000       0.62500000000000000        0.0000000000000000     
   1.1562500000000000       0.62500000000000000        0.0000000000000000     
   1.1875000000000000       0.62500000000000000        0.0000000000000000     
   1.2187500000000000       0.62500000000000000        0.0000000000000000     
   1.2500000000000000       0.62500000000000000        0.0000000000000000     
   1.1250000000000000       0.65625000000000000        0.0000000000000000     
   1.1562500000000000       0.65625000000000000        0.0000000000000000     
   1.1875000000000000       0.65625000000000000        0.0000000000000000     
   1.2187500000000000       0.65625000000000000        0.0000000000000000     
   1.2500000000000000       0.65625000000000000        0.0000000000000000     
   1.1250000000000000       0.68750000000000000        0.0000000000000000     
   1.1562500000000000       0.68750000000000000        0.0000000000000000     
   1.1875000000000000       0.68750000000000000        0.0000000000000000     
   1.2187500000000000       0.68750000000000000        0.0000000000000000     
   1.2500000000000000       0.68750000000000000        0.0000000000000000     
   1.1250000000000000       0.71875000000000000        0.0000000000000000     
   1.1562500000000000       0.71875000000000000        0.0000000000000000     
   1.1875000000000000       0.71875000000000000        0.0000000000000000     
   1.2187500000000000       0.71875000000000000        0.0000000000000000     
   1.2500000000000000       0.71875000000000000        0.0000000000000000     
   1.1250000000000000       0.75000000000000000        0.0000000000000000     
   1.1562500000000000       0.75000000000000000        0.0000000000000000     
   1.1875000000000000       0.75000000000000000        0.0000000000000000     
   1.2187500000000000       0.75000000000000000        0.0000000000000000     
   1.2500000000000000       0.75000000000000000        0.0000000000000000     
   1.2500000000000000       0.62500000000000000        0.0000000000000000     
   1.2812500000000000       0.62500000000000000        0.0000000000000000     
   1.3125000000000000       0.62500000000000000        0.0000000000000000     
   1.3437500000000000       0.62500000000000000        0.0000000000000000     
   1.3750000000000000       0.62500000000000000        0.0000000000000000     
   1.2500000000000000       0.65625000000000000        0.0000000000000000     
   1.2812500000000000       0.65625000000000000        0.0000000000000000     
   1.3125000000000000       0.65625000000000000        0.0000000000000000     
   1.3437500000000000       0.65625000000000000        0.0000000000000000     
   1.3750000000000000       0.65625000000000000        0.0000000000000000     
   1.2500000000000000       0.68750000000000000        0.0000000000000000     
   1.2812500000000000       0.68750000000000000        0.0000000000000000     
   1.3125000000000000       0.68750000000000000        0.0000000000000000     
   1.3437500000000000       0.68750000000000000        0.0000000000000000     
   1.3750000000000000       0.68750000000000000        0.0000000000000000     
   1.2500000000000000       0.71875000000000000        0.0000000000000000     
   1.2812500000000000       0.71875000000000000        0.0000000000000000     
   1.3125000000000000       0.71875000000000000        0.0000000000000000     
   1.3437500000000000       0.71875000000000000        0.0000000000000000     
   1.3750000000000000       0.71875000000000000        0.0000000000000000     
   1.2500000000000000       0.75000000000000000        0.0000000000000000     
   1.2812500000000000       0.75000000000000000        0.0000000000000000     
   1.3125000000000000       0.75000000000000000        0.0000000000000000     
   1.3437500000000000       0.75000000000000000        0.0000000000000000     
   1.3750000000000000       0.75000000000000000        0.0000000000000000     
   1.3750000000000000       0.62500000000000000        0.0000000000000000     
   1.4062500000000000       0.62500000000000000        0.0000000000000000     
   1.4375000000000000       0.62500000000000000        0.0000000000000000     
   1.4687500000000000       0.62500000000000000        0.0000000000000000     
   1.5000000000000000       0.62500000000000000        0.0000000000000000     
   1.3750000000000000       0.65625000000000000        0.0000000000000000     
   1.4062500000000000       0.65625000000000000        0.0000000000000000     
   1.4375000000000000       0.65625000000000000        0.0000000000000000     
   1.4687500000000000       0.65625000000000000        0.0000000000000000     
   1.5000000000000000       0.65625000000000000        0.0000000000000000     
   1.3750000000000000       0.68750000000000000        0.0000000000000000     
   1.4062500000000000       0.68750000000000000        0.0000000000000000     
   1.4375000000000000       0.68750000000000000        0.0000000000000000     
   1.4687500000000000       0.68750000000000000        0.0000000000000000     
   1.5000000000000000       0.68750000000000000        0.0000000000000000     
   1.3750000000000000       0.71875000000000000        0.0000000000000000     
   1.4062500000000000       0.71875000000000000        0.0000000000000000     
   1.4375000000000000       0.71875000000000000        0.0000000000000000     
   1.4687500000000000       0.71875000000000000        0.0000000000000000     
   1.5000000000000000       0.71875000000000000        0.0000000000000000     
   1.3750000000000000       0.75000000000000000        0.0000000000000000     
   1.4062500000000000       0.75000000000000000        0.0000000000000000     
   1.4375000000000000       0.75000000000000000        0.0000000000000000     
   1.4687500000000000       0.75000000000000000        0.0000000000000000     
   1.5000000000000000       0.75000000000000000        0.0000000000000000     
  0.50000000000000000       0.75000000000000000        0.0000000000000000     
  0.53125000000000000       0.75000000000000000        0.0000000000000000     
  0.56250000000000000       0.75000000000000000        0.0000000000000000     
  0.59375000000000000       0.75000000000000000        0.0000000000000000     
  0.62500000000000000       0.75000000000000000        0.0000000000000000     
  0.50000000000000000       0.78125000000000000        0.0000000000000000     
  0.53125000000000000       0.78125000000000000        0.0000000000000000     
  0.56250000000000000       0.78125000000000000        0.0000000000000000     
  0.59375000000000000       0.78125000000000000        0.0000000000000000     
  0.62500000000000000       0.78125000000000000        0.0000000000000000     
  0.50000000000000000       0.81250000000000000        0.0000000000000000     
  0.53125000000000000       0.81250000000000000        0.0000000000000000     
  0.56250000000000000       0.81250000000000000        0.0000000000000000     
  0.59375000000000000       0.81250000000000000        0.0000000000000000     
  0.62500000000000000       0.81250000000000000        0.0000000000000000     
  0.50000000000000000       0.84375000000000000        0.0000000000000000     
  0.53125000000000000       0.84375000000000000        0.0000000000000000     
  0.56250000000000000       0.84375000000000000        0.0000000000000000     
  0.59375000000000000       0.84375000000000000        0.0000000000000000     
  0.62500000000000000       0.84375000000000000        0.0000000000000000     
  0.50000000000000000       0.87500000000000000        0.0000000000000000     
  0.53125000000000000       0.87500000000000000        0.0000000000000000     
  0.56250000000000000       0.87500000000000000        0.0000000000000000     
  0.59375000000000000       0.87500000000000000        0.0000000000000000     
  0.62500000000000000       0.87500000000000000        0.0000000000000000     
  0.62500000000000000       0.75000000000000000        0.0000000000000000     
  0.65625000000000000       0.75000000000000000        0.0000000000000000     
  0.68750000000000000       0.75000000000000000        0.0000000000000000     
  0.71875000000000000       0.75000000000000000        0.0000000000000000     
  0.75000000000000000       0.75000000000000000        0.0000000000000000     
  0.62500000000000000       0.78125000000000000        0.0000000000000000     
  0.65625000000000000       0.78125000000000000        0.0000000000000000     
  0.68750000000000000       0.78125000000000000        0.0000000000000000     
  0.71875000000000000       0.78125000000000000        0.0000000000000000     
  0.75000000000000000       0.78125000000000000        0.0000000000000000     
  0.62500000000000000       0.81250000000000000        0.0000000000000000     
  0.65625000000000000       0.81250000000000000        0.0000000000000000     
  0.68750000000000000       0.81250000000000000        0.0000000000000000     
  0.71875000000000000       0.81250000000000000        0.0000000000000000     
  0.75000000000000000       0.81250000000000000        0.0000000000000000     
  0.62500000000000000       0.84375000000000000        0.0000000000000000     
  0.65625000000000000       0.84375000000000000        0.0000000000000000     
  0.68750000000000000       0.84375000000000000        0.0000000000000000     
  0.71875000000000000       0.84375000000000000        0.0000000000000000     
  0.75000000000000000       0.84375000000000000        0.0000000000000000     
  0.62500000000000000       0.87500000000000000        0.0000000000000000     
  0.65625000000000000       0.87500000000000000        0.0000000000000000     
  0.68750000000000000       0.87500000000000000        0.0000000000000000     
  0.71875000000000000       0.87500000000000000        0.0000000000000000     
  0.75000000000000000       0.87500000000000000        0.0000000000000000     
  0.75000000000000000       0.75000000000000000        0.0000000000000000     
  0.78125000000000000       0.75000000000000000        0.0000000000000000     
  0.81250000000000000       0.75000000000000000        0.0000000000000000     
  0.84375000000000000       0.75000000000000000        0.0000000000000000     
  0.87500000000000000       0.75000000000000000        0.0000000000000000     
  0.75000000000000000       0.78125000000000000        0.0000000000000000     
  0.78125000000000000       0.78125000000000000        0.0000000000000000     
  0.81250000000000000       0.78125000000000000        0.0000000000000000     
  0.84375000000000000       0.78125000000000000        0.0000000000000000     
  0.87500000000000000       0.78125000000000000        0.0000000000000000     
  0.75000000000000000       0.81250000000000000        0.0000000000000000     
  0.78125000000000000       0.81250000000000000        0.0000000000000000     
  0.81250000000000000       0.81250000000000000        0.0000000000000000     
  0.84375000000000000       0.81250000000000000        0.0000000000000000     
  0.87500000000000000       0.81250000000000000        0.0000000000000000     
  0.75000000000000000       0.84375000000000000        0.0000000000000000     
  0.78125000000000000       0.84375000000000000        0.0000000000000000     
  0.81250000000000000       0.84375000000000000        0.0000000000000000     
  0.84375000000000000       0.84375000000000000        0.0000000000000000     
  0.87500000000000000       0.84375000000000000        0.0000000000000000     
  0.75000000000000000       0.87500000000000000        0.0000000000000000     
  0.78125000000000000       0.87500000000000000        0.0000000000000000     
  0.81250000000000000       0.87500000000000000        0.0000000000000000     
  0.84375000000000000       0.87500000000000000        0.0000000000000000     
  0.87500000000000000       0.87500000000000000        0.0000000000000000     
  0.87500000000000000       0.75000000000000000        0.0000000000000000     
  0.90625000000000000       0.75000000000000000        0.0000000000000000     
  0.93750000000000000       0.75000000000000000        0.0000000000000000     
  0.96875000000000000       0.75000000000000000        0.0000000000000000     
   1.0000000000000000       0.75000000000000000        0.0000000000000000     
  0.87500000000000000       0.78125000000000000        0.0000000000000000     
  0.90625000000000000       0.78125000000000000        0.0000000000000000     
  0.93750000000000000       0.78125000000000000        0.0000000000000000     
  0.96875000000000000       0.78125000000000000        0.0000000000000000     
   1.0000000000000000       0.78125000000000000        0.0000000000000000     
  0.87500000000000000       0.81250000000000000        0.0000000000000000     
  0.90625000000000000       0.81250000000000000        0.0000000000000000     
  0.93750000000000000       0.81250000000000000        0.0000000000000000     
  0.96875000000000000       0.81250000000000000        0.0000000000000000     
   1.0000000000000000       0.81250000000000000        0.0000000000000000     
  0.87500000000000000       0.84375000000000000        0.0000000000000000     
  0.90625000000000000       0.84375000000000000        0.0000000000000000     
  0.93750000000000000       0.84375000000000000        0.0000000000000000     
  0.96875000000000000       0.84375000000000000        0.0000000000000000     
   1.0000000000000000       0.84375000000000000        0.0000000000000000     
  0.87500000000000000       0.87500000000000000        0.0000000000000000     
  0.90625000000000000       0.87500000000000000        0.0000000000000000     
  0.93750000000000000       0.87500000000000000        0.0000000000000000     
  0.96875000000000000       0.87500000000000000        0.0000000000000000     
   1.0000000000000000       0.87500000000000000        0.0000000000000000     
   1.0000000000000000       0.75000000000000000        0.0000000000000000     
   1.0312500000000000       0.75000000000000000        0.0000000000000000     
   1.0625000000000000       0.75000000000000000        0.0000000000000000     
   1.0937500000000000       0.75000000000000000        0.0000000000000000     
   1.1250000000000000       0.75000000000000000        0.0000000000000000     
   1.0000000000000000       0.78125000000000000        0.0000000000000000     
   1.0312500000000000       0.78125000000000000        0.0000000000000000     
   1.0625000000000000       0.78125000000000000        0.0000000000000000     
   1.0937500000000000       0.78125000000000000        0.0000000000000000     
   1.1250000000000000       0.78125000000000000        0.0000000000000000     
   1.0000000000000000       0.81250000000000000        0.0000000000000000     
   1.0312500000000000       0.81250000000000000        0.0000000000000000     
   1.0625000000000000       0.81250000000000000        0.0000000000000000     
   1.0937500000000000       0.81250000000000000        0.0000000000000000     
   1.1250000000000000       0.81250000000000000        0.0000000000000000     
   1.0000000000000000       0.84375000000000000        0.0000000000000000     
   1.0312500000000000       0.84375000000000000        0.0000000000000000     
   1.0625000000000000       0.84375000000000000        0.0000000000000000     
   1.0937500000000000       0.84375000000000000        0.0000000000000000     
   1.1250000000000000       0.84375000000000000        0.0000000000000000     
   1.0000000000000000       0.87500000000000000        0.0000000000000000     
   1.0312500000000000       0.87500000000000000        0.0000000000000000     
   1.0625000000000000       0.87500000000000000        0.0000000000000000     
   1.0937500000000000       0.87500000000000000        0.0000000000000000     
   1.1250000000000000       0.87500000000000000        0.0000000000000000     
   1.1250000000000000       0.75000000000000000        0.0000000000000000     
   1.1562500000000000       0.75000000000000000        0.0000000000000000     
   1.1875000000000000       0.75000000000000000        0.0000000000000000     
   1.2187500000000000       0.75000000000000000        0.0000000000000000     
   1.2500000000000000       0.75000000000000000        0.0000000000000000     
   1.1250000000000000       0.78125000000000000        0.0000000000000000     
   1.1562500000000000       0.78125000000000000        0.0000000000000000     
   1.1875000000000000       0.78125000000000000        0.0000000000000000     
   1.2187500000000000       0.78125000000000000        0.0000000000000000     
   1.2500000000000000       0.78125000000000000        0.0000000000000000     
   1.1250000000000000       0.81250000000000000        0.0000000000000000     
   1.1562500000000000       0.81250000000000000        0.0000000000000000     
   1.1875000000000000       0.81250000000000000        0.0000000000000000     
   1.2187500000000000       0.81250000000000000        0.0000000000000000     
   1.2500000000000000       0.81250000000000000        0.0000000000000000     
   1.1250000000000000       0.84375000000000000        0.0000000000000000     
   1.1562500000000000       0.84375000000000000        0.0000000000000000     
   1.1875000000000000       0.84375000000000000        0.0000000000000000     
   1.2187500000000000       0.84375000000000000        0.0000000000000000     
   1.2500000000000000       0.84375000000000000        0.0000000000000000     
   1.1250000000000000       0.87500000000000000        0.0000000000000000     
   1.1562500000000000       0.87500000000000000        0.0000000000000000     
   1.1875000000000000       0.87500000000000000        0.0000000000000000     
   1.2187500000000000       0.87500000000000000        0.0000000000000000     
   1.2500000000000000       0.87500000000000000        0.0000000000000000     
   1.2500000000000000       0.75000000000000000        0.0000000000000000     
   1.2812500000000000       0.75000000000000000        0.0000000000000000     
   1.3125000000000000       0.75000000000000000        0.0000000000000000     
   1.3437500000000000       0.75000000000000000        0.0000000000000000     
   1.3750000000000000       0.75000000000000000        0.0000000000000000     
   1.2500000000000000       0.78125000000000000        0.0000000000000000     
   1.2812500000000000       0.78125000000000000        0.0000000000000000     
   1.3125000000000000       0.78125000000000000        0.0000000000000000     
   1.3437500000000000       0.78125000000000000        0.0000000000000000     
   1.3750000000000000       0.78125000000000000        0.0000000000000000     
   1.2500000000000000       0.81250000000000000        0.0000000000000000     
   1.2812500000000000       0.81250000000000000        0.0000000000000000     
   1.3125000000000000       0.81250000000000000        0.0000000000000000     
   1.3437500000000000       0.81250000000000000        0.0000000000000000     
   1.3750000000000000       0.81250000000000000        0.0000000000000000     
   1.2500000000000000       0.84375000000000000        0.0000000000000000     
   1.2812500000000000       0.84375000000000000        0.0000000000000000     
   1.3125000000000000       0.84375000000000000        0.0000000000000000     
   1.3437500000000000       0.84375000000000000        0.0000000000000000     
   1.3750000000000000       0.84375000000000000        0.0000000000000000     
   1.2500000000000000       0.87500000000000000        0.0000000000000000     
   1.2812500000000000       0.87500000000000000        0.0000000000000000     
   1.3125000000000000       0.87500000000000000        0.0000000000000000     
   1.3437500000000000       0.87500000000000000        0.0000000000000000     
   1.3750000000000000       0.87500000000000000        0.0000000000000000     
   1.3750000000000000       0.75000000000000000        0.0000000000000000     
   1.4062500000000000       0.75000000000000000        0.0000000000000000     
   1.4375000000000000       0.75000000000000000        0.0000000000000000     
   1.4687500000000000       0.75000000000000000        0.0000000000000000     
   1.5000000000000000       0.75000000000000000        0.0000000000000000     
   1.3750000000000000       0.78125000000000000        0.0000000000000000     
   1.4062500000000000       0.78125000000000000        0.0000000000000000     
   1.4375000000000000       0.78125000000000000        0.0000000000000000     
   1.4687500000000000       0.78125000000000000        0.0000000000000000     
   1.5000000000000000       0.78125000000000000        0.0000000000000000     
   1.3750000000000000       0.81250000000000000        0.0000000000000000     
   1.4062500000000000       0.81250000000000000        0.0000000000000000     
   1.4375000000000000       0.81250000000000000        0.0000000000000000     
   1.4687500000000000       0.81250000000000000        0.0000000000000000     
   1.5000000000000000       0.81250000000000000        0.0000000000000000     
   1.3750000000000000       0.84375000000000000        0.0000000000000000     
   1.4062500000000000       0.84375000000000000        0.0000000000000000     
   1.4375000000000000       0.84375000000000000        0.0000000000000000     
   1.4687500000000000       0.84375000000000000        0.0000000000000000     
   1.5000000000000000       0.84375000000000000        0.0000000000000000     
   1.3750000000000000       0.87500000000000000        0.0000000000000000     
   1.4062500000000000       0.87500000000000000        0.0000000000000000     
   1.4375000000000000       0.87500000000000000        0.0000000000000000     
   1.4687500000000000       0.87500000000000000        0.0000000000000000     
   1.5000000000000000       0.87500000000000000        0.0000000000000000     
  0.50000000000000000       0.87500000000000000        0.0000000000000000     
  0.53125000000000000       0.87500000000000000        0.0000000000000000     
  0.56250000000000000       0.87500000000000000        0.0000000000000000     
  0.59375000000000000       0.87500000000000000        0.0000000000000000     
  0.62500000000000000       0.87500000000000000        0.0000000000000000     
  0.50000000000000000       0.90625000000000000        0.0000000000000000     
  0.53125000000000000       0.90625000000000000        0.0000000000000000     
  0.56250000000000000       0.90625000000000000        0.0000000000000000     
  0.59375000000000000       0.90625000000000000        0.0000000000000000     
  0.62500000000000000       0.90625000000000000        0.0000000000000000     
  0.50000000000000000       0.93750000000000000        0.0000000000000000     
  0.53125000000000000       0.93750000000000000        0.0000000000000000     
  0.56250000000000000       0.93750000000000000        0.0000000000000000     
  0.59375000000000000       0.93750000000000000        0.0000000000000000     
  0.62500000000000000       0.93750000000000000        0.0000000000000000     
  0.50000000000000000       0.96875000000000000        0.0000000000000000     
  0.53125000000000000       0.96875000000000000        0.0000000000000000     
  0.56250000000000000       0.96875000000000000        0.0000000000000000     
  0.59375000000000000       0.96875000000000000        0.0000000000000000     
  0.62500000000000000       0.96875000000000000        0.0000000000000000     
  0.50000000000000000        1.0000000000000000        0.0000000000000000     
  0.53125000000000000        1.0000000000000000        0.0000000000000000     
  0.56250000000000000        1.0000000000000000        0.0000000000000000     
  0.59375000000000000        1.0000000000000000        0.0000000000000000     
  0.62500000000000000        1.0000000000000000        0.0000000000000000     
  0.62500000000000000       0.87500000000000000        0.0000000000000000     
  0.65625000000000000       0.87500000000000000        0.0000000000000000     
  0.68750000000000000       0.87500000000000000        0.0000000000000000     
  0.71875000000000000       0.87500000000000000        0.0000000000000000     
  0.75000000000000000       0.87500000000000000        0.0000000000000000     
  0.62500000000000000       0.90625000000000000        0.0000000000000000     
  0.65625000000000000       0.90625000000000000        0.0000000000000000     
  0.68750000000000000       0.90625000000000000        0.0000000000000000     
  0.71875000000000000       0.90625000000000000        0.0000000000000000     
  0.75000000000000000       0.90625000000000000        0.0000000000000000     
  0.62500000000000000       0.93750000000000000        0.0000000000000000     
  0.65625000000000000       0.93750000000000000        0.0000000000000000     
  0.68750000000000000       0.93750000000000000        0.0000000000000000     
  0.71875000000000000       0.93750000000000000        0.0000000000000000     
  0.75000000000000000       0.93750000000000000        0.0000000000000000     
  0.62500000000000000       0.96875000000000000        0.0000000000000000     
  0.65625000000000000       0.96875000000000000        0.0000000000000000     
  0.68750000000000000       0.96875000000000000        0.0000000000000000     
  0.71875000000000000       0.96875000000000000        0.0000000000000000     
  0.75000000000000000       0.96875000000000000        0.0000000000000000     
  0.62500000000000000        1.0000000000000000        0.0000000000000000     
  0.65625000000000000        1.0000000000000000        0.0000000000000000     
  0.68750000000000000        1.0000000000000000        0.0000000000000000     
  0.71875000000000000        1.0000000000000000        0.0000000000000000     
  0.75000000000000000        1.0000000000000000        0.0000000000000000     
  0.75000000000000000       0.87500000000000000        0.0000000000000000     
  0.78125000000000000       0.87500000000000000        0.0000000000000000     
  0.81250000000000000       0.87500000000000000        0.0000000000000000     
  0.84375000000000000       0.87500000000000000        0.0000000000000000     
  0.87500000000000000       0.87500000000000000        0.0000000000000000     
  0.75000000000000000       0.90625000000000000        0.0000000000000000     
  0.78125000000000000       0.90625000000000000        0.0000000000000000     
  0.81250000000000000       0.90625000000000000        0.0000000000000000     
  0.84375000000000000       0.90625000000000000        0.0000000000000000     
  0.87500000000000000       0.90625000000000000        0.0000000000000000     
  0.75000000000000000       0.93750000000000000        0.0000000000000000     
  0.78125000000000000       0.93750000000000000        0.0000000000000000     
  0.81250000000000000       0.93750000000000000        0.0000000000000000     
  0.84375000000000000       0.93750000000000000        0.0000000000000000     
  0.87500000000000000       0.93750000000000000        0.0000000000000000     
  0.75000000000000000       0.96875000000000000        0.0000000000000000     
  0.78125000000000000       0.96875000000000000        0.0000000000000000     
  0.81250000000000000       0.96875000000000000        0.0000000000000000     
  0.84375000000000000       0.96875000000000000        0.0000000000000000     
  0.87500000000000000       0.96875000000000000        0.0000000000000000     
  0.75000000000000000        1.0000000000000000        0.0000000000000000     
  0.78125000000000000        1.0000000000000000        0.0000000000000000     
  0.81250000000000000        1.0000000000000000        0.0000000000000000     
  0.84375000000000000        1.0000000000000000        0.0000000000000000     
  0.87500000000000000        1.0000000000000000        0.0000000000000000     
  0.87500000000000000       0.87500000000000000        0.0000000000000000     
  0.90625000000000000       0.87500000000000000        0.0000000000000000     
  0.93750000000000000       0.87500000000000000        0.0000000000000000     
  0.96875000000000000       0.87500000000000000        0.0000000000000000     
   1.0000000000000000       0.87500000000000000        0.0000000000000000     
  0.87500000000000000       0.90625000000000000        0.0000000000000000     
  0.90625000000000000       0.90625000000000000        0.0000000000000000     
  0.93750000000000000       0.90625000000000000        0.0000000000000000     
  0.96875000000000000       0.90625000000000000        0.0000000000000000     
   1.0000000000000000       0.90625000000000000        0.0000000000000000     
  0.87500000000000000       0.93750000000000000        0.0000000000000000     
  0.90625000000000000       0.93750000000000000        0.0000000000000000     
  0.93750000000000000       0.93750000000000000        0.0000000000000000     
  0.96875000000000000       0.93750000000000000        0.0000000000000000     
   1.0000000000000000       0.93750000000000000        0.0000000000000000     
  0.87500000000000000       0.96875000000000000        0.0000000000000000     
  0.90625000000000000       0.96875000000000000        0.0000000000000000     
  0.93750000000000000       0.96875000000000000        0.0000000000000000     
  0.96875000000000000       0.96875000000000000        0.0000000000000000     
   1.0000000000000000       0.96875000000000000        0.0000000000000000     
  0.87500000000000000        1.0000000000000000        0.0000000000000000     
  0.90625000000000000        1.0000000000000000        0.0000000000000000     
  0.93750000000000000        1.0000000000000000        0.0000000000000000     
  0.96875000000000000        1.0000000000000000        0.0000000000000000     
   1.0000000000000000        1.0000000000000000        0.0000000000000000     
   1.0000000000000000       0.87500000000000000        0.0000000000000000     
   1.0312500000000000       0.87500000000000000        0.0000000000000000     
   1.0625000000000000       0.87500000000000000        0.0000000000000000     
   1.0937500000000000       0.87500000000000000        0.0000000000000000     
   1.1250000000000000       0.87500000000000000        0.0000000000000000     
   1.0000000000000000       0.90625000000000000        0.0000000000000000     
   1.0312500000000000       0.90625000000000000        0.0000000000000000     
   1.0625000000000000       0.90625000000000000        0.0000000000000000     
   1.0937500000000000       0.90625000000000000        0.0000000000000000     
   1.1250000000000000       0.90625000000000000        0.0000000000000000     
   1.0000000000000000       0.93750000000000000        0.0000000000000000     
   1.0312500000000000       0.93750000000000000        0.0000000000000000     
   1.0625000000000000       0.93750000000000000        0.0000000000000000     
   1.0937500000000000       0.93750000000000000        0.0000000000000000     
   1.1250000000000000       0.93750000000000000        0.0000000000000000     
   1.0000000000000000       0.96875000000000000        0.0000000000000000     
   1.0312500000000000       0.96875000000000000        0.0000000000000000     
   1.0625000000000000       0.96875000000000000        0.0000000000000000     
   1.0937500000000000       0.96875000000000000        0.0000000000000000     
   1.1250000000000000       0.96875000000000000        0.0000000000000000     
   1.0000000000000000        1.0000000000000000        0.0000000000000000     
   1.0312500000000000        1.0000000000000000        0.0000000000000000     
   1.0625000000000000        1.0000000000000000        0.0000000000000000     
   1.0937500000000000        1.0000000000000000        0.0000000000000000     
   1.1250000000000000        1.0000000000000000        0.0000000000000000     
   1.1250000000000000       0.87500000000000000        0.0000000000000000     
   1.1562500000000000       0.87500000000000000        0.0000000000000000     
   1.1875000000000000       0.87500000000000000        0.0000000000000000     
   1.2187500000000000       0.87500000000000000        0.0000000000000000     
   1.2500000000000000       0.87500000000000000        0.0000000000000000     
   1.1250000000000000       0.90625000000000000        0.0000000000000000     
   1.1562500000000000       0.90625000000000000        0.0000000000000000     
   1.1875000000000000       0.90625000000000000        0.0000000000000000     
   1.2187500000000000       0.90625000000000000        0.0000000000000000     
   1.2500000000000000       0.90625000000000000        0.0000000000000000     
   1.1250000000000000       0.93750000000000000        0.0000000000000000     
   1.1562500000000000       0.93750000000000000        0.0000000000000000     
   1.1875000000000000       0.93750000000000000        0.0000000000000000     
   1.2187500000000000       0.93750000000000000        0.0000000000000000     
   1.2500000000000000       0.93750000000000000        0.0000000000000000     
   1.1250000000000000       0.96875000000000000        0.0000000000000000     
   1.1562500000000000       0.96875000000000000        0.0000000000000000     
   1.1875000000000000       0.96875000000000000        0.0000000000000000     
   1.2187500000000000       0.96875000000000000        0.0000000000000000     
   1.2500000000000000       0.96875000000000000        0.0000000000000000     
   1.1250000000000000        1.0000000000000000        0.0000000000000000     
   1.1562500000000000        1.0000000000000000        0.0000000000000000     
   1.1875000000000000        1.0000000000000000        0.0000000000000000     
   1.2187500000000000        1.0000000000000000        0.0000000000000000     
   1.2500000000000000        1.0000000000000000        0.0000000000000000     
   1.2500000000000000       0.87500000000000000        0.0000000000000000     
   1.2812500000000000       0.87500000000000000        0.0000000000000000     
   1.3125000000000000       0.87500000000000000        0.0000000000000000     
   1.3437500000000000       0.87500000000000000        0.0000000000000000     
   1.3750000000000000       0.87500000000000000        0.0000000000000000     
   1.2500000000000000       0.90625000000000000        0.0000000000000000     
   1.2812500000000000       0.90625000000000000        0.0000000000000000     
   1.3125000000000000       0.90625000000000000        0.0000000000000000     
   1.3437500000000000       0.90625000000000000        0.0000000000000000     
   1.3750000000000000       0.90625000000000000        0.0000000000000000     
   1.2500000000000000       0.93750000000000000        0.0000000000000000     
   1.2812500000000000       0.93750000000000000        0.0000000000000000     
   1.3125000000000000       0.93750000000000000        0.0000000000000000     
   1.3437500000000000       0.93750000000000000        0.0000000000000000     
   1.3750000000000000       0.93750000000000000        0.0000000000000000     
   1.2500000000000000       0.96875000000000000        0.0000000000000000     
   1.2812500000000000       0.96875000000000000        0.0000000000000000     
   1.3125000000000000       0.96875000000000000        0.0000000000000000     
   1.3437500000000000       0.96875000000000000        0.0000000000000000     
   1.3750000000000000       0.96875000000000000        0.0000000000000000     
   1.2500000000000000        1.0000000000000000        0.0000000000000000     
   1.2812500000000000        1.0000000000000000        0.0000000000000000     
   1.3125000000000000        1.0000000000000000        0.0000000000000000     
   1.3437500000000000        1.0000000000000000        0.0000000000000000     
   1.3750000000000000        1.0000000000000000        0.0000000000000000     
   1.3750000000000000       0.87500000000000000        0.0000000000000000     
   1.4062500000000000       0.87500000000000000        0.0000000000000000     
   1.4375000000000000       0.87500000000000000        0.0000000000000000     
   1.4687500000000000       0.87500000000000000        0.0000000000000000     
   1.5000000000000000       0.87500000000000000        0.0000000000000000     
   1.3750000000000000       0.90625000000000000        0.0000000000000000     
   1.4062500000000000       0.90625000000000000        0.0000000000000000     
   1.4375000000000000       0.90625000000000000        0.0000000000000000     
   1.4687500000000000       0.90625000000000000        0.0000000000000000     
   1.5000000000000000       0.90625000000000000        0.0000000000000000     
   1.3750000000000000       0.93750000000000000        0.0000000000000000     
   1.4062500000000000       0.93750000000000000        0.0000000000000000     
   1.4375000000000000       0.93750000000000000        0.0000000000000000     
   1.4687500000000000       0.93750000000000000        0.0000000000000000     
   1.5000000000000000       0.93750000000000000        0.0000000000000000     
   1.3750000000000000       0.96875000000000000        0.0000000000000000     
   1.4062500000000000       0.96875000000000000        0.0000000000000000     
   1.4375000000000000       0.96875000000000000        0.0000000000000000     
   1.4687500000000000       0.96875000000000000        0.0000000000000000     
   1.5000000000000000       0.96875000000000000        0.0000000000000000     
   1.3750000000000000        1.0000000000000000        0.0000000000000000     
   1.4062500000000000        1.0000000000000000        0.0000000000000000     
   1.4375000000000000        1.0000000000000000        0.0000000000000000     
   1.4687500000000000        1.0000000000000000        0.0000000000000000     
   1.5000000000000000        1.0000000000000000        0.0000000000000000     
 </DataArray>
 </Points>
 <Cells>
 <DataArray  type="Int32"  Name="connectivity"  format="ascii">
           0           1           6           5
           1           2           7           6
           2           3           8           7
           3           4           9           8
           5           6          11          10
           6           7          12          11
           7           8          13          12
           8           9          14          13
          10          11          16          15
          11          12          17          16
          12          13          18          17
          13          14          19          18
          15          16          21          20
          16          17          22          21
          17          18          23          22
          18          19          24          23
          25          26          31          30
          26          27          32          31
          27          28          33          32
          28          29          34          33
          30          31          36          35
          31          32          37          36
          32          33          38          37
          33          34          39          38
          35          36          41          40
          36          37          42          41
          37          38          43          42
          38          39          44          43
          40          41          46          45
          41          42          47          46
          42          43          48          47
          43          44          49          48
          50          51          56          55
          51          52          57          56
          52          53          58          57
          53          54          59          58
          55          56          61          60
          56          57          62          61
          57          58          63          62
          58          59          64          63
          60          61          66          65
          61          62          67          66
          62          63          68          67
          63          64          69          68
          65          66          71          70
          66          67          72          71
          67          68          73          72
          68          69          74          73
          75          76          81          80
          76          77          82          81
          77          78          83          82
          78          79          84          83
          80          81          86          85
          81          82          87          86
          82          83          88          87
          83          84          89          88
          85          86          91          90
          86          87          92          91
          87          88          93          92
          88          89          94          93
          90          91          96          95
          91          92          97          96
          92          93          98          97
          93          94          99          98
         100         101         106         105
         101         102         107         106
         102         103         108         107
         103         104         109         108
         105         106         111         110
         106         107         112         111
         107         108         113         112
         108         109         114         113
         110         111         116         115
         111         112         117         116
         112         113         118         117
         113         114         119         118
         115         116         121         120
         116         117         122         121
         117         118         123         122
         118         119         124         123
         125         126         131         130
         126         127         132         131
         127         128         133         132
         128         129         134         133
         130         131         136         135
         131         132         137         136
         132         133         138         137
         133         134         139         138
         135         136         141         140
         136         137         142         141
         137         138         143         142
         138         139         144         143
         140         141         146         145
         141         142         147         146
         142         143         148         147
         143         144         149         148
         150         151         156         155
         151         152         157         156
         152         153         158         157
         153         154         159         158
         155         156         161         160
         156         157         162         161
         157         158         163         162
         158         159         164         163
         160         161         166         165
         161         162         167         166
         162         163         168         167
         163         164         169         168
         165         166         171         170
         166         167         172         171
         167         168         173         172
         168         169         174         173
         175         176         181         180
         176         177         182         181
         177         178         183         182
         178         179         184         183
         180         181         186         185
         181         182         187         186
         182         183         188         187
         183         184         189         188
         185         186         191         190
         186         187         192         191
         187         188         193         192
         188         189         194         193
         190         191         196         195
         191         192         197         196
         192         193         198         197
         193         194         199         198
         200         201         206         205
         201         202         207         206
         202         203         208         207
         203         204         209         208
         205         206         211         210
         206         207         212         211
         207         208         213         212
         208         209         214         213
         210         211         216         215
         211         212         217         216
         212         213         218         217
         213         214         219         218
         215         216         221         220
         216         217         222         221
         217         218         223         222
         218         219         224         223
         225         226         231         230
         226         227         232         231
         227         228         233         232
         228         229         234         233
         230         231         236         235
         231         232         237         236
         232         233         238         237
         233         234         239         238
         235         236         241         240
         236         237         242         241
         237         238         243         242
         238         239         244         243
         240         241         246         245
         241         242         247         246
         242         243         248         247
         243         244         249         248
         250         251         256         255
         251         252         257         256
         252         253         258         257
         253         254         259         258
         255         256         261         260
         256         257         262         261
         257         258         263         262
         258         259         264         263
         260         261         266         265
         261         262         267         266
         262         263         268         267
         263         264         269         268
         265         266         271         270
         266         267         272         271
         267         268         273         272
         268         269         274         273
         275         276         281         280
         276         277         282         281
         277         278         283         282
         278         279         284         283
         280         281         286         285
         281         282         287         286
         282         283         288         287
         283         284         289         288
         285         286         291         290
         286         287         292         291
         287         288         293         292
         288         289         294         293
         290         291         296         295
         291         292         297         296
         292         293         298         297
         293         294         299         298
         300         301         306         305
         301         302         307         306
         302         303         308         307
         303         304         309         308
         305         306         311         310
         306         307         312         311
         307         308         313         312
         308         309         314         313
         310         311         316         315
         311         312         317         316
         312         313         318         317
         313         314         319         318
         315         316         321         320
         316         317         322         321
         317         318         323         322
         318         319         324         323
         325         326         331         330
         326         327         332         331
         327         328         333         332
         328         329         334         333
         330         331         336         335
         331         332         337         336
         332         333         338         337
         333         334         339         338
         335         336         341         340
         336         337         342         341
         337         338         343         342
         338         339         344         343
         340         341         346         345
         341         342         347         346
         342         343         348         347
         343         344         349         348
         350         351         356         355
         351         352         357         356
         352         353         358         357
         353         354         359         358
         355         356         361         360
         356         357         362         361
         357         358         363         362
         358         359         364         363
         360         361         366         365
         361         362         367         366
         362         363         368         367
         363         364         369         368
         365         366         371         370
         366         367         372         371
         367         368         373         372
         368         369         374         373
         375         376         381         380
         376         377         382         381
         377         378         383         382
         378         379         384         383
         380         381         386         385
         381         382         387         386
         382         383         388         387
         383         384         389         388
         385         386         391         390
         386         387         392         391
         387         388         393         392
         388         389         394         393
         390         391         396         395
         391         392         397         396
         392         393         398         397
         393         394         399         398
         400         401         406         405
         401         402         407         406
         402         403         408         407
         403         404         409         408
         405         406         411         410
         406         407         412         411
         407         408         413         412
         408         409         414         413
         410         411         416         415
         411         412         417         416
         412         413         418         417
         413         414         419         418
         415         416         421         420
         416         417         422         421
         417         418         423         422
         418         419         424         423
         425         426         431         430
         426         427         432         431
         427         428         433         432
         428         429         434         433
         430         431         436         435
         431         432         437         436
         432         433         438         437
         433         434         439         438
         435         436         441         440
         436         437         442         441
         437         438         443         442
         438         439         444         443
         440         441         446         445
         441         442         447         446
         442         443         448         447
         443         444         449         448
         450         451         456         455
         451         452         457         456
         452         453         458         457
         453         454         459         458
         455         456         461         460
         456         457         462         461
         457         458         463         462
         458         459         464         463
         460         461         466         465
         461         462         467         466
         462         463         468         467
         463         464         469         468
         465         466         471         470
         466         467         472         471
         467         468         473         472
         468         469         474         473
         475         476         481         480
         476         477         482         481
         477         478         483         482
         478         479         484         483
         480         481         486         485
         481         482         487         486
         482         483         488         487
         483         484         489         488
         485         486         491         490
         486         487         492         491
         487         488         493         492
         488         489         494         493
         490         491         496         495
         491         492         497         496
         492         493         498         497
         493         494         499         498
         500         501         506         505
         501         502         507         506
         502         503         508         507
         503         504         509         508
         505         506         511         510
         506         507         512         511
         507         508         513         512
         508         509         514         513
         510         511         516         515
         511         512         517         516
         512         513         518         517
         513         514         519         518
         515         516         521         520
         516         517         522         521
         517         518         523         522
         518         519         524         523
         525         526         531         530
         526         527         532         531
         527         528         533         532
         528         529         534         533
         530         531         536         535
         531         532         537         536
         532         533         538         537
         533         534         539         538
         535         536         541         540
         536         537         542         541
         537         538         543         542
         538         539         544         543
         540         541         546         545
         541         542         547         546
         542         543         548         547
         543         544         549         548
         550         551         556         555
         551         552         557         556
         552         553         558         557
         553         554         559         558
         555         556         561         560
         556         557         562         561
         557         558         563         562
         558         559         564         563
         560         561         566         565
         561         562         567         566
         562         563         568         567
         563         564         569         568
         565         566         571         570
         566         567         572         571
         567         568         573         572
         568         569         574         573
         575         576         581         580
         576         577         582         581
         577         578         583         582
         578         579         584         583
         580         581         586         585
         581         582         587         586
         582         583         588         587
         583         584         589         588
         585         586         591         590
         586         587         592         591
         587         588         593         592
         588         589         594         593
         590         591         596         595
         591         592         597         596
         592         593         598         597
         593         594         599         598
         600         601         606         605
         601         602         607         606
         602         603         608         607
         603         604         609         608
         605         606         611         610
         606         607         612         611
         607         608         613         612
         608         609         614         613
         610         611         616         615
         611         612         617         616
         612         613         618         617
         613         614         619         618
         615         616         621         620
         616         617         622         621
         617         618         623         622
         618         619         624         623
         625         626         631         630
         626         627         632         631
         627         628         633         632
         628         629         634         633
         630         631         636         635
         631         632         637         636
         632         633         638         637
         633         634         639         638
         635         636         641         640
         636         637         642         641
         637         638         643         642
         638         639         644         643
         640         641         646         645
         641         642         647         646
         642         643         648         647
         643         644         649         648
         650         651         656         655
         651         652         657         656
         652         653         658         657
         653         654         659         658
         655         656         661         660
         656         657         662         661
         657         658         663         662
         658         659         664         663
         660         661         666         665
         661         662         667         666
         662         663         668         667
         663         664         669         668
         665         666         671         670
         666         667         672         671
         667         668         673         672
         668         669         674         673
         675         676         681         680
         676         677         682         681
         677         678         683         682
         678         679         684         683
         680         681         686         685
         681         682         687         686
         682         683         688         687
         683         684         689         688
         685         686         691         690
         686         687         692         691
         687         688         693         692
         688         689         694         693
         690         691         696         695
         691         692         697         696
         692         693         698         697
         693         694         699         698
         700         701         706         705
         701         702         707         706
         702         703         708         707
         703         704         709         708
         705         706         711         710
         706         707         712         711
         707         708         713         712
         708         709         714         713
         710         711         716         715
         711         712         717         716
         712         713         718         717
         713         714         719         718
         715         716         721         720
         716         717         722         721
         717         718         723         722
         718         719         724         723
         725         726         731         730
         726         727         732         731
         727         728         733         732
         728         729         734         733
         730         731         736         735
         731         732         737         736
         732         733         738         737
         733         734         739         738
         735         736         741         740
         736         737         742         741
         737         738         743         742
         738         739         744         743
         740         741         746         745
         741         742         747         746
         742         743         748         747
         743         744         749         748
         750         751         756         755
         751         752         757         756
         752         753         758         757
         753         754         759         758
         755         756         761         760
         756         757         762         761
         757         758         763         762
         758         759         764         763
         760         761         766         765
         761         762         767         766
         762         763         768         767
         763         764         769         768
         765         766         771         770
         766         767         772         771
         767         768         773         772
         768         769         774         773
         775         776         781         780
         776         777         782         781
         777         778         783         782
         778         779         784         783
         780         781         786         785
         781         782         787         786
         782         783         788         787
         783         784         789         788
         785         786         791         790
         786         787         792         791
         787         788         793         792
         788         789         794         793
         790         791         796         795
         791         792         797         796
         792         793         798         797
         793         794         799         798
         800         801         806         805
         801         802         807         806
         802         803         808         807
         803         804         809         808
         805         806         811         810
         806         807         812         811
         807         808         813         812
         808         809         814         813
         810         811         816         815
         811         812         817         816
         812         813         818         817
         813         814         819         818
         815         816         821         820
         816         817         822         821
         817         818         823         822
         818         819         824         823
         825         826         831         830
         826         827         832         831
         827         828         833         832
         828         829         834         833
         830         831         836         835
         831         832         837         836
         832         833         838         837
         833         834         839         838
         835         836         841         840
         836         837         842         841
         837         838         843         842
         838         839         844         843
         840         841         846         845
         841         842         847         846
         842         843         848         847
         843         844         849         848
         850         851         856         855
         851         852         857         856
         852         853         858         857
         853         854         859         858
         855         856         861         860
         856         857         862         861
         857         858         863         862
         858         859         864         863
         860         861         866         865
         861         862         867         866
         862         863         868         867
         863         864         869         868
         865         866         871         870
         866         867         872         871
         867         868         873         872
         868         869         874         873
         875         876         881         880
         876         877         882         881
         877         878         883         882
         878         879         884         883
         880         881         886         885
         881         882         887         886
         882         883         888         887
         883         884         889         888
         885         886         891         890
         886         887         892         891
         887         888         893         892
         888         889         894         893
         890         891         896         895
         891         892         897         896
         892         893         898         897
         893         894         899         898
         900         901         906         905
         901         902         907         906
         902         903         908         907
         903         904         909         908
         905         906         911         910
         906         907         912         911
         907         908         913         912
         908         909         914         913
         910         911         916         915
         911         912         917         916
         912         913         918         917
         913         914         919         918
         915         916         921         920
         916         917         922         921
         917         918         923         922
         918         919         924         923
         925         926         931         930
         926         927         932         931
         927         928         933         932
         928         929         934         933
         930         931         936         935
         931         932         937         936
         932         933         938         937
         933         934         939         938
         935         936         941         940
         936         937         942         941
         937         938         943         942
         938         939         944         943
         940         941         946         945
         941         942         947         946
         942         943         948         947
         943         944         949         948
         950         951         956         955
         951         952         957         956
         952         953         958         957
         953         954         959         958
         955         956         961         960
         956         957         962         961
         957         958         963         962
         958         959         964         963
         960         961         966         965
         961         962         967         966
         962         963         968         967
         963         964         969         968
         965         966         971         970
         966         967         972         971
         967         968         973         972
         968         969         974         973
         975         976         981         980
         976         977         982         981
         977         978         983         982
         978         979         984         983
         980         981         986         985
         981         982         987         986
         982         983         988         987
         983         984         989         988
         985         986         991         990
         986         987         992         991
         987         988         993         992
         988         989         994         993
         990         991         996         995
         991         992         997         996
         992         993         998         997
         993         994         999         998
        1000        1001        1006        1005
        1001        1002        1007        1006
        1002        1003        1008        1007
        1003        1004        1009        1008
        1005        1006        1011        1010
        1006        1007        1012        1011
        1007        1008        1013        1012
        1008        1009        1014        1013
        1010        1011        1016        1015
        1011        1012        1017        1016
        1012        1013        1018        1017
        1013        1014        1019        1018
        1015        1016        1021        1020
        1016        1017        1022        1021
        1017        1018        1023        1022
        1018        1019        1024        1023
        1025        1026        1031        1030
        1026        1027        1032        1031
        1027        1028        1033        1032
        1028        1029        1034        1033
        1030        1031        1036        1035
        1031        1032        1037        1036
        1032        1033        1038        1037
        1033        1034        1039        1038
        1035        1036        1041        1040
        1036        1037        1042        1041
        1037        1038        1043        1042
        1038        1039        1044        1043
        1040        1041        1046        1045
        1041        1042        1047        1046
        1042        1043        1048        1047
        1043        1044        1049        1048
        1050        1051        1056        1055
        1051        1052        1057        1056
        1052        1053        1058        1057
        1053        1054        1059        1058
        1055        1056        1061        1060
        1056        1057        1062        1061
        1057        1058        1063        1062
        1058        1059        1064        1063
        1060        1061        1066        1065
        1061        1062        1067        1066
        1062        1063        1068        1067
        1063        1064        1069        1068
        1065        1066        1071        1070
        1066        1067        1072        1071
        1067        1068        1073        1072
        1068        1069        1074        1073
        1075        1076        1081        1080
        1076        1077        1082        1081
        1077        1078        1083        1082
        1078        1079        1084        1083
        1080        1081        1086        1085
        1081        1082        1087        1086
        1082        1083        1088        1087
        1083        1084        1089        1088
        1085        1086        1091        1090
        1086        1087        1092        1091
        1087        1088        1093        1092
        1088        1089        1094        1093
        1090        1091        1096        1095
        1091        1092        1097        1096
        1092        1093        1098        1097
        1093        1094        1099        1098
        1100        1101        1106        1105
        1101        1102        1107        1106
        1102        1103        1108        1107
        1103        1104        1109        1108
        1105        1106        1111        1110
        1106        1107        1112        1111
        1107        1108        1113        1112
        1108        1109        1114        1113
        1110        1111        1116        1115
        1111        1112        1117        1116
        1112        1113        1118        1117
        1113        1114        1119        1118
        1115        1116        1121        1120
        1116        1117        1122        1121
        1117        1118        1123        1122
        1118        1119        1124        1123
        1125        1126        1131        1130
        1126        1127        1132        1131
        1127        1128        1133        1132
        1128        1129        1134        1133
        1130        1131        1136        1135
        1131        1132        1137        1136
        1132        1133        1138        1137
        1133        1134        1139        1138
        1135        1136        1141        1140
        1136        1137        1142        1141
        1137        1138        1143        1142
        1138        1139        1144        1143
        1140        1141        1146        1145
        1141        1142        1147        1146
        1142        1143        1148        1147
        1143        1144        1149        1148
        1150        1151        1156        1155
        1151        1152        1157        1156
        1152        1153        1158        1157
        1153        1154        1159        1158
        1155        1156        1161        1160
        1156        1157        1162        1161
        1157        1158        1163        1162
        1158        1159        1164        1163
        1160        1161        1166        1165
        1161        1162        1167        1166
        1162        1163        1168        1167
        1163        1164        1169        1168
        1165        1166        1171        1170
        1166        1167        1172        1171
        1167        1168        1173        1172
        1168        1169        1174        1173
        1175        1176        1181        1180
        1176        1177        1182        1181
        1177        1178        1183        1182
        1178        1179        1184        1183
        1180        1181        1186        1185
        1181        1182        1187        1186
        1182        1183        1188        1187
        1183        1184        1189        1188
        1185        1186        1191        1190
        1186        1187        1192        1191
        1187        1188        1193        1192
        1188        1189        1194        1193
        1190        1191        1196        1195
        1191        1192        1197        1196
        1192        1193        1198        1197
        1193        1194        1199        1198
        1200        1201        1206        1205
        1201        1202        1207        1206
        1202        1203        1208        1207
        1203        1204        1209        1208
        1205        1206        1211        1210
        1206        1207        1212        1211
        1207        1208        1213        1212
        1208        1209        1214        1213
        1210        1211        1216        1215
        1211        1212        1217        1216
        1212        1213        1218        1217
        1213        1214        1219        1218
        1215        1216        1221        1220
        1216        1217        1222        1221
        1217        1218        1223        1222
        1218        1219        1224        1223
        1225        1226        1231        1230
        1226        1227        1232        1231
        1227        1228        1233        1232
        1228        1229        1234        1233
        1230        1231        1236        1235
        1231        1232        1237        1236
        1232        1233        1238        1237
        1233        1234        1239        1238
        1235        1236        1241        1240
        1236        1237        1242        1241
        1237        1238        1243        1242
        1238        1239        1244        1243
        1240        1241        1246        1245
        1241        1242        1247        1246
        1242        1243        1248        1247
        1243        1244        1249        1248
        1250        1251        1256        1255
        1251        1252        1257        1256
        1252        1253        1258        1257
        1253        1254        1259        1258
        1255        1256        1261        1260
        1256        1257        1262        1261
        1257        1258        1263        1262
        1258        1259        1264        1263
        1260        1261        1266        1265
        1261        1262        1267        1266
        1262        1263        1268        1267
        1263        1264        1269        1268
        1265        1266        1271        1270
        1266        1267        1272        1271
        1267        1268        1273        1272
        1268        1269        1274        1273
        1275        1276        1281        1280
        1276        1277        1282        1281
        1277        1278        1283        1282
        1278        1279        1284        1283
        1280        1281        1286        1285
        1281        1282        1287        1286
        1282        1283        1288        1287
        1283        1284        1289        1288
        1285        1286        1291        1290
        1286        1287        1292        1291
        1287        1288        1293        1292
        1288        1289        1294        1293
        1290        1291        1296        1295
        1291        1292        1297        1296
        1292        1293        1298        1297
        1293        1294        1299        1298
        1300        1301        1306        1305
        1301        1302        1307        1306
        1302        1303        1308        1307
        1303        1304        1309        1308
        1305        1306        1311        1310
        1306        1307        1312        1311
        1307        1308        1313        1312
        1308        1309        1314        1313
        1310        1311        1316        1315
        1311        1312        1317        1316
        1312        1313        1318        1317
        1313        1314        1319        1318
        1315        1316        1321        1320
        1316        1317        1322        1321
        1317        1318        1323        1322
        1318        1319        1324        1323
        1325        1326        1331        1330
        1326        1327        1332        1331
        1327        1328        1333        1332
        1328        1329        1334        1333
        1330        1331        1336        1335
        1331        1332        1337        1336
        1332        1333        1338        1337
        1333        1334        1339        1338
        1335        1336        1341        1340
        1336        1337        1342        1341
        1337        1338        1343        1342
        1338        1339        1344        1343
        1340        1341        1346        1345
        1341        1342        1347        1346
        1342        1343        1348        1347
        1343        1344        1349        1348
        1350        1351        1356        1355
        1351        1352        1357        1356
        1352        1353        1358        1357
        1353        1354        1359        1358
        1355        1356        1361        1360
        1356        1357        1362        1361
        1357        1358        1363        1362
        1358        1359        1364        1363
        1360        1361        1366        1365
        1361        1362        1367        1366
        1362        1363        1368        1367
        1363        1364        1369        1368
        1365        1366        1371        1370
        1366        1367        1372        1371
        1367        1368        1373        1372
        1368        1369        1374        1373
        1375        1376        1381        1380
        1376        1377        1382        1381
        1377        1378        1383        1382
        1378        1379        1384        1383
        1380        1381        1386        1385
        1381        1382        1387        1386
        1382        1383        1388        1387
        1383        1384        1389        1388
        1385        1386        1391        1390
        1386        1387        1392        1391
        1387        1388        1393        1392
        1388        1389        1394        1393
        1390        1391        1396        1395
        1391        1392        1397        1396
        1392        1393        1398        1397
        1393        1394        1399        1398
        1400        1401        1406        1405
        1401        1402        1407        1406
        1402        1403        1408        1407
        1403        1404        1409        1408
        1405        1406        1411        1410
        1406        1407        1412        1411
        1407        1408        1413        1412
        1408        1409        1414        1413
        1410        1411        1416        1415
        1411        1412        1417        1416
        1412        1413        1418        1417
        1413        1414        1419        1418
        1415        1416        1421        1420
        1416        1417        1422        1421
        1417        1418        1423        1422
        1418        1419        1424        1423
        1425        1426        1431        1430
        1426        1427        1432        1431
        1427        1428        1433        1432
        1428        1429        1434        1433
        1430        1431        1436        1435
        1431        1432        1437        1436
        1432        1433        1438        1437
        1433        1434        1439        1438
        1435        1436        1441        1440
        1436        1437        1442        1441
        1437        1438        1443        1442
        1438        1439        1444        1443
        1440        1441        1446        1445
        1441        1442        1447        1446
        1442        1443        1448        1447
        1443        1444        1449        1448
        1450        1451        1456        1455
        1451        1452        1457        1456
        1452        1453        1458        1457
        1453        1454        1459        1458
        1455        1456        1461        1460
        1456        1457        1462        1461
        1457        1458        1463        1462
        1458        1459        1464        1463
        1460        1461        1466        1465
        1461        1462        1467        1466
        1462        1463        1468        1467
        1463        1464        1469        1468
        1465        1466        1471        1470
        1466        1467        1472        1471
        1467        1468        1473        1472
        1468        1469        1474        1473
        1475        1476        1481        1480
        1476        1477        1482        1481
        1477        1478        1483        1482
        1478        1479        1484        1483
        1480        1481        1486        1485
        1481        1482        1487        1486
        1482        1483        1488        1487
        1483        1484        1489        1488
        1485        1486        1491        1490
        1486        1487        1492        1491
        1487        1488        1493        1492
        1488        1489        1494        1493
        1490        1491        1496        1495
        1491        1492        1497        1496
        1492        1493        1498        1497
        1493        1494        1499        1498
        1500        1501        1506        1505
        1501        1502        1507        1506
        1502        1503        1508        1507
        1503        1504        1509        1508
        1505        1506        1511        1510
        1506        1507        1512        1511
        1507        1508        1513        1512
        1508        1509        1514        1513
        1510        1511        1516        1515
        1511        1512        1517        1516
        1512        1513        1518        1517
        1513        1514        1519        1518
        1515        1516        1521        1520
        1516        1517        1522        1521
        1517        1518        1523        1522
        1518        1519        1524        1523
        1525        1526        1531        1530
        1526        1527        1532        1531
        1527        1528        1533        1532
        1528        1529        1534        1533
        1530        1531        1536        1535
        1531        1532        1537        1536
        1532        1533        1538        1537
        1533        1534        1539        1538
        1535        1536        1541        1540
        1536        1537        1542        1541
        1537        1538        1543        1542
        1538        1539        1544        1543
        1540        1541        1546        1545
        1541        1542        1547        1546
        1542        1543        1548        1547
        1543        1544        1549        1548
        1550        1551        1556        1555
        1551        1552        1557        1556
        1552        1553        1558        1557
        1553        1554        1559        1558
        1555        1556        1561        1560
        1556        1557        1562        1561
        1557        1558        1563        1562
        1558        1559        1564        1563
        1560        1561        1566        1565
        1561        1562        1567        1566
        1562        1563        1568        1567
        1563        1564        1569        1568
        1565        1566        1571        1570
        1566        1567        1572        1571
        1567        1568        1573        1572
        1568        1569        1574        1573
        1575        1576        1581        1580
        1576        1577        1582        1581
        1577        1578        1583        1582
        1578        1579        1584        1583
        1580        1581        1586        1585
        1581        1582        1587        1586
        1582        1583        1588        1587
        1583        1584        1589        1588
        1585        1586        1591        1590
        1586        1587        1592        1591
        1587        1588        1593        1592
        1588        1589        1594        1593
        1590        1591        1596        1595
        1591        1592        1597        1596
        1592        1593        1598        1597
        1593        1594        1599        1598
 </DataArray>
 <DataArray  type="Int32"  Name="offsets"  format="ascii"> 
           4
           8
          12
          16
          20
          24
          28
          32
          36
          40
          44
          48
          52
          56
          60
          64
          68
          72
          76
          80
          84
          88
          92
          96
         100
         104
         108
         112
         116
         120
         124
         128
         132
         136
         140
         144
         148
         152
         156
         160
         164
         168
         172
         176
         180
         184
         188
         192
         196
         200
         204
         208
         212
         216
         220
         224
         228
         232
         236
         240
         244
         248
         252
         256
         260
         264
         268
         272
         276
         280
         284
         288
         292
         296
         300
         304
         308
         312
         316
         320
         324
         328
         332
         336
         340
         344
         348
         352
         356
         360
         364
         368
         372
         376
         380
         384
         388
         392
         396
         400
         404
         408
         412
         416
         420
         424
         428
         432
         436
         440
         444
         448
         452
         456
         460
         464
         468
         472
         476
         480
         484
         488
         492
         496
         500
         504
         508
         512
         516
         520
         524
         528
         532
         536
         540
         544
         548
         552
         556
         560
         564
         568
         572
         576
         580
         584
         588
         592
         596
         600
         604
         608
         612
         616
         620
         624
         628
         632
         636
         640
         644
         648
         652
         656
         660
         664
         668
         672
         676
         680
         684
         688
         692
         696
         700
         704
         708
         712
         716
         720
         724
         728
         732
         736
         740
         744
         748
         752
         756
         760
         764
         768
         772
         776
         780
         784
         788
         792
         796
         800
         804
         808
         812
         816
         820
         824
         828
         832
         836
         840
         844
         848
         852
         856
         860
         864
         868
         872
         876
         880
         884
         888
         892
         896
         900
         904
         908
         912
         916
         920
         924
         928
         932
         936
         940
         944
         948
         952
         956
         960
         964
         968
         972
         976
         980
         984
         988
         992
         996
        1000
        1004
        1008
        1012
        1016
        1020
        1024
        1028
        1032
        1036
        1040
        1044
        1048
        1052
        1056
        1060
        1064
        1068
        1072
        1076
        1080
        1084
        1088
        1092
        1096
        1100
        1104
        1108
        1112
        1116
        1120
        1124
        1128
        1132
        1136
        1140
        1144
        1148
        1152
        1156
        1160
        1164
        1168
        1172
        1176
        1180
        1184
        1188
        1192
        1196
        1200
        1204
        1208
        1212
        1216
        1220
        1224
        1228
        1232
        1236
        1240
        1244
        1248
        1252
        1256
        1260
        1264
        1268
        1272
        1276
        1280
        1284
        1288
        1292
        1296
        1300
        1304
        1308
        1312
        1316
        1320
        1324
        1328
        1332
        1336
        1340
        1344
        1348
        1352
        1356
        1360
        1364
        1368
        1372
        1376
        1380
        1384
        1388
        1392
        1396
        1400
        1404
        1408
        1412
        1416
        1420
        1424
        1428
        1432
        1436
        1440
        1444
        1448
        1452
        1456
        1460
        1464
        1468
        1472
        1476
        1480
        1484
        1488
        1492
        1496
        1500
        1504
        1508
        1512
        1516
        1520
        1524
        1528
        1532
        1536
        1540
        1544
        1548
        1552
        1556
        1560
        1564
        1568
        1572
        1576
        1580
        1584
        1588
        1592
        1596
        1600
        1604
        1608
        1612
        1616
        1620
        1624
        1628
        1632
        1636
        1640
        1644
        1648
        1652
        1656
        1660
        1664
        1668
        1672
        1676
        1680
        1684
        1688
        1692
        1696
        1700
        1704
        1708
        1712
        1716
        1720
        1724
        1728
        1732
        1736
        1740
        1744
        1748
        1752
        1756
        1760
        1764
        1768
        1772
        1776
        1780
        1784
        1788
        1792
        1796
        1800
        1804
        1808
        1812
        1816
        1820
        1824
        1828
        1832
        1836
        1840
        1844
        1848
        1852
        1856
        1860
        1864
        1868
        1872
        1876
        1880
        1884
        1888
        1892
        1896
        1900
        1904
        1908
        1912
        1916
        1920
        1924
        1928
        1932
        1936
        1940
        1944
        1948
        1952
        1956
        1960
        1964
        1968
        1972
        1976
        1980
        1984
        1988
        1992
        1996
        2000
        2004
        2008
        2012
        2016
        2020
        2024
        2028
        2032
        2036
        2040
        2044
        2048
        2052
        2056
        2060
        2064
        2068
        2072
        2076
        2080
        2084
        2088
        2092
        2096
        2100
        2104
        2108
        2112
        2116
        2120
        2124
        2128
        2132
        2136
        2140
        2144
        2148
        2152
        2156
        2160
        2164
        2168
        2172
        2176
        2180
        2184
        2188
        2192
        2196
        2200
        2204
        2208
        2212
        2216
        2220
        2224
        2228
        2232
        2236
        2240
        2244
        2248
        2252
        2256
        2260
        2264
        2268
        2272
        2276
        2280
        2284
        2288
        2292
        2296
        2300
        2304
        2308
        2312
        2316
        2320
        2324
        2328
        2332
        2336
        2340
        2344
        2348
        2352
        2356
        2360
        2364
        2368
        2372
        2376
        2380
        2384
        2388
        2392
        2396
        2400
        2404
        2408
        2412
        2416
        2420
        2424
        2428
        2432
        2436
        2440
        2444
        2448
        2452
        2456
        2460
        2464
        2468
        2472
        2476
        2480
        2484
        2488
        2492
        2496
        2500
        2504
        2508
        2512
        2516
        2520
        2524
        2528
        2532
        2536
        2540
        2544
        2548
        2552
        2556
        2560
        2564
        2568
        2572
        2576
        2580
        2584
        2588
        2592
        2596
        2600
        2604
        2608
        2612
        2616
        2620
        2624
        2628
        2632
        2636
        2640
        2644
        2648
        2652
        2656
        2660
        2664
        2668
        2672
        2676
        2680
        2684
        2688
        2692
        2696
        2700
        2704
        2708
        2712
        2716
        2720
        2724
        2728
        2732
        2736
        2740
        2744
        2748
        2752
        2756
        2760
        2764
        2768
        2772
        2776
        2780
        2784
        2788
        2792
        2796
        2800
        2804
        2808
        2812
        2816
        2820
        2824
        2828
        2832
        2836
        2840
        2844
        2848
        2852
        2856
        2860
        2864
        2868
        2872
        2876
        2880
        2884
        2888
        2892
        2896
        2900
        2904
        2908
        2912
        2916
        2920
        2924
        2928
        2932
        2936
        2940
        2944
        2948
        2952
        2956
        2960
        2964
        2968
        2972
        2976
        2980
        2984
        2988
        2992
        2996
        3000
        3004
        3008
        3012
        3016
        3020
        3024
        3028
        3032
        3036
        3040
        3044
        3048
        3052
        3056
        3060
        3064
        3068
        3072
        3076
        3080
        3084
        3088
        3092
        3096
        3100
        3104
        3108
        3112
        3116
        3120
        3124
        3128
        3132
        3136
        3140
        3144
        3148
        3152
        3156
        3160
        3164
        3168
        3172
        3176
        3180
        3184
        3188
        3192
        3196
        3200
        3204
        3208
        3212
        3216
        3220
        3224
        3228
        3232
        3236
        3240
        3244
        3248
        3252
        3256
        3260
        3264
        3268
        3272
        3276
        3280
        3284
        3288
        3292
        3296
        3300
        3304
        3308
        3312
        3316
        3320
        3324
        3328
        3332
        3336
        3340
        3344
        3348
        3352
        3356
        3360
        3364
        3368
        3372
        3376
        3380
        3384
        3388
        3392
        3396
        3400
        3404
        3408
        3412
        3416
        3420
        3424
        3428
        3432
        3436
        3440
        3444
        3448
        3452
        3456
        3460
        3464
        3468
        3472
        3476
        3480
        3484
        3488
        3492
        3496
        3500
        3504
        3508
        3512
        3516
        3520
        3524
        3528
        3532
        3536
        3540
        3544
        3548
        3552
        3556
        3560
        3564
        3568
        3572
        3576
        3580
        3584
        3588
        3592
        3596
        3600
        3604
        3608
        3612
        3616
        3620
        3624
        3628
        3632
        3636
        3640
        3644
        3648
        3652
        3656
        3660
        3664
        3668
        3672
        3676
        3680
        3684
        3688
        3692
        3696
        3700
        3704
        3708
        3712
        3716
        3720
        3724
        3728
        3732
        3736
        3740
        3744
        3748
        3752
        3756
        3760
        3764
        3768
        3772
        3776
        3780
        3784
        3788
        3792
        3796
        3800
        3804
        3808
        3812
        3816
        3820
        3824
        3828
        3832
        3836
        3840
        3844
        3848
        3852
        3856
        3860
        3864
        3868
        3872
        3876
        3880
        3884
        3888
        3892
        3896
        3900
        3904
        3908
        3912
        3916
        3920
        3924
        3928
        3932
        3936
        3940
        3944
        3948
        3952
        3956
        3960
        3964
        3968
        3972
        3976
        3980
        3984
        3988
        3992
        3996
        4000
        4004
        4008
        4012
        4016
        4020
        4024
        4028
        4032
        4036
        4040
        4044
        4048
        4052
        4056
        4060
        4064
        4068
        4072
        4076
        4080
        4084
        4088
        4092
        4096
 </DataArray>
 <DataArray  type="UInt8"  Name="types"  format="ascii">
 9
 9
 9
 9
 9
 9
 9
 9
 9
 9
 9
 9
 9
 9
 9
 9
 9
 9
 9
 9
 9
 9
 9
 9
 9
 9
 9
 9
 9
 9
 9
 9
 9
 9
 9
 9
 9
 9
 9
 9
 9
 9
 9
 9
 9
 9
 9
 9
 9
 9
 9
 9
 9
 9
 9
 9
 9
 9
 9
 9
 9
 9
 9
 9
 9
 9
 9
 9
 9
 9
 9
 9
 9
 9
 9
 9
 9
 9
 9
 9
 9
 9
 9
 9
 9
 9
 9
 9
 9
 9
 9
 9
 9
 9
 9
 9
 9
 9
 9
 9
 9
 9
 9
 9
 9
 9
 9
 9
 9
 9
 9
 9
 9
 9
 9
 9
 9
 9
 9
 9
 9
 9
 9
 9
 9
 9
 9
 9
 9
 9
 9
 9
 9
 9
 9
 9
 9
 9
 9
 9
 9
 9
 9
 9
 9
 9
 9
 9
 9
 9
 9
 9
 9
 9
 9
 9
 9
 9
 9
 9
 9
 9
 9
 9
 9
 9
 9
 9
 9
 9
 9
 9
 9
 9
 9
 9
 9
 9
 9
 9
 9
 9
 9
 9
 9
 9
 9
 9
 9
 9
 9
 9
 9
 9
 9
 9
 9
 9
 9
 9
 9
 9
 9
 9
 9
 9
 9
 9
 9
 9
 9
 9
 9
 9
 9
 9
 9
 9
 9
 9
 9
 9
 9
 9
 9
 9
 9
 9
 9
 9
 9
 9
 9
 9
 9
 9
 9
 9
 9
 9
 9
 9
 9
 9
 9
 9
 9
 9
 9
 9
 9
 9
 9
 9
 9
 9
 9
 9
 9
 9
 9
 9
 9
 9
 9
 9
 9
 9
 9
 9
 9
 9
 9
 9
 9
 9
 9
 9
 9
 9
 9
 9
 9
 9
 9
 9
 9
 9
 9
 9
 9
 9
 9
 9
 9
 9
 9
 9
 9
 9
 9
 9
 9
 9
 9
 9
 9
 9
 9
 9
 9
 9
 9
 9
 9
 9
 9
 9
 9
 9
 9
 9
 9
 9
 9
 9
 9
 9
 9
 9
 9
 9
 9
 9
 9
 9
 9
 9
 9
 9
 9
 9
 9
 9
 9
 9
 9
 9
 9
 9
 9
 9
 9
 9
 9
 9
 9
 9
 9
 9
 9
 9
 9
 9
 9
 9
 9
 9
 9
 9
 9
 9
 9
 9
 9
 9
 9
 9
 9
 9
 9
 9
 9
 9
 9
 9
 9
 9
 9
 9
 9
 9
 9
 9
 9
 9
 9
 9
 9
 9
 9
 9
 9
 9
 9
 9
 9
 9
 9
 9
 9
 9
 9
 9
 9
 9
 9
 9
 9
 9
 9
 9
 9
 9
 9
 9
 9
 9
 9
 9
 9
 9
 9
 9
 9
 9
 9
 9
 9
 9
 9
 9
 9
 9
 9
 9
 9
 9
 9
 9
 9
 9
 9
 9
 9
 9
 9
 9
 9
 9
 9
 9
 9
 9
 9
 9
 9
 9
 9
 9
 9
 9
 9
 9
 9
 9
 9
 9
 9
 9
 9
 9
 9
 9
 9
 9
 9
 9
 9
 9
 9
 9
 9
 9
 9
 9
 9
 9
 9
 9
 9
 9
 9
 9
 9
 9
 9
 9
 9
 9
 9
 9
 9
 9
 9
 9
 9
 9
 9
 9
 9
 9
 9
 9
 9
 9
 9
 9
 9
 9
 9
 9
 9
 9
 9
 9
 9
 9
 9
 9
 9
 9
 9
 9
 9
 9
 9
 9
 9
 9
 9
 9
 9
 9
 9
 9
 9
 9
 9
 9
 9
 9
 9
 9
 9
 9
 9
 9
 9
 9
 9
 9
 9
 9
 9
 9
 9
 9
 9
 9
 9
 9
 9
 9
 9
 9
 9
 9
 9
 9
 9
 9
 9
 9
 9
 9
 9
 9
 9
 9
 9
 9
 9
 9
 9
 9
 9
 9
 9
 9
 9
 9
 9
 9
 9
 9
 9
 9
 9
 9
 9
 9
 9
 9
 9
 9
 9
 9
 9
 9
 9
 9
 9
 9
 9
 9
 9
 9
 9
 9
 9
 9
 9
 9
 9
 9
 9
 9
 9
 9
 9
 9
 9
 9
 9
 9
 9
 9
 9
 9
 9
 9
 9
 9
 9
 9
 9
 9
 9
 9
 9
 9
 9
 9
 9
 9
 9
 9
 9
 9
 9
 9
 9
 9
 9
 9
 9
 9
 9
 9
 9
 9
 9
 9
 9
 9
 9
 9
 9
 9
 9
 9
 9
 9
 9
 9
 9
 9
 9
 9
 9
 9
 9
 9
 9
 9
 9
 9
 9
 9
 9
 9
 9
 9
 9
 9
 9
 9
 9
 9
 9
 9
 9
 9
 9
 9
 9
 9
 9
 9
 9
 9
 9
 9
 9
 9
 9
 9
 9
 9
 9
 9
 9
 9
 9
 9
 9
 9
 9
 9
 9
 9
 9
 9
 9
 9
 9
 9
 9
 9
 9
 9
 9
 9
 9
 9
 9
 9
 9
 9
 9
 9
 9
 9
 9
 9
 9
 9
 9
 9
 9
 9
 9
 9
 9
 9
 9
 9
 9
 9
 9
 9
 9
 9
 9
 9
 9
 9
 9
 9
 9
 9
 9
 9
 9
 9
 9
 9
 9
 9
 9
 9
 9
 9
 9
 9
 9
 9
 9
 9
 9
 9
 9
 9
 9
 9
 9
 9
 9
 9
 9
 9
 9
 9
 9
 9
 9
 9
 9
 9
 9
 9
 9
 9
 9
 9
 9
 9
 9
 9
 9
 9
 9
 9
 9
 9
 9
 9
 9
 9
 9
 9
 9
 9
 9
 9
 9
 9
 9
 9
 9
 9
 9
 9
 9
 9
 9
 9
 9
 9
 9
 9
 9
 9
 9
 9
 9
 9
 9
 9
 9
 9
 9
 9
 9
 9
 9
 9
 9
 9
 9
 9
 9
 9
 9
 9
 9
 9
 9
 9
 9
 9
 9
 9
 9
 9
 9
 9
 9
 9
 9
 9
 9
 9
 9
 9
 9
 9
 9
 9
 9
 9
 9
 9
 9
 9
 9
 9
 9
 9
 9
 9
 9
 9
 9
 9
 9
 9
 9
 9
 9
 9
 9
 9
 9
 9
 9
 9
 9
 9
 9
 9
 9
 9
 9
 9
 9
 9
 9
 9
 9
 9
 9
 9
 9
 9
 9
 9
 9
 9
 9
 9
 9
 9
 9
 9
 9
 9
 9
 9
 9
 9
 9
 9
 9
 9
 9
 9
 9
 9
 9
 9
 9
 9
 9
 9
 9
 9
 9
 9
 9
 9
 9
 9
 </DataArray>
 </Cells> 
 <PointData>
 <DataArray  type="Float64" Name="disp" NumberOfComponents="3" format="ascii">
   6.5304421997025630E-002   6.2940228580456684E-002   0.0000000000000000     
   6.8382216040435734E-002   6.8237452464909629E-002   0.0000000000000000     
   7.1351602883909682E-002   7.3740416043224982E-002   0.0000000000000000     
   7.4212582527447446E-002   7.9449119315402744E-002   0.0000000000000000     
   7.6965154971049055E-002   8.5363562281442901E-002   0.0000000000000000     
   6.0102600588197073E-002   6.1789671475685294E-002   0.0000000000000000     
   6.2981554995825251E-002   6.7206504787251903E-002   0.0000000000000000     
   6.5763539693483281E-002   7.2804674136029743E-002   0.0000000000000000     
   6.8448554681171198E-002   7.8584179522018835E-002   0.0000000000000000     
   7.1036599958888974E-002   8.4545020945219124E-002   0.0000000000000000     
   5.5114679086331657E-002   6.0839832473542174E-002   0.0000000000000000     
   5.7798974085524417E-002   6.6328542394564108E-002   0.0000000000000000     
   6.0395224645954759E-002   7.1985274673477095E-002   0.0000000000000000     
   6.2903430767622684E-002   7.7810029310281109E-002   0.0000000000000000     
   6.5323592450528198E-002   8.3802806304976163E-002   0.0000000000000000     
   5.0340657491429353E-002   6.0090711574027324E-002   0.0000000000000000     
   5.2834473309533267E-002   6.5603565286846244E-002   0.0000000000000000     
   5.5246657741324132E-002   7.1282217655567012E-002   0.0000000000000000     
   5.7577210786801954E-002   7.7126668680189581E-002   0.0000000000000000     
   5.9826132445966726E-002   8.3136918360713991E-002   0.0000000000000000     
   4.5780535803490174E-002   5.9542308777140750E-002   0.0000000000000000     
   4.8088052667851794E-002   6.5031573464098311E-002   0.0000000000000000     
   5.0317838979591405E-002   7.0695503082299480E-002   0.0000000000000000     
   5.2469894738708986E-002   7.6534097631744250E-002   0.0000000000000000     
   5.4544219945204558E-002   8.2547357112432607E-002   0.0000000000000000     
   7.6965154971049055E-002   8.5363562281442901E-002   0.0000000000000000     
   7.9624646137416641E-002   9.1462290901917792E-002   0.0000000000000000     
   8.2206381949252366E-002   9.7723851137399731E-002   0.0000000000000000     
   8.4710362406556203E-002  0.10414824298788872        0.0000000000000000     
   8.7136587509328206E-002  0.11073546645338475        0.0000000000000000     
   7.1036599958888974E-002   8.4545020945219124E-002   0.0000000000000000     
   7.3538800698376469E-002   9.0677242557940421E-002   0.0000000000000000     
   7.5966282071373473E-002   9.6970888512492429E-002   0.0000000000000000     
   7.8319044077880040E-002  0.10342595880887520        0.0000000000000000     
   8.0597086717896116E-002  0.11004245344708870        0.0000000000000000     
   6.5323592450528198E-002   8.3802806304976163E-002   0.0000000000000000     
   6.7664230057046859E-002   8.9960502288558855E-002   0.0000000000000000     
   6.9933863949554267E-002   9.6280013892025826E-002   0.0000000000000000     
   7.2132494128050423E-002  0.10276134111537708        0.0000000000000000     
   7.4260120592535311E-002  0.10940448395861260        0.0000000000000000     
   5.9826132445966726E-002   8.3136918360713991E-002   0.0000000000000000     
   6.2000934213427852E-002   8.9312070093773122E-002   0.0000000000000000     
   6.4109127583794737E-002   9.5651227275999909E-002   0.0000000000000000     
   6.6150712557067393E-002  0.10215438990739437        0.0000000000000000     
   6.8125689133245806E-002  0.10882155798795645        0.0000000000000000     
   5.4544219945204558E-002   8.2547357112432607E-002   0.0000000000000000     
   5.6548913167519407E-002   8.8731945973583221E-002   0.0000000000000000     
   5.8492072974094866E-002   9.5084528664414678E-002   0.0000000000000000     
   6.0373699364930908E-002  0.10160510518492703        0.0000000000000000     
   6.2193792340027566E-002  0.10829367553512026        0.0000000000000000     
   8.7136587509328206E-002  0.11073546645338475        0.0000000000000000     
   8.9466840866643915E-002  0.11746686770117033        0.0000000000000000     
   9.1682906087578953E-002  0.12432379289852789        0.0000000000000000     
   9.3784783172133332E-002  0.13130624204545749        0.0000000000000000     
   9.5772472120307012E-002  0.13841421514195906        0.0000000000000000     
   8.0597086717896116E-002  0.11004245344708870        0.0000000000000000     
   8.2784153991249484E-002  0.11680235295204855        0.0000000000000000     
   8.4863989897767875E-002  0.12368763784867043        0.0000000000000000     
   8.6836594437451328E-002  0.13069830813695432        0.0000000000000000     
   8.8701967610299789E-002  0.13783436381690017        0.0000000000000000     
   7.4260120592535311E-002  0.10940448395861260        0.0000000000000000     
   7.6302133780142889E-002  0.11619108558756763        0.0000000000000000     
   7.8243924128007097E-002  0.12310278916807746        0.0000000000000000     
   8.0085491636127909E-002  0.13013959470014203        0.0000000000000000     
   8.1826836304505365E-002  0.13730150218376141        0.0000000000000000     
   6.8125689133245806E-002  0.10882155798795645        0.0000000000000000     
   7.0020780233324156E-002  0.11563306560772751        0.0000000000000000     
   7.1822708778296593E-002  0.12256924685674894        0.0000000000000000     
   7.3531474768163116E-002  0.12963010173502074        0.0000000000000000     
   7.5147078202923767E-002  0.13681563024254281        0.0000000000000000     
   6.2193792340027566E-002  0.10829367553512026        0.0000000000000000     
   6.3940093350793231E-002  0.11512829301252823        0.0000000000000000     
   6.5600343848636361E-002  0.12208701091468492        0.0000000000000000     
   6.7174543833556935E-002  0.12916982924159029        0.0000000000000000     
   6.8662693305554981E-002  0.13637674799324440        0.0000000000000000     
   9.5772472120307012E-002  0.13841421514195906        0.0000000000000000     
   9.7660966420735740E-002  0.14564168694014018        0.0000000000000000     
   9.9465259562055167E-002  0.15298263219210836        0.0000000000000000     
  0.10118535154426536       0.16043705089786361        0.0000000000000000     
  0.10282124236736626       0.16800494305740593        0.0000000000000000     
   8.8701967610299789E-002  0.13783436381690017        0.0000000000000000     
   9.0473996686541353E-002  0.14508982622091823        0.0000000000000000     
   9.2166568936404153E-002  0.15245871668141875        0.0000000000000000     
   9.3779684359888163E-002  0.15994103519840164        0.0000000000000000     
   9.5313342956993341E-002  0.16753678177186693        0.0000000000000000     
   8.1826836304505365E-002  0.13730150218376141        0.0000000000000000     
   8.3480598330207129E-002  0.14458264758936845        0.0000000000000000     
   8.5059417910300875E-002  0.15197716688739596        0.0000000000000000     
   8.6563295044786617E-002  0.15948506007784399        0.0000000000000000     
   8.7992229733664329E-002  0.16710632716071250        0.0000000000000000     
   7.5147078202923767E-002  0.13681563024254281        0.0000000000000000     
   7.6680771351733013E-002  0.14412015104549078        0.0000000000000000     
   7.8143806483745318E-002  0.15153798281004005        0.0000000000000000     
   7.9536183598960739E-002  0.15906912553619071        0.0000000000000000     
   8.0857902697379219E-002  0.16671357922394264        0.0000000000000000     
   6.8662693305554981E-002  0.13637674799324440        0.0000000000000000     
   7.0074515751119004E-002  0.14370233658928525        0.0000000000000000     
   7.1419734656737510E-002  0.15114116444935105        0.0000000000000000     
   7.2698350022410527E-002  0.15869323157344176        0.0000000000000000     
   7.3910361848138012E-002  0.16635853796155739        0.0000000000000000     
  0.10282124236736626       0.16800494305740593        0.0000000000000000     
  0.10437124638768001       0.17567368443061993        0.0000000000000000     
  0.10583367796152879       0.18343065077739024        0.0000000000000000     
  0.10720853708891255       0.19127584209771684        0.0000000000000000     
  0.10849582376983136       0.19920925839159975        0.0000000000000000     
   9.5313342956993341E-002  0.16753678177186693        0.0000000000000000     
   9.6764610924495786E-002  0.17523327544686934        0.0000000000000000     
   9.8130554459171515E-002  0.18301783526846352        0.0000000000000000     
   9.9411173561020513E-002  0.19089046123664949        0.0000000000000000     
  0.10060646823004282       0.19885115335142720        0.0000000000000000     
   8.7992229733664329E-002  0.16710632716071250        0.0000000000000000     
   8.9342412218746725E-002  0.17482835372161420        0.0000000000000000     
   9.0610032741846439E-002  0.18263852534616176        0.0000000000000000     
   9.1795091302963441E-002  0.19053684203435511        0.0000000000000000     
   9.2897587902097789E-002  0.19852330378619434        0.0000000000000000     
   8.0857902697379219E-002  0.16671357922394264        0.0000000000000000     
   8.2104650270432802E-002  0.17445891925485452        0.0000000000000000     
   8.3272112809553531E-002  0.18229272101048496        0.0000000000000000     
   8.4360290314741349E-002  0.19021498449083377        0.0000000000000000     
   8.5369182785996270E-002  0.19822570969590120        0.0000000000000000     
   7.3910361848138012E-002  0.16635853796155739        0.0000000000000000     
   7.5051325079554101E-002  0.17412497204659033        0.0000000000000000     
   7.6116794662292833E-002  0.18198042226143307        0.0000000000000000     
   7.7106770596354207E-002  0.18992488860608556        0.0000000000000000     
   7.8021252881738223E-002  0.19795837108054781        0.0000000000000000     
  0.10849582376983136       0.19920925839159975        0.0000000000000000     
  0.10970206173666334       0.20722777674711171        0.0000000000000000     
  0.11083377472178671       0.21532827425232540        0.0000000000000000     
  0.11189096272520151       0.22351075090724090        0.0000000000000000     
  0.11287362574690769       0.23177520671185814        0.0000000000000000     
  0.10060646823004282       0.19885115335142720        0.0000000000000000     
  0.10172272317062508       0.20689485053657664        0.0000000000000000     
  0.10276622308715401       0.21501649171587767        0.0000000000000000     
  0.10373696797962957       0.22321607688933040        0.0000000000000000     
  0.10463495784805180       0.23149360605693470        0.0000000000000000     
   9.2897587902097789E-002  0.19852330378619434        0.0000000000000000     
   9.3922825554532297E-002  0.20659159511538858        0.0000000000000000     
   9.4876107275549806E-002  0.21473540053564699        0.0000000000000000     
   9.5757433065150305E-002  0.22295472004696967        0.0000000000000000     
   9.6566802923333805E-002  0.23124955364935657        0.0000000000000000     
   8.5369182785996270E-002  0.19822570969590120        0.0000000000000000     
   8.6302368888384953E-002  0.20631801048354761        0.0000000000000000     
   8.7163427286974099E-002  0.21448500071163346        0.0000000000000000     
   8.7952357981763693E-002  0.22272668038015883        0.0000000000000000     
   8.8669160972753736E-002  0.23104304948912366        0.0000000000000000     
   7.8021252881738223E-002  0.19795837108054781        0.0000000000000000     
   7.8861353172183069E-002  0.20607409664105364        0.0000000000000000     
   7.9628183121426915E-002  0.21426529224383700        0.0000000000000000     
   8.0321742729469736E-002  0.22253195788889774        0.0000000000000000     
   8.0942031996311531E-002  0.23087409357623603        0.0000000000000000     
  0.11287362574690769       0.23177520671185814        0.0000000000000000     
  0.11380932820649889       0.24013811102132895        0.0000000000000000     
  0.11472563452356872       0.24861593319080505        0.0000000000000000     
  0.11562254469811718       0.25720867322028651        0.0000000000000000     
  0.11650005873014427       0.26591633110977325        0.0000000000000000     
  0.10463495784805180       0.23149360605693470        0.0000000000000000     
  0.10546490878780194       0.23987235365221909        0.0000000000000000     
  0.10623153689426128       0.24837559410871191        0.0000000000000000     
  0.10693484216742981       0.25700332742641319        0.0000000000000000     
  0.10757482460730752       0.26575555360532288        0.0000000000000000     
   9.6566802923333805E-002  0.23124955364935657        0.0000000000000000     
   9.7294957099833962E-002  0.23964612152771742        0.0000000000000000     
   9.7932635844384400E-002  0.24817064386696205        0.0000000000000000     
   9.8479839156985119E-002  0.25682312066709045        0.0000000000000000     
   9.8936567037636147E-002  0.26560355192810270        0.0000000000000000     
   8.8669160972753736E-002  0.23104304948912366        0.0000000000000000     
   8.9299473142594940E-002  0.23945941464782391        0.0000000000000000     
   8.9828931373938062E-002  0.24800108246555549        0.0000000000000000     
   9.0257535666783142E-002  0.25666805294231843        0.0000000000000000     
   9.0585286021130126E-002  0.26546032607811271        0.0000000000000000     
   8.0942031996311531E-002  0.23087409357623603        0.0000000000000000     
   8.1478456916084879E-002  0.23931223301253857        0.0000000000000000     
   8.1920423482922319E-002  0.24786690990449228        0.0000000000000000     
   8.2267931696823851E-002  0.25653812425209704        0.0000000000000000     
   8.2520981557789461E-002  0.26532587605535296        0.0000000000000000     
  0.11650005873014427       0.26591633110977325        0.0000000000000000     
  0.11729877202492392       0.27490342761964742        0.0000000000000000     
  0.11795927998773005       0.28433448351029117        0.0000000000000000     
  0.11848158261856270       0.29420949878170438        0.0000000000000000     
  0.11886567991742185       0.30452847343388723        0.0000000000000000     
  0.10757482460730752       0.26575555360532288        0.0000000000000000     
  0.10813262426866267       0.27476438404438192        0.0000000000000000     
  0.10858938120626350       0.28416193014253122        0.0000000000000000     
  0.10894509542011002       0.29394819189977073        0.0000000000000000     
  0.10919976691020220       0.30412316931610045        0.0000000000000000     
   9.8936567037636147E-002  0.26560355192810270        0.0000000000000000     
   9.9313869346911540E-002  0.27461022204663221        0.0000000000000000     
   9.9622795945385437E-002  0.28394141541931250        0.0000000000000000     
   9.9863346833057781E-002  0.29359713204614368        0.0000000000000000     
  0.10003552200992862       0.30357737192712564        0.0000000000000000     
   9.0585286021130126E-002  0.26546032607811271        0.0000000000000000     
   9.0842507259670524E-002  0.27444094162639832        0.0000000000000000     
   9.1059524205095790E-002  0.28367293934063514        0.0000000000000000     
   9.1236336857406009E-002  0.29315631922082330        0.0000000000000000     
   9.1372945216601109E-002  0.30289108126696274        0.0000000000000000     
   8.2520981557789461E-002  0.26532587605535296        0.0000000000000000     
   8.2718538006939582E-002  0.27425654278368022        0.0000000000000000     
   8.2899565985394677E-002  0.28335650190649914        0.0000000000000000     
   8.3064065493154690E-002  0.29262575342380970        0.0000000000000000     
   8.3212036530219691E-002  0.30206429733561185        0.0000000000000000     
   4.5780535803490174E-002   5.9542308777140750E-002   0.0000000000000000     
   4.8088052667851794E-002   6.5031573464098311E-002   0.0000000000000000     
   5.0317838979591405E-002   7.0695503082299480E-002   0.0000000000000000     
   5.2469894738708986E-002   7.6534097631744250E-002   0.0000000000000000     
   5.4544219945204558E-002   8.2547357112432607E-002   0.0000000000000000     
   4.1391374262521111E-002   5.9062395501763967E-002   0.0000000000000000     
   4.3513091702737282E-002   6.4520603249224026E-002   0.0000000000000000     
   4.5560598464608193E-002   7.0164156383484499E-002   0.0000000000000000     
   4.7533894548133809E-002   7.5993054904545415E-002   0.0000000000000000     
   4.9432979953314166E-002   8.2007298812406718E-002   0.0000000000000000     
   3.7130233108529150E-002   5.8518743166778485E-002   0.0000000000000000     
   3.9062969956447015E-002   6.3978690965127108E-002   0.0000000000000000     
   4.0926766300226104E-002   6.9627202988932074E-002   0.0000000000000000     
   4.2721622139866446E-002   7.5464279238193349E-002   0.0000000000000000     
   4.4447537475368004E-002   8.1489919712910974E-002   0.0000000000000000     
   3.2997112341514298E-002   5.7911351772184330E-002   0.0000000000000000     
   3.4737687428980979E-002   6.3405836611807570E-002   0.0000000000000000     
   3.6416342486445173E-002   6.9084642898642162E-002   0.0000000000000000     
   3.8033077513906874E-002   7.4947770632688135E-002   0.0000000000000000     
   3.9587892511366095E-002   8.0995219813945432E-002   0.0000000000000000     
   2.8992011961476553E-002   5.7240221317981468E-002   0.0000000000000000     
   3.0537244120339181E-002   6.2802040189265398E-002   0.0000000000000000     
   3.2029327023265372E-002   6.8536476112614791E-002   0.0000000000000000     
   3.3468260670255115E-002   7.4443529088029661E-002   0.0000000000000000     
   3.4854045061308417E-002   8.0523199115510008E-002   0.0000000000000000     
   5.4544219945204558E-002   8.2547357112432607E-002   0.0000000000000000     
   5.6548913167519407E-002   8.8731945973583221E-002   0.0000000000000000     
   5.8492072974094866E-002   9.5084528664414678E-002   0.0000000000000000     
   6.0373699364930908E-002  0.10160510518492703        0.0000000000000000     
   6.2193792340027566E-002  0.10829367553512026        0.0000000000000000     
   4.9432979953314166E-002   8.2007298812406718E-002   0.0000000000000000     
   5.1266824154362060E-002   8.8200159053132693E-002   0.0000000000000000     
   5.3044396625490341E-002   9.4564906572787516E-002   0.0000000000000000     
   5.4765697366698993E-002  0.10110154137137127        0.0000000000000000     
   5.6430726377988009E-002  0.10781006344888387        0.0000000000000000     
   4.4447537475368004E-002   8.1489919712910974E-002   0.0000000000000000     
   4.6113324408996306E-002   8.7696738457565093E-002   0.0000000000000000     
   4.7727795043016823E-002   9.4077349516635822E-002   0.0000000000000000     
   4.9290949377429581E-002  0.10063175289012319        0.0000000000000000     
   5.0802787412234554E-002  0.10735994857802721        0.0000000000000000     
   3.9587892511366095E-002   8.0995219813945432E-002   0.0000000000000000     
   4.1088413931422145E-002   8.7221684186880463E-002   0.0000000000000000     
   4.2542268226674347E-002   9.3621857495959609E-002   0.0000000000000000     
   4.3949455397122694E-002  0.10019573974118288        0.0000000000000000     
   4.5309975442767186E-002  0.10694333092255026        0.0000000000000000     
   3.4854045061308417E-002   8.0523199115510008E-002   0.0000000000000000     
   3.6192092721639563E-002   8.6774996241078761E-002   0.0000000000000000     
   3.7487816176462872E-002   9.3198430510758837E-002   0.0000000000000000     
   3.8741215425778311E-002   9.9793501924550249E-002   0.0000000000000000     
   3.9952290469585913E-002  0.10656021048245301        0.0000000000000000     
   6.2193792340027566E-002  0.10829367553512026        0.0000000000000000     
   6.3940093350793231E-002  0.11512829301252823        0.0000000000000000     
   6.5600343848636361E-002  0.12208701091468492        0.0000000000000000     
   6.7174543833556935E-002  0.12916982924159029        0.0000000000000000     
   6.8662693305554981E-002  0.13637674799324440        0.0000000000000000     
   5.6430726377988009E-002  0.10781006344888387        0.0000000000000000     
   5.8028109818695481E-002  0.11466629958690118        0.0000000000000000     
   5.9546473848159448E-002  0.12164607656699897        0.0000000000000000     
   6.0985818466379904E-002  0.12874939438917724        0.0000000000000000     
   6.2346143673356877E-002  0.13597625305343602        0.0000000000000000     
   5.0802787412234554E-002  0.10735994857802721        0.0000000000000000     
   5.2252866323176168E-002  0.11423661711577773        0.0000000000000000     
   5.3630743285998837E-002  0.12123643903880466        0.0000000000000000     
   5.4936418300702533E-002  0.12835941434710799        0.0000000000000000     
   5.6169891367287270E-002  0.13560554304068773        0.0000000000000000     
   4.5309975442767186E-002  0.10694333092255026        0.0000000000000000     
   4.6614362864235301E-002  0.11383924559915791        0.0000000000000000     
   4.7853152162154522E-002  0.12085809833010198        0.0000000000000000     
   4.9026343336524822E-002  0.12799988911538251        0.0000000000000000     
   5.0133936387346208E-002  0.13526461795499944        0.0000000000000000     
   3.9952290469585913E-002  0.10656021048245301        0.0000000000000000     
   4.1112599441872892E-002  0.11347418503704168        0.0000000000000000     
   4.2213700476626509E-002  0.12051105444089098        0.0000000000000000     
   4.3255593573846764E-002  0.12767081869400082        0.0000000000000000     
   4.4238278733533656E-002  0.13495347779637129        0.0000000000000000     
   6.8662693305554981E-002  0.13637674799324440        0.0000000000000000     
   7.0074515751119004E-002  0.14370233658928525        0.0000000000000000     
   7.1419734656737510E-002  0.15114116444935105        0.0000000000000000     
   7.2698350022410527E-002  0.15869323157344176        0.0000000000000000     
   7.3910361848138012E-002  0.16635853796155739        0.0000000000000000     
   6.2346143673356877E-002  0.13597625305343602        0.0000000000000000     
   6.3635696740414874E-002  0.14332154924596055        0.0000000000000000     
   6.4862724938878416E-002  0.15078017965293616        0.0000000000000000     
   6.6027228268747545E-002  0.15835214427436278        0.0000000000000000     
   6.7129206730022234E-002  0.16603744311024049        0.0000000000000000     
   5.6169891367287270E-002  0.13560554304068773        0.0000000000000000     
   5.7338179531670364E-002  0.14297013404072542        0.0000000000000000     
   5.8448299839769069E-002  0.15044849626840268        0.0000000000000000     
   5.9500252291583428E-002  0.15804062972371949        0.0000000000000000     
   6.0494036887113398E-002  0.16574653440667586        0.0000000000000000     
   5.0133936387346208E-002  0.13526461795499944        0.0000000000000000     
   5.1181964124885487E-002  0.14264809097357983        0.0000000000000000     
   5.2176459359409462E-002  0.15014611429575064        0.0000000000000000     
   5.3117422090918139E-002  0.15775868792151185        0.0000000000000000     
   5.4004852319411510E-002  0.16548581185086345        0.0000000000000000     
   4.4238278733533656E-002  0.13495347779637129        0.0000000000000000     
   4.5167050520060238E-002  0.14235542004452384        0.0000000000000000     
   4.6047203497799574E-002  0.14987303373498004        0.0000000000000000     
   4.6878737666751685E-002  0.15750631886773983        0.0000000000000000     
   4.7661653026916564E-002  0.16525527544280333        0.0000000000000000     
   7.3910361848138012E-002  0.16635853796155739        0.0000000000000000     
   7.5051325079554101E-002  0.17412497204659033        0.0000000000000000     
   7.6116794662292833E-002  0.18198042226143307        0.0000000000000000     
   7.7106770596354207E-002  0.18992488860608556        0.0000000000000000     
   7.8021252881738223E-002  0.19795837108054781        0.0000000000000000     
   6.7129206730022234E-002  0.16603744311024049        0.0000000000000000     
   6.8164280012568274E-002  0.17382414946246572        0.0000000000000000     
   6.9128067806251442E-002  0.18170033663293489        0.0000000000000000     
   7.0020570111071781E-002  0.18966600462164812        0.0000000000000000     
   7.0841786927029221E-002  0.19772115342860527        0.0000000000000000     
   6.0494036887113398E-002  0.16574653440667586        0.0000000000000000     
   6.1425358435933081E-002  0.17355408886812473        0.0000000000000000     
   6.2289921747616536E-002  0.18145117165891919        0.0000000000000000     
   6.3087726822163764E-002  0.18943778277905926        0.0000000000000000     
   6.3818773659574779E-002  0.19751392222854486        0.0000000000000000     
   5.4004852319411510E-002  0.16548581185086345        0.0000000000000000     
   5.4834560349648509E-002  0.17331479026356753        0.0000000000000000     
   5.5602356486388067E-002  0.18123292733938601        0.0000000000000000     
   5.6308240729630199E-002  0.18924022307831903        0.0000000000000000     
   5.6952213079374904E-002  0.19733667748036646        0.0000000000000000     
   4.7661653026916564E-002  0.16525527544280333        0.0000000000000000     
   4.8391885753714572E-002  0.17310625364879395        0.0000000000000000     
   4.9065372022566077E-002  0.18104560367433531        0.0000000000000000     
   4.9682111833471078E-002  0.18907332551942738        0.0000000000000000     
   5.0242105186429589E-002  0.19718941918407018        0.0000000000000000     
   7.8021252881738223E-002  0.19795837108054781        0.0000000000000000     
   7.8861353172183069E-002  0.20607409664105364        0.0000000000000000     
   7.9628183121426915E-002  0.21426529224383700        0.0000000000000000     
   8.0321742729469736E-002  0.22253195788889774        0.0000000000000000     
   8.0942031996311531E-002  0.23087409357623603        0.0000000000000000     
   7.0841786927029221E-002  0.19772115342860527        0.0000000000000000     
   7.1590521120714290E-002  0.20585925420409124        0.0000000000000000     
   7.2265575558717404E-002  0.21407377809839065        0.0000000000000000     
   7.2866950241038606E-002  0.22236472511150357        0.0000000000000000     
   7.3394645167677866E-002  0.23073209524343000        0.0000000000000000     
   6.3818773659574779E-002  0.19751392222854486        0.0000000000000000     
   6.4480615448766251E-002  0.20567288378884471        0.0000000000000000     
   6.5070805378654825E-002  0.21390796124142750        0.0000000000000000     
   6.5589343449240514E-002  0.22221915458629321        0.0000000000000000     
   6.6036229660523332E-002  0.23060646382344188        0.0000000000000000     
   5.6952213079374904E-002  0.19733667748036646        0.0000000000000000     
   5.7531636156338960E-002  0.20551498539531410        0.0000000000000000     
   5.8043872581239137E-002  0.21376784167294749        0.0000000000000000     
   5.8488922354075469E-002  0.22209524631326671        0.0000000000000000     
   5.8866785474847916E-002  0.23049719931627166        0.0000000000000000     
   5.0242105186429589E-002  0.19718941918407018        0.0000000000000000     
   5.0743583243432408E-002  0.20538555902349936        0.0000000000000000     
   5.1184777166470352E-002  0.21365341939295063        0.0000000000000000     
   5.1565686955543436E-002  0.22199300029242397        0.0000000000000000     
   5.1886312610651644E-002  0.23040430172191939        0.0000000000000000     
   8.0942031996311531E-002  0.23087409357623603        0.0000000000000000     
   8.1478456916084879E-002  0.23931223301253857        0.0000000000000000     
   8.1920423482922319E-002  0.24786690990449228        0.0000000000000000     
   8.2267931696823851E-002  0.25653812425209704        0.0000000000000000     
   8.2520981557789461E-002  0.26532587605535296        0.0000000000000000     
   7.3394645167677866E-002  0.23073209524343000        0.0000000000000000     
   7.3845375422926920E-002  0.23918958578087507        0.0000000000000000     
   7.4215856091077476E-002  0.24775089401054395        0.0000000000000000     
   7.4506087172129559E-002  0.25641601993243673        0.0000000000000000     
   7.4716068666083144E-002  0.26518496354655324        0.0000000000000000     
   6.6036229660523332E-002  0.23060646382344188        0.0000000000000000     
   6.6413695665744149E-002  0.23907648211184707        0.0000000000000000     
   6.6723973118143931E-002  0.24763580261048240        0.0000000000000000     
   6.6967062017722581E-002  0.25628442531934786        0.0000000000000000     
   6.7142962364480197E-002  0.26502235023844334        0.0000000000000000     
   5.8866785474847916E-002  0.23049719931627166        0.0000000000000000     
   5.9183417644536607E-002  0.23897292200545456        0.0000000000000000     
   5.9444774564121609E-002  0.24752163570430749        0.0000000000000000     
   5.9650856233602945E-002  0.25614334041283049        0.0000000000000000     
   5.9801662652980599E-002  0.26483803613102347        0.0000000000000000     
   5.1886312610651644E-002  0.23040430172191939        0.0000000000000000     
   5.2154541359304266E-002  0.23887890546169757        0.0000000000000000     
   5.2378260429010601E-002  0.24740839329201933        0.0000000000000000     
   5.2557469819770629E-002  0.25599276521288455        0.0000000000000000     
   5.2692169531584364E-002  0.26463202122429341        0.0000000000000000     
   8.2520981557789461E-002  0.26532587605535296        0.0000000000000000     
   8.2718538006939582E-002  0.27425654278368022        0.0000000000000000     
   8.2899565985394677E-002  0.28335650190649914        0.0000000000000000     
   8.3064065493154690E-002  0.29262575342380970        0.0000000000000000     
   8.3212036530219691E-002  0.30206429733561185        0.0000000000000000     
   7.4716068666083144E-002  0.26518496354655324        0.0000000000000000     
   7.4886753103513476E-002  0.27405134901820105        0.0000000000000000     
   7.5059093014995762E-002  0.28300880051268767        0.0000000000000000     
   7.5233088400530015E-002  0.29205731803001311        0.0000000000000000     
   7.5408739260116237E-002  0.30119690157017731        0.0000000000000000     
   6.7142962364480197E-002  0.26502235023844334        0.0000000000000000     
   6.7291944064186898E-002  0.27381968382968386        0.0000000000000000     
   6.7454277022612877E-002  0.28264653255498406        0.0000000000000000     
   6.7629961239758118E-002  0.29150289641434385        0.0000000000000000     
   6.7818996715622651E-002  0.30038877540776354        0.0000000000000000     
   5.9801662652980599E-002  0.26483803613102347        0.0000000000000000     
   5.9934110888959856E-002  0.27356154721812870        0.0000000000000000     
   6.0085118008246001E-002  0.28226969803338819        0.0000000000000000     
   6.0254684010839020E-002  0.29096248857680218        0.0000000000000000     
   6.0442808896738941E-002  0.29963991884837055        0.0000000000000000     
   5.2692169531584364E-002  0.26463202122429341        0.0000000000000000     
   5.2813253577832349E-002  0.27327693918353541        0.0000000000000000     
   5.2951615971895134E-002  0.28187829694790023        0.0000000000000000     
   5.3107256713772713E-002  0.29043609451738789        0.0000000000000000     
   5.3280175803465099E-002  0.29895033189199838        0.0000000000000000     
   2.8992011961476553E-002   5.7240221317981468E-002   0.0000000000000000     
   3.0537244120339181E-002   6.2802040189265398E-002   0.0000000000000000     
   3.2029327023265372E-002   6.8536476112614791E-002   0.0000000000000000     
   3.3468260670255115E-002   7.4443529088029661E-002   0.0000000000000000     
   3.4854045061308417E-002   8.0523199115510008E-002   0.0000000000000000     
   2.5099167738876459E-002   5.6616303335883078E-002   0.0000000000000000     
   2.6448463710481790E-002   6.2243396839774902E-002   0.0000000000000000     
   2.7753588071842635E-002   6.8032169825800806E-002   0.0000000000000000     
   2.9014540822958994E-002   7.3982622293960756E-002   0.0000000000000000     
   3.0231321963830871E-002   8.0094754244254801E-002   0.0000000000000000     
   2.1302815444174568E-002   5.6150549357602275E-002   0.0000000000000000     
   2.2458169879368953E-002   6.1806001705610396E-002   0.0000000000000000     
   2.3576993793332880E-002   6.7621191233151010E-002   0.0000000000000000     
   2.4659287186066345E-002   7.3596117940224151E-002   0.0000000000000000     
   2.5705050057569349E-002   7.9730781826829786E-002   0.0000000000000000     
   1.7602955077370870E-002   5.5842959383139074E-002   0.0000000000000000     
   1.8566362627000673E-002   6.1489854786771866E-002   0.0000000000000000     
   1.9499544187736098E-002   6.7303540334665457E-002   0.0000000000000000     
   2.0402499759577159E-002   7.3284016026819845E-002   0.0000000000000000     
   2.1275229342523853E-002   7.9431281863235004E-002   0.0000000000000000     
   1.3999586638465377E-002   5.5693533412493459E-002   0.0000000000000000     
   1.4773041953376944E-002   6.1294956083259342E-002   0.0000000000000000     
   1.5521239255052301E-002   6.7079217130344135E-002   0.0000000000000000     
   1.6244178543491444E-002   7.3046316553747825E-002   0.0000000000000000     
   1.6941859818694376E-002   7.9196254353470441E-002   0.0000000000000000     
   3.4854045061308417E-002   8.0523199115510008E-002   0.0000000000000000     
   3.6192092721639563E-002   8.6774996241078761E-002   0.0000000000000000     
   3.7487816176462872E-002   9.3198430510758837E-002   0.0000000000000000     
   3.8741215425778311E-002   9.9793501924550249E-002   0.0000000000000000     
   3.9952290469585913E-002  0.10656021048245301        0.0000000000000000     
   3.0231321963830871E-002   8.0094754244254801E-002   0.0000000000000000     
   3.1407053628784293E-002   8.6372206604610313E-002   0.0000000000000000     
   3.2544857952145290E-002   9.2818620302954694E-002   0.0000000000000000     
   3.3644734933913865E-002   9.9433995339287942E-002   0.0000000000000000     
   3.4706684574090020E-002  0.10621833171361009        0.0000000000000000     
   2.5705050057569349E-002   7.9730781826829786E-002   0.0000000000000000     
   2.6715989501992020E-002   8.6028847261925362E-002   0.0000000000000000     
   2.7693812613484491E-002   9.2493978614468259E-002   0.0000000000000000     
   2.8638519392046750E-002   9.9126175884458531E-002   0.0000000000000000     
   2.9550109837678810E-002  0.10592543907189614        0.0000000000000000     
   2.1275229342523853E-002   7.9431281863235004E-002   0.0000000000000000     
   2.2118900341262758E-002   8.5744918213023935E-002   0.0000000000000000     
   2.2934680160480465E-002   9.2224505445299615E-002   0.0000000000000000     
   2.3722568800176976E-002   9.8870043560062029E-002   0.0000000000000000     
   2.4482566260352289E-002  0.10568153255731116        0.0000000000000000     
   1.6941859818694376E-002   7.9196254353470441E-002   0.0000000000000000     
   1.7615786146596504E-002   8.5520419457906033E-002   0.0000000000000000     
   1.8267460593133222E-002   9.2010200795448693E-002   0.0000000000000000     
   1.8896883158304543E-002   9.8665598366098395E-002   0.0000000000000000     
   1.9504053842110455E-002  0.10548661216985517        0.0000000000000000     
   3.9952290469585913E-002  0.10656021048245301        0.0000000000000000     
   4.1112599441872892E-002  0.11347418503704168        0.0000000000000000     
   4.2213700476626509E-002  0.12051105444089098        0.0000000000000000     
   4.3255593573846764E-002  0.12767081869400082        0.0000000000000000     
   4.4238278733533656E-002  0.13495347779637129        0.0000000000000000     
   3.4706684574090020E-002  0.10621833171361009        0.0000000000000000     
   3.5723309292444543E-002  0.11314864322975085        0.0000000000000000     
   3.6687211508748228E-002  0.12020194369154003        0.0000000000000000     
   3.7598391223001085E-002  0.12737823309897758        0.0000000000000000     
   3.8456848435203105E-002  0.13467751145206353        0.0000000000000000     
   2.9550109837678810E-002  0.10592543907189614        0.0000000000000000     
   3.0422225652305856E-002  0.11286982797760713        0.0000000000000000     
   3.1248508537853079E-002  0.11993740240241756        0.0000000000000000     
   3.2028958494320484E-002  0.12712816234632740        0.0000000000000000     
   3.2763575521708069E-002  0.13444210780933669        0.0000000000000000     
   2.4482566260352289E-002  0.10568153255731116        0.0000000000000000     
   2.5209348521456839E-002  0.11263773928061054        0.0000000000000000     
   2.5897591563941062E-002  0.11971743057352356        0.0000000000000000     
   2.6547295387804964E-002  0.12692060643605027        0.0000000000000000     
   2.7158459993048532E-002  0.13424726686819063        0.0000000000000000     
   1.9504053842110455E-002  0.10548661216985517        0.0000000000000000     
   2.0084677899897492E-002  0.11245237713876105        0.0000000000000000     
   2.0634460587012179E-002  0.11954202820485807        0.0000000000000000     
   2.1153401903454518E-002  0.12675556536814619        0.0000000000000000     
   2.1641501849224504E-002  0.13409298862862554        0.0000000000000000     
   4.4238278733533656E-002  0.13495347779637129        0.0000000000000000     
   4.5167050520060238E-002  0.14235542004452384        0.0000000000000000     
   4.6047203497799574E-002  0.14987303373498004        0.0000000000000000     
   4.6878737666751685E-002  0.15750631886773983        0.0000000000000000     
   4.7661653026916564E-002  0.16525527544280333        0.0000000000000000     
   3.8456848435203105E-002  0.13467751145206353        0.0000000000000000     
   3.9267235553470725E-002  0.14209667800293968        0.0000000000000000     
   4.0034204985920391E-002  0.14963263200374774        0.0000000000000000     
   4.0757756732552088E-002  0.15728537345448776        0.0000000000000000     
   4.1437890793365822E-002  0.16505490235515971        0.0000000000000000     
   3.2763575521708069E-002  0.13444210780933669        0.0000000000000000     
   3.3456316061393106E-002  0.14187642159820968        0.0000000000000000     
   3.4111136554752855E-002  0.14942828651971071        0.0000000000000000     
   3.4728037001787337E-002  0.15709770257383981        0.0000000000000000     
   3.5307017402496539E-002  0.16488466976059699        0.0000000000000000     
   2.7158459993048532E-002  0.13424726686819063        0.0000000000000000     
   2.7734292043827352E-002  0.14169465083033386        0.0000000000000000     
   2.8277998204296984E-002  0.14925999728286901        0.0000000000000000     
   2.8789578474457442E-002  0.15694330622579608        0.0000000000000000     
   2.9269032854308701E-002  0.16474457765911507        0.0000000000000000     
   2.1641501849224504E-002  0.13409298862862554        0.0000000000000000     
   2.2101163500773478E-002  0.14155136569931223        0.0000000000000000     
   2.2534789934552775E-002  0.14912776429322253        0.0000000000000000     
   2.2942381150562390E-002  0.15682218441035645        0.0000000000000000     
   2.3323937148802331E-002  0.16463462605071402        0.0000000000000000     
   4.7661653026916564E-002  0.16525527544280333        0.0000000000000000     
   4.8391885753714572E-002  0.17310625364879395        0.0000000000000000     
   4.9065372022566077E-002  0.18104560367433531        0.0000000000000000     
   4.9682111833471078E-002  0.18907332551942738        0.0000000000000000     
   5.0242105186429589E-002  0.19718941918407018        0.0000000000000000     
   4.1437890793365822E-002  0.16505490235515971        0.0000000000000000     
   4.2070755335450676E-002  0.17292655651783423        0.0000000000000000     
   4.2652498525895748E-002  0.18088567375458192        0.0000000000000000     
   4.3183120364701032E-002  0.18893225406540276        0.0000000000000000     
   4.3662620851866521E-002  0.19706629745029686        0.0000000000000000     
   3.5307017402496539E-002  0.16488466976059699        0.0000000000000000     
   3.5844589782176257E-002  0.17277377636471850        0.0000000000000000     
   3.6337266166122310E-002  0.18074961067094072        0.0000000000000000     
   3.6785046554334691E-002  0.18881217267926370        0.0000000000000000     
   3.7187930946813393E-002  0.19696146238968740        0.0000000000000000     
   2.9269032854308701E-002  0.16474457765911507        0.0000000000000000     
   2.9713389093891304E-002  0.17264791318944669        0.0000000000000000     
   3.0119674943245758E-002  0.18063741442341175        0.0000000000000000     
   3.0487890402372059E-002  0.18871308136101012        0.0000000000000000     
   3.0818035471270214E-002  0.19687491400224189        0.0000000000000000     
   2.3323937148802331E-002  0.16463462605071402        0.0000000000000000     
   2.3677153270595823E-002  0.17254896699201897        0.0000000000000000     
   2.3999724857266098E-002  0.18054908501199496        0.0000000000000000     
   2.4291651908813147E-002  0.18863498011064206        0.0000000000000000     
   2.4552934425236983E-002  0.19680665228796021        0.0000000000000000     
   5.0242105186429589E-002  0.19718941918407018        0.0000000000000000     
   5.0743583243432408E-002  0.20538555902349936        0.0000000000000000     
   5.1184777166470352E-002  0.21365341939295063        0.0000000000000000     
   5.1565686955543436E-002  0.22199300029242397        0.0000000000000000     
   5.1886312610651644E-002  0.23040430172191939        0.0000000000000000     
   4.3662620851866521E-002  0.19706629745029686        0.0000000000000000     
   4.4090441383486015E-002  0.20527820404844110        0.0000000000000000     
   4.4466023355653292E-002  0.21355837399901245        0.0000000000000000     
   4.4789366768368366E-002  0.22190680730201096        0.0000000000000000     
   4.5060471621631223E-002  0.23032350395743667        0.0000000000000000     
   3.7187930946813393E-002  0.19696146238968740        0.0000000000000000     
   3.7546195249939178E-002  0.20518651984517969        0.0000000000000000     
   3.7860115370092776E-002  0.21347638508870845        0.0000000000000000     
   3.8129691307274179E-002  0.22183105812027354        0.0000000000000000     
   3.8354923061483401E-002  0.23025053893987515        0.0000000000000000     
   3.0818035471270214E-002  0.19687491400224189        0.0000000000000000     
   3.1110844842791901E-002  0.20511050641371523        0.0000000000000000     
   3.1367053209788789E-002  0.21340745266203856        0.0000000000000000     
   3.1586660572260873E-002  0.22176575274721178        0.0000000000000000     
   3.1769666930208156E-002  0.23018540666923487        0.0000000000000000     
   2.4552934425236983E-002  0.19680665228796021        0.0000000000000000     
   2.4784390162044187E-002  0.20505016375404775        0.0000000000000000     
   2.4986836874741340E-002  0.21335157671900284        0.0000000000000000     
   2.5160274563328446E-002  0.22171089118282555        0.0000000000000000     
   2.5304703227805512E-002  0.23012810714551585        0.0000000000000000     
   5.1886312610651644E-002  0.23040430172191939        0.0000000000000000     
   5.2154541359304266E-002  0.23887890546169757        0.0000000000000000     
   5.2378260429010601E-002  0.24740839329201933        0.0000000000000000     
   5.2557469819770629E-002  0.25599276521288455        0.0000000000000000     
   5.2692169531584364E-002  0.26463202122429341        0.0000000000000000     
   4.5060471621631223E-002  0.23032350395743667        0.0000000000000000     
   4.5287896706757293E-002  0.23879300489893854        0.0000000000000000     
   4.5480200815061968E-002  0.24729985106016569        0.0000000000000000     
   4.5637383946545262E-002  0.25584404244111814        0.0000000000000000     
   4.5759446101207170E-002  0.26442557904179581        0.0000000000000000     
   3.8354923061483401E-002  0.23025053893987515        0.0000000000000000     
   3.8544313583605834E-002  0.23871379273553989        0.0000000000000000     
   3.8706365824526856E-002  0.24719978469529444        0.0000000000000000     
   3.8841079784246481E-002  0.25570851481913887        0.0000000000000000     
   3.8948455462764708E-002  0.26423998310707314        0.0000000000000000     
   3.1769666930208156E-002  0.23018540666923487        0.0000000000000000     
   3.1923791989849883E-002  0.23864126897150162        0.0000000000000000     
   3.2056755457405259E-002  0.24710819419740560        0.0000000000000000     
   3.2168557332874284E-002  0.25558618234694686        0.0000000000000000     
   3.2259197616256972E-002  0.26407523342012545        0.0000000000000000     
   2.5304703227805512E-002  0.23012810714551585        0.0000000000000000     
   2.5426331925489445E-002  0.23857543360682371        0.0000000000000000     
   2.5531369713697169E-002  0.24702507956649916        0.0000000000000000     
   2.5619816592428679E-002  0.25547704502454222        0.0000000000000000     
   2.5691672561683976E-002  0.26393132998095270        0.0000000000000000     
   5.2692169531584364E-002  0.26463202122429341        0.0000000000000000     
   5.2813253577832349E-002  0.27327693918353541        0.0000000000000000     
   5.2951615971895134E-002  0.28187829694790023        0.0000000000000000     
   5.3107256713772713E-002  0.29043609451738789        0.0000000000000000     
   5.3280175803465099E-002  0.29895033189199838        0.0000000000000000     
   4.5759446101207170E-002  0.26442557904179581        0.0000000000000000     
   4.5870594716375584E-002  0.27299455227284719        0.0000000000000000     
   4.5995037229378380E-002  0.28150105354492055        0.0000000000000000     
   4.6132773640215605E-002  0.28994508285801607        0.0000000000000000     
   4.6283803948887203E-002  0.29832664021213356        0.0000000000000000     
   3.8948455462764708E-002  0.26423998310707314        0.0000000000000000     
   3.9047356890160756E-002  0.27274307903300693        0.0000000000000000     
   3.9156648096513882E-002  0.28116669207084982        0.0000000000000000     
   3.9276329081824060E-002  0.28951082222060170        0.0000000000000000     
   3.9406399846091310E-002  0.29777546948226280        0.0000000000000000     
   3.2259197616256972E-002  0.26407523342012545        0.0000000000000000     
   3.2343540099187891E-002  0.27252251946401462        0.0000000000000000     
   3.2436448573301600E-002  0.28087521252568776        0.0000000000000000     
   3.2537923038598114E-002  0.28913331260514491        0.0000000000000000     
   3.2647963495077412E-002  0.29729681970238603        0.0000000000000000     
   2.5691672561683976E-002  0.26393132998095270        0.0000000000000000     
   2.5759144343456969E-002  0.27233287356587038        0.0000000000000000     
   2.5834438659741558E-002  0.28062661490943469        0.0000000000000000     
   2.5917555510537742E-002  0.28881255401164568        0.0000000000000000     
   2.6008494895845523E-002  0.29689069087250325        0.0000000000000000     
   1.3999586638465377E-002   5.5693533412493459E-002   0.0000000000000000     
   1.4773041953376944E-002   6.1294956083259342E-002   0.0000000000000000     
   1.5521239255052301E-002   6.7079217130344135E-002   0.0000000000000000     
   1.6244178543491444E-002   7.3046316553747825E-002   0.0000000000000000     
   1.6941859818694376E-002   7.9196254353470441E-002   0.0000000000000000     
   1.0458546080371677E-002   5.5621105753862275E-002   0.0000000000000000     
   1.1041918322125725E-002   6.1173573002465849E-002   0.0000000000000000     
   1.1604856121944262E-002   6.6924439910257691E-002   0.0000000000000000     
   1.2147359479827285E-002   7.2873706477237774E-002   0.0000000000000000     
   1.2669428395774797E-002   7.9021372703406131E-002   0.0000000000000000     
   6.9456693560033689E-003   5.5544510715442329E-002   0.0000000000000000     
   7.3367021968749630E-003   6.1077972951784451E-002   0.0000000000000000     
   7.7131719150747647E-003   6.6815426964476815E-002   0.0000000000000000     
   8.0750785106027713E-003   7.2756872753519372E-002   0.0000000000000000     
   8.4224219834589855E-003   7.8902310318912136E-002   0.0000000000000000     
   3.4609564653604510E-003   5.5463748297233627E-002   0.0000000000000000     
   3.6573935776246600E-003   6.1008155931215176E-002   0.0000000000000000     
   3.8461866344438101E-003   6.6752178293001507E-002   0.0000000000000000     
   4.0273356358179043E-003   7.2695815382592607E-002   0.0000000000000000     
   4.2008405817469405E-003   7.8839067199988469E-002   0.0000000000000000     
   4.4074084429241225E-006   5.5378818499236149E-002   0.0000000000000000     
   3.9924643748128798E-006   6.0964121940758002E-002   0.0000000000000000     
   3.9002800513989952E-006   6.6734693895831781E-002   0.0000000000000000     
   4.1308554726825772E-006   7.2690534364457479E-002   0.0000000000000000     
   4.6841906386641680E-006   7.8831643346635116E-002   0.0000000000000000     
   1.6941859818694376E-002   7.9196254353470441E-002   0.0000000000000000     
   1.7615786146596504E-002   8.5520419457906033E-002   0.0000000000000000     
   1.8267460593133222E-002   9.2010200795448693E-002   0.0000000000000000     
   1.8896883158304543E-002   9.8665598366098395E-002   0.0000000000000000     
   1.9504053842110455E-002  0.10548661216985517        0.0000000000000000     
   1.2669428395774797E-002   7.9021372703406131E-002   0.0000000000000000     
   1.3173022323403866E-002   8.5351296316237599E-002   0.0000000000000000     
   1.3660100716331558E-002   9.1847335043207010E-002   0.0000000000000000     
   1.4130663574557873E-002   9.8509488884314336E-002   0.0000000000000000     
   1.4584710898082812E-002  0.10533775783955963        0.0000000000000000     
   8.4224219834589855E-003   7.8902310318912136E-002   0.0000000000000000     
   8.7569842770954653E-003   8.5233494107684549E-002   0.0000000000000000     
   9.0805473349642712E-003   9.1732178566865996E-002   0.0000000000000000     
   9.3931111570654049E-003   9.8398363696456478E-002   0.0000000000000000     
   9.6946757433988649E-003  0.10523204949645598        0.0000000000000000     
   4.2008405817469405E-003   7.8839067199988469E-002   0.0000000000000000     
   4.3676720076713006E-003   8.5167012832246911E-002   0.0000000000000000     
   4.5288004490313671E-003   9.1664731366425681E-002   0.0000000000000000     
   4.6842259058271375E-003   9.8332222802524794E-002   0.0000000000000000     
   4.8339483780586142E-003  0.10516948714054426        0.0000000000000000     
   4.6841906386641680E-006   7.8831643346635116E-002   0.0000000000000000     
   5.0855151313734803E-006   8.5151852489924643E-002   0.0000000000000000     
   4.8600585328423956E-006   9.1644993441886036E-002   0.0000000000000000     
   4.0078208430712392E-006   9.8311066202519296E-002   0.0000000000000000     
   2.5288020620590351E-006  0.10515007077182441        0.0000000000000000     
   1.9504053842110455E-002  0.10548661216985517        0.0000000000000000     
   2.0084677899897492E-002  0.11245237713876105        0.0000000000000000     
   2.0634460587012179E-002  0.11954202820485807        0.0000000000000000     
   2.1153401903454518E-002  0.12675556536814619        0.0000000000000000     
   2.1641501849224504E-002  0.13409298862862554        0.0000000000000000     
   1.4584710898082812E-002  0.10533775783955963        0.0000000000000000     
   1.5019021390340861E-002  0.11231116223020740        0.0000000000000000     
   1.5430373754766505E-002  0.11940872237752220        0.0000000000000000     
   1.5818767991359745E-002  0.12663043828150405        0.0000000000000000     
   1.6184204100120583E-002  0.13397630994215293        0.0000000000000000     
   9.6946757433988649E-003  0.10523204949645598        0.0000000000000000     
   9.9831865954999877E-003  0.11221151523309830        0.0000000000000000     
   1.0256589214904112E-002  0.11931504017261717        0.0000000000000000     
   1.0514883601611241E-002  0.12654262431501256        0.0000000000000000     
   1.0758069755621370E-002  0.13389426766028453        0.0000000000000000     
   4.8339483780586142E-003  0.10516948714054426        0.0000000000000000     
   4.9771735153748753E-003  0.11215343614743374        0.0000000000000000     
   5.1131069674250048E-003  0.11926098159014292        0.0000000000000000     
   5.2417487342090018E-003  0.12649212346867178        0.0000000000000000     
   5.3630988157268673E-003  0.13384686178302038        0.0000000000000000     
   2.5288020620590351E-006  0.10515007077182441        0.0000000000000000     
   9.8214996552313874E-007  0.11213692497321372        0.0000000000000000     
  -7.2987670820395811E-008  0.11924654663009947        0.0000000000000000     
  -6.3661084696896644E-007  0.12647893574248173        0.0000000000000000     
  -7.0871956292560892E-007  0.13383409231036042        0.0000000000000000     
   2.1641501849224504E-002  0.13409298862862554        0.0000000000000000     
   2.2101163500773478E-002  0.14155136569931223        0.0000000000000000     
   2.2534789934552775E-002  0.14912776429322253        0.0000000000000000     
   2.2942381150562390E-002  0.15682218441035645        0.0000000000000000     
   2.3323937148802331E-002  0.16463462605071402        0.0000000000000000     
   1.6184204100120583E-002  0.13397630994215293        0.0000000000000000     
   1.6528295218752397E-002  0.14144322917179214        0.0000000000000000     
   1.6852654484958561E-002  0.14902808778274496        0.0000000000000000     
   1.7157281898739093E-002  0.15673088577501140        0.0000000000000000     
   1.7442177460093976E-002  0.16455162314859148        0.0000000000000000     
   1.0758069755621370E-002  0.13389426766028453        0.0000000000000000     
   1.0987051984285017E-002  0.14136690421442100        0.0000000000000000     
   1.1202734594952704E-002  0.14895746798340989        0.0000000000000000     
   1.1405117587624431E-002  0.15666595896725122        0.0000000000000000     
   1.1594200962300192E-002  0.16449237716594495        0.0000000000000000     
   5.3630988157268673E-003  0.13384686178302038        0.0000000000000000     
   5.4774337973713472E-003  0.14132239082719883        0.0000000000000000     
   5.5850302645351953E-003  0.14891590489521730        0.0000000000000000     
   5.6858882172184082E-003  0.15662740398707584        0.0000000000000000     
   5.7800076554209885E-003  0.16445688810277451        0.0000000000000000     
  -7.0871956292560892E-007  0.13383409231036042        0.0000000000000000     
  -5.5934198861648174E-007  0.14130968901012561        0.0000000000000000     
  -4.5850629396384027E-007  0.14890339851816731        0.0000000000000000     
  -4.0621247897278025E-007  0.15661522083448545        0.0000000000000000     
  -4.0246054364102488E-007  0.16444515595908007        0.0000000000000000     
   2.3323937148802331E-002  0.16463462605071402        0.0000000000000000     
   2.3677153270595823E-002  0.17254896699201897        0.0000000000000000     
   2.3999724857266098E-002  0.18054908501199496        0.0000000000000000     
   2.4291651908813147E-002  0.18863498011064206        0.0000000000000000     
   2.4552934425236983E-002  0.19680665228796021        0.0000000000000000     
   1.7442177460093976E-002  0.16455162314859148        0.0000000000000000     
   1.7705743721247780E-002  0.17247410487908729        0.0000000000000000     
   1.7946383234425076E-002  0.18048213594210097        0.0000000000000000     
   1.8164095999625863E-002  0.18857571633763257        0.0000000000000000     
   1.8358882016850139E-002  0.19675484606568205        0.0000000000000000     
   1.1594200962300192E-002  0.16449237716594495        0.0000000000000000     
   1.1769021854805151E-002  0.17242049395730380        0.0000000000000000     
   1.1928617400964460E-002  0.18043408071914041        0.0000000000000000     
   1.2072987600778119E-002  0.18853313745145481        0.0000000000000000     
   1.2202132454246128E-002  0.19671766415424694        0.0000000000000000     
   5.7800076554209885E-003  0.16445688810277451        0.0000000000000000     
   5.8669876712679325E-003  0.17238813422666846        0.0000000000000000     
   5.9464273568842424E-003  0.18040491934311323        0.0000000000000000     
   6.0183267122699176E-003  0.18850724345210867        0.0000000000000000     
   6.0826857374249562E-003  0.19669510655365494        0.0000000000000000     
  -4.0246054364102488E-007  0.16444515595908007        0.0000000000000000     
  -3.5882936387271643E-007  0.17237702568718136        0.0000000000000000     
  -1.8689781557340666E-007  0.18039465181401942        0.0000000000000000     
   1.1333410125839521E-007  0.18849803433959428        0.0000000000000000     
   5.4186638661973471E-007  0.19668717326390592        0.0000000000000000     
   2.4552934425236983E-002  0.19680665228796021        0.0000000000000000     
   2.4784390162044187E-002  0.20505016375404775        0.0000000000000000     
   2.4986836874741340E-002  0.21335157671900284        0.0000000000000000     
   2.5160274563328446E-002  0.22171089118282555        0.0000000000000000     
   2.5304703227805512E-002  0.23012810714551585        0.0000000000000000     
   1.8358882016850139E-002  0.19675484606568205        0.0000000000000000     
   1.8531420931747859E-002  0.20500418413456178        0.0000000000000000     
   1.8682392389968976E-002  0.21330838955258422        0.0000000000000000     
   1.8811796391513501E-002  0.22166746231974918        0.0000000000000000     
   1.8919632936381423E-002  0.23008140243605690        0.0000000000000000     
   1.2202132454246128E-002  0.19671766415424694        0.0000000000000000     
   1.2316526875954751E-002  0.20497125982364212        0.0000000000000000     
   1.2416645780490248E-002  0.21327752345576545        0.0000000000000000     
   1.2502489167852619E-002  0.22163645505061705        0.0000000000000000     
   1.2574057038041863E-002  0.23004805460819686        0.0000000000000000     
   6.0826857374249562E-003  0.19669510655365494        0.0000000000000000     
   6.1397079946648638E-003  0.20495139082128863        0.0000000000000000     
   6.1895970463051462E-003  0.21325897842854669        0.0000000000000000     
   6.2323528923458041E-003  0.22161786937542907        0.0000000000000000     
   6.2679755327868358E-003  0.23002806366193576        0.0000000000000000     
   5.4186638661973471E-007  0.19668717326390592        0.0000000000000000     
   9.6428787819827569E-007  0.20494457712750144        0.0000000000000000     
   1.2461874136788630E-006  0.21325275447092790        0.0000000000000000     
   1.3875649930577562E-006  0.22161170529418531        0.0000000000000000     
   1.3884206163396716E-006  0.23002142959727362        0.0000000000000000     
   2.5304703227805512E-002  0.23012810714551585        0.0000000000000000     
   2.5426331925489445E-002  0.23857543360682371        0.0000000000000000     
   2.5531369713697169E-002  0.24702507956649916        0.0000000000000000     
   2.5619816592428679E-002  0.25547704502454222        0.0000000000000000     
   2.5691672561683976E-002  0.26393132998095270        0.0000000000000000     
   1.8919632936381423E-002  0.23008140243605690        0.0000000000000000     
   1.9010322423577836E-002  0.23852075361728697        0.0000000000000000     
   1.9088285252107838E-002  0.24695605957921932        0.0000000000000000     
   1.9153521421971416E-002  0.25538732032185385        0.0000000000000000     
   1.9206030933168583E-002  0.26381453584519060        0.0000000000000000     
   1.2574057038041863E-002  0.23004805460819686        0.0000000000000000     
   1.2634152517168363E-002  0.23848169597867216        0.0000000000000000     
   1.2685578731342498E-002  0.24690675301221021        0.0000000000000000     
   1.2728335680564270E-002  0.25532322570881111        0.0000000000000000     
   1.2762423364833676E-002  0.26373111406847466        0.0000000000000000     
   6.2679755327868358E-003  0.23002806366193576        0.0000000000000000     
   6.2978222062610263E-003  0.23845826069097922        0.0000000000000000     
   6.3232501514011597E-003  0.24687715986547198        0.0000000000000000     
   6.3442593682072343E-003  0.25528476118541382        0.0000000000000000     
   6.3608498566792519E-003  0.26368106465080504        0.0000000000000000     
   1.3884206163396716E-006  0.23002142959727362        0.0000000000000000     
   1.3314908558247681E-006  0.23845044775420823        0.0000000000000000     
   1.2995122838137469E-006  0.24686728013900439        0.0000000000000000     
   1.2924849003103213E-006  0.25527192675166227        0.0000000000000000     
   1.3104087053118080E-006  0.26366438759218158        0.0000000000000000     
   2.5691672561683976E-002  0.26393132998095270        0.0000000000000000     
   2.5759144343456969E-002  0.27233287356587038        0.0000000000000000     
   2.5834438659741558E-002  0.28062661490943469        0.0000000000000000     
   2.5917555510537742E-002  0.28881255401164568        0.0000000000000000     
   2.6008494895845523E-002  0.29689069087250325        0.0000000000000000     
   1.9206030933168583E-002  0.26381453584519060        0.0000000000000000     
   1.9255767040472476E-002  0.27218046385015565        0.0000000000000000     
   1.9312682998656246E-002  0.28042786203767506        0.0000000000000000     
   1.9376778807719888E-002  0.28855673040774882        0.0000000000000000     
   1.9448054467663393E-002  0.29656706896037699        0.0000000000000000     
   1.2762423364833676E-002  0.26373111406847466        0.0000000000000000     
   1.2795005607738915E-002  0.27207161282845188        0.0000000000000000     
   1.2833246232868179E-002  0.28028591672599346        0.0000000000000000     
   1.2877145240221476E-002  0.28837402576109944        0.0000000000000000     
   1.2926702629798798E-002  0.29633593993376972        0.0000000000000000     
   6.3608498566792519E-003  0.26368106465080504        0.0000000000000000     
   6.3768600452562725E-003  0.27200632050075912        0.0000000000000000     
   6.3961283623773582E-003  0.28020077897438994        0.0000000000000000     
   6.4186548080425098E-003  0.28826444007169733        0.0000000000000000     
   6.4444393822517231E-003  0.29619730379268150        0.0000000000000000     
   1.3104087053118080E-006  0.26366438759218158        0.0000000000000000     
   1.3303530245550258E-006  0.27198458686707744        0.0000000000000000     
   1.3293871837817810E-006  0.28017244878286446        0.0000000000000000     
   1.3075111829900679E-006  0.28822797333954270        0.0000000000000000     
   1.2647250221793985E-006  0.29615116053711221        0.0000000000000000     
   4.4074084429241225E-006   5.5378818499236149E-002   0.0000000000000000     
   3.9924643748128798E-006   6.0964121940758002E-002   0.0000000000000000     
   3.9002800513989952E-006   6.6734693895831781E-002   0.0000000000000000     
   4.1308554726825772E-006   7.2690534364457479E-002   0.0000000000000000     
   4.6841906386641680E-006   7.8831643346635116E-002   0.0000000000000000     
  -3.4536087376058383E-003   5.5337244315668492E-002   0.0000000000000000     
  -3.6508260270822889E-003   6.0965963956378072E-002   0.0000000000000000     
  -3.8397613396515713E-003   6.6764726154606158E-002   0.0000000000000000     
  -4.0204146753136868E-003   7.2733530910352728E-002   0.0000000000000000     
  -4.1927860340686346E-003   7.8872378223617826E-002   0.0000000000000000     
  -6.9427228956424648E-003   5.5386548740749220E-002   0.0000000000000000     
  -7.3343867809543620E-003   6.1033774954040547E-002   0.0000000000000000     
  -7.7108724162142060E-003   6.6844027450963170E-002   0.0000000000000000     
  -8.0721798014220022E-003   7.2817306231517109E-002   0.0000000000000000     
  -8.4183089365777435E-003   7.8953611295702344E-002   0.0000000000000000     
  -1.0462935065666952E-002   5.5526731774478318E-002   0.0000000000000000     
  -1.1046689797241403E-002   6.1167554933745406E-002   0.0000000000000000     
  -1.1609432949636506E-002   6.6972597784902846E-002   0.0000000000000000     
  -1.2151164522852261E-002   7.2941860327950594E-002   0.0000000000000000     
  -1.2671884516888663E-002   7.9075342562888687E-002   0.0000000000000000     
  -1.4014245247679306E-002   5.5757793416855800E-002   0.0000000000000000     
  -1.4787735075943415E-002   6.1367303895492664E-002   0.0000000000000000     
  -1.5535442939918466E-002   6.7150437156425130E-002   0.0000000000000000     
  -1.6257368839604460E-002   7.3107193199653184E-002   0.0000000000000000     
  -1.6953512775001393E-002   7.9237572025176853E-002   0.0000000000000000     
   4.6841906386641680E-006   7.8831643346635116E-002   0.0000000000000000     
   5.0855151313734803E-006   8.5151852489924643E-002   0.0000000000000000     
   4.8600585328423956E-006   9.1644993441886036E-002   0.0000000000000000     
   4.0078208430712392E-006   9.8311066202519296E-002   0.0000000000000000     
   2.5288020620590351E-006  0.10515007077182441        0.0000000000000000     
  -4.1927860340686346E-003   7.8872378223617826E-002   0.0000000000000000     
  -4.3587480519712129E-003   8.5184074160720186E-002   0.0000000000000000     
  -4.5201733650762190E-003   9.1671424787978531E-002   0.0000000000000000     
  -4.6770619733836564E-003   9.8334430105392945E-002   0.0000000000000000     
  -4.8294138768935208E-003  0.10517309011296333        0.0000000000000000     
  -8.4183089365777435E-003   7.8953611295702344E-002   0.0000000000000000     
  -8.7518015450833500E-003   8.5259738924635856E-002   0.0000000000000000     
  -9.0751993503407381E-003   9.1742485399434595E-002   0.0000000000000000     
  -9.3885023523499027E-003   9.8401850720098563E-002   0.0000000000000000     
  -9.6917105511108489E-003  0.10523783488662779        0.0000000000000000     
  -1.2671884516888663E-002   7.9075342562888687E-002   0.0000000000000000     
  -1.3174074964205041E-002   8.5378846781671736E-002   0.0000000000000000     
  -1.3660217897260711E-002   9.1858175276254242E-002   0.0000000000000000     
  -1.4130313316055671E-002   9.8513328046636289E-002   0.0000000000000000     
  -1.4584361220589920E-002  0.10534430509281779        0.0000000000000000     
  -1.6953512775001393E-002   7.9237572025176853E-002   0.0000000000000000     
  -1.7625568309336287E-002   8.5541397731827742E-002   0.0000000000000000     
  -1.8275229005836138E-002   9.2018494418437458E-002   0.0000000000000000     
  -1.8902494864500959E-002   9.8668862085006012E-002   0.0000000000000000     
  -1.9507365885330741E-002  0.10549250073153339        0.0000000000000000     
   2.5288020620590351E-006  0.10515007077182441        0.0000000000000000     
   9.8214996552313874E-007  0.11213692497321372        0.0000000000000000     
  -7.2987670820395811E-008  0.11924654663009947        0.0000000000000000     
  -6.3661084696896644E-007  0.12647893574248173        0.0000000000000000     
  -7.0871956292560892E-007  0.13383409231036042        0.0000000000000000     
  -4.8294138768935208E-003  0.10517309011296333        0.0000000000000000     
  -4.9754042535472814E-003  0.11216054483866433        0.0000000000000000     
  -5.1132082812864058E-003  0.11926993431047056        0.0000000000000000     
  -5.2428259601108897E-003  0.12650125852838201        0.0000000000000000     
  -5.3642572900207356E-003  0.13385451749239863        0.0000000000000000     
  -9.6917105511108489E-003  0.10523783488662779        0.0000000000000000     
  -9.9820024479827536E-003  0.11222285887201172        0.0000000000000000     
  -1.0256556544324794E-002  0.11932934364923989        0.0000000000000000     
  -1.0515372840136974E-002  0.12655728921831230        0.0000000000000000     
  -1.0758451335419290E-002  0.13390669557922899        0.0000000000000000     
  -1.4584361220589920E-002  0.10534430509281779        0.0000000000000000     
  -1.5018812433340887E-002  0.11232386707325587        0.0000000000000000     
  -1.5430117776785986E-002  0.11942477464640749        0.0000000000000000     
  -1.5818277250925224E-002  0.12664702781227269        0.0000000000000000     
  -1.6183290855758588E-002  0.13399062657085145        0.0000000000000000     
  -1.9507365885330741E-002  0.10549250073153339        0.0000000000000000     
  -2.0085834209621685E-002  0.11246356944239679        0.0000000000000000     
  -2.0633891978669980E-002  0.11955622730197334        0.0000000000000000     
  -2.1151539192475633E-002  0.12677047431026309        0.0000000000000000     
  -2.1638775851038634E-002  0.13410631046726601        0.0000000000000000     
  -7.0871956292560892E-007  0.13383409231036042        0.0000000000000000     
  -5.5934198861648174E-007  0.14130968901012561        0.0000000000000000     
  -4.5850629396384027E-007  0.14890339851816731        0.0000000000000000     
  -4.0621247897278025E-007  0.15661522083448545        0.0000000000000000     
  -4.0246054364102488E-007  0.16444515595908007        0.0000000000000000     
  -5.3642572900207356E-003  0.13385451749239863        0.0000000000000000     
  -5.4782760101682679E-003  0.14132785867424558        0.0000000000000000     
  -5.5856558597058058E-003  0.14891942954564782        0.0000000000000000     
  -5.6863968386333518E-003  0.15662923010660540        0.0000000000000000     
  -5.7804989469509033E-003  0.16445726035711833        0.0000000000000000     
  -1.0758451335419290E-002  0.13390669557922899        0.0000000000000000     
  -1.0987064783541001E-002  0.14137595973060288        0.0000000000000000     
  -1.1202485937871359E-002  0.14896347867104701        0.0000000000000000     
  -1.1404714798410362E-002  0.15666925240056134        0.0000000000000000     
  -1.1593751365158011E-002  0.16449328091914589        0.0000000000000000     
  -1.6183290855758588E-002  0.13399062657085145        0.0000000000000000     
  -1.6526925662106815E-002  0.14145399217919755        0.0000000000000000     
  -1.6850948740790624E-002  0.14903554589436480        0.0000000000000000     
  -1.7155360091810002E-002  0.15673528771635317        0.0000000000000000     
  -1.7440159715164966E-002  0.16455321764516270        0.0000000000000000     
  -2.1638775851038634E-002  0.13410631046726601        0.0000000000000000     
  -2.2097858645865717E-002  0.14156195602002958        0.0000000000000000     
  -2.2531044268463592E-002  0.14913563121560125        0.0000000000000000     
  -2.2938332718832277E-002  0.15682733605398097        0.0000000000000000     
  -2.3319723996971759E-002  0.16463707053516871        0.0000000000000000     
  -4.0246054364102488E-007  0.16444515595908007        0.0000000000000000     
  -3.5882936387271643E-007  0.17237702568718136        0.0000000000000000     
  -1.8689781557340666E-007  0.18039465181401942        0.0000000000000000     
   1.1333410125839521E-007  0.18849803433959428        0.0000000000000000     
   5.4186638661973471E-007  0.19668717326390592        0.0000000000000000     
  -5.7804989469509033E-003  0.16445726035711833        0.0000000000000000     
  -5.8673954996946130E-003  0.17238742052007244        0.0000000000000000     
  -5.9465198119006326E-003  0.18040361081835357        0.0000000000000000     
  -6.0178718835689595E-003  0.18850583125196163        0.0000000000000000     
  -6.0814517146995945E-003  0.19669408182089676        0.0000000000000000     
  -1.1593751365158011E-002  0.16449328091914589        0.0000000000000000     
  -1.1768500192328640E-002  0.17241957090657178        0.0000000000000000     
  -1.1927865834136580E-002  0.18043212904261013        0.0000000000000000     
  -1.2071848290581834E-002  0.18853095532726091        0.0000000000000000     
  -1.2200447561664400E-002  0.19671604976052415        0.0000000000000000     
  -1.7440159715164966E-002  0.16455321764516270        0.0000000000000000     
  -1.7703672907265957E-002  0.17247347684667935        0.0000000000000000     
  -1.7944224964523418E-002  0.18048020648678911        0.0000000000000000     
  -1.8161815886937376E-002  0.18857340656549207        0.0000000000000000     
  -1.8356445674507799E-002  0.19675307708278816        0.0000000000000000     
  -2.3319723996971759E-002  0.16463707053516871        0.0000000000000000     
  -2.3672913644506546E-002  0.17254913834039509        0.0000000000000000     
  -2.3995597203061145E-002  0.18054784315089054        0.0000000000000000     
  -2.4287774672635563E-002  0.18863318496665507        0.0000000000000000     
  -2.4549446053229791E-002  0.19680516378768870        0.0000000000000000     
   5.4186638661973471E-007  0.19668717326390592        0.0000000000000000     
   9.6428787819827569E-007  0.20494457712750144        0.0000000000000000     
   1.2461874136788630E-006  0.21325275447092790        0.0000000000000000     
   1.3875649930577562E-006  0.22161170529418531        0.0000000000000000     
   1.3884206163396716E-006  0.23002142959727362        0.0000000000000000     
  -6.0814517146995945E-003  0.19669408182089676        0.0000000000000000     
  -6.1377067071040053E-003  0.20495090916418443        0.0000000000000000     
  -6.1870842625936645E-003  0.21325885992085034        0.0000000000000000     
  -6.2295843811685722E-003  0.22161793409089436        0.0000000000000000     
  -6.2652070628287267E-003  0.23002813167431668        0.0000000000000000     
  -1.2200447561664400E-002  0.19671604976052415        0.0000000000000000     
  -1.2314307452980506E-002  0.20497047735324170        0.0000000000000000     
  -1.2414071770126390E-002  0.21327730311625540        0.0000000000000000     
  -1.2499740513102042E-002  0.22163652704956530        0.0000000000000000     
  -1.2571313681907470E-002  0.23004814915317126        0.0000000000000000     
  -1.8356445674507799E-002  0.19675307708278816        0.0000000000000000     
  -1.8528837949751301E-002  0.20500328169467316        0.0000000000000000     
  -1.8679716335184490E-002  0.21330808405714310        0.0000000000000000     
  -1.8809080830807345E-002  0.22166748417019783        0.0000000000000000     
  -1.8916931436619887E-002  0.23008148203383738        0.0000000000000000     
  -2.4549446053229791E-002  0.19680516378768870        0.0000000000000000     
  -2.4781298197416403E-002  0.20504932218847896        0.0000000000000000     
  -2.4984017957767973E-002  0.21335120274351341        0.0000000000000000     
  -2.5157605334284495E-002  0.22171080545279212        0.0000000000000000     
  -2.5302060326965976E-002  0.23012813031631502        0.0000000000000000     
   1.3884206163396716E-006  0.23002142959727362        0.0000000000000000     
   1.3314908558247681E-006  0.23845044775420823        0.0000000000000000     
   1.2995122838137469E-006  0.24686728013900439        0.0000000000000000     
   1.2924849003103213E-006  0.25527192675166227        0.0000000000000000     
   1.3104087053118080E-006  0.26366438759218158        0.0000000000000000     
  -6.2652070628287267E-003  0.23002813167431668        0.0000000000000000     
  -6.2951592643569936E-003  0.23845826156392810        0.0000000000000000     
  -6.3206479425362309E-003  0.24687713265253958        0.0000000000000000     
  -6.3416730973664404E-003  0.25528474494015108        0.0000000000000000     
  -6.3582347288476245E-003  0.26368109842676263        0.0000000000000000     
  -1.2571313681907470E-002  0.23004814915317126        0.0000000000000000     
  -1.2631489694687180E-002  0.23848170651570780        0.0000000000000000     
  -1.2682966969585676E-002  0.24690673622580911        0.0000000000000000     
  -1.2725745506602961E-002  0.25532323828347525        0.0000000000000000     
  -1.2759825305739037E-002  0.26373121268870620        0.0000000000000000     
  -1.8916931436619887E-002  0.23008148203383738        0.0000000000000000     
  -1.9007659800134736E-002  0.23852078260954732        0.0000000000000000     
  -1.9085657568864520E-002  0.24695609085881309        0.0000000000000000     
  -1.9150924742809255E-002  0.25538740678163480        0.0000000000000000     
  -1.9203461321968925E-002  0.26381473037801234        0.0000000000000000     
  -2.5302060326965976E-002  0.23012813031631502        0.0000000000000000     
  -2.5423669580699654E-002  0.23857548984544663        0.0000000000000000     
  -2.5528719740372765E-002  0.24702519655155156        0.0000000000000000     
  -2.5617210805985304E-002  0.25547725043462971        0.0000000000000000     
  -2.5689142777537283E-002  0.26393165149468112        0.0000000000000000     
   1.3104087053118080E-006  0.26366438759218158        0.0000000000000000     
   1.3303530245550258E-006  0.27198458686707744        0.0000000000000000     
   1.3293871837817810E-006  0.28017244878286446        0.0000000000000000     
   1.3075111829900679E-006  0.28822797333954270        0.0000000000000000     
   1.2647250221793985E-006  0.29615116053711221        0.0000000000000000     
  -6.3582347288476245E-003  0.26368109842676263        0.0000000000000000     
  -6.3742127972284644E-003  0.27200641729121583        0.0000000000000000     
  -6.3934872627576488E-003  0.28020092571235217        0.0000000000000000     
  -6.4160581254351775E-003  0.28826462369017181        0.0000000000000000     
  -6.4419253852610464E-003  0.29619751122467464        0.0000000000000000     
  -1.2759825305739037E-002  0.26373121268870620        0.0000000000000000     
  -1.2792398733775020E-002  0.27207181713698342        0.0000000000000000     
  -1.2830658157492037E-002  0.28028620932378828        0.0000000000000000     
  -1.2874603576890088E-002  0.28837438924912101        0.0000000000000000     
  -1.2924234991969166E-002  0.29633635691298132        0.0000000000000000     
  -1.9203461321968925E-002  0.26381473037801234        0.0000000000000000     
  -1.9253227456615108E-002  0.27218078640438026        0.0000000000000000     
  -1.9310183297019376E-002  0.28042829961717297        0.0000000000000000     
  -1.9374328843181736E-002  0.28855727001639037        0.0000000000000000     
  -1.9445664095102178E-002  0.29656769760203239        0.0000000000000000     
  -2.5689142777537283E-002  0.26393165149468112        0.0000000000000000     
  -2.5756698965748729E-002  0.27233332509340635        0.0000000000000000     
  -2.5832062681339679E-002  0.28062719659250579        0.0000000000000000     
  -2.5915233924310128E-002  0.28881326599197971        0.0000000000000000     
  -2.6006212694660080E-002  0.29689153329182771        0.0000000000000000     
  -1.4014245247679306E-002   5.5757793416855800E-002   0.0000000000000000     
  -1.4787735075943415E-002   6.1367303895492664E-002   0.0000000000000000     
  -1.5535442939918466E-002   6.7150437156425130E-002   0.0000000000000000     
  -1.6257368839604460E-002   7.3107193199653184E-002   0.0000000000000000     
  -1.6953512775001393E-002   7.9237572025176853E-002   0.0000000000000000     
  -1.7623957973740535E-002   5.6054069197916785E-002   0.0000000000000000     
  -1.8587024464404175E-002   6.1627286079577251E-002   0.0000000000000000     
  -1.9519498285041376E-002   6.7384625891804772E-002   0.0000000000000000     
  -2.0421379435652129E-002   7.3326088634599440E-002   0.0000000000000000     
  -2.1292667916236428E-002   7.9451674307961184E-002   0.0000000000000000     
  -2.1319377775911658E-002   5.6389894647696379E-002   0.0000000000000000     
  -2.2474059809967480E-002   6.1941765726294035E-002   0.0000000000000000     
  -2.3592194882986518E-002   6.7682244317316537E-002   0.0000000000000000     
  -2.4673782994968776E-002   7.3611330420763857E-002   0.0000000000000000     
  -2.5718824145914251E-002   7.9729024036636009E-002   0.0000000000000000     
  -2.5100504654192675E-002   5.6765269766194594E-002   0.0000000000000000     
  -2.6448841112633310E-002   6.2310742835643071E-002   0.0000000000000000     
  -2.7753532733753895E-002   6.8043292432960367E-002   0.0000000000000000     
  -2.9014579517554408E-002   7.3962918558146462E-002   0.0000000000000000     
  -3.0231981464034871E-002   8.0069621211201356E-002   0.0000000000000000     
  -2.8967338608583582E-002   5.7180194553411431E-002   0.0000000000000000     
  -3.0511368372401679E-002   6.2734217407624332E-002   0.0000000000000000     
  -3.2003511837343498E-002   6.8467770238736278E-002   0.0000000000000000     
  -3.3443769003409028E-002   7.4380853046747242E-002   0.0000000000000000     
  -3.4832139870598272E-002   8.0473465831657223E-002   0.0000000000000000     
  -1.6953512775001393E-002   7.9237572025176853E-002   0.0000000000000000     
  -1.7625568309336287E-002   8.5541397731827742E-002   0.0000000000000000     
  -1.8275229005836138E-002   9.2018494418437458E-002   0.0000000000000000     
  -1.8902494864500959E-002   9.8668862085006012E-002   0.0000000000000000     
  -1.9507365885330741E-002  0.10549250073153339        0.0000000000000000     
  -2.1292667916236428E-002   7.9451674307961184E-002   0.0000000000000000     
  -2.2134370262485235E-002   8.5754493909377574E-002   0.0000000000000000     
  -2.2947493010089505E-002   9.2227658436336166E-002   0.0000000000000000     
  -2.3732036159049234E-002   9.8871167888836944E-002   0.0000000000000000     
  -2.4487999709364428E-002  0.10568502226687992        0.0000000000000000     
  -2.5718824145914251E-002   7.9729024036636009E-002   0.0000000000000000     
  -2.6728569505660053E-002   8.6025237448594874E-002   0.0000000000000000     
  -2.7704270244043303E-002   9.2489882940302276E-002   0.0000000000000000     
  -2.8645926361063979E-002   9.9122960511758257E-002   0.0000000000000000     
  -2.9553537856722104E-002  0.10592447016296276        0.0000000000000000     
  -3.0231981464034871E-002   8.0069621211201356E-002   0.0000000000000000     
  -3.1408166038860749E-002   8.6353628349479628E-002   0.0000000000000000     
  -3.2545560707697527E-002   9.2805167930335816E-002   0.0000000000000000     
  -3.3644165470545190E-002   9.9424239953769936E-002   0.0000000000000000     
  -3.4703980327403780E-002  0.10621084441978197        0.0000000000000000     
  -3.4832139870598272E-002   8.0473465831657223E-002   0.0000000000000000     
  -3.6173159862087301E-002   8.6739666612031849E-002   0.0000000000000000     
  -3.7471364401052164E-002   9.3173513406436773E-002   0.0000000000000000     
  -3.8726753487492882E-002   9.9775006214872008E-002   0.0000000000000000     
  -3.9939327121409428E-002  0.10654414503733750        0.0000000000000000     
  -1.9507365885330741E-002  0.10549250073153339        0.0000000000000000     
  -2.0085834209621685E-002  0.11246356944239679        0.0000000000000000     
  -2.0633891978669980E-002  0.11955622730197334        0.0000000000000000     
  -2.1151539192475633E-002  0.12677047431026309        0.0000000000000000     
  -2.1638775851038634E-002  0.13410631046726601        0.0000000000000000     
  -2.4487999709364428E-002  0.10568502226687992        0.0000000000000000     
  -2.5210870050397013E-002  0.11264504467867816        0.0000000000000000     
  -2.5896133571508911E-002  0.11972705823244477        0.0000000000000000     
  -2.6543790272700134E-002  0.12693106292817974        0.0000000000000000     
  -2.7153840153970675E-002  0.13425705876588312        0.0000000000000000     
  -2.9553537856722104E-002  0.10592447016296276        0.0000000000000000     
  -3.0421722229238727E-002  0.11287137148134377        0.0000000000000000     
  -3.1245096976834912E-002  0.11994062405432913        0.0000000000000000     
  -3.2023662099510651E-002  0.12713222788191886        0.0000000000000000     
  -3.2757417597265956E-002  0.13444618296411301        0.0000000000000000     
  -3.4703980327403780E-002  0.10621084441978197        0.0000000000000000     
  -3.5718390746146841E-002  0.11314254985039358        0.0000000000000000     
  -3.6680782194647960E-002  0.12019692476762642        0.0000000000000000     
  -3.7591154672907190E-002  0.12737396917148047        0.0000000000000000     
  -3.8449508180924477E-002  0.13467368306195579        0.0000000000000000     
  -3.9939327121409428E-002  0.10654414503733750        0.0000000000000000     
  -4.1100875601121328E-002  0.11345857978582760        0.0000000000000000     
  -4.2203189224948104E-002  0.12049596037233661        0.0000000000000000     
  -4.3246267992889741E-002  0.12765628679686455        0.0000000000000000     
  -4.4230111904946252E-002  0.13493955905941135        0.0000000000000000     
  -2.1638775851038634E-002  0.13410631046726601        0.0000000000000000     
  -2.2097858645865717E-002  0.14156195602002958        0.0000000000000000     
  -2.2531044268463592E-002  0.14913563121560125        0.0000000000000000     
  -2.2938332718832277E-002  0.15682733605398097        0.0000000000000000     
  -2.3319723996971759E-002  0.16463707053516871        0.0000000000000000     
  -2.7153840153970675E-002  0.13425705876588312        0.0000000000000000     
  -2.7729090128978125E-002  0.14170293761477806        0.0000000000000000     
  -2.8272347111380061E-002  0.14926659134408796        0.0000000000000000     
  -2.8783611101176516E-002  0.15694801995381275        0.0000000000000000     
  -2.9262882098367457E-002  0.16474722344395246        0.0000000000000000     
  -3.2757417597265956E-002  0.13444618296411301        0.0000000000000000     
  -3.3449846505604466E-002  0.14188002332512206        0.0000000000000000     
  -3.4104431860029830E-002  0.14943128298915667        0.0000000000000000     
  -3.4721173660542039E-002  0.15709996195621667        0.0000000000000000     
  -3.5300071907141108E-002  0.16488606022630226        0.0000000000000000     
  -3.8449508180924477E-002  0.13467368306195579        0.0000000000000000     
  -3.9260127775744752E-002  0.14209321315106160        0.0000000000000000     
  -4.0027298514412869E-002  0.14962970615080723        0.0000000000000000     
  -4.0751020396928864E-002  0.15728316206119275        0.0000000000000000     
  -4.1431293423292728E-002  0.16505358088221814        0.0000000000000000     
  -4.4230111904946252E-002  0.13493955905941135        0.0000000000000000     
  -4.5159933939398961E-002  0.14234250709259660        0.0000000000000000     
  -4.6040947074529201E-002  0.14986186082903982        0.0000000000000000     
  -4.6873151310336980E-002  0.15749762026874095        0.0000000000000000     
  -4.7656546646822298E-002  0.16524978541170005        0.0000000000000000     
  -2.3319723996971759E-002  0.16463707053516871        0.0000000000000000     
  -2.3672913644506546E-002  0.17254913834039509        0.0000000000000000     
  -2.3995597203061145E-002  0.18054784315089054        0.0000000000000000     
  -2.4287774672635563E-002  0.18863318496665507        0.0000000000000000     
  -2.4549446053229791E-002  0.19680516378768870        0.0000000000000000     
  -2.9262882098367457E-002  0.16474722344395246        0.0000000000000000     
  -2.9707261929897585E-002  0.17264871037404808        0.0000000000000000     
  -3.0113852422711588E-002  0.18063698930364058        0.0000000000000000     
  -3.0482653576809467E-002  0.18871206023273002        0.0000000000000000     
  -3.0813665392191214E-002  0.19687392316131633        0.0000000000000000     
  -3.5300071907141108E-002  0.16488606022630226        0.0000000000000000     
  -3.5837757289286218E-002  0.17277434793396718        0.0000000000000000     
  -3.6330860496436551E-002  0.18074959521376535        0.0000000000000000     
  -3.6779381528592121E-002  0.18881180206569675        0.0000000000000000     
  -3.7183320385752922E-002  0.19696096848976152        0.0000000000000000     
  -4.1431293423292728E-002  0.16505358088221814        0.0000000000000000     
  -4.2064399722672459E-002  0.17292605102015246        0.0000000000000000     
  -4.2646621424236059E-002  0.18088566088126490        0.0000000000000000     
  -4.3177958527983541E-002  0.18893241046555551        0.0000000000000000     
  -4.3658411033914907E-002  0.19706629977302423        0.0000000000000000     
  -4.7656546646822298E-002  0.16524978541170005        0.0000000000000000     
  -4.8387189230056277E-002  0.17310381963260388        0.0000000000000000     
  -4.9061135206110093E-002  0.18104518630613922        0.0000000000000000     
  -4.9678384574983719E-002  0.18907388543230613        0.0000000000000000     
  -5.0238937336677170E-002  0.19718991701110453        0.0000000000000000     
  -2.4549446053229791E-002  0.19680516378768870        0.0000000000000000     
  -2.4781298197416403E-002  0.20504932218847896        0.0000000000000000     
  -2.4984017957767973E-002  0.21335120274351341        0.0000000000000000     
  -2.5157605334284495E-002  0.22171080545279212        0.0000000000000000     
  -2.5302060326965976E-002  0.23012813031631502        0.0000000000000000     
  -3.0813665392191214E-002  0.19687392316131633        0.0000000000000000     
  -3.1107344117597972E-002  0.20510983278546263        0.0000000000000000     
  -3.1364146001770857E-002  0.21340704380123207        0.0000000000000000     
  -3.1584071044709880E-002  0.22176555620862462        0.0000000000000000     
  -3.1767119246415038E-002  0.23018537000764028        0.0000000000000000     
  -3.7183320385752922E-002  0.19696096848976152        0.0000000000000000     
  -3.7542631631918198E-002  0.20518604743642796        0.0000000000000000     
  -3.7857269831087191E-002  0.21347599185616475        0.0000000000000000     
  -3.8127234983259900E-002  0.22183080174897188        0.0000000000000000     
  -3.8352527088436353E-002  0.23025047711484928        0.0000000000000000     
  -4.3658411033914907E-002  0.19706629977302423        0.0000000000000000     
  -4.4087160740377059E-002  0.20527796614137492        0.0000000000000000     
  -4.4463389445716955E-002  0.21355804690831148        0.0000000000000000     
  -4.4787097149934590E-002  0.22190654207383387        0.0000000000000000     
  -4.5058283853029929E-002  0.23032345163794207        0.0000000000000000     
  -5.0238937336677170E-002  0.19718991701110453        0.0000000000000000     
  -5.0740931442974591E-002  0.20538558890030353        0.0000000000000000     
  -5.1182504845660164E-002  0.21365320895767223        0.0000000000000000     
  -5.1563657544733896E-002  0.22199277718321056        0.0000000000000000     
  -5.1884389540195773E-002  0.23040429357691861        0.0000000000000000     
  -2.5302060326965976E-002  0.23012813031631502        0.0000000000000000     
  -2.5423669580699654E-002  0.23857548984544663        0.0000000000000000     
  -2.5528719740372765E-002  0.24702519655155156        0.0000000000000000     
  -2.5617210805985304E-002  0.25547725043462971        0.0000000000000000     
  -2.5689142777537283E-002  0.26393165149468112        0.0000000000000000     
  -3.1767119246415038E-002  0.23018537000764028        0.0000000000000000     
  -3.1921178855116576E-002  0.23864136366470781        0.0000000000000000     
  -3.2054138119044756E-002  0.24710841564625594        0.0000000000000000     
  -3.2165997038199570E-002  0.25558652595228470        0.0000000000000000     
  -3.2256755612581019E-002  0.26407569458279417        0.0000000000000000     
  -3.8352527088436353E-002  0.23025047711484928        0.0000000000000000     
  -3.8541847442120122E-002  0.23871393950863271        0.0000000000000000     
  -3.8703897339814844E-002  0.24720011048515786        0.0000000000000000     
  -3.8838676781520469E-002  0.25570899004442471        0.0000000000000000     
  -3.8946185767237046E-002  0.26424057818643321        0.0000000000000000     
  -4.5058283853029929E-002  0.23032345163794207        0.0000000000000000     
  -4.5285675341710310E-002  0.23879321737722145        0.0000000000000000     
  -4.5477997402682997E-002  0.24730028106825724        0.0000000000000000     
  -4.5635250035948018E-002  0.25584464271104945        0.0000000000000000     
  -4.5757433241505351E-002  0.26442630230559822        0.0000000000000000     
  -5.1884389540195773E-002  0.23040429357691861        0.0000000000000000     
  -5.2152662553887119E-002  0.23887919727047391        0.0000000000000000     
  -5.2376438307649265E-002  0.24740892739555412        0.0000000000000000     
  -5.2555716801482202E-002  0.25599348395215915        0.0000000000000000     
  -5.2690498035385940E-002  0.26463286694028909        0.0000000000000000     
  -2.5689142777537283E-002  0.26393165149468112        0.0000000000000000     
  -2.5756698965748729E-002  0.27233332509340635        0.0000000000000000     
  -2.5832062681339679E-002  0.28062719659250579        0.0000000000000000     
  -2.5915233924310128E-002  0.28881326599197971        0.0000000000000000     
  -2.6006212694660080E-002  0.29689153329182771        0.0000000000000000     
  -3.2256755612581019E-002  0.26407569458279417        0.0000000000000000     
  -3.2341228826325487E-002  0.27252310389169815        0.0000000000000000     
  -3.2434231663569298E-002  0.28087593623291068        0.0000000000000000     
  -3.2535764124312486E-002  0.28913419160643178        0.0000000000000000     
  -3.2645826208555030E-002  0.29729787001226138        0.0000000000000000     
  -3.8946185767237046E-002  0.26424057818643321        0.0000000000000000     
  -3.9045232603494961E-002  0.27274379348689232        0.0000000000000000     
  -3.9154625596824623E-002  0.28116755452151104        0.0000000000000000     
  -3.9274364747226030E-002  0.28951186129028927        0.0000000000000000     
  -3.9404450054699183E-002  0.29777671379322707        0.0000000000000000     
  -4.5757433241505351E-002  0.26442630230559822        0.0000000000000000     
  -4.5868710297257177E-002  0.27299539387898880        0.0000000000000000     
  -4.5993244481105644E-002  0.28150205145830681        0.0000000000000000     
  -4.6131035793050758E-002  0.28994627504355219        0.0000000000000000     
  -4.6282084233092532E-002  0.29832806463472500        0.0000000000000000     
  -5.2690498035385940E-002  0.26463286694028909        0.0000000000000000     
  -5.2811661907612120E-002  0.27327790506798755        0.0000000000000000     
  -5.2950088316412361E-002  0.28187942704329799        0.0000000000000000     
  -5.3105777261786696E-002  0.29043743286622054        0.0000000000000000     
  -5.3278728743735085E-002  0.29895192253675501        0.0000000000000000     
  -2.8967338608583582E-002   5.7180194553411431E-002   0.0000000000000000     
  -3.0511368372401679E-002   6.2734217407624332E-002   0.0000000000000000     
  -3.2003511837343498E-002   6.8467770238736278E-002   0.0000000000000000     
  -3.3443769003409028E-002   7.4380853046747242E-002   0.0000000000000000     
  -3.4832139870598272E-002   8.0473465831657223E-002   0.0000000000000000     
  -3.2949956297724854E-002   5.7652498270885880E-002   0.0000000000000000     
  -3.4689520684344083E-002   6.3214059753986696E-002   0.0000000000000000     
  -3.6368871981270791E-002   6.8947236362415024E-002   0.0000000000000000     
  -3.7988010188504978E-002   7.4852028096170850E-002   0.0000000000000000     
  -3.9546935306046638E-002   8.0928434955254147E-002   0.0000000000000000     
  -3.7078434380256958E-002   5.8200010180156962E-002   0.0000000000000000     
  -3.9011177143532035E-002   6.3752140186479025E-002   0.0000000000000000     
  -4.0876352953051254E-002   6.9473249431767359E-002   0.0000000000000000     
  -4.2673961808814623E-002   7.5363337916021941E-002   0.0000000000000000     
  -4.4404003710822114E-002   8.1422405639242773E-002   0.0000000000000000     
  -4.1352772856179901E-002   5.8822730281224665E-002   0.0000000000000000     
  -4.3476337749965510E-002   6.4348458705101336E-002   0.0000000000000000     
  -4.5525954752684866E-002   7.0045809446793283E-002   0.0000000000000000     
  -4.7501623864337927E-002   7.5914782506300529E-002   0.0000000000000000     
  -4.9403345084924728E-002   8.1955377883623060E-002   0.0000000000000000     
  -4.5772971725493675E-002   5.9520658574088989E-002   0.0000000000000000     
  -4.8085002503644531E-002   6.5003015309853598E-002   0.0000000000000000     
  -5.0317677380171628E-002   7.0664916407492798E-002   0.0000000000000000     
  -5.2470996355074920E-002   7.6506361867006600E-002   0.0000000000000000     
  -5.4544959428354453E-002   8.2527351688395020E-002   0.0000000000000000     
  -3.4832139870598272E-002   8.0473465831657223E-002   0.0000000000000000     
  -3.6173159862087301E-002   8.6739666612031849E-002   0.0000000000000000     
  -3.7471364401052164E-002   9.3173513406436773E-002   0.0000000000000000     
  -3.8726753487492882E-002   9.9775006214872008E-002   0.0000000000000000     
  -3.9939327121409428E-002  0.10654414503733750        0.0000000000000000     
  -3.9546935306046638E-002   8.0928434955254147E-002   0.0000000000000000     
  -4.1052405744813385E-002   8.7174623843177354E-002   0.0000000000000000     
  -4.2511179915722834E-002   9.3588761663452855E-002   0.0000000000000000     
  -4.3923257818774999E-002  0.10017084841608061        0.0000000000000000     
  -4.5288639453969853E-002  0.10692088410106064        0.0000000000000000     
  -4.4404003710822114E-002   8.1422405639242773E-002   0.0000000000000000     
  -4.6074758456512675E-002   8.7649771649842001E-002   0.0000000000000000     
  -4.7694505843325137E-002   9.4044754996231730E-002   0.0000000000000000     
  -4.9263245871259527E-002  0.10060735567841197        0.0000000000000000     
  -5.0780978540315845E-002  0.10733757369638276        0.0000000000000000     
  -4.9403345084924728E-002   8.1955377883623060E-002   0.0000000000000000     
  -5.1240217997185138E-002   8.8165110032025734E-002   0.0000000000000000     
  -5.3021342183859059E-002   9.4541493404773427E-002   0.0000000000000000     
  -5.4746717644946478E-002  0.10108452800186608        0.0000000000000000     
  -5.6416344380447396E-002  0.10779421382330377        0.0000000000000000     
  -5.4544959428354453E-002   8.2527351688395020E-002   0.0000000000000000     
  -5.6548784366830820E-002   8.8720638989728595E-002   0.0000000000000000     
  -5.8491688937324607E-002   9.5078976889077904E-002   0.0000000000000000     
  -6.0373673139835833E-002  0.10160236538644296        0.0000000000000000     
  -6.2194736974364506E-002  0.10829080448182375        0.0000000000000000     
  -3.9939327121409428E-002  0.10654414503733750        0.0000000000000000     
  -4.1100875601121328E-002  0.11345857978582760        0.0000000000000000     
  -4.2203189224948104E-002  0.12049596037233661        0.0000000000000000     
  -4.3246267992889741E-002  0.12765628679686455        0.0000000000000000     
  -4.4230111904946252E-002  0.13493955905941135        0.0000000000000000     
  -4.5288639453969853E-002  0.10692088410106064        0.0000000000000000     
  -4.6597500237813019E-002  0.11381651499118990        0.0000000000000000     
  -4.7840015586810086E-002  0.12083538735926526        0.0000000000000000     
  -4.9016185500961040E-002  0.12797750120528678        0.0000000000000000     
  -5.0126009980265882E-002  0.13524285652925438        0.0000000000000000     
  -5.0780978540315845E-002  0.10733757369638276        0.0000000000000000     
  -5.2236588099872701E-002  0.11421340917002457        0.0000000000000000     
  -5.3618958799308662E-002  0.12121286221921793        0.0000000000000000     
  -5.4928090638623771E-002  0.12833593284396289        0.0000000000000000     
  -5.6163983617817999E-002  0.13558262104425942        0.0000000000000000     
  -5.6416344380447396E-002  0.10779421382330377        0.0000000000000000     
  -5.8018139187300345E-002  0.11464926232233158        0.0000000000000000     
  -5.9540018862443866E-002  0.12162838495219462        0.0000000000000000     
  -6.0981983405877946E-002  0.12873158171289292        0.0000000000000000     
  -6.2344032817602590E-002  0.13595885260442642        0.0000000000000000     
  -6.2194736974364506E-002  0.10829080448182375        0.0000000000000000     
  -6.3942153500095980E-002  0.11512407444811097        0.0000000000000000     
  -6.5603195776215678E-002  0.12208195555819534        0.0000000000000000     
  -6.7177863802723572E-002  0.12916444781207681        0.0000000000000000     
  -6.8666157579619691E-002  0.13637155120975544        0.0000000000000000     
  -4.4230111904946252E-002  0.13493955905941135        0.0000000000000000     
  -4.5159933939398961E-002  0.14234250709259660        0.0000000000000000     
  -4.6040947074529201E-002  0.14986186082903982        0.0000000000000000     
  -4.6873151310336980E-002  0.15749762026874095        0.0000000000000000     
  -4.7656546646822298E-002  0.16524978541170005        0.0000000000000000     
  -5.0126009980265882E-002  0.13524285652925438        0.0000000000000000     
  -5.1175735800410030E-002  0.14262771134439101        0.0000000000000000     
  -5.2171609737078864E-002  0.15012832366391962        0.0000000000000000     
  -5.3113631790272363E-002  0.15774469348784007        0.0000000000000000     
  -5.4001801959990547E-002  0.16547682081615250        0.0000000000000000     
  -5.6163983617817999E-002  0.13558262104425942        0.0000000000000000     
  -5.7334004162620869E-002  0.14294863210110867        0.0000000000000000     
  -5.8445518698761863E-002  0.15042967129551182        0.0000000000000000     
  -5.9498527226240994E-002  0.15802573862746894        0.0000000000000000     
  -6.0493029745058227E-002  0.16573683409697995        0.0000000000000000     
  -6.2344032817602590E-002  0.13595885260442642        0.0000000000000000     
  -6.3634739026031478E-002  0.14330526936274951        0.0000000000000000     
  -6.4862673959578232E-002  0.15076590372381654        0.0000000000000000     
  -6.6027837618242852E-002  0.15834075568762751        0.0000000000000000     
  -6.7130230002025337E-002  0.16602982525418233        0.0000000000000000     
  -6.8666157579619691E-002  0.13637155120975544        0.0000000000000000     
  -7.0077940390641857E-002  0.14369762312931358        0.0000000000000000     
  -7.1423075519527937E-002  0.15113702094883369        0.0000000000000000     
  -7.2701562966277944E-002  0.15868974466831579        0.0000000000000000     
  -7.3913402730891864E-002  0.16635579428775976        0.0000000000000000     
  -4.7656546646822298E-002  0.16524978541170005        0.0000000000000000     
  -4.8387189230056277E-002  0.17310381963260388        0.0000000000000000     
  -4.9061135206110093E-002  0.18104518630613922        0.0000000000000000     
  -4.9678384574983719E-002  0.18907388543230613        0.0000000000000000     
  -5.0238937336677170E-002  0.19718991701110453        0.0000000000000000     
  -5.4001801959990547E-002  0.16547682081615250        0.0000000000000000     
  -5.4832018276498862E-002  0.17331061642050291        0.0000000000000000     
  -5.5600178770062722E-002  0.18123199107253740        0.0000000000000000     
  -5.6306283440682128E-002  0.18924094477225598        0.0000000000000000     
  -5.6950332288357081E-002  0.19733747751965869        0.0000000000000000     
  -6.0493029745058227E-002  0.16573683409697995        0.0000000000000000     
  -6.1424779327061349E-002  0.17354940403303112        0.0000000000000000     
  -6.2289529044098013E-002  0.18144989476460871        0.0000000000000000     
  -6.3087278896168247E-002  0.18943830629171265        0.0000000000000000     
  -6.3818028883272065E-002  0.19751463861434304        0.0000000000000000     
  -6.7130230002025337E-002  0.16602982525418233        0.0000000000000000     
  -6.8165472381743697E-002  0.17382018247018843        0.0000000000000000     
  -6.9129186028215953E-002  0.18169889738235298        0.0000000000000000     
  -7.0021370941442077E-002  0.18966596999067600        0.0000000000000000     
  -7.0842027121422083E-002  0.19772140029515756        0.0000000000000000     
  -7.3913402730891864E-002  0.16635579428775976        0.0000000000000000     
  -7.5054097440545989E-002  0.17412295173197487        0.0000000000000000     
  -7.6119149722416554E-002  0.18197899892577035        0.0000000000000000     
  -7.7108559576503630E-002  0.18992393586914613        0.0000000000000000     
  -7.8022327002807146E-002  0.19795776256210226        0.0000000000000000     
  -5.0238937336677170E-002  0.19718991701110453        0.0000000000000000     
  -5.0740931442974591E-002  0.20538558890030353        0.0000000000000000     
  -5.1182504845660164E-002  0.21365320895767223        0.0000000000000000     
  -5.1563657544733896E-002  0.22199277718321056        0.0000000000000000     
  -5.1884389540195773E-002  0.23040429357691861        0.0000000000000000     
  -5.6950332288357081E-002  0.19733747751965869        0.0000000000000000     
  -5.7529776435538929E-002  0.20551520562273495        0.0000000000000000     
  -5.8042067004678961E-002  0.21376774538947441        0.0000000000000000     
  -5.8487203995777212E-002  0.22209509681987702        0.0000000000000000     
  -5.8865187408833647E-002  0.23049725991394271        0.0000000000000000     
  -6.3818028883272065E-002  0.19751463861434304        0.0000000000000000     
  -6.4479528413898202E-002  0.20567310621819040        0.0000000000000000     
  -6.5069526896535473E-002  0.21390792358894542        0.0000000000000000     
  -6.5588024331183867E-002  0.22221909072660803        0.0000000000000000     
  -6.6035020717843340E-002  0.23060660763117827        0.0000000000000000     
  -7.0842027121422083E-002  0.19772140029515756        0.0000000000000000     
  -7.1590187378052464E-002  0.20585929068666989        0.0000000000000000     
  -7.2264884521229727E-002  0.21407374355608522        0.0000000000000000     
  -7.2866118550953846E-002  0.22236475890340368        0.0000000000000000     
  -7.3393889467224860E-002  0.23073233672862520        0.0000000000000000     
  -7.8022327002807146E-002  0.19795776256210226        0.0000000000000000     
  -7.8861753328001660E-002  0.20607375902817332        0.0000000000000000     
  -7.9628139878761661E-002  0.21426520529089388        0.0000000000000000     
  -8.0321486655087204E-002  0.22253210135026397        0.0000000000000000     
  -8.0941793656978220E-002  0.23087444720628353        0.0000000000000000     
  -5.1884389540195773E-002  0.23040429357691861        0.0000000000000000     
  -5.2152662553887119E-002  0.23887919727047391        0.0000000000000000     
  -5.2376438307649265E-002  0.24740892739555412        0.0000000000000000     
  -5.2555716801482202E-002  0.25599348395215915        0.0000000000000000     
  -5.2690498035385940E-002  0.26463286694028909        0.0000000000000000     
  -5.8865187408833647E-002  0.23049725991394271        0.0000000000000000     
  -5.9181941587743432E-002  0.23897329445132323        0.0000000000000000     
  -5.9443390876401686E-002  0.24752226021167023        0.0000000000000000     
  -5.9649535274808436E-002  0.25614415719498357        0.0000000000000000     
  -5.9800374782963642E-002  0.26483898540126338        0.0000000000000000     
  -6.6035020717843340E-002  0.23060660763117827        0.0000000000000000     
  -6.6412644952372132E-002  0.23907692418270252        0.0000000000000000     
  -6.6723025930628385E-002  0.24763649026122725        0.0000000000000000     
  -6.6966163652612098E-002  0.25628530586675247        0.0000000000000000     
  -6.7142058118323300E-002  0.26502337099927809        0.0000000000000000     
  -7.3393889467224860E-002  0.23073233672862520        0.0000000000000000     
  -7.3844772647773213E-002  0.23919008646461176        0.0000000000000000     
  -7.4215343470329334E-002  0.24775161754422531        0.0000000000000000     
  -7.4505601934893223E-002  0.25641692996746579        0.0000000000000000     
  -7.4715548041464880E-002  0.26518602373433331        0.0000000000000000     
  -8.0941793656978220E-002  0.23087444720628353        0.0000000000000000     
  -8.1478324673946681E-002  0.23931278129705091        0.0000000000000000     
  -8.1920343495504533E-002  0.24786764206066431        0.0000000000000000     
  -8.2267850121651789E-002  0.25653902949712365        0.0000000000000000     
  -8.2520844552388423E-002  0.26532694360642906        0.0000000000000000     
  -5.2690498035385940E-002  0.26463286694028909        0.0000000000000000     
  -5.2811661907612120E-002  0.27327790506798755        0.0000000000000000     
  -5.2950088316412361E-002  0.28187942704329799        0.0000000000000000     
  -5.3105777261786696E-002  0.29043743286622054        0.0000000000000000     
  -5.3278728743735085E-002  0.29895192253675501        0.0000000000000000     
  -5.9800374782963642E-002  0.26483898540126338        0.0000000000000000     
  -5.9932845420516231E-002  0.27356262262155689        0.0000000000000000     
  -6.0083883207115052E-002  0.28227094664691132        0.0000000000000000     
  -6.0253488142760152E-002  0.29096395747732673        0.0000000000000000     
  -6.0441660227451482E-002  0.29964165511280316        0.0000000000000000     
  -6.7142058118323300E-002  0.26502337099927809        0.0000000000000000     
  -6.7291018821925938E-002  0.27382084210736479        0.0000000000000000     
  -6.7453355257583975E-002  0.28264787563957322        0.0000000000000000     
  -6.7629067425297479E-002  0.29150447159590342        0.0000000000000000     
  -6.7818155325066395E-002  0.30039062997635529        0.0000000000000000     
  -7.4715548041464880E-002  0.26518602373433331        0.0000000000000000     
  -7.4886182111841240E-002  0.27405256352541146        0.0000000000000000     
  -7.5058504467819170E-002  0.28301021402128385        0.0000000000000000     
  -7.5232515109398684E-002  0.29205897522195057        0.0000000000000000     
  -7.5408214036579796E-002  0.30119884712741152        0.0000000000000000     
  -8.2520844552388423E-002  0.26532694360642906        0.0000000000000000     
  -8.2718335290262138E-002  0.27425778687569674        0.0000000000000000     
  -8.2899330837820584E-002  0.28335796179204314        0.0000000000000000     
  -8.3063831195063761E-002  0.29262746835546810        0.0000000000000000     
  -8.3211836361991684E-002  0.30206630656597178        0.0000000000000000     
  -4.5772971725493675E-002   5.9520658574088989E-002   0.0000000000000000     
  -4.8085002503644531E-002   6.5003015309853598E-002   0.0000000000000000     
  -5.0317677380171628E-002   7.0664916407492798E-002   0.0000000000000000     
  -5.2470996355074920E-002   7.6506361867006600E-002   0.0000000000000000     
  -5.4544959428354453E-002   8.2527351688395020E-002   0.0000000000000000     
  -5.0364056109336974E-002   6.0272453583152995E-002   0.0000000000000000     
  -5.2863379079566938E-002   6.5713238233745197E-002   0.0000000000000000     
  -5.5278291838939002E-002   7.1340067156821022E-002   0.0000000000000000     
  -5.7608794387453179E-002   7.7152940352380475E-002   0.0000000000000000     
  -5.9854886725109462E-002   8.3151857820423544E-002   0.0000000000000000     
  -5.5151051128848536E-002   6.1056773832819732E-002   0.0000000000000000     
  -5.7837675152730549E-002   6.6476555709785515E-002   0.0000000000000000     
  -6.0434569132414462E-002   7.2080758537733047E-002   0.0000000000000000     
  -6.2941733067900241E-002   7.7869382316662392E-002   0.0000000000000000     
  -6.5359166959187934E-002   8.3842427046573492E-002   0.0000000000000000     
  -6.0133956784028331E-002   6.1873619323089199E-002   0.0000000000000000     
  -6.3007890723135382E-002   6.7292967737974538E-002   0.0000000000000000     
  -6.5786509260597995E-002   7.2886990550228917E-002   0.0000000000000000     
  -6.8469812396416141E-002   7.8655687759852363E-002   0.0000000000000000     
  -7.1057800130589807E-002   8.4599059366844878E-002   0.0000000000000000     
  -6.5312773074876374E-002   6.2722990053961397E-002   0.0000000000000000     
  -6.8374025790781445E-002   6.8162474318312266E-002   0.0000000000000000     
  -7.1334112223489607E-002   7.3758763194308602E-002   0.0000000000000000     
  -7.4193032373000831E-002   7.9511856681950419E-002   0.0000000000000000     
  -7.6950786239315144E-002   8.5421754781237702E-002   0.0000000000000000     
  -5.4544959428354453E-002   8.2527351688395020E-002   0.0000000000000000     
  -5.6548784366830820E-002   8.8720638989728595E-002   0.0000000000000000     
  -5.8491688937324607E-002   9.5078976889077904E-002   0.0000000000000000     
  -6.0373673139835833E-002  0.10160236538644296        0.0000000000000000     
  -6.2194736974364506E-002  0.10829080448182375        0.0000000000000000     
  -5.9854886725109462E-002   8.3151857820423544E-002   0.0000000000000000     
  -6.2025672303387916E-002   8.9325802739716686E-002   0.0000000000000000     
  -6.4130254573768558E-002   9.5663758289026360E-002   0.0000000000000000     
  -6.6168633536251395E-002  0.10216572446835259        0.0000000000000000     
  -6.8140809190836427E-002  0.10883170127769533        0.0000000000000000     
  -6.5359166959187934E-002   8.3842427046573492E-002   0.0000000000000000     
  -6.7696096544794665E-002   8.9990045498756083E-002   0.0000000000000000     
  -6.9961747563237670E-002   9.6302390444499925E-002   0.0000000000000000     
  -7.2156120014516933E-002  0.10277946188380499        0.0000000000000000     
  -7.4279213898632457E-002  0.10942125981667125        0.0000000000000000     
  -7.1057800130589807E-002   8.4599059366844878E-002   0.0000000000000000     
  -7.3560057091051054E-002   9.0713367266846825E-002   0.0000000000000000     
  -7.5986167905731955E-002   9.6994873355498570E-002   0.0000000000000000     
  -7.8336132574632442E-002  0.10344357763280013        0.0000000000000000     
  -8.0609951097752569E-002  0.11005948009875147        0.0000000000000000     
  -7.6950786239315144E-002   8.5421754781237702E-002   0.0000000000000000     
  -7.9617553942157124E-002   9.1495768043988873E-002   0.0000000000000000     
  -8.2203515601251387E-002   9.7741207022022311E-002   0.0000000000000000     
  -8.4708671216597933E-002  0.10415807171533803        0.0000000000000000     
  -8.7133020788196763E-002  0.11074636212393599        0.0000000000000000     
  -6.2194736974364506E-002  0.10829080448182375        0.0000000000000000     
  -6.3942153500095980E-002  0.11512407444811097        0.0000000000000000     
  -6.5603195776215678E-002  0.12208195555819534        0.0000000000000000     
  -6.7177863802723572E-002  0.12916444781207681        0.0000000000000000     
  -6.8666157579619691E-002  0.13637155120975544        0.0000000000000000     
  -6.8140809190836427E-002  0.10883170127769533        0.0000000000000000     
  -7.0033489876156790E-002  0.11564215178552140        0.0000000000000000     
  -7.1833383930845568E-002  0.12257753906029747        0.0000000000000000     
  -7.3540491354902773E-002  0.12963786310202363        0.0000000000000000     
  -7.5154812148328420E-002  0.13682312391069987        0.0000000000000000     
  -7.4279213898632457E-002  0.10942125981667125        0.0000000000000000     
  -7.6317007153379912E-002  0.11620780057272152        0.0000000000000000     
  -7.8255477716554972E-002  0.12311910048157859        0.0000000000000000     
  -8.0094625588157678E-002  0.13015515954324244        0.0000000000000000     
  -8.1834450768187975E-002  0.13731597775771306        0.0000000000000000     
  -8.0609951097752569E-002  0.11005948009875147        0.0000000000000000     
  -8.2792705331765373E-002  0.11682102080971138        0.0000000000000000     
  -8.4869477133343946E-002  0.12370663982203861        0.0000000000000000     
  -8.6840266502488259E-002  0.13071633713573319        0.0000000000000000     
  -8.8705073439198340E-002  0.13785011275079506        0.0000000000000000     
  -8.7133020788196763E-002  0.11074636212393599        0.0000000000000000     
  -8.9460584411313160E-002  0.11748181249649095        0.0000000000000000     
  -9.1675382181212420E-002  0.12434015708167759        0.0000000000000000     
  -9.3777414097894543E-002  0.13132139587949590        0.0000000000000000     
  -9.5766680161359530E-002  0.13842552888994586        0.0000000000000000     
  -6.8666157579619691E-002  0.13637155120975544        0.0000000000000000     
  -7.0077940390641857E-002  0.14369762312931358        0.0000000000000000     
  -7.1423075519527937E-002  0.15113702094883369        0.0000000000000000     
  -7.2701562966277944E-002  0.15868974466831579        0.0000000000000000     
  -7.3913402730891864E-002  0.16635579428775976        0.0000000000000000     
  -7.5154812148328420E-002  0.13682312391069987        0.0000000000000000     
  -7.6687471941321320E-002  0.14412720344691646        0.0000000000000000     
  -7.8149596364080309E-002  0.15154398367126365        0.0000000000000000     
  -7.9541185416605362E-002  0.15907346458374147        0.0000000000000000     
  -8.0862239098896518E-002  0.16671564618435000        0.0000000000000000     
  -8.1834450768187975E-002  0.13731597775771306        0.0000000000000000     
  -8.3487197362939178E-002  0.14459552036167345        0.0000000000000000     
  -8.5065109478704562E-002  0.15198775259180658        0.0000000000000000     
  -8.6568187115484183E-002  0.15949267444811238        0.0000000000000000     
  -8.7996430273277984E-002  0.16711028593059096        0.0000000000000000     
  -8.8705073439198340E-002  0.13785011275079506        0.0000000000000000     
  -9.0477116655495432E-002  0.14510257387358469        0.0000000000000000     
  -9.2169614863400778E-002  0.15246832771046254        0.0000000000000000     
  -9.3782568062914407E-002  0.15994737426142847        0.0000000000000000     
  -9.5315976254036275E-002  0.16753971352648259        0.0000000000000000     
  -9.5766680161359530E-002  0.13842552888994586        0.0000000000000000     
  -9.7657229818990082E-002  0.14564836398265019        0.0000000000000000     
  -9.9463112518168889E-002  0.15298570902723146        0.0000000000000000     
 -0.10118432825889602       0.16043756402368972        0.0000000000000000     
 -0.10282087704117139       0.16800392897202499        0.0000000000000000     
  -7.3913402730891864E-002  0.16635579428775976        0.0000000000000000     
  -7.5054097440545989E-002  0.17412295173197487        0.0000000000000000     
  -7.6119149722416554E-002  0.18197899892577035        0.0000000000000000     
  -7.7108559576503630E-002  0.18992393586914613        0.0000000000000000     
  -7.8022327002807146E-002  0.19795776256210226        0.0000000000000000     
  -8.0862239098896518E-002  0.16671564618435000        0.0000000000000000     
  -8.2108367440246813E-002  0.17445883242731211        0.0000000000000000     
  -8.3275180469949348E-002  0.18229132726685077        0.0000000000000000     
  -8.4362678188004109E-002  0.19021313070296605        0.0000000000000000     
  -8.5370860594411097E-002  0.19822424273565789        0.0000000000000000     
  -8.7996430273277984E-002  0.16711028593059096        0.0000000000000000     
  -8.9345995317624896E-002  0.17482894516512176        0.0000000000000000     
  -9.0613038614063821E-002  0.18263701027758444        0.0000000000000000     
  -9.1797560162594743E-002  0.19053448126797887        0.0000000000000000     
  -9.2899559963217707E-002  0.19852135813630520        0.0000000000000000     
  -9.5315976254036275E-002  0.16753971352648259        0.0000000000000000     
  -9.6766981072680211E-002  0.17523328994540388        0.0000000000000000     
  -9.8132724154759959E-002  0.18301604795797122        0.0000000000000000     
  -9.9413205500275575E-002  0.19088798756418460        0.0000000000000000     
 -0.10060842510922702       0.19884910876404416        0.0000000000000000     
 -0.10282087704117139       0.16800392897202499        0.0000000000000000     
 -0.10437132470541276       0.17567186676815838        0.0000000000000000     
 -0.10583423709203782       0.18342844030801114        0.0000000000000000     
 -0.10720961420104658       0.19127364959158324        0.0000000000000000     
 -0.10849745603243902       0.19920749461887474        0.0000000000000000     
  -7.8022327002807146E-002  0.19795776256210226        0.0000000000000000     
  -7.8861753328001660E-002  0.20607375902817332        0.0000000000000000     
  -7.9628139878761661E-002  0.21426520529089388        0.0000000000000000     
  -8.0321486655087204E-002  0.22253210135026397        0.0000000000000000     
  -8.0941793656978220E-002  0.23087444720628353        0.0000000000000000     
  -8.5370860594411097E-002  0.19822424273565789        0.0000000000000000     
  -8.6303416747198242E-002  0.20631726990844823        0.0000000000000000     
  -8.7164035704393503E-002  0.21448481876485911        0.0000000000000000     
  -8.7952717465996894E-002  0.22272688930489043        0.0000000000000000     
  -8.8669462032008400E-002  0.23104348152854232        0.0000000000000000     
  -9.2899559963217707E-002  0.19852135813630520        0.0000000000000000     
  -9.3924368119094603E-002  0.20659058199324218        0.0000000000000000     
  -9.4877314733387341E-002  0.21473509394946871        0.0000000000000000     
  -9.5758399806095962E-002  0.22295489400498480        0.0000000000000000     
  -9.6567623337220451E-002  0.23124998215979048        0.0000000000000000     
 -0.10060842510922702       0.19884910876404416        0.0000000000000000     
 -0.10172460744369075       0.20689369528255502        0.0000000000000000     
 -0.10276797696574323       0.21501603084472262        0.0000000000000000     
 -0.10373853367538441       0.22321611545054698        0.0000000000000000     
 -0.10463627757261436       0.23149394910002807        0.0000000000000000     
 -0.10849745603243902       0.19920749461887474        0.0000000000000000     
 -0.10970413472098670       0.20722660977638688        0.0000000000000000     
 -0.11083602240146108       0.21532762945062095        0.0000000000000000     
 -0.11189311907386225       0.22351055364157699        0.0000000000000000     
 -0.11287542473819014       0.23177538234925499        0.0000000000000000     
  -8.0941793656978220E-002  0.23087444720628353        0.0000000000000000     
  -8.1478324673946681E-002  0.23931278129705091        0.0000000000000000     
  -8.1920343495504533E-002  0.24786764206066431        0.0000000000000000     
  -8.2267850121651789E-002  0.25653902949712365        0.0000000000000000     
  -8.2520844552388423E-002  0.26532694360642906        0.0000000000000000     
  -8.8669462032008400E-002  0.23104348152854232        0.0000000000000000     
  -8.9299796748300631E-002  0.23945999051190109        0.0000000000000000     
  -8.9829248960746205E-002  0.24800181133105323        0.0000000000000000     
  -9.0257818669345152E-002  0.25666894398599877        0.0000000000000000     
  -9.0585505874097430E-002  0.26546138847673761        0.0000000000000000     
  -9.6567623337220451E-002  0.23124998215979048        0.0000000000000000     
  -9.7295684588243170E-002  0.23964669594104335        0.0000000000000000     
  -9.7933282820646603E-002  0.24817137287590113        0.0000000000000000     
  -9.8480418034430667E-002  0.25682401296436380        0.0000000000000000     
  -9.8937090229595431E-002  0.26560461620643128        0.0000000000000000     
 -0.10463627757261436       0.23149394910002807        0.0000000000000000     
 -0.10546598819377435       0.23987289758447766        0.0000000000000000     
 -0.10623244507520566       0.24837632669520793        0.0000000000000000     
 -0.10693564821690837       0.25700423643221876        0.0000000000000000     
 -0.10757559761888238       0.26575662679551004        0.0000000000000000     
 -0.11287542473819014       0.23177538234925499        0.0000000000000000     
 -0.11381070756489410       0.24013859544220417        0.0000000000000000     
 -0.11472673572442346       0.24861667278897370        0.0000000000000000     
 -0.11562350921677821       0.25720961438956363        0.0000000000000000     
 -0.11650102804195836       0.26591742024397397        0.0000000000000000     
  -8.2520844552388423E-002  0.26532694360642906        0.0000000000000000     
  -8.2718335290262138E-002  0.27425778687569674        0.0000000000000000     
  -8.2899330837820584E-002  0.28335796179204314        0.0000000000000000     
  -8.3063831195063761E-002  0.29262746835546810        0.0000000000000000     
  -8.3211836361991684E-002  0.30206630656597178        0.0000000000000000     
  -9.0585505874097430E-002  0.26546138847673761        0.0000000000000000     
  -9.0842663145139044E-002  0.27444219793744573        0.0000000000000000     
  -9.1059643052605888E-002  0.28367442550229904        0.0000000000000000     
  -9.1236445596498031E-002  0.29315807117129755        0.0000000000000000     
  -9.1373070776815418E-002  0.30289313494444114        0.0000000000000000     
  -9.8937090229595431E-002  0.26560461620643128        0.0000000000000000     
  -9.9314350464422302E-002  0.27461148248988332        0.0000000000000000     
  -9.9623249797192726E-002  0.28394291170249952        0.0000000000000000     
  -9.9863788227906730E-002  0.29359890384427989        0.0000000000000000     
 -0.10003596575656430       0.30357945891522448        0.0000000000000000     
 -0.10757559761888238       0.26575662679551004        0.0000000000000000     
 -0.10813339724811193       0.27476564053300956        0.0000000000000000     
 -0.10859015107158113       0.28416342039264464        0.0000000000000000     
 -0.10894585908928990       0.29394996637441545        0.0000000000000000     
 -0.10920052130123836       0.30412527847832210        0.0000000000000000     
 -0.11650102804195836       0.26591742024397397        0.0000000000000000     
 -0.11729980349620794       0.27490467206682434        0.0000000000000000     
 -0.11796034687577100       0.28433595157273439        0.0000000000000000     
 -0.11848265818064754       0.29421125876170418        0.0000000000000000     
 -0.11886673741083757       0.30453059363373369        0.0000000000000000     
 </DataArray>
 <DataArray  type="Float64" Name="stress" NumberOfComponents="3" format="ascii">
   5816382164.1548052       -656844370.43776464       -84492793.689877182     
   5678470359.3478050       -422744306.86961198       -80940834.743032247     
   5521602049.3733320       -251832593.85970497       -68015140.895109162     
   5345777234.2313881       -144109231.40803289       -45715712.146105349     
   5150995913.9219666       -99574219.514618874       -14042548.496023394     
   5511834401.5670509       -362829942.16781354        170801603.16111243     
   5367841143.7530107       -222201324.40579343        159419337.39069226     
   5211910970.8183699       -121362423.71246362        155555629.59212410     
   5044043882.7631149       -60313240.087834120        159210479.76539388     
   4864239879.5872526       -39053773.531898975        170383887.91051948     
   5218756712.0709219       -65374491.970371485        386752389.18834567     
   5063381495.7377567       -19807471.668105841        368625420.42200637     
   4903088954.3308392        9368465.0550122261        356161832.69828719     
   4737879087.8501892        22153318.198982000        349361626.01716912     
   4567751896.2957840        18547087.763793945        348224800.37866801     
   4937149095.6664181        235521980.15455651        563359564.39182746     
   4765091415.3020296        184437251.34343696        546677414.35091043     
   4595135999.9107533        140360072.44271898        533803468.42337054     
   4427282849.4925995        103290443.45239592        524737726.60921317     
   4261531964.0475621        73228364.372461081        519480188.90843433     
   4667011552.3535614        539859474.20697832        700623128.77155352     
   4472970902.4458342        390532844.62884212        693575319.17739964     
   4288052107.5580997        271612398.45064735        688480536.76739240     
   4112255167.6903496        183098135.67240810        685338781.54152477     
   3945580082.8425756        124990056.29409909        684150053.49980509     
   5150995913.9219666       -99574219.514618874       -14042548.496023394     
   5010678381.8248463       -69665057.501077652       -8372979.6310584042     
   4868900880.3829355       -44622459.970178127       -712403.38947624434     
   4725663409.5962524       -24446426.921857119        8939180.2287089955     
   4580965969.4647799       -9136958.3561549187        20581771.223506283     
   4864239879.5872526       -39053773.531898975        170383887.91051948     
   4725252425.6458845       -24141341.130804300        171859010.54899442     
   4585943425.9953203       -10300727.760357618        175827046.61047721     
   4446312880.6355782        2468066.5794906616        182287996.09493932     
   4306360789.5666494        14165041.888719320        191241859.00239581     
   4567751896.2957840        18547087.763793945        348224800.37866801     
   4431528537.7855520        18892995.735074520        346833637.69885486     
   4296122057.2017260        21961830.127688885        348437294.48842293     
   4161532454.5443115        27753590.941687346        353035770.74736273     
   4027759729.8132968        36268278.177029848        360629066.47568083     
   4261531964.0475621        73228364.372461081        519480188.90843433     
   4129506718.2438498        59437953.096534014        516550901.81851596     
   3999436774.0021362        52165213.693937063        517118340.24436724     
   3871322131.3224254        51410146.164678812        521182504.18597311     
   3745162790.2047148        57172750.508756638        528743393.64334732     
   3945580082.8425756        124990056.29409909        684150053.49980509     
   3819186967.0207682        97493530.953581572        681010802.90798438     
   3695887576.3965559        80309422.938375950        681870183.87830901     
   3575681910.9699392        73437732.248501778        686728196.41077685     
   3458569970.7409201        76878458.883932948        695584840.50539124     
   4580965969.4647799       -9136958.3561549187        20581771.223506283     
   4358648453.6813574       -19391271.464566469        8228688.0245235469     
   4136289088.1359997       -29785083.779434204        993801.08850321255     
   3913887872.8287001       -40318395.300767660       -1122889.5845393473     
   3691444807.7594619       -50991206.028572321        1878616.0053779327     
   4306360789.5666494        14165041.888719320        191241859.00239581     
   4097584399.9553018        4524490.9280221462        177407008.64518067     
   3888674454.9275055       -5561244.7541821003        168728575.50788689     
   3679630954.4832773       -16092165.157819510        165206559.59052733     
   3470453898.6226020       -27068270.282948256        166840960.89308020     
   4027759729.8132968        36268278.177029848        360629066.47568083     
   3832633669.1081834        27274250.184249878        345205459.02997440     
   3637282347.3321276        17529351.955011606        334976489.76115030     
   3441705764.4851317        7033583.4892921448        329942158.66921359     
   3245903920.5671988       -4213055.2128771544        330102465.75416118     
   3745162790.2047148        57172750.508756638        528743393.64334732     
   3563796261.1400156        48858006.304196835        511624039.17889810     
   3382112765.3498688        39486706.348140717        499737543.84829503     
   3200112302.8342824        29058850.640622616        493083907.65153867     
   3017794873.5932422        17574439.181603193        491663130.58862251     
   3458569970.7409201        76878458.883932948        695584840.50539124     
   3291072176.0507941        69275759.287809491        676662749.09195781     
   3123165708.9807239        60310818.425205946        663011737.76931942     
   2954850569.5307074        49983636.296107411        654631806.53749168     
   2786126757.7007494        38294212.900548935        651522955.39646292     
   3691444807.7594619       -50991206.028572321        1878616.0053779327     
   3532237064.3481646       -42796265.766901016        334598.36324198567     
   3373003360.4737787       -34687860.382181883        2378993.3072056072     
   3213743696.1363511       -26665989.874274492        8011800.8372284453     
   3054458071.3358440       -18730654.243298769        17233020.953347009     
   3470453898.6226020       -27068270.282948256        166840960.89308020     
   3319795538.5032248       -20739115.189902067        163932839.62706229     
   3169105668.8524594       -14514991.868167758        164443320.26921073     
   3018384289.6702952       -8395900.3177537918        168372402.81949547     
   2867631400.9567342       -2381840.5386623144        175720087.27795297     
   3245903920.5671988       -4213055.2128771544        330102465.75416118     
   3103309770.3742585        104762.70191562176        325823766.95120049     
   2960678561.5815959        4299051.9509710073        324793859.37847972     
   2818010294.1892114        8369812.5342721939        327012743.03598946     
   2675304968.1971002        12317044.451830387        332480417.92372721     
   3017794873.5932422        17574439.181603193        491663130.58862251     
   2882779759.9612474        19735367.908519864        486007380.33567327     
   2747722038.6611881        21754271.075225711        483430610.63503414     
   2612621709.6930838        23631148.681778312        483932821.48670894     
   2477478773.0569210        25366000.728139520        487514012.89068413     
   2786126757.7007494        38294212.900548935        651522955.39646292     
   2658205507.2641859        38152700.429882407        644483679.78047550     
   2530236100.0912495        37850665.504643202        640353574.03886378     
   2402218536.1819258        37388108.124777317        639132638.17165542     
   2274152815.5362201        36765028.290305495        640820872.17882407     
   3054458071.3358440       -18730654.243298769        17233020.953347009     
   2887958533.3066096       -13265456.964782119        10338474.897483211     
   2721283220.9818349       -8386174.0047113895        4914047.0215954715     
   2554432134.3615518       -4092805.3630079031        959737.32570941141     
   2387405273.4457307       -385351.03977453709       -1524454.1901903420     
   2867631400.9567342       -2381840.5386623144        175720087.27795297     
   2704470107.5795484       -176448.37164056301        166973290.21412984     
   2541283524.0329094        1944643.2305275202        160076518.18994099     
   2378071650.3167858        3981434.2677633762        155029771.20536849     
   2214834486.4312215        5933924.7401739359        151833049.26042259     
   2675304968.1971002        12317044.451830387        332480417.92372721     
   2516567367.6423535        11588265.958494544        322056934.66570473     
   2357954961.0442047        11276800.653821230        313863383.30692160     
   2199467748.4026465        11382648.537776113        307899763.84740728     
   2041105729.7176766        11905809.610365033        304166076.28715283     
   2477478773.0569210        25366000.728139520        487514012.89068413     
   2324250313.4949980        22028686.025571227        475589408.25217938     
   2171297532.0157299        19610298.265176177        466274642.37255651     
   2018620428.6191058        18110837.446941733        459569715.25182474     
   1866219003.3051372        17530303.570874333        455474626.88998270     
   2274152815.5362201        36765028.290305495        640820872.17882407     
   2127518945.1374893        31144811.829592109        627570710.97356498     
   1981311236.9474826        26945136.064614534        617310295.38683414     
   1835529690.9661734        24166000.995290160        610039625.41862011     
   1690174307.1935701        22807406.621675432        605758701.06893945     
   2387405273.4457307       -385351.03977453709       -1524454.1901903420     
   2246288164.0406289        6184167.2115892172       -7053127.8632469410     
   2102108898.2551799        2546497.5284494162       -10916282.645431122     
   1954867476.0893605       -11298360.089246273       -13113918.536783880     
   1804563897.5431733       -35350405.641513109       -13646035.537274469     
   2214834486.4312215        5933924.7401739359        151833049.26042259     
   2077081706.4730482        12390145.487694740        142560805.77948684     
   1937282842.0229952        12026084.595610023        134237134.71390784     
   1795437893.0810657        4841742.0639456511        126862036.06369008     
   1651546859.6472623       -9162882.1073325872        120435509.82883292     
   2041105729.7176766        11905809.610365033        304166076.28715283     
   1904668860.7050171        17634207.303635359        292335680.20156002     
   1767201979.0889642        19929229.652254939        280736910.05583072     
   1628705084.8694837        18790876.656124234        269369765.84996271     
   1489178178.0466173        14219148.315367699        258234247.58395880     
   1866219003.3051372        17530303.570874333        455474626.88998270     
   1729049626.7365644        21916352.659464240        442271495.40296584     
   1591866309.4530759        26255932.698310137        428583043.38030434     
   1454669051.4546530        30549043.687395096        414409270.82201159     
   1317457852.7412977        34795685.626688957        399750177.72808653     
   1690174307.1935701        22807406.621675432        605758701.06893945     
   1550224004.5676742        25236581.555155337        592368251.38371420     
   1411275833.1153326        31006193.733817339        577775534.68734610     
   1273329792.8365345        40116243.157628417        561980550.97985828     
   1136385883.7312891        52566729.826617002        544983300.26123011     
   1804563897.5431733       -35350405.641513109       -13646035.537274469     
   1773042758.8353477       -16285555.864157677       -8337263.6957312040     
   1749517071.0429049        29430796.964507818       -41660174.432456285     
   1733986834.1658204        101798652.84435093       -113614767.74742281     
   1726452048.2041459        200818011.77556241       -224201043.64061415     
   1651546859.6472623       -9162882.1073325872        120435509.82883292     
   1528596604.6164691       -13730932.482109785        135735487.42606282     
   1409772218.8746843       -4546085.2268704176        124790804.31129262     
   1295073702.4219210        18391659.658422709        87601460.484512672     
   1184501055.2581592        55082302.173743784        24167455.945754379     
   1489178178.0466173        14219148.315367699        258234247.58395880     
   1310190297.7392843       -3364354.8976038694        279010919.03945184     
   1131458705.0945981       -20093565.901745260        285929951.64917970     
   952983400.11252415       -35968484.697182298        278991345.41315323     
   774764382.79309475       -50989111.283804774        258195100.33136794     
   1317457852.7412977        34795685.626688957        399750177.72808653     
   1117823838.2038183        14814176.889449358        421489031.14441663     
   914576529.70259333       -17211645.060253859        441757267.58121938     
   707715927.23762536       -61281780.222450852        460554887.03849691     
   497242030.80891955       -117396228.59709650        477881889.51626599     
   1136385883.7312891        52566729.826617002        544983300.26123011     
   951497226.01005518        40804662.879016757        563169823.74094820     
   759125692.69871211        4099677.2977029979        592272752.10737991     
   559271283.79724479       -57548226.917350173        632292085.36053801     
   351933999.30566251       -144139049.76611945        683227823.50042248     
   1726452048.2041459        200818011.77556241       -224201043.64061415     
   1456172981.9833853        184401915.67006880       -96567118.713102132     
   1153758571.9072752        60868006.713443995        60169875.151549183     
   819208817.97579587       -169783715.09441715        246009937.95333341     
   452523720.18898714       -507553249.75339854        460953069.69223386     
   1184501055.2581592        55082302.173743784        24167455.945754379     
   977506736.23006177        11774670.774397492        155621117.24158633     
   732712851.85450494       -157531511.78311405        312858023.27784252     
   450119402.13148606       -452836245.49887156        495878174.05451655     
   129726387.06098616       -874139530.37285423        704681569.57161224     
   774764382.79309475       -50989111.283804774        258195100.33136794     
   621569598.96707106       -124033841.57413405        386860239.58806175     
   424911028.30146909       -341957861.32972682        537988799.38845515     
   184788670.79628968       -704761170.55057919        711580779.73258102     
  -98797473.548482239       -1212443769.2367234        907636180.62040722     
   497242030.80891955       -117396228.59709650        477881889.51626599     
   388361570.19438225       -223023621.37559488        597150248.32633567     
   230353101.24814886       -492411041.92642391        735562203.48341095     
   23216623.970218360       -925558490.24956894        893117754.98750710     
  -233047861.63941035       -1522465966.3450439        1069816902.8385918     
   351933999.30566251       -144139049.76611945        683227823.50042248     
   277882649.91200650       -285194668.62998188        786491143.45640433     
   149039070.69455457       -608891053.57319176        905578235.56269205     
  -34596738.346732259       -1115228204.5958261        1040489099.8192825     
  -273024777.21182019       -1804206121.6978087        1191223736.2261648     
   4667011552.3535614        539859474.20697832        700623128.77155352     
   4472970902.4458342        390532844.62884212        693575319.17739964     
   4288052107.5580997        271612398.45064735        688480536.76739240     
   4112255167.6903496        183098135.67240810        685338781.54152477     
   3945580082.8425756        124990056.29409909        684150053.49980509     
   4230937187.5188932        286658170.30789375        768283352.55090034     
   4065082499.2306433        208757550.75683665        766773478.27043319     
   3903626708.4514847        145519922.90273476        768509160.35301471     
   3746569815.1814094        96945286.745577335        773490398.79864252     
   3593911819.4204206        63033642.285370827        781717193.60732174     
   3786304437.2050214        30889350.765053034        862917950.85566664     
   3652328651.0474043        25522623.394423485        861435894.79283905     
   3518028804.8879757        19075696.017745018        864491924.27196348     
   3383404898.7267303        11548568.635021448        872086039.29303896     
   3248456932.5636744        2941241.2462550402        884218239.85606635     
   3333113301.4119477       -227446984.42155004        984526923.68585813     
   3234709357.8961134       -159171937.45840788        977562568.74462104     
   3131258396.8675642       -107720282.20431745        976428828.52424014     
   3022760418.3263092       -73092018.659253240        981125703.02471244     
   2909215422.2723355       -55287146.823238611        991653192.24604523     
   2871363780.1396651       -488350835.25191724        1133110271.0414727     
   2812224619.7767706       -345326131.80165815        1115153500.1257808     
   2743315484.3902607       -234868011.76344121        1104319873.1098406     
   2664636373.9801445       -156976475.13725233        1100609389.9936652     
   2576187288.5464182       -111651521.92309904        1104022050.7772515     
   3945580082.8425756        124990056.29409909        684150053.49980509     
   3819186967.0207682        97493530.953581572        681010802.90798438     
   3695887576.3965559        80309422.938375950        681870183.87830901     
   3575681910.9699392        73437732.248501778        686728196.41077685     
   3458569970.7409201        76878458.883932948        695584840.50539124     
   3593911819.4204206        63033642.285370827        781717193.60732174     
   3482220044.6988029        50866798.032247066        783514708.37822866     
   3372363394.8166370        44817036.577289343        789084696.79773962     
   3264341869.7739239        44884357.920505285        798427158.86584985     
   3158155469.5706587        51068762.061892986        811542094.58255875     
   3248456932.5636744        2941241.2462550402        884218239.85606635     
   3150820333.4749789        5910228.4403539896        889484152.90520465     
   3053760258.8675828        10800963.905468822        898296381.68939745     
   2957276708.7414947        17613447.641594529        910654926.20864487     
   2861369683.0967078        26347679.648732781        926559786.46294916     
   2909215422.2723355       -55287146.823238611        991653192.24604523     
   2824987833.3492899       -37376177.822096348        998919136.48890555     
   2740078168.5493970       -21738795.077096224        1009505238.5532720     
   2654486427.8726625       -8374998.5882403851        1023411498.4391549     
   2568212611.3190870        2715211.6444749832        1040637916.1465425     
   2576187288.5464182       -111651521.92309904        1104022050.7772515     
   2504722544.3217373       -78992420.755112290        1111819659.1293309     
   2431317123.8620777       -52802240.370397449        1122711267.3893752     
   2355971027.1674199       -33080980.768999696        1136696875.5573876     
   2278684254.2377810       -19828641.950881839        1153776483.6333573     
   3458569970.7409201        76878458.883932948        695584840.50539124     
   3291072176.0507941        69275759.287809491        676662749.09195781     
   3123165708.9807239        60310818.425205946        663011737.76931942     
   2954850569.5307074        49983636.296107411        654631806.53749168     
   2786126757.7007494        38294212.900548935        651522955.39646292     
   3158155469.5706587        51068762.061892986        811542094.58255875     
   3004741662.7477179        45413637.943826914        793397941.10696256     
   2851028133.5423489        38759439.217653036        780367103.86653316     
   2697014881.9545336        31106165.883343458        772449582.86128032     
   2542701907.9842844        22453817.940902114        769645378.09120023     
   2861369683.0967078        26347679.648732781        926559786.46294916     
   2721589110.2677293        22504904.846773386        909320679.25561094     
   2581617765.0538201        18026222.095049977        897037124.42781556     
   2441455647.4549794        12911631.393548131        889709121.97955775     
   2301102757.4712057        7161132.7422778606        887336671.91084623     
   2568212611.3190870        2715211.6444749832        1040637916.1465425     
   2441614518.6108284        549559.99664843082        1024430963.5378976     
   2314934603.5151510       -1888832.9425948858        1013021799.4531603     
   2188172866.0320444       -4599967.1732527018        1006410423.8923272     
   2061329306.1615157       -7583842.6953299046        1004596836.8554068     
   2278684254.2377810       -19828641.950881839        1153776483.6333573     
   2164817887.7770128       -20452396.606558084        1138728793.9538240     
   2050978648.9263289       -20985725.895287275        1128321128.9425652     
   1937166537.6857316       -21428629.817063332        1122553488.5995841     
   1823381554.0552096       -21781108.371922493        1121425872.9248827     
   2786126757.7007494        38294212.900548935        651522955.39646292     
   2658205507.2641859        38152700.429882407        644483679.78047550     
   2530236100.0912495        37850665.504643202        640353574.03886378     
   2402218536.1819258        37388108.124777317        639132638.17165542     
   2274152815.5362201        36765028.290305495        640820872.17882407     
   2542701907.9842844        22453817.940902114        769645378.09120023     
   2423124924.0829315        24023030.607458711        763417986.48055446     
   2303716297.8969798        26153435.658680797        760305308.83709419     
   2184476029.4264274        28845033.094569802        760307345.16082299     
   2065404118.6712775        32097822.915128231        763424095.45174491     
   2301102757.4712057        7161132.7422778606        887336671.91084623     
   2190457308.9416323        10617251.197008014        882173764.49929392     
   2080196732.5792463        15356276.875691652        880331115.14772737     
   1970321028.3840394        21378209.778301835        881808723.85615492     
   1860830196.3560109        28683049.904853821        886606590.62456405     
   2061329306.1615157       -7583842.6953299046        1004596836.8554068     
   1960202661.8402967       -2064637.8014500141        1000751013.8366920     
   1859677404.1380424        5459189.1556504965        1000430992.9707650     
   1759753533.0547485        14987638.175953150        1003636774.2576275     
   1660431048.5904264        26520709.259487450        1010368357.6972783     
   1823381554.0552096       -21781108.371922493        1121425872.9248827     
   1732360982.7789159       -14022636.387928367        1119149734.4927492     
   1642158312.5733702       -3537827.5014295578        1120604942.3062067     
   1552773543.4385719        9673318.2875549197        1125791496.3652575     
   1464206675.3745210        25610800.979024768        1134709396.6698854     
   2274152815.5362201        36765028.290305495        640820872.17882407     
   2127518945.1374893        31144811.829592109        627570710.97356498     
   1981311236.9474826        26945136.064614534        617310295.38683414     
   1835529690.9661734        24166000.995290160        610039625.41862011     
   1690174307.1935701        22807406.621675432        605758701.06893945     
   2065404118.6712775        32097822.915128231        763424095.45174491     
   1928013492.0680892        30356196.293476343        752096078.42709720     
   1790784968.1751337        29154912.039269328        743993444.12533033     
   1653718546.9924090        28493970.152485430        739116192.54644430     
   1516814228.5199139        28373370.633144617        737464323.69043386     
   1860830196.3560109        28683049.904853821        886606590.62456405     
   1733356062.4179461        31021987.783115983        876892648.36564565     
   1605779971.6916370        33021069.700572312        870639725.93395483     
   1478101924.1770813        34680295.657198071        867847823.32949817     
   1350321919.8742824        35999665.653027952        868516940.55227768     
   1660431048.5904264        26520709.259487450        1010368357.6972783     
   1543546656.1870699        33142186.298543155        1001960420.7891923     
   1426296247.4969900        38543609.048537195        997249140.81269526     
   1308679822.5201879        42724977.509444416        996234517.76778769     
   1190697381.2566719        45686291.681304395        998916551.65447342     
   1464206675.3745210        25610800.979024768        1134709396.6698854     
   1358585273.3754556        36716791.839745700        1127299395.6977510     
   1252333795.5911937        45722530.083147347        1123821688.7615590     
   1145452242.0217376        52628015.709226370        1124276275.8613110     
   1037940612.6670895        57433248.718008995        1128663156.9970067     
   1690174307.1935701        22807406.621675432        605758701.06893945     
   1550224004.5676742        25236581.555155337        592368251.38371420     
   1411275833.1153326        31006193.733817339        577775534.68734610     
   1273329792.8365345        40116243.157628417        561980550.97985828     
   1136385883.7312891        52566729.826617002        544983300.26123011     
   1516814228.5199139        28373370.633144617        737464323.69043386     
   1375041521.9609599        27348118.467668593        728081334.04376411     
   1233473216.2828667        27004202.571734667        719295937.71333814     
   1092109311.4856253        27341622.945301712        711108134.69913161     
   950949807.56923783        28360379.588385582        703517925.00115860     
   1350321919.8742824        35999665.653027952        868516940.55227768     
   1211869267.4604609        33062723.812083125        862210725.60269976     
   1072823285.6347959        28148017.264989734        858301964.29670453     
   933183974.39728820        21255546.011753261        856790656.63430548     
   792951333.74794102        12385310.052387297        857676802.61551178     
   1190697381.2566719        45686291.681304395        998916551.65447342     
   1060707241.0661637        42380397.588333189        994756426.06049037     
   929326041.17111361        34437637.813558519        994793614.43746400     
   796553781.57152164        21858012.356972605        999028116.78540039     
   662390462.26739585        4641521.2186044753        1007459933.1042914     
   1037940612.6670895        57433248.718008995        1128663156.9970067     
   921555442.77807510        55301139.796459228        1125718435.4171436     
   802981482.89181769        45873064.217434764        1128770888.1356063     
   682218733.00833249        29149021.980983108        1137820515.1523914     
   559267193.12760258        5129013.0870605409        1152867316.4674985     
   1136385883.7312891        52566729.826617002        544983300.26123011     
   951497226.01005518        40804662.879016757        563169823.74094820     
   759125692.69871211        4099677.2977029979        592272752.10737991     
   559271283.79724479       -57548226.917350173        632292085.36053801     
   351933999.30566251       -144139049.76611945        683227823.50042248     
   950949807.56923783        28360379.588385582        703517925.00115860     
   791721128.64227986        11195473.928843588        721490775.42397356     
   623872943.47219896       -34701119.207783639        749532475.11995018     
   447405252.05897200       -109329399.82156417        787643024.08909833     
   262318054.40262055       -212689367.91241783        835822422.33142424     
   792951333.74794102        12385310.052387297        857676802.61551178     
   656961046.14797759       -10908910.559282720        874109910.88622785     
   511214621.65186387       -66723587.491437614        899764312.81656992     
   355712060.25960082       -155058720.74409461        934640008.40653336     
   190453361.97119749       -275914310.31722724        978736997.65611744     
   662390462.26739585        4641521.2186044753        1007459933.1042914     
   547216978.52713323       -25508490.585384041        1021027230.1277319     
   421150727.23771298       -91967727.553242624        1042968265.1972558     
   284191708.39913487       -194736189.68496001        1073283038.3128483     
   136339922.01139081       -333813876.98055339        1111971549.4745054     
   559267193.12760258        5129013.0870605409        1152867316.4674985     
   462488925.77976954       -32603266.149417937        1162242733.1484895     
   353681260.22975755       -110433539.39315403        1179144332.2619977     
   232844196.47756413       -228361806.64416975        1203572113.8080280     
   99977734.523202896       -386388067.90240055        1235526077.7865973     
   351933999.30566251       -144139049.76611945        683227823.50042248     
   277882649.91200650       -285194668.62998188        786491143.45640433     
   149039070.69455457       -608891053.57319176        905578235.56269205     
  -34596738.346732259       -1115228204.5958261        1040489099.8192825     
  -273024777.21182019       -1804206121.6978087        1191223736.2261648     
   262318054.40262055       -212689367.91241783        835822422.33142424     
   223613182.64302024       -352300641.04363883        885135885.55633783     
   140671111.97749826       -639369243.86127102        945481864.25732863     
   13491842.406060517       -1073895176.3653071        1016860358.4343674     
  -157924626.07131106       -1655878438.5557590        1099271368.0874629     
   190453361.97119749       -275914310.31722724        978736997.65611744     
   173405663.06210214       -418188029.15089208        986414806.88751805     
   122675796.16497952       -672735641.27798831        1000333874.9207338     
   38263761.279830575       -1039557146.6985213        1020494201.7557758     
  -79830441.593356133       -1518652545.4124751        1046895787.3926235     
   136339922.01139081       -333813876.98055339        1111971549.4745054     
   127260091.16925889       -482856832.95174122        1090327907.4499295     
   95053123.257000953       -708990245.82334375        1070134267.5529275     
   39719018.274597943       -1012214115.5954297        1051390629.7834957     
  -38742223.777937710       -1392528442.2679522        1034096994.1416548     
   99977734.523202896       -386388067.90240055        1235526077.7865973     
   85176466.964498311       -546307052.44613218        1196875187.2435691     
   57803093.253557771       -748133057.49733365        1154883042.1538889     
   17857613.390363216       -991866083.05603755        1109549642.5175371     
  -34659972.625068903       -1277506129.1221943        1060874988.3345420     
   2871363780.1396651       -488350835.25191724        1133110271.0414727     
   2812224619.7767706       -345326131.80165815        1115153500.1257808     
   2743315484.3902607       -234868011.76344121        1104319873.1098406     
   2664636373.9801445       -156976475.13725233        1100609389.9936652     
   2576187288.5464182       -111651521.92309904        1104022050.7772515     
   2548601633.7667403       -281504591.83400667        1256607141.5437303     
   2485037842.1482286       -210685591.66433215        1232046368.8421466     
   2417397783.1786270       -153454149.33163512        1213621744.3397048     
   2345681456.8579311       -109810264.83591008        1201333268.0363903     
   2269888863.1861434       -79753938.177163601        1195180939.9322069     
   2231457975.3452659       -72972802.030664563        1349521792.6073179     
   2160649564.7550621       -75205501.456389546        1324999677.0711231     
   2091458594.4862857       -72046733.144036174        1305626714.0334353     
   2023885064.5389321       -63496497.093603611        1291402903.4942534     
   1957928974.9129977       -49554793.305094481        1282328245.4535718     
   1919932804.8752432        137244534.15811485        1411854224.2322319     
   1839059787.5972657        61114138.822160602        1394013424.8126960     
   1765497918.3132362        9354236.7993494272        1380334782.1910362     
   1699247197.0231402       -18035171.910333395        1370818296.3672535     
   1640307623.7269852       -21054087.306886077        1365463967.3413432     
   1614026122.3566709        349147416.73232937        1443604436.4184787     
   1520268510.6748455        198273329.17132843        1439087612.0668669     
   1439515754.6594746        90748760.498517275        1437745948.8125033     
   1371767854.3105631        26573710.713901281        1439579446.6553895     
   1317024809.6281075        5748179.8174692392        1444588105.5955234     
   2576187288.5464182       -111651521.92309904        1104022050.7772515     
   2504722544.3217373       -78992420.755112290        1111819659.1293309     
   2431317123.8620777       -52802240.370397449        1122711267.3893752     
   2355971027.1674199       -33080980.768999696        1136696875.5573876     
   2278684254.2377810       -19828641.950881839        1153776483.6333573     
   2269888863.1861434       -79753938.177163601        1195180939.9322069     
   2204509497.5666604       -54950170.717271090        1199173971.3424017     
   2137683414.0579143       -34968796.221581817        1206566832.6274214     
   2069410612.6599123       -19809814.690081954        1217359523.7872612     
   1999691093.3726511       -9473226.1227889061        1231552044.8219252     
   1957928974.9129977       -49554793.305094481        1282328245.4535718     
   1899508787.8040223       -32344219.581704617        1283092984.6585634     
   1840135841.1515164       -18309511.003413558        1287563383.7052369     
   1779810134.9554751       -7450667.5702463388        1295739442.5935938     
   1718531669.2159002        232310.71781754494        1307621161.3236325     
   1640307623.7269852       -21054087.306886077        1365463967.3413432     
   1589720415.0338321       -11174567.348397136        1363576699.0778131     
   1538674405.1428707       -2824384.7159295082        1365700920.6228247     
   1487169594.0541024        3996460.5905137062        1371836631.9763765     
   1435205981.7675319        9287968.5709488392        1381983833.1384671     
   1317024809.6281075        5748179.8174692392        1444588105.5955234     
   1275144379.2560830        8558785.9826360345        1440625114.6001537     
   1233299106.0319817        11486582.640879810        1440979443.3801818     
   1191488989.9557986        14531569.792184770        1445651091.9356120     
   1149714031.0275414        17693747.436576784        1454640060.2664416     
   2278684254.2377810       -19828641.950881839        1153776483.6333573     
   2164817887.7770128       -20452396.606558084        1138728793.9538240     
   2050978648.9263289       -20985725.895287275        1128321128.9425652     
   1937166537.6857316       -21428629.817063332        1122553488.5995841     
   1823381554.0552096       -21781108.371922493        1121425872.9248827     
   1999691093.3726511       -9473226.1227889061        1231552044.8219252     
   1898078048.5216804       -10759362.500679731        1215964869.5493772     
   1796556995.8834467       -11738858.169457316        1205316158.9366004     
   1695127935.4579482       -12411713.129112720        1199605912.9835987     
   1593790867.2451777       -12777927.379676878        1198834131.6903648     
   1718531669.2159002        232310.71781754494        1307621161.3236325     
   1630024631.6647129       -1460401.6752917767        1291570175.8278337     
   1541674450.9289079       -2630258.0171251297        1280756094.9833002     
   1453481127.0084908       -3277258.3076646328        1275178918.7900295     
   1365444659.9034603       -3401402.5469204783        1274838647.2480257     
   1435205981.7675319        9287968.5709488392        1381983833.1384671     
   1360657637.2061024        7444485.8695997596        1365544712.7891808     
   1286331014.0627093        6340074.5617061853        1354640937.0826523     
   1212226112.3373580        5974734.6472876668        1349272506.0188806     
   1138342932.0300462        6348466.1263254881        1349439419.5978661     
   1149714031.0275414        17693747.436576784        1454640060.2664416     
   1089977065.1458588        15955300.134006321        1437888480.4334290     
   1030526685.2848594        15172139.567050338        1426970685.2346613     
   971362891.44455254        15344265.735733569        1421886674.6701491     
   912485683.62493610        16471678.640052617        1422636448.7398834     
   1823381554.0552096       -21781108.371922493        1121425872.9248827     
   1732360982.7789159       -14022636.387928367        1119149734.4927492     
   1642158312.5733702       -3537827.5014295578        1120604942.3062067     
   1552773543.4385719        9673318.2875549197        1125791496.3652575     
   1464206675.3745210        25610800.979024768        1134709396.6698854     
   1593790867.2451777       -12777927.379676878        1198834131.6903648     
   1512429380.3847408       -6109694.3461685181        1197927172.8063047     
   1431662784.5280716        2541508.6998973489        1200970526.2158873     
   1351491079.6751747        13175681.758535802        1207964191.9191217     
   1271914265.8260379        25792824.829712033        1218908169.9159977     
   1365444659.9034603       -3401402.5469204783        1274838647.2480257     
   1294367874.7390397        2364276.7201335430        1275040689.5005617     
   1223662970.5114105        9369559.1098197699        1279412010.0947990     
   1153329947.2205715        17614444.622148573        1287952609.0307374     
   1083368804.8665252        27098933.257107198        1300662486.3083811     
   1138342932.0300462        6348466.1263254881        1349439419.5978661     
   1078176465.8418067        11399276.810969293        1350490284.5755236     
   1018158870.5233810        16946323.728332818        1355929393.9429379     
   958290146.07476950        22989606.878404915        1365756747.7001143     
   898570292.49596930        29529126.261184335        1379972345.8470428     
   912485683.62493610        16471678.640052617        1422636448.7398834     
   863855153.69304705        20995305.926363826        1424275958.0311830     
   815150484.56398463        25271802.555425137        1430522677.7603030     
   766371676.23776746        29301168.527306795        1441376607.9272387     
   717518728.71437693        33083403.841943890        1456837748.5319917     
   1464206675.3745210        25610800.979024768        1134709396.6698854     
   1358585273.3754556        36716791.839745700        1127299395.6977510     
   1252333795.5911937        45722530.083147347        1123821688.7615590     
   1145452242.0217376        52628015.709226370        1124276275.8613110     
   1037940612.6670895        57433248.718008995        1128663156.9970067     
   1271914265.8260379        25792824.829712033        1218908169.9159977     
   1176120841.1153789        33658059.622166634        1212360157.9879000     
   1079807080.3326342        39788840.840996563        1210187701.3383908     
   982972983.47780848        44185168.486222744        1212390799.9674623     
   885618550.55089092        46847042.557815433        1218969453.8751192     
   1083368804.8665252        27098933.257107198        1300662486.3083811     
   998669818.13752258        32103350.189265251        1295104493.0896239     
   913560235.04954350        35739112.591499746        1294365316.3920858     
   828040055.60258925        38006220.463815480        1298444956.2157710     
   742109279.79666221        38904673.806226104        1307343412.5606711     
   898570292.49596930        29529126.261184335        1379972345.8470428     
   826232204.44187701        32052663.541018099        1375532401.0029211     
   753593259.74191618        33573345.334635317        1376354533.9226539     
   680653458.39609468        34091171.642040610        1382438744.6062469     
   607412800.40440726        33606142.463232219        1393785033.0536945     
   717518728.71437693        33083403.841943890        1456837748.5319917     
   658808000.02844608        33505999.677445292        1453643881.7277901     
   599906154.40975487        33291539.070408970        1456155353.9300895     
   540813191.85830951        32440022.020858169        1464372165.1388872     
   481529112.37411630        30951448.528814211        1478294315.3541808     
   1037940612.6670895        57433248.718008995        1128663156.9970067     
   921555442.77807510        55301139.796459228        1125718435.4171436     
   802981482.89181769        45873064.217434764        1128770888.1356063     
   682218733.00833249        29149021.980983108        1137820515.1523914     
   559267193.12760258        5129013.0870605409        1152867316.4674985     
   885618550.55089092        46847042.557815433        1218969453.8751192     
   784552879.42773485        44288252.641440988        1216500389.6205680     
   681299439.41241968        34436899.751200229        1219916845.7325437     
   575858230.50494814        17292983.887107253        1229218822.2110596     
   468229252.70531487       -7143494.9508660436        1244406319.0561020     
   742109279.79666221        38904673.806226104        1307343412.5606711     
   656044096.20567942        35823499.524934798        1305351196.9206991     
   567792164.82760620        25453165.953348488        1309132847.7154546     
   477353485.66245717        7793673.0915062726        1318688364.9449508     
   384728058.71021831       -17154979.060635328        1334017748.6091831     
   607412800.40440726        33606142.463232219        1393785033.0536945     
   536029093.11189467        29906880.446896523        1392270857.3175471     
   462459659.13736969        18921862.823856115        1396418894.0843341     
   386704498.48084557        651089.59415236115        1406229143.3540611     
   308763611.14231801       -24905439.242239073        1421701605.1267395     
   481529112.37411630        30951448.528814211        1478294315.3541808     
   424507870.14638734        26538395.407348126        1477259370.8111048     
   365301922.34172362        14842990.362765864        1481774984.8391805     
   303911268.96013296       -4134766.6049073189        1491841157.4384117     
   240335910.00160575       -30394875.495699689        1507457888.6087892     
   559267193.12760258        5129013.0870605409        1152867316.4674985     
   462488925.77976954       -32603266.149417937        1162242733.1484895     
   353681260.22975755       -110433539.39315403        1179144332.2619977     
   232844196.47756413       -228361806.64416975        1203572113.8080280     
   99977734.523202896       -386388067.90240055        1235526077.7865973     
   468229252.70531487       -7143494.9508660436        1244406319.0561020     
   390535780.83526355       -41347482.860828087        1242874828.4420669     
   302668653.12053603       -109463656.91971932        1247683546.2261567     
   204627869.56111977       -211492017.12757134        1258832472.4083538     
   96413430.157033026       -347432563.48432499        1276321606.9886703     
   384728058.71021831       -17154979.060635328        1334017748.6091831     
   322730885.07678902       -48847224.816423863        1323744383.4505439     
   252415797.95617676       -108265848.86283343        1318625252.6556153     
   173782797.34837982       -195410851.19985521        1318660356.2243910     
   86831883.253390297       -310282231.82751465        1323849694.1568813     
   308763611.14231801       -24905439.242239073        1421701605.1267395     
   259074238.50435078       -55102492.016197845        1404851398.1739073     
   202922694.73668569       -106840115.22248664        1391969451.5503783     
   140308979.83933944       -180118308.86104575        1383055765.2561467     
   71233093.812290773       -274937072.93194300        1378110339.2912140     
   240335910.00160575       -30394875.495699689        1507457888.6087892     
   199565841.11793241       -60113284.460189253        1486195872.6121700     
   154189343.46206176       -105186455.99866974        1467716142.9104400     
   104206417.03400184       -165614390.11111462        1452018699.5036077     
   49617061.833730906       -241397086.79759613        1439103542.3916698     
   99977734.523202896       -386388067.90240055        1235526077.7865973     
   85176466.964498311       -546307052.44613218        1196875187.2435691     
   57803093.253557771       -748133057.49733365        1154883042.1538889     
   17857613.390363216       -991866083.05603755        1109549642.5175371     
  -34659972.625068903       -1277506129.1221943        1060874988.3345420     
   96413430.157033026       -347432563.48432499        1276321606.9886703     
   79577757.903486758       -488632417.13629401        1221997962.6288722     
   51373145.380098015       -667728738.35439336        1165130846.6908193     
   11799592.586872578       -884721527.13863873        1105720259.1745346     
  -39142900.476203799       -1139610783.4890289        1043766200.0800054     
   86831883.253390297       -310282231.82751465        1323849694.1568813     
   70241186.214779168       -432079140.61476117        1255256989.5097561     
   43484714.788722754       -587761964.02682662        1184918596.2528107     
   6562468.9752194583       -777330702.06369853        1112834514.3860314     
  -40525551.225716174       -1000785354.7253765        1039004743.9094543     
   71233093.812290773       -274937072.93194300        1378110339.2912140     
   57166751.898376942       -376647222.88155180        1296652267.8862383     
   34137801.479420990       -508232734.51463169        1214246290.8398626     
   2146242.5554213226       -669693607.83120346        1130892408.1520717     
  -38807924.873627454       -861029842.83124399        1046590619.8228877     
   49617061.833730906       -241397086.79759613        1439103542.3916698     
   40354454.954290673       -322336663.93662101        1346183797.7583098     
   23332405.452196449       -429141049.81782037        1253113930.4519622     
  -1449086.6725330651       -561810244.44114697        1159893940.4726307     
  -33990021.419909775       -720344247.80662274        1066523827.8203247     
   1614026122.3566709        349147416.73232937        1443604436.4184787     
   1520268510.6748455        198273329.17132843        1439087612.0668669     
   1439515754.6594746        90748760.498517275        1437745948.8125033     
   1371767854.3105631        26573710.713901281        1439579446.6553895     
   1317024809.6281075        5748179.8174692392        1444588105.5955234     
   1205245309.5331144        218511803.69084212        1422504943.5902305     
   1140622525.3240831        133882951.38134673        1427813316.8837259     
   1082694443.5425391        71569773.830140591        1437070572.8471601     
   1031461064.1884825        31572271.037225187        1450276711.4805346     
   986922387.26191771        13890443.002617538        1467431732.7838473     
   790598576.62563860        86116414.624182433        1427203599.2576597     
   757321252.95422792        68395987.485628039        1434975324.7507994     
   724428478.47133791        51957390.975474715        1447469654.4865692     
   691920253.17696965        36800625.093726277        1464686588.4649694     
   659796577.07112229        22925689.840380818        1486626126.6859984     
   370085923.63423771       -48038750.467655629        1457700403.4207633     
   370364693.56527948        1812437.4841826409        1460573635.6680861     
   364717859.44587541        31911611.934535161        1468943193.7307284     
   353145421.27602559        42258772.883401245        1482809077.6086943     
   335647379.05572701        32853920.330772445        1502171287.3019733     
  -56292649.441084579       -183953691.58467177        1513995356.0795474     
  -20247152.842759062       -65867698.622983135        1504608249.6355913     
   3562586.4661502712        11432436.707316831        1501491190.5796435     
   15136568.485643094        47946714.406230509        1504644178.9117084     
   14474793.215724671        43675134.473771974        1514067214.6317816     
   1317024809.6281075        5748179.8174692392        1444588105.5955234     
   1275144379.2560830        8558785.9826360345        1440625114.6001537     
   1233299106.0319817        11486582.640879810        1440979443.3801818     
   1191488989.9557986        14531569.792184770        1445651091.9356120     
   1149714031.0275414        17693747.436576784        1454640060.2664416     
   986922387.26191771        13890443.002617538        1467431732.7838473     
   954297721.83593392        10840980.338148713        1464797712.1107068     
   922269449.75387657        9779495.4867649674        1466318514.4274962     
   890837571.01574242        10705988.448460758        1471994139.7342141     
   860002085.62153304        13620459.223237097        1481824588.0308661     
   659796577.07112229        22925689.840380818        1486626126.6859984     
   635963400.06126916        13876875.387313426        1485975851.8970878     
   613287852.59134030        8686826.0673272312        1489317903.3126395     
   591769934.66133761        7355541.8804287910        1496652280.9326491     
   571409646.27126002        9883022.8266130388        1507978984.7571239     
   335647379.05572701        32853920.330772445        1502171287.3019733     
   320141413.93208462        17666471.130118862        1504159533.9592998     
   306354314.54436928        8208574.3825541735        1509977610.0356157     
   294286080.89258623        4480230.0880978853        1519625515.5309219     
   283936712.97672355        6481438.2467091084        1533103250.4452202     
   14474793.215724671        43675134.473771974        1514067214.6317816     
   6831763.4483822901        22209767.566570636        1519348758.2973425     
   1468835.6129643056        8344740.4324492300        1528297634.5964243     
  -1613990.2905180748        2080053.0714465049        1540913843.5290267     
  -2416714.2620750526        3415705.4835298401        1557197385.0951500     
   1149714031.0275414        17693747.436576784        1454640060.2664416     
   1089977065.1458588        15955300.134006321        1437888480.4334290     
   1030526685.2848594        15172139.567050338        1426970685.2346613     
   971362891.44455254        15344265.735733569        1421886674.6701491     
   912485683.62493610        16471678.640052617        1422636448.7398834     
   860002085.62153304        13620459.223237097        1481824588.0308661     
   815899025.91810226        13542278.339189142        1465651655.4701838     
   771850751.31071234        13646714.441941291        1455287881.5465546     
   727857261.79936457        13933767.531502277        1450733266.2599759     
   683918557.38406014        14403437.607874125        1451987809.6104541     
   571409646.27126002        9883022.8266130388        1507978984.7571239     
   542870132.75409114        11444000.363506377        1492114265.0566878     
   514153603.40831304        12414925.138369083        1482034077.9961026     
   485260058.23392946        12795797.151213288        1477738423.5753744     
   456189497.23093903        12586616.402033776        1479227301.7944992     
   283936712.97672355        6481438.2467091084        1533103250.4452202     
   270890385.65381664        9660466.2069358975        1517276309.1929390     
   257435241.57765585        11476771.656314954        1507209274.5833092     
   243571280.74823740        11930354.594835669        1502902146.6163378     
   229298503.16556886        11021215.022522904        1504354925.2920194     
  -2416714.2620750526        3415705.4835298401        1557197385.0951500     
  -40215.382714951411        8191675.8694948992        1541137787.8789344     
   1695665.8187422808        10832253.995783033        1530813471.3081737     
   2790929.3422914045        11337439.862377474        1526224435.3828716     
   3245575.1879455741        9707233.4693227597        1527370680.1030240     
   912485683.62493610        16471678.640052617        1422636448.7398834     
   863855153.69304705        20995305.926363826        1424275958.0311830     
   815150484.56398463        25271802.555425137        1430522677.7603030     
   766371676.23776746        29301168.527306795        1441376607.9272387     
   717518728.71437693        33083403.841943890        1456837748.5319917     
   683918557.38406014        14403437.607874125        1451987809.6104541     
   646799408.56680679        16956797.074477971        1453907565.8228545     
   609650412.70460272        19410666.391248643        1460529697.3363190     
   572471569.79744744        21765045.558181852        1471854204.1508477     
   535262879.84533948        24019934.575269818        1487881086.2664397     
   456189497.23093903        12586616.402033776        1479227301.7944992     
   430853629.13759696        13251277.931716174        1481478979.1055870     
   405532206.15151763        13964089.818941623        1488528196.5809832     
   380225228.27270627        14725052.063724160        1500374954.2206900     
   354932695.50115812        15534164.666052610        1517019252.0247059     
   229298503.16556886        11021215.022522904        1504354925.2920194     
   216017815.40541154        9878748.4980542064        1506990197.8793821     
   202795864.90473598        8932072.8385254219        1514518175.4942958     
   189632651.66354436        8181188.0439434275        1526938858.1367710     
   176528175.68183452        7626094.1142993867        1544252245.8068011     
   3245575.1879455741        9707233.4693227597        1527370680.1030240     
   2291967.3702551681        6839208.7735076221        1530441222.1442366     
   1441388.9642625190        4314615.4500183417        1538499634.0762560     
   693839.96996163367        2133453.4988356335        1551545915.8990777     
   49320.387361707864        295722.91998806997        1569580067.6127071     
   717518728.71437693        33083403.841943890        1456837748.5319917     
   658808000.02844608        33505999.677445292        1453643881.7277901     
   599906154.40975487        33291539.070408970        1456155353.9300895     
   540813191.85830951        32440022.020858169        1464372165.1388872     
   481529112.37411630        30951448.528814211        1478294315.3541808     
   535262879.84533948        24019934.575269818        1487881086.2664397     
   491249790.50537008        24040823.825039059        1485186970.2346566     
   447139506.48444200        23737730.804944828        1488186093.1361229     
   402932027.78255463        23110655.514988139        1496878454.9708488     
   358627354.39970928        22159597.955169037        1511264055.7388299     
   354932695.50115812        15534164.666052610        1517019252.0247059     
   325582673.86932147        15142975.838752747        1514934462.7257619     
   296229379.80831867        14740878.914231673        1518530812.2868333     
   266872813.31815505        14327873.892508283        1527808300.7079158     
   237512974.39882958        13903960.773578726        1542766927.9890196     
   176528175.68183452        7626094.1142993867        1544252245.8068011     
   161806650.12029499        6812455.7185672224        1542886359.2011230     
   147175774.38138977        6300983.3982831016        1547189511.3822224     
   132635548.46511702        6091677.1534417719        1557161702.3500929     
   118185972.37147985        6184536.9840523899        1572802932.1047411     
   49320.387361707864        295722.91998806997        1569580067.6127071     
  -78280.741707290988       -950736.53550769528        1569042659.6607268     
  -21309.796347750758       -1581955.7429097178        1574162190.4222841     
   220233.22344094620       -1597934.7022148983        1584938659.8973691     
   646348.31765841111       -998673.41342210420        1601372068.0859916     
   481529112.37411630        30951448.528814211        1478294315.3541808     
   424507870.14638734        26538395.407348126        1477259370.8111048     
   365301922.34172362        14842990.362765864        1481774984.8391805     
   303911268.96013296       -4134766.6049073189        1491841157.4384117     
   240335910.00160575       -30394875.495699689        1507457888.6087892     
   358627354.39970928        22159597.955169037        1511264055.7388299     
   316313874.98600972        19146389.306405514        1508558843.3769987     
   272344067.65126890        10612087.587508395        1511293695.1149487     
   226717932.39550158       -3443307.2014795542        1519468610.9526851     
   179435469.21868932       -23019795.060618840        1533083590.8902106     
   237512974.39882958        13903960.773578726        1542766927.9890196     
   209591559.30954361        12195887.050633028        1539007888.4069679     
   180542193.95511979        6727979.1105567887        1540578418.4533360     
   150364878.33555105       -2499763.0466673002        1547478518.1281257     
   119059612.45084459       -15487339.421016477        1559708187.4313383     
   118185972.37147985        6184536.9840523899        1572802932.1047411     
   104340923.11699156        5686888.6400264315        1568606505.9010139     
   89896301.253266007        3190664.9318800308        1569629154.8543508     
   74852106.780295342       -1304134.1404200606        1575870878.9647388     
   59208339.698067755       -7797508.5769070648        1587331678.2321854     
   646348.31765841111       -998673.41342210420        1601372068.0859916     
   561966.40836120234       -380605.92538034526        1597354695.8591416     
   406389.54571180692        145.05148815127905        1598445904.3179851     
   179617.72971342708        143579.51719475456        1604645693.4625134     
  -118349.03963055149        49697.471745892610        1615954063.2927392     
   240335910.00160575       -30394875.495699689        1507457888.6087892     
   199565841.11793241       -60113284.460189253        1486195872.6121700     
   154189343.46206176       -105186455.99866974        1467716142.9104400     
   104206417.03400184       -165614390.11111462        1452018699.5036077     
   49617061.833730906       -241397086.79759613        1439103542.3916698     
   179435469.21868932       -23019795.060618840        1533083590.8902106     
   148252512.29637975       -45512369.336588927        1507376394.4029517     
   113618671.23365523       -79507890.747275442        1484594112.8168080     
   75533946.030515432       -125006359.29267684        1464736746.1317766     
   33998336.686952665       -182007774.97282705        1447804294.3478558     
   119059612.45084459       -15487339.421016477        1559708187.4313383     
   97871277.793384299       -30631825.917416431        1530903945.8571887     
   74387603.627282172       -53427444.109292746        1505167247.7903619     
   48608589.952549100       -83874193.996603444        1482498093.2308750     
   20534236.769178271       -121972075.57937680        1462896482.1787157     
   59208339.698067755       -7797508.5769070648        1587331678.2321854     
   48422137.608944103       -15471654.202686522        1556778526.9748785     
   36496140.642959654       -26945116.084667422        1529435547.8311172     
   23430348.800111033       -42217894.222861387        1505302740.8009124     
   9224762.0804138221       -61289988.617220238        1484380105.8842642     
  -118349.03963055149        49697.471745892610        1615954063.2927392     
  -94908.256937907834       -31854.192379162319        1585000137.7560165     
  -55717.719334112728       -60906.673468433408        1557399012.9390712     
  -777.42679736579885       -37459.971447518190        1533150688.8418894     
   69912.620658905027        38485.913639170612        1512255165.4644814     
   49617061.833730906       -241397086.79759613        1439103542.3916698     
   40354454.954290673       -322336663.93662101        1346183797.7583098     
   23332405.452196449       -429141049.81782037        1253113930.4519622     
  -1449086.6725330651       -561810244.44114697        1159893940.4726307     
  -33990021.419909775       -720344247.80662274        1066523827.8203247     
   33998336.686952665       -182007774.97282705        1447804294.3478558     
   29827352.188596889       -241862102.26519474        1347392291.7291350     
   19835406.292776808       -321119634.21577406        1246181217.4965525     
   4022498.9994997084       -419780370.82455307        1144171071.6500938     
  -17611369.691246152       -537844312.09154749        1041361854.1897604     
   20534236.769178271       -121972075.57937680        1462896482.1787157     
   19600734.820804834       -161297394.97439802        1357253783.0040286     
   14784752.700156003       -213564314.94367471        1250163063.2745759     
   6086290.4072195739       -278772835.48724306        1141624322.9903598     
  -6494652.0580050200       -356922956.60509908        1031637562.1513945     
   9224762.0804138221       -61289988.617220238        1484380105.8842642     
   9674602.8509177864       -80642542.064216435        1375768271.5829716     
   8180444.6743200794       -106475092.00155328        1265059467.7860215     
   4742287.5506234020       -138787638.42922619        1152253694.4934375     
  -639868.52018957585       -177580181.34727827        1037350951.7051915     
   69912.620658905027        38485.913639170612        1512255165.4644814     
   48956.278930756271        102456.46532847098        1402935757.4659653     
   22482.215281025095        148034.61061388440        1290870431.0309079     
  -9509.5702945433077        175220.34947914653        1176059186.1593173     
  -47019.077799380284        184013.68191490119        1058502022.8511907     
  -56292649.441084579       -183953691.58467177        1513995356.0795474     
  -20247152.842759062       -65867698.622983135        1504608249.6355913     
   3562586.4661502712        11432436.707316831        1501491190.5796435     
   15136568.485643094        47946714.406230509        1504644178.9117084     
   14474793.215724671        43675134.473771974        1514067214.6317816     
  -422397345.13176280       -119298171.68698744        1528713755.0087149     
  -385325747.40498054       -48730831.470254675        1509822496.1015942     
  -355293448.81791252       -1627821.7192350477        1496416341.3079615     
  -332300449.37055784        22010857.566073656        1488495290.6278119     
  -316346749.06291723        22185206.385668904        1486059344.0611458     
  -782410320.56217813       -52815135.711222589        1522006085.4979320     
  -746555316.77701306       -30439256.760466218        1499673208.6356347     
  -712543153.98185933       -14206181.109750450        1482040492.6122961     
  -680373832.17671788       -4115908.7590742707        1469107937.4279158     
  -650047351.36158943       -168439.70844164491        1460875543.0824950     
  -1136331575.7323334        15495416.342618585        1493872347.5471957     
  -1103935860.9588573       -10992974.493624568        1474160387.2377095     
  -1068186529.0256902       -26302641.464230299        1458363644.4926503     
  -1029083579.9328371       -30433584.569213271        1446482119.3120289     
  -986627013.68029344       -23385803.808564186        1438515811.6958387     
  -1484161110.6422250        85633484.474540532        1444312541.1565163     
  -1457467379.9505119        9608015.3302788734        1433284031.9078171     
  -1422223573.9494061       -37917202.782676458        1425385796.9490244     
  -1378429692.6389108       -56942169.864331245        1420617836.2801414     
  -1326085736.0190284       -47466885.914696097        1418980149.9011660     
   14474793.215724671        43675134.473771974        1514067214.6317816     
   6831763.4483822901        22209767.566570636        1519348758.2973425     
   1468835.6129643056        8344740.4324492300        1528297634.5964243     
  -1613990.2905180748        2080053.0714465049        1540913843.5290267     
  -2416714.2620750526        3415705.4835298401        1557197385.0951500     
  -316346749.06291723        22185206.385668904        1486059344.0611458     
  -311231367.65983516        10201567.024822220        1492489663.0692868     
  -304949099.76039422        2107549.3185050339        1502878720.9104617     
  -297499945.36458981       -2096846.7332676053        1517226517.5846682     
  -288883904.47242355       -2411621.1304996908        1535533053.0919054     
  -650047351.36158943       -168439.70844164491        1460875543.0824950     
  -631340969.64662302       -2420574.7804981470        1467155886.0917263     
  -612580916.87086380       -4493806.3165791631        1477686374.1334989     
  -593767193.03430724       -6388134.3166687489        1492467007.2078123     
  -574899798.13695788       -8103558.7807833254        1511497785.3146746     
  -986627013.68029344       -23385803.808564186        1438515811.6958387     
  -953497042.51198161       -15656657.849392712        1443347427.3646584     
  -921426615.71844220       -11459326.472795963        1452720594.2655332     
  -890415733.29967535       -10793809.678773522        1466635312.3984637     
  -860464395.25568128       -13660107.467327774        1485091581.7634463     
  -1326085736.0190284       -47466885.914696097        1418980149.9011660     
  -1277699586.2559087       -29506682.181852758        1421064286.8880835     
  -1231486196.3031304       -18789011.150146544        1427981381.3065660     
  -1187445566.1606896       -15313872.819568932        1439731433.1566143     
  -1145577695.8285890       -19081267.190120935        1456314442.4382296     
  -2416714.2620750526        3415705.4835298401        1557197385.0951500     
  -40215.382714951411        8191675.8694948992        1541137787.8789344     
   1695665.8187422808        10832253.995783033        1530813471.3081737     
   2790929.3422914045        11337439.862377474        1526224435.3828716     
   3245575.1879455741        9707233.4693227597        1527370680.1030240     
  -288883904.47242355       -2411621.1304996908        1535533053.0919054     
  -272190841.05861646        839290.52850615978        1518963544.4525399     
  -255911315.15233162        2711743.8291046023        1508023433.7465911     
  -240045326.75356358        3205738.7713139355        1502712720.9740584     
  -224592875.86231983        2321275.3551086336        1503031406.1349444     
  -574899798.13695788       -8103558.7807833254        1511497785.3146746     
  -544192692.22310495       -6468462.4590587318        1494683292.1176074     
  -513672043.64639091       -5454890.5944623649        1483392314.1419158     
  -483337852.40681267       -5062843.1869843602        1477624851.3876004     
  -453190118.50436872       -5292320.2366239130        1477380903.8546619     
  -860464395.25568128       -13660107.467327774        1485091581.7634463     
  -816045768.87618279       -13731583.093205333        1468297030.8741264     
  -771586519.66343832       -13667649.274924308        1456920112.4941394     
  -727086647.61745048       -13468306.012501001        1450960826.6234922     
  -682546152.73820817       -13133553.305898577        1450419173.2621815     
  -1145577695.8285890       -19081267.190120935        1456314442.4382296     
  -1087750071.0178449       -20950071.373913944        1439804760.7221029     
  -1029654743.2034776       -21926532.212297201        1428606828.8032720     
  -971291712.38547087       -22010649.705216587        1422720646.6817367     
  -912660978.56383967       -21202423.852717578        1422146214.3574960     
   3245575.1879455741        9707233.4693227597        1527370680.1030240     
   2291967.3702551681        6839208.7735076221        1530441222.1442366     
   1441388.9642625190        4314615.4500183417        1538499634.0762560     
   693839.96996163367        2133453.4988356335        1551545915.8990777     
   49320.387361707864        295722.91998806997        1569580067.6127071     
  -224592875.86231983        2321275.3551086336        1503031406.1349444     
  -212589735.60463294       -157029.02322061360        1505873210.4726641     
  -200541660.76607269       -2485551.4653065726        1513603938.7504489     
  -188448651.34663874       -4664291.9711473212        1526223590.9683011     
  -176310707.34633216       -6693250.5407437757        1543732167.1262181     
  -453190118.50436872       -5292320.2366239130        1477380903.8546619     
  -428512932.88770515       -7465715.1124040633        1479926193.1862624     
  -403848907.52098745       -9682977.4880053550        1487261460.5071883     
  -379198042.40421474       -11944107.363422960        1499386705.8174424     
  -354560337.53739178       -14249104.738672018        1516301929.1170259     
  -682546152.73820817       -13133553.305898577        1450419173.2621815     
  -645477624.47895944       -15086849.494035453        1452600170.2850330     
  -608480351.30048239       -17277662.618078202        1459472199.3464789     
  -571554333.20276928       -19705992.678002149        1471035260.4465094     
  -534699570.18582362       -22371839.673815250        1487289353.5851352     
  -912660978.56383967       -21202423.852717578        1422146214.3574960     
  -863483810.37839973       -23020432.168125987        1423895141.7689805     
  -814435992.10455728       -25269606.855526656        1430236155.2683163     
  -765517523.74229240       -27949947.914852321        1441169254.8555026     
  -716728405.29162753       -31061455.346176803        1456694440.5305388     
   49320.387361707864        295722.91998806997        1569580067.6127071     
  -78280.741707290988       -950736.53550769528        1569042659.6607268     
  -21309.796347750758       -1581955.7429097178        1574162190.4222841     
   220233.22344094620       -1597934.7022148983        1584938659.8973691     
   646348.31765841111       -998673.41342210420        1601372068.0859916     
  -176310707.34633216       -6693250.5407437757        1543732167.1262181     
  -161678029.85417667       -7659998.3414559886        1542723359.3613904     
  -146883391.96181327       -8086878.1414724812        1547347124.5174866     
  -131926793.66924372       -7973889.9408045784        1557603462.5944960     
  -116808234.97646363       -7321033.7394318432        1573492373.5924315     
  -354560337.53739178       -14249104.738672018        1516301929.1170259     
  -325236997.97434062       -14957025.849707663        1514795341.2527633     
  -295774309.68530297       -15200451.207454979        1518896960.5168035     
  -266172272.67027488       -14979380.811897993        1528606786.9091523     
  -236430886.92925555       -14293814.663042538        1543924820.4298058     
  -534699570.18582362       -22371839.673815250        1487289353.5851352     
  -490755185.10220343       -22841819.060278118        1485258605.3348455     
  -446694062.96681046       -22922674.940829888        1488811698.4202452     
  -402516203.77965462       -22614407.315506101        1497948632.8413386     
  -358221607.54072148       -21917016.184258789        1512669408.5981226     
  -716728405.29162753       -31061455.346176803        1456694440.5305388     
  -658232591.23775578       -31314377.973135531        1454113151.6076319     
  -599642651.80634272       -31253549.341627240        1457091338.2278032     
  -540958586.99737430       -30878969.451599926        1465629000.3910513     
  -482180396.81085515       -30190638.303068683        1479726138.0973787     
   646348.31765841111       -998673.41342210420        1601372068.0859916     
   561966.40836120234       -380605.92538034526        1597354695.8591416     
   406389.54571180692        145.05148815127905        1598445904.3179851     
   179617.72971342708        143579.51719475456        1604645693.4625134     
  -118349.03963055149        49697.471745892610        1615954063.2927392     
  -116808234.97646363       -7321033.7394318432        1573492373.5924315     
  -103239539.52210087       -6107645.1459719539        1569048501.8196464     
  -89156656.316105127       -3180297.3804025128        1569861034.7704258     
  -74559585.358488232        1461009.5572387874        1575929972.4447742     
  -59448326.649241537        7816275.6669770367        1587255314.8426816     
  -236430886.92925555       -14293814.663042538        1543924820.4298058     
  -208786759.71730289       -12358398.645980552        1539737395.6002252     
  -180043062.04874197       -6757747.7735599726        1540954199.5320861     
  -150199793.92357597        2508137.9542101398        1547575232.2253890     
  -119256955.34180678        15439258.537325256        1559600493.6801324     
  -358221607.54072148       -21917016.184258789        1512669408.5981226     
  -316079694.17724663       -19132866.425410837        1509421377.2008905     
  -272252827.65218729       -10732206.127949566        1511725398.6029677     
  -226741007.96554825        3284964.7081128955        1519581472.8043690     
  -179544235.11732411        22918646.082789488        1532989599.8050797     
  -482180396.81085515       -30190638.303068683        1479726138.0973787     
  -425118342.90193290       -26431048.484267220        1478100446.6216311     
  -365785953.12644839       -15103672.443592221        1482174631.9830689     
  -304183227.48440611        3791489.8189445734        1491948694.1817057     
  -240310165.97579905        30254438.303359792        1507422633.2175314     
  -118349.03963055149        49697.471745892610        1615954063.2927392     
  -94908.256937907834       -31854.192379162319        1585000137.7560165     
  -55717.719334112728       -60906.673468433408        1557399012.9390712     
  -777.42679736579885       -37459.971447518190        1533150688.8418894     
   69912.620658905027        38485.913639170612        1512255165.4644814     
  -59448326.649241537        7816275.6669770367        1587255314.8426816     
  -48594199.128935337        15430151.300890926        1556743308.0664072     
  -36582337.021237932        26903142.226108074        1529433930.2228191     
  -23412740.326142862        42235248.442651667        1505327181.3119256     
  -9085409.0436518267        61426469.950514123        1484423061.3337283     
  -119256955.34180678        15439258.537325256        1559600493.6801324     
  -98001203.332689181        30619842.794629097        1530862721.3021874     
  -74445731.903702214        53466158.451497287        1505177406.0698490     
  -48590541.054843530        83978205.507937849        1482544547.9831254     
  -20435630.786117718        122155983.96393584        1462964147.0420153     
  -179544235.11732411        22918646.082789488        1532989599.8050797     
  -148315920.86819196        45537220.288858391        1507358377.4633520     
  -113645902.36671905        79628142.002727002        1484629440.4801476     
  -75534179.612905085        125191411.22439902        1464802788.8554769     
  -33980752.606739022        182227027.95391428        1447878422.5893431     
  -240310165.97579905        30254438.303359792        1507422633.2175314     
  -199538351.73545825        60182283.783532009        1486230276.5499022     
  -154182848.41029400        105389092.87977758        1467790033.4537239     
  -104243656.00030994        165874865.59209257        1452101903.9289989     
  -49720774.505511329        241639601.92045408        1439165887.9757266     
   69912.620658905027        38485.913639170612        1512255165.4644814     
   48956.278930756271        102456.46532847098        1402935757.4659653     
   22482.215281025095        148034.61061388440        1290870431.0309079     
  -9509.5702945433077        175220.34947914653        1176059186.1593173     
  -47019.077799380284        184013.68191490119        1058502022.8511907     
  -9085409.0436518267        61426469.950514123        1484423061.3337283     
  -9582543.7590039372        80866295.982066408        1375790104.1686213     
  -8141186.0355614200        106767763.47627093        1265065423.1188331     
  -4761335.8733196706        139130872.43314111        1152249018.1843700     
   557006.72772505134        177955622.85267854        1037340889.3652219     
  -20435630.786117718        122155983.96393584        1462964147.0420153     
  -19539816.584081262        161532403.66266489        1357285652.5644994     
  -14761499.782532260        213850498.69310278        1250169628.7541547     
  -6100680.3814587891        279110269.05528551        1141616075.6109834     
   6442641.6191320568        357311714.74919361        1031624993.1349847     
  -33980752.606739022        182227027.95391428        1447878422.5893431     
  -29822862.196308404        242100779.50709677        1347422402.6535909     
  -19838459.025634602        321396240.26108849        1246183047.9368720     
  -4027543.0947158933        420113410.21590626        1144160358.4391780     
   17609885.596433252        538252289.37147701        1041354334.1605028     
  -49720774.505511329        241639601.92045408        1439165887.9757266     
  -40431680.595660374        322571423.51544446        1346200354.4359181     
  -23372063.764871061        429404988.18023568        1253105680.6669903     
   1458075.9868958294        562140295.91495132        1159881866.6689386     
   34058738.659626395        720777346.71954119        1066528912.4417768     
  -1484161110.6422250        85633484.474540532        1444312541.1565163     
  -1457467379.9505119        9608015.3302788734        1433284031.9078171     
  -1422223573.9494061       -37917202.782676458        1425385796.9490244     
  -1378429692.6389108       -56942169.864331245        1420617836.2801414     
  -1326085736.0190284       -47466885.914696097        1418980149.9011660     
  -1864188429.4697809        47560652.766021371        1350342758.5925362     
  -1817883177.5582535        6118404.3018430471        1345562569.7959175     
  -1766835505.5618749       -19515777.212817192        1344757149.0292253     
  -1711045413.4806359       -29341891.777953267        1347926496.2924607     
  -1650512901.3145437       -23359939.393572867        1355070611.5856273     
  -2249723982.7675562        7835350.7164347172        1269632479.1329272     
  -2181394370.3790150        1700174.7095001936        1266658346.3597620     
  -2112129993.1301541       -1319118.4296972752        1268503475.3565428     
  -2041930851.0209713       -1222528.7011516094        1275167866.1232762     
  -1970796944.0514648        1989943.8951301575        1286651518.6599555     
  -2640767770.5355530       -33542421.674217582        1202181702.7776783     
  -2548000958.4127922       -3646673.4467511177        1196571361.5993469     
  -2458107036.6542530        16672773.566669703        1196624775.9309795     
  -2371086005.2599182        27415919.366065145        1202341945.7725844     
  -2286937864.2297993        28582763.951406598        1213722871.1241615     
  -3037319792.7737603       -76572664.405933380        1147990429.5267987     
  -2917702941.6595864       -9922140.1668990850        1135301615.5146708     
  -2804766636.1341600        34459898.776301861        1129121050.7525349     
  -2698510876.1974778        56573452.423695445        1129448735.2403889     
  -2598935661.8495445        56418520.775259852        1136284668.9782341     
  -1326085736.0190284       -47466885.914696097        1418980149.9011660     
  -1277699586.2559087       -29506682.181852758        1421064286.8880835     
  -1231486196.3031304       -18789011.150146544        1427981381.3065660     
  -1187445566.1606896       -15313872.819568932        1439731433.1566143     
  -1145577695.8285890       -19081267.190120935        1456314442.4382296     
  -1650512901.3145437       -23359939.393572867        1355070611.5856273     
  -1592622254.5824432       -13300548.278288305        1356178313.3727527     
  -1536263040.0048032       -8345931.0112094879        1361587473.6931217     
  -1481435257.5816236       -8496087.5923290849        1371298092.5467286     
  -1428138907.3129063       -13751018.021654546        1385310169.9335768     
  -1970796944.0514648        1989943.8951301575        1286651518.6599555     
  -1904920368.6313145        3692951.9085757732        1287531000.8458171     
  -1839933897.7097447        2428944.9267506599        1292180442.6665950     
  -1775837531.2867599       -1802077.0503565073        1300599844.1222889     
  -1712631269.3623555       -9000114.0227345228        1312789205.2128952     
  -2286937864.2297993        28582763.951406598        1213722871.1241615     
  -2214593928.4025278        21473818.378740430        1215122349.3072827     
  -2142498769.4179568        13535616.663722754        1219760288.2269928     
  -2070652387.2760911        4768158.8063642979        1227636687.8832917     
  -1999054781.9769306       -4828555.1933473349        1238751548.2761841     
  -2598935661.8495445        56418520.775259852        1136284668.9782341     
  -2521642933.8960781        40042051.132198811        1138952358.7571402     
  -2443957655.1294370        24974084.199721932        1144327010.3743098     
  -2365879825.5496254        11214619.977816820        1152408623.8297448     
  -2287409445.1566362       -1236341.5335023403        1163197199.1234429     
  -1145577695.8285890       -19081267.190120935        1456314442.4382296     
  -1087750071.0178449       -20950071.373913944        1439804760.7221029     
  -1029654743.2034776       -21926532.212297201        1428606828.8032720     
  -971291712.38547087       -22010649.705216587        1422720646.6817367     
  -912660978.56383967       -21202423.852717578        1422146214.3574960     
  -1428138907.3129063       -13751018.021654546        1385310169.9335768     
  -1356441231.2549119       -15442411.987357914        1368423856.9653502     
  -1284502361.2445371       -16329826.111801028        1356854123.5704606     
  -1212322297.2817831       -16413260.394978166        1350600969.7489100     
  -1139901039.3666549       -15692714.836903930        1349664395.5007000     
  -1712631269.3623555       -9000114.0227345228        1312789205.2128952     
  -1627049742.6969800       -10509957.962297320        1295495333.7661042     
  -1541253531.1304805       -11304185.564776719        1283522871.6686976     
  -1455242634.6628516       -11382796.830159903        1276871818.9206736     
  -1369017053.2941003       -10745791.758472860        1275542175.5220292     
  -1999054781.9769306       -4828555.1933473349        1238751548.2761841     
  -1899575605.3440566       -6152709.2987450361        1221019191.1243708     
  -1799908252.8613052       -6849610.5712168217        1208613073.0979822     
  -1700052724.5286820       -6919259.0107836723        1201533194.1970205     
  -1600009020.3461843       -6361654.6174333096        1199779554.4214821     
  -2287409445.1566362       -1236341.5335023403        1163197199.1234429     
  -2174018819.1961355       -2370665.9966835976        1144995429.0401452     
  -2060466526.4370096       -2966101.1311124563        1132124727.8583148     
  -1946752566.8792663       -3022646.9368197918        1124585095.5779569     
  -1832876940.5229053       -2540303.4137982130        1122376532.1990635     
  -912660978.56383967       -21202423.852717578        1422146214.3574960     
  -863483810.37839973       -23020432.168125987        1423895141.7689805     
  -814435992.10455728       -25269606.855526656        1430236155.2683163     
  -765517523.74229240       -27949947.914852321        1441169254.8555026     
  -716728405.29162753       -31061455.346176803        1456694440.5305388     
  -1139901039.3666549       -15692714.836903930        1349664395.5007000     
  -1079300324.4465775       -18445484.445195079        1350478049.8951821     
  -1018892772.0071417       -21842128.988952339        1355702675.9883494     
  -958678382.04834557       -25882648.468180776        1365338273.7802062     
  -898657154.57019293       -30567042.882881999        1379384843.2707551     
  -1369017053.2941003       -10745791.758472860        1275542175.5220292     
  -1297510261.3227079       -14588563.564634860        1275346108.9022791     
  -1226260444.4010091       -19287918.869782150        1279379899.5920546     
  -1155267602.5290010       -24843857.673896372        1287643547.5913589     
  -1084531735.7066808       -31256379.976970553        1300137052.9001830     
  -1600009020.3461843       -6361654.6174333096        1199779554.4214821     
  -1518113621.0067966       -11449669.526469588        1198499318.7902756     
  -1436539009.2861507       -17606976.497981131        1201267826.0794301     
  -1355285185.1842480       -24833575.531969607        1208085076.2889493     
  -1274352148.7010903       -33129466.628439009        1218951069.4188342     
  -1832876940.5229053       -2540303.4137982130        1122376532.1990635     
  -1741110403.4988418       -9028802.3306978941        1119937679.5591724     
  -1649728466.6625731       -16799301.873576105        1121366455.4504831     
  -1558731130.0141027       -25851802.042454600        1126662859.8729932     
  -1468118393.5534172       -36186302.837276101        1135826892.8267088     
  -716728405.29162753       -31061455.346176803        1456694440.5305388     
  -658232591.23775578       -31314377.973135531        1454113151.6076319     
  -599642651.80634272       -31253549.341627240        1457091338.2278032     
  -540958586.99737430       -30878969.451599926        1465629000.3910513     
  -482180396.81085515       -30190638.303068683        1479726138.0973787     
  -898657154.57019293       -30567042.882881999        1379384843.2707551     
  -826451811.45231676       -31734333.606500655        1375355894.7354279     
  -754144381.23896623       -32561334.011871576        1376524270.2670224     
  -681734863.93013144       -33048044.098966181        1382889969.8655422     
  -609223259.52583897       -33194463.867865473        1394452993.5309834     
  -1084531735.7066808       -31256379.976970553        1300137052.9001830     
  -999651582.02809525       -33648454.348221183        1294669733.4233510     
  -914661379.53611171       -35673699.341478288        1294037586.5372860     
  -829561128.23072433       -37332114.956722945        1298240612.2419910     
  -744350828.11194408       -38623701.193985254        1307278810.5374599     
  -1274352148.7010903       -33129466.628439009        1218951069.4188342     
  -1177831902.9650934       -37056740.198305845        1212054667.6714082     
  -1081193646.6977746       -40590645.330430686        1209631287.0385931     
  -984437379.89913261       -43731182.024811089        1211680927.5203941     
  -887563102.56916308       -46478350.281435937        1218203589.1168013     
  -1468118393.5534172       -36186302.837276101        1135826892.8267088     
  -1360992774.2633200       -41959191.156775713        1127510697.4795971     
  -1253741182.7239649       -47312171.978757918        1123305371.7709444     
  -1146363618.9353609       -52245245.303242743        1123210915.7007496     
  -1038860082.8975120       -56758411.130238950        1127227329.2690136     
  -482180396.81085515       -30190638.303068683        1479726138.0973787     
  -425118342.90193290       -26431048.484267220        1478100446.6216311     
  -365785953.12644839       -15103672.443592221        1482174631.9830689     
  -304183227.48440611        3791489.8189445734        1491948694.1817057     
  -240310165.97579905        30254438.303359792        1507422633.2175314     
  -609223259.52583897       -33194463.867865473        1394452993.5309834     
  -537455509.65620244       -29980414.865815133        1392659891.2297745     
  -463427017.12510669       -19230556.992242470        1396604879.9419429     
  -387137781.93257213       -944890.24720433354        1406287959.6674898     
  -308587804.07858807        24876585.369334981        1421709130.4064097     
  -744350828.11194408       -38623701.193985254        1307278810.5374599     
  -657768198.92105174       -35922438.000512093        1305307105.3381550     
  -568934420.27382445       -25717343.285916418        1309111705.3284180     
  -477849492.17026335       -8008417.0502105653        1318692610.5082409     
  -384513414.61036444        17204340.706620634        1334049820.8776331     
  -887563102.56916308       -46478350.281435937        1218203589.1168013     
  -786056410.69649339       -44257117.888399154        1216042088.9467766     
  -682308162.57259297       -34564031.324596018        1219695108.1424997     
  -576318358.19747567       -17399090.590066582        1229162646.7039771     
  -468086997.57113248        7237704.3152121007        1244444704.6311984     
  -1038860082.8975120       -56758411.130238950        1127227329.2690136     
  -922320144.98252368       -54984454.529459506        1124864842.0556345     
  -803548244.02142298       -45770621.108305693        1128355088.3841894     
  -682544380.01421523       -29116910.866793692        1137698068.2546830     
  -559308552.96089447       -5023323.8049079478        1152893781.6671124     
  -240310165.97579905        30254438.303359792        1507422633.2175314     
  -199538351.73545825        60182283.783532009        1486230276.5499022     
  -154182848.41029400        105389092.87977758        1467790033.4537239     
  -104243656.00030994        165874865.59209257        1452101903.9289989     
  -49720774.505511329        241639601.92045408        1439165887.9757266     
  -308587804.07858807        24876585.369334981        1421709130.4064097     
  -258972104.09554291        55220045.429965153        1404874256.1951535     
  -202912354.81435105        107043669.81774473        1391994346.3882644     
  -140408556.23502505        180347458.53264999        1383069400.9857438     
  -71460708.357546464        275131411.57471311        1378099419.9875953     
  -384513414.61036444        17204340.706620634        1334049820.8776331     
  -322617112.21913952        48994430.347344711        1323742849.3716249     
  -252416400.31644547        108465885.02629319        1318593693.1029050     
  -173911278.90228692        195618704.74345654        1318602352.0714695     
  -87101747.976662770        310452889.49884450        1323768826.2773232     
  -468086997.57113248        7237704.3152121007        1244444704.6311984     
  -390473376.10624713        41505438.535677597        1242836056.0793214     
  -302694984.91657668        109655738.50542100        1247588073.5976467     
  -204751824.00210857        211688604.22449523        1258700757.1861746     
  -96643893.362844288        347604035.69288456        1276174106.8449075     
  -559308552.96089447       -5023323.8049079478        1152893781.6671124     
  -462540895.75687301        32753069.994935095        1162153876.3182392     
  -353748108.61473191        110613230.25516826        1178977487.8724909     
  -232930191.53448465        228557156.97576097        1203364616.3298624     
  -100087144.51611531        386584850.15675789        1235315261.6903584     
  -49720774.505511329        241639601.92045408        1439165887.9757266     
  -40431680.595660374        322571423.51544446        1346200354.4359181     
  -23372063.764871061        429404988.18023568        1253105680.6669903     
   1458075.9868958294        562140295.91495132        1159881866.6689386     
   34058738.659626395        720777346.71954119        1066528912.4417768     
  -71460708.357546464        275131411.57471311        1378099419.9875953     
  -57321001.785464540        376853357.21092528        1296630650.7213447     
  -34209673.092338055        508480709.91727972        1214224541.2610364     
  -2126722.2781561911        670013469.69381607        1130881091.6066670     
   38927850.657059938        861451636.54048252        1046600301.7582526     
  -87101747.976662770        310452889.49884450        1323768826.2773232     
  -70420571.499304831        432272216.34921521        1255198103.6847374     
  -43566673.700821579        588000614.26999807        1184881840.9331434     
  -6540054.5811957419        777638083.26126766        1112820038.0225637     
   40659285.859557509        1001184623.3229561        1039012694.9529779     
  -96643893.362844288        347604035.69288456        1276174106.8449075     
  -79730389.737189859        488828000.93028843        1221902713.3260777     
  -51443065.590317965        667964701.23842287        1165077579.6833241     
  -11781920.922214389        885014136.61733389        1105698705.9166176     
   39253044.267098844        1139976307.0669298        1043766092.0259826     
  -100087144.51611531        386584850.15675789        1235315261.6903584     
  -85250456.499120176        546520710.95414805        1196744479.6453910     
  -57838848.760826856        748372970.82253742        1154811757.5115502     
  -17852321.301211417        992141629.76200497        1109517095.2888281     
   34709125.879696548        1277826687.7724338        1060860492.9772481     
  -3037319792.7737603       -76572664.405933380        1147990429.5267987     
  -2917702941.6595864       -9922140.1668990850        1135301615.5146708     
  -2804766636.1341600        34459898.776301861        1129121050.7525349     
  -2698510876.1974778        56573452.423695445        1129448735.2403889     
  -2598935661.8495445        56418520.775259852        1136284668.9782341     
  -3411056360.3417921       -44293906.426824808        1048767533.2433589     
  -3284612413.0702758       -8177856.2205719948        1031973902.9164740     
  -3161507600.4412107        16807745.177477717        1020970052.8528179     
  -3041741922.4546070        30662897.767342806        1015755983.0523880     
  -2925315379.1104631        33387601.548998952        1016331693.5151809     
  -3778795123.2045975       -10215807.036150217        935063710.23612881     
  -3647576848.3093443       -5250061.4227585793        918063576.36515665     
  -3516356297.1102610       -276728.12994694710        906134753.77064955     
  -3385133469.6073499        4704192.8422975540        899277242.45260155     
  -3253908365.8006110        9692701.4939644337        897491042.41101325     
  -4140536081.3621726        25661633.766094685        806878960.50510740     
  -4006596247.3768020       -1138755.7734622955        793570635.86071885     
  -3869312726.1413054       -16793521.145965815        784615153.50602865     
  -3728685517.6557040       -21302662.351423264        780012513.44103026     
  -3584714621.9199905       -14666179.389840603        779762715.66572762     
  -4496279234.8145113        63338415.979909897        664213284.05030143     
  -4361670610.2726393        4156060.7273201942        658495081.40316451     
  -4220376887.5343552       -32742633.870593309        656411252.05895436     
  -4072398066.5996752       -47357667.813836336        657961796.01767683     
  -3917734147.4685931       -39689041.102405787        663146713.27932739     
  -2598935661.8495445        56418520.775259852        1136284668.9782341     
  -2521642933.8960781        40042051.132198811        1138952358.7571402     
  -2443957655.1294370        24974084.199721932        1144327010.3743098     
  -2365879825.5496254        11214619.977816820        1152408623.8297448     
  -2287409445.1566362       -1236341.5335023403        1163197199.1234429     
  -2925315379.1104631        33387601.548998952        1016331693.5151809     
  -2839081949.8899279        21976251.330751896        1018607303.5470732     
  -2752857596.8595586        10534647.145290017        1023907617.4634883     
  -2666642320.0193653       -937211.00742733479        1032232635.2644266     
  -2580436119.3693323       -12439323.127348542        1043582356.9498899     
  -3253908365.8006110        9692701.4939644337        897491042.41101325     
  -3157826400.8951225        3518821.0259056091        898906007.85865784     
  -3062155139.1831484       -4024070.0871992111        903663419.23708463     
  -2966894580.6646805       -12935971.845337272        911763276.54629374     
  -2872044725.3397284       -23216884.248514771        923205579.78628504     
  -3584714621.9199905       -14666179.389840603        779762715.66572762     
  -3477876286.9116631       -15330239.782351494        779848471.69189024     
  -3371850282.1001945       -18702067.497715235        783594415.69509685     
  -3266636607.4855762       -24781662.535924554        791000547.67534459     
  -3162235263.0678153       -33569024.896981478        802066867.63263309     
  -3917734147.4685931       -39689041.102405787        663146713.27932739     
  -3799231607.9395466       -34570931.093999624        661434695.04677784     
  -3681943025.6107025       -33499345.086273670        663700606.83752763     
  -3565868400.4820528       -36474283.079185009        669944448.65158141     
  -3451007732.5535994       -43495745.072760820        680166220.48893261     
  -2287409445.1566362       -1236341.5335023403        1163197199.1234429     
  -2174018819.1961355       -2370665.9966835976        1144995429.0401452     
  -2060466526.4370096       -2966101.1311124563        1132124727.8583148     
  -1946752566.8792663       -3022646.9368197918        1124585095.5779569     
  -1832876940.5229053       -2540303.4137982130        1122376532.1990635     
  -2580436119.3693323       -12439323.127348542        1043582356.9498899     
  -2452670576.7888808       -11164964.207566738        1026015049.6442795     
  -2324692440.3519421       -9181959.0994929075        1013618451.5949435     
  -2196501710.0585146       -6490307.8031210899        1006392562.8018825     
  -2068098385.9085963       -3090010.3184535503        1004337383.2650889     
  -2872044725.3397284       -23216884.248514771        923205579.78628504     
  -2730362436.5541749       -19671293.070232987        906332150.15921283     
  -2588416626.8542614       -15247298.844090104        894469070.14321530     
  -2446207296.2399955       -9944901.5701056719        887616339.73829520     
  -2303734444.7113714       -3764101.2482509613        885773958.94444728     
  -3162235263.0678153       -33569024.896981478        802066867.63263309     
  -3007094398.4920073       -27889652.584658265        785946730.58493721     
  -2851639085.9439707       -21162120.364907265        774676583.50312853     
  -2695869325.4237127       -13386428.237747788        768256426.38719606     
  -2539785116.9312291       -4562576.2031747103        766686259.23713768     
  -3451007732.5535994       -43495745.072760820        680166220.48893261     
  -3282866462.6023793       -35820042.750830173        664858790.92146575     
  -3114359817.6210670       -26926423.661933780        654240991.67468333     
  -2945487797.6096635       -16814887.806064606        648312822.74858236     
  -2776250402.5681658       -5485435.1832087040        647074284.14316845     
  -1832876940.5229053       -2540303.4137982130        1122376532.1990635     
  -1741110403.4988418       -9028802.3306978941        1119937679.5591724     
  -1649728466.6625731       -16799301.873576105        1121366455.4504831     
  -1558731130.0141027       -25851802.042454600        1126662859.8729932     
  -1468118393.5534172       -36186302.837276101        1135826892.8267088     
  -2068098385.9085963       -3090010.3184535503        1004337383.2650889     
  -1966166773.7241564       -7970023.9456893206        1001131167.3021431     
  -1864671138.3779140       -14303293.700240731        1001505422.4799019     
  -1763611479.8698688       -22089819.582114577        1005460148.7983654     
  -1662987798.2000124       -31329601.591297328        1012995346.2575324     
  -2303734444.7113714       -3764101.2482509613        885773958.94444728     
  -2192458207.0536914       -7281764.4919602871        881740440.23297882     
  -2081669322.8846068       -12423939.364315152        881000235.27171648     
  -1971367792.2041211       -19190625.865334034        883553344.06066084     
  -1861553615.0122316       -27581823.995008826        889399766.59980977     
  -2539785116.9312291       -4562576.2031747103        766686259.23713768     
  -2419984703.4874468       -6964023.9694938660        761765498.35167825     
  -2300723020.1826525       -11161238.865790129        759850893.82592833     
  -2182000067.0168633       -17154220.892100215        760942445.65988636     
  -2063815843.9900723       -24942970.048405409        765040153.85355496     
  -2776250402.5681658       -5485435.1832087040        647074284.14316845     
  -2648746263.0254097       -7016802.3782899380        641206341.65824461     
  -2521832230.2720475       -10515192.204671502        638057398.14253604     
  -2395508304.3080873       -15980604.662399650        637627453.59603441     
  -2269774485.1335344       -23413039.751481652        639916508.01875210     
  -1468118393.5534172       -36186302.837276101        1135826892.8267088     
  -1360992774.2633200       -41959191.156775713        1127510697.4795971     
  -1253741182.7239649       -47312171.978757918        1123305371.7709444     
  -1146363618.9353609       -52245245.303242743        1123210915.7007496     
  -1038860082.8975120       -56758411.130238950        1127227329.2690136     
  -1662987798.2000124       -31329601.591297328        1012995346.2575324     
  -1545179593.7870650       -35792853.725953519        1003414212.6941049     
  -1427185188.5458596       -39635436.433075011        997637358.92868090     
  -1309004582.4763801       -42857349.712619066        995664784.96125162     
  -1190637775.5786381       -45458593.564623952        997496490.79183006     
  -1861553615.0122316       -27581823.995008826        889399766.59980977     
  -1733938796.4491827       -30998231.236674905        878623961.49558938     
  -1606077548.4788494       -33593207.120713890        871345846.34891629     
  -1477969871.1012383       -35366751.647163689        867565421.15977716     
  -1349615764.3163371       -36318864.815984190        867282685.92818666     
  -2063815843.9900723       -24942970.048405409        765040153.85355496     
  -1927270382.2496614       -27575323.688888550        753139943.88405585     
  -1790418262.5229440       -29185484.041690946        744430834.03164816     
  -1653259484.8099289       -29773451.106836498        738912824.29631734     
  -1515794049.1106188       -29339224.884321034        736585914.67807388     
  -2269774485.1335344       -23413039.751481652        639916508.01875210     
  -2125174351.1884971       -25524131.082609296        626962159.85950267     
  -1980207330.6781359       -26412267.195997357        616892321.97687817     
  -1834873423.6024661       -26077448.091688275        609706994.37088096     
  -1689172629.9614727       -24519673.769629359        605406177.04150343     
  -1038860082.8975120       -56758411.130238950        1127227329.2690136     
  -922320144.98252368       -54984454.529459506        1124864842.0556345     
  -803548244.02142298       -45770621.108305693        1128355088.3841894     
  -682544380.01421523       -29116910.866793692        1137698068.2546830     
  -559308552.96089447       -5023323.8049079478        1152893781.6671124     
  -1190637775.5786381       -45458593.564623952        997496490.79183006     
  -1060725648.4808625       -42201069.372876287        993847716.51400602     
  -929420487.93634176       -34300100.358638883        994290146.31386125     
  -796722293.94509041       -21755686.521977216        998823780.19139278     
  -662631066.50710869       -4567827.8628644347        1007448618.1465900     
  -1349615764.3163371       -36318864.815984190        867282685.92818666     
  -1211364389.3622372       -33087655.431185544        861368873.38665521     
  -1072558910.5607696       -28009433.221838832        857784735.45853484     
  -933199327.91194880       -21084198.187969267        856530272.14382279     
  -793285641.41576004       -12311950.329552025        857605483.44252980     
  -1515794049.1106188       -29339224.884321034        736585914.67807388     
  -1374236367.6266525       -27644212.704419434        727428312.67355967     
  -1232963511.8947039       -26898619.697883725        718838855.81819797     
  -1091975481.9147708       -27102445.864743650        710817544.11198878     
  -951272277.68684936       -28255691.204971075        703364377.55491626     
  -1689172629.9614727       -24519673.769629359        605406177.04150343     
  -1549341583.2741156       -25870741.192564428        592026034.37473738     
  -1410634291.9381464       -30967659.786786139        577452507.39286113     
  -1273050755.9535658       -39810429.552304506        561685596.09587395     
  -1136590975.3203733       -52399050.489120424        544725300.48376751     
  -559308552.96089447       -5023323.8049079478        1152893781.6671124     
  -462540895.75687301        32753069.994935095        1162153876.3182392     
  -353748108.61473191        110613230.25516826        1178977487.8724909     
  -232930191.53448465        228557156.97576097        1203364616.3298624     
  -100087144.51611531        386584850.15675789        1235315261.6903584     
  -662631066.50710869       -4567827.8628644347        1007448618.1465900     
  -547395580.37745273        25599161.626227260        1020929685.8741338     
  -421265751.94342923        92080625.463223636        1042809275.3284401     
  -284241581.20506465        194876563.64802176        1073087386.5095201     
  -136323068.16233724        333986976.18068653        1111764019.4173572     
  -793285641.41576004       -12311950.329552025        857605483.44252980     
  -657196598.29290581        10961353.269094080        873988272.00709581     
  -511344000.49945629        66779839.103060067        899604587.12206864     
  -355727848.03541267        155143507.17233881        934454428.78746092     
  -190348140.90077507        276052357.47693044        978537797.00326061     
  -951272277.68684936       -28255691.204971075        703364377.55491626     
  -791943949.50323844       -11160355.076517880        721329634.71712148     
  -623982854.28279507        34710871.174709648        749363423.25337839     
  -447388992.02551967        109357987.54872155        787465743.16369736     
  -262162362.73140585        212780994.04550642        835636594.44807327     
  -1136590975.3203733       -52399050.489120424        544725300.48376751     
  -951637634.00844955       -40765963.410596848        562953774.00421393     
  -759182313.29345405       -4126278.3218334913        592085783.72236979     
  -559225013.17537796        57520004.777201384        632121329.63822484     
  -351765733.65423626        144172885.88644922        683060411.75178683     
  -100087144.51611531        386584850.15675789        1235315261.6903584     
  -85250456.499120176        546520710.95414805        1196744479.6453910     
  -57838848.760826856        748372970.82253742        1154811757.5115502     
  -17852321.301211417        992141629.76200497        1109517095.2888281     
   34709125.879696548        1277826687.7724338        1060860492.9772481     
  -136323068.16233724        333986976.18068653        1111764019.4173572     
  -127255186.64253512        483043001.80940109        1090192368.4926062     
  -95059140.249340266        709192910.34941232        1070055845.3901315     
  -39734928.982742965        1012436701.8007734        1051354450.1099178     
   38717447.157261968        1392774376.1634781        1034088182.6519753     
  -190348140.90077507        276052357.47693044        978537797.00326061     
  -173343157.56060195        418340320.43222541        986277396.54283273     
  -122656764.19494027        672899650.13916123        1000249191.8158128     
  -38288960.803784847        1039730346.5977221        1020453182.8222144     
   79760252.612847328        1518832409.8079019        1046889369.5620309     
  -262162362.73140585        212780994.04550642        835636594.44807327     
  -223514369.25330478        352412666.82268226        884999563.79606104     
  -140631720.59761062        639493190.19180250        945391796.78861630     
  -13514416.764349759        1074022564.1528172        1016813293.4257433     
   157837542.24648333        1656000788.7057605        1099264053.7074146     
  -351765733.65423626        144172885.88644922        683060411.75178683     
  -277768821.72064847        285260040.98072678        786358870.25230420     
  -148984009.45738101        608973530.50727034        905483660.30853438     
   34588703.135548413        1115313354.4660368        1040434781.9204698     
   272949316.05815154        1804279512.8570158        1191212235.0881126     
  -4496279234.8145113        63338415.979909897        664213284.05030143     
  -4361670610.2726393        4156060.7273201942        658495081.40316451     
  -4220376887.5343552       -32742633.870593309        656411252.05895436     
  -4072398066.5996752       -47357667.813836336        657961796.01767683     
  -3917734147.4685931       -39689041.102405787        663146713.27932739     
  -4876189792.0336571        11813710.771412611        486441461.66618633     
  -4717897434.3269739       -770446.36345410347        485516649.07643527     
  -4558061716.5512066       -8210069.9347088337        488422289.12951297     
  -4396682638.7063608       -10505159.942357063        495158381.82542801     
  -4233760200.7924242       -7655716.3863942623        505724927.16417313     
  -5256399159.5407095       -39800637.523456573        326858631.97234452     
  -5073862841.9837770       -5618528.5349729061        324728514.95810926     
  -4894924902.4850883        16568986.926059484        326624929.92660725     
  -4719585341.0446272        26761908.859637737        332547876.87783808     
  -4547844157.6624098        24960237.265764236        342497355.81180477     
  -5636907337.3356457       -91504628.904694796        185464794.96877727     
  -5429566833.2430420       -10388185.787231445        176130679.04818374     
  -5230966445.3359928        41594536.711714745        171019174.45022726     
  -5041106173.6144981        64443538.592153311        170130281.17490157     
  -4859986018.0785561        58158819.854071379        173463999.22222641     
  -6017714325.4184866       -143298263.37229753        62259950.655482091     
  -5785009408.1047726       -15079418.120229721        39723141.346657939     
  -5566186345.1039295        66866579.422266483        21605022.700376589     
  -5361245136.4159479        102539729.25520277        7905594.7166314814     
  -5170185782.0408535        91940031.378539562       -1375142.6045705006     
  -3917734147.4685931       -39689041.102405787        663146713.27932739     
  -3799231607.9395466       -34570931.093999624        661434695.04677784     
  -3681943025.6107025       -33499345.086273670        663700606.83752763     
  -3565868400.4820528       -36474283.079185009        669944448.65158141     
  -3451007732.5535994       -43495745.072760820        680166220.48893261     
  -4233760200.7924242       -7655716.3863942623        505724927.16417313     
  -4108531934.1898932       -13929331.590571642        503847984.23593420     
  -3983406241.3048449       -20544859.186331987        505795607.15920645     
  -3858383122.1372628       -27502299.173649788        511567795.93398690     
  -3733462576.6871476       -34801651.552544832        521164550.56028008     
  -4547844157.6624098        24960237.265764236        342497355.81180477     
  -4416328347.3343754        7163441.8446180820        341752102.25105298     
  -4283803727.2410798       -7270654.3590118885        344678050.37002581     
  -4150270297.3825321       -18342051.345125675        351275200.16871804     
  -4015728057.7587395       -26050749.113748789        361543551.64712805     
  -4859986018.0785561        58158819.854071379        173463999.22222641     
  -4722620847.3729801        28707389.211575270        175147049.09214285     
  -4583135483.4194288        6323269.3956592083        180347936.46999690     
  -4441529926.2178946       -8993539.5936532021        189066661.35577494     
  -4297804175.7683802       -17243037.756355762        201303223.74949047     
  -5170185782.0408535        91940031.378539562       -1375142.6045705006     
  -5027409434.3057146        50702510.510283232        4032824.7592036347     
  -4881401509.8398657        20236912.077715397        12805265.459110918     
  -4732162008.6433086        543236.08084750175        24942179.495158792     
  -4579690930.7160635       -8378517.4803919792        40443566.867349908     
  -3451007732.5535994       -43495745.072760820        680166220.48893261     
  -3282866462.6023793       -35820042.750830173        664858790.92146575     
  -3114359817.6210670       -26926423.661933780        654240991.67468333     
  -2945487797.6096635       -16814887.806064606        648312822.74858236     
  -2776250402.5681658       -5485435.1832087040        647074284.14316845     
  -3733462576.6871476       -34801651.552544832        521164550.56028008     
  -3552482007.1658521       -25367522.523614883        506209524.67134589     
  -3371454595.2327123       -15777252.121870041        496035461.96786004     
  -3190380340.8877344       -6030840.3473244905        490642362.44982493     
  -3009259244.1309066        3871712.8000384569        490030226.11723971     
  -4015728057.7587395       -26050749.113748789        361543551.64712805     
  -3821647237.6251822       -14779908.065164089        346569308.04876876     
  -3627838107.6980186       -4414701.0379147530        336467360.50062734     
  -3434300667.9772668        5044871.9679806232        331237709.00270444     
  -3241034918.4629154        13598810.952528477        330880353.55499941     
  -4297804175.7683802       -17243037.756355762        201303223.74949047     
  -4090362153.9803662       -4057199.3754775524        185938141.05375040     
  -3883510355.0169897        7161229.5899329185        175536687.27299777     
  -3677248778.8782682        16412249.139826775        170098862.40723079     
  -3471577425.5641980        23695859.274228334        169624666.45644581     
  -4579690930.7160635       -8378517.4803919792        40443566.867349908     
  -4358626756.2313957        6800603.5454688072        24316023.686284851     
  -4138471337.1896143        18950539.761701107        13243442.284963315     
  -3919224673.5907350        28071291.168257475        7225822.6633939436     
  -3700886765.4347620        34162857.765136719        6263164.8215815388     
  -2776250402.5681658       -5485435.1832087040        647074284.14316845     
  -2648746263.0254097       -7016802.3782899380        641206341.65824461     
  -2521832230.2720475       -10515192.204671502        638057398.14253604     
  -2395508304.3080873       -15980604.662399650        637627453.59603441     
  -2269774485.1335344       -23413039.751481652        639916508.01875210     
  -3009259244.1309066        3871712.8000384569        490030226.11723971     
  -2875163125.4968843       -567594.58361423016        484284106.43684459     
  -2741268377.0291257       -5678135.8548092842        481560804.05480832     
  -2607574998.7276292       -11459911.013534665        481860318.97112578     
  -2474082990.5923781       -17912920.059767127        485182651.18580210     
  -3241034918.4629154        13598810.952528477        330880353.55499941     
  -3099478768.3686514        6511979.0909703970        325709582.73946309     
  -2957735251.8175063        49702.085669398308        323865447.55143523     
  -2815804368.8094692       -5788020.0633324385        325347947.99089903     
  -2673686119.3445539       -11001187.356055737        330157084.05787426     
  -3471577425.5641980        23695859.274228334        169624666.45644581     
  -3321693191.6407080        14221918.645442963        165482770.56610629     
  -3171232854.6371794        6668321.6167634726        164971328.63241035     
  -3020196414.5536246        1035068.1881785393        168090340.65536323     
  -2868583871.3900557       -2677841.6403468847        174839806.63496456     
  -3700886765.4347620        34162857.765136719        6263164.8215815388     
  -3541806395.3130379        22562224.079867125        3603669.9167651101     
  -3381761185.4881630        14177722.738444567        4878447.2977394862     
  -3220751135.9601064        9009353.7409498692        10087496.964509791     
  -3058776246.7288761        7057117.0873795748        19230818.917073462     
  -2269774485.1335344       -23413039.751481652        639916508.01875210     
  -2125174351.1884971       -25524131.082609296        626962159.85950267     
  -1980207330.6781359       -26412267.195997357        616892321.97687817     
  -1834873423.6024661       -26077448.091688275        609706994.37088096     
  -1689172629.9614727       -24519673.769629359        605406177.04150343     
  -2474082990.5923781       -17912920.059767127        485182651.18580210     
  -2322085282.9279370       -18871889.057381630        474012260.46347016     
  -2169924229.1478491       -19286371.002841592        465381926.40247327     
  -2017599829.2521296       -19156365.896202326        459291649.00281435     
  -1865112083.2407701       -18481873.737426519        455741428.26449233     
  -2673686119.3445539       -11001187.356055737        330157084.05787426     
  -2515274991.1472263       -11103279.976081967        320533186.91449541     
  -2356904057.2839494       -11339353.709595561        313104892.81716597     
  -2198573317.7547174       -11709408.556607008        307872201.76588857     
  -2040282772.5595250       -12213444.517070770        304835113.76066446     
  -2868583871.3900557       -2677841.6403468847        174839806.63496456     
  -2704743475.8463888       -2218303.8387743235        166524939.21257183     
  -2541146815.0864377       -2571215.3162623644        160061221.22095668     
  -2377793889.1102271       -3736576.0728750229        155448652.66009611     
  -2214684697.9177299       -5714386.1085453033        152687233.53001288     
  -3058776246.7288761        7057117.0873795748        19230818.917073462     
  -2890490737.0253987        7783039.3545993567        11987517.357722957     
  -2722652502.5553226        7018044.1771349907        6250911.6138478229     
  -2555261543.3186545        4762131.5549740791        2021001.6854459809     
  -2388317859.3153901        1015301.4881571531       -702212.42746223346     
  -1689172629.9614727       -24519673.769629359        605406177.04150343     
  -1549341583.2741156       -25870741.192564428        592026034.37473738     
  -1410634291.9381464       -30967659.786786139        577452507.39286113     
  -1273050755.9535658       -39810429.552304506        561685596.09587395     
  -1136590975.3203733       -52399050.489120424        544725300.48376751     
  -1865112083.2407701       -18481873.737426519        455741428.26449233     
  -1728135265.5420878       -22290533.196532488        442324149.45536256     
  -1591209622.3924847       -26269774.485906959        428471830.82456654     
  -1454335153.7919621       -30419597.605559766        414184472.37209958     
  -1317511859.7405379       -34740002.555528641        399462074.09795296     
  -2040282772.5595250       -12213444.517070770        304835113.76066446     
  -1903993485.2968211       -17829686.446533680        292632043.07852805     
  -1766682791.7808971       -20041240.865277529        280752277.06816161     
  -1628350692.0117493       -18848107.773265719        269195815.72956747     
  -1488997185.9893830       -14250287.170527577        257962659.06274608     
  -2214684697.9177299       -5714386.1085453033        152687233.53001288     
  -2076916242.5383172       -12488200.942571402        142949715.24421850     
  -1937053800.1033788       -12282058.924861789        134293846.12364575     
  -1795097370.6129105       -5095960.0553807020        126719626.16828226     
  -1651046954.0669165        9070095.6658601761        120227055.37813434     
  -2388317859.3153901        1015301.4881571531       -702212.42746223346     
  -2246903537.2665792       -6266076.6846388578       -6722834.0475515677     
  -2102322647.3599291       -2992228.6646498442       -10903462.008976730     
  -1954575189.5954564        10836845.548089981       -13244096.311757097     
  -1803661163.9731395        35221145.953641176       -13744736.955869129     
  -1136590975.3203733       -52399050.489120424        544725300.48376751     
  -951637634.00844955       -40765963.410596848        562953774.00421393     
  -759182313.29345405       -4126278.3218334913        592085783.72236979     
  -559225013.17537796        57520004.777201384        632121329.63822484     
  -351765733.65423626        144172885.88644922        683060411.75178683     
  -1317511859.7405379       -34740002.555528641        399462074.09795296     
  -1117833004.5258095       -14791843.125003397        421281189.49454898     
  -914534691.66431940        17221175.128069043        441605224.22975296     
  -707616921.15606427        61299052.203673244        460434178.30356532     
  -497079693.00104880        117441788.10181770        477768051.71597743     
  -1488997185.9893830       -14250287.170527577        257962659.06274608     
  -1310017436.4692745        3385558.7327834368        278842807.61978996     
  -1131300751.0587153        20144524.270907462        285829258.65634745     
  -952847129.75770259        36026609.443893135        278922012.17241067     
  -774656572.56625104        51031814.251675904        258121068.16797599     
  -1651046954.0669165        9070095.6658601761        120227055.37813434     
  -1528190929.8388553        13766242.162699759        135638628.37994039     
  -1409480491.4766548        4643769.1066785455        124757887.00215758     
  -1294915638.9803238       -18297323.502225220        87584831.244767040     
  -1184496372.3498380       -55057035.663984656        24119461.107798856     
  -1803661163.9731395        35221145.953641176       -13744736.955869129     
  -1772353484.6345439        16350207.164830446       -8331348.2250115294     
  -1749073912.9181309       -29281090.364611268       -41608890.732839227     
  -1733822448.8238764       -101672746.63456970       -113577364.47935365     
  -1726599092.3518028       -200824761.64513183       -224236769.46456972     
  -351765733.65423626        144172885.88644922        683060411.75178683     
  -277768821.72064847        285260040.98072678        786358870.25230420     
  -148984009.45738101        608973530.50727034        905483660.30853438     
   34588703.135548413        1115313354.4660368        1040434781.9204698     
   272949316.05815154        1804279512.8570158        1191212235.0881126     
  -497079693.00104880        117441788.10181770        477768051.71597743     
  -388249840.09054339        223072837.59190828        597054222.05585301     
  -230291845.15733671        492464360.49095875        735490809.03862262     
  -23205708.201476097        925616356.79889727        893077812.66428161     
   233008570.77707577        1522528826.5157678        1069815232.9328358     
  -774656572.56625104        51031814.251675904        258121068.16797599     
  -621496392.71541977        124055973.92661855        386791898.98905438     
  -424867829.14892054        341974745.98712707        537937231.54021490     
  -184770881.86672631        704788130.43328393        711557065.82144248     
   98794449.131149173        1212496127.2650647        907651401.83275926     
  -1184496372.3498380       -55057035.663984656        24119461.107798856     
  -977508479.59531438       -11790550.015208244        155571901.05192801     
  -732711961.43211734        157504686.99581403        312822927.81331551     
  -450106817.86019301        452828675.36923534        495872541.39197785     
  -129693048.87960446        874181415.10492003        704720741.78789318     
  -1726599092.3518028       -200824761.64513183       -224236769.46456972     
  -1456286100.7302151       -184466734.23356342       -96605771.755550951     
  -1153824242.0069070       -60945816.482950270        60147897.857910380     
  -819213516.18189967        169737991.60666144        246024239.37583798     
  -452453923.25518680        507584690.03531349        461023252.79819149     
 </DataArray>
 <DataArray  type="Float64" Name="VM" NumberOfComponents="1" format="ascii">
   6172813052.7232218     
   5902875031.9917049     
   5652955544.8014603     
   5419847538.0879793     
   5201554758.7033348     
   5709583361.0971880     
   5489269255.5457153     
   5280517741.1795282     
   5081956605.3328257     
   4892792018.2483578     
   5294298937.9504223     
   5113332709.1613102     
   4937103239.5425272     
   4765416027.4601412     
   4598234924.4107466     
   4921404947.8803587     
   4770515854.5920277     
   4620047685.3039913     
   4469927894.4394217     
   4320130907.5657187     
   4585360725.6823387     
   4456038904.2851591     
   4326487305.3128119     
   4195269833.1959333     
   4061311403.3204122     
   5201554758.7033348     
   5045892446.7606745     
   4891364922.4032478     
   4737959223.1904650     
   4585679842.7950077     
   4892792018.2483578     
   4746711891.3708286     
   4601191934.3944950     
   4456278410.0857925     
   4312037159.3088951     
   4598234924.4107466     
   4462729881.3001909     
   4327472933.9535904     
   4192556252.3218856     
   4058108412.7408257     
   4320130907.5657187     
   4196591912.7510080     
   4073305583.7047639     
   3950398260.8064117     
   3828067465.4034114     
   4061311403.3204122     
   3951540863.4967284     
   3842403001.4115252     
   3734044871.9061499     
   3626739833.7461615     
   4585679842.7950077     
   4368399619.2532177     
   4151262127.5699501     
   3934202500.5250864     
   3717204148.5713954     
   4312037159.3088951     
   4106835599.6411757     
   3902416406.6435676     
   3698788419.1996665     
   3496030585.7570148     
   4058108412.7408257     
   3865590891.9053006     
   3674642662.3613138     
   3485364543.3367085     
   3297952106.6127863     
   3828067465.4034114     
   3648861245.3612309     
   3472162194.0965939     
   3298176284.2615528     
   3127228263.0902233     
   3626739833.7461615     
   3461442055.4098210     
   3299726421.0606461     
   3141906186.1182580     
   2988431479.8429089     
   3717204148.5713954     
   3553828511.7805371     
   3390482880.9314919     
   3227189155.1611538     
   3064011729.0939741     
   3496030585.7570148     
   3342296228.3689480     
   3189132450.2281137     
   3036627086.5848799     
   2884922600.8434072     
   3297952106.6127863     
   3154154373.5349960     
   3011541311.2192373     
   2870274874.7045078     
   2730583493.8959179     
   3127228263.0902233     
   2993747723.3809919     
   2862130399.8739972     
   2732614920.5866704     
   2605515402.9238801     
   2988431479.8429089     
   2865688760.0558043     
   2745526247.2183418     
   2628252070.7428069     
   2514252885.8046327     
   3064011729.0939741     
   2894669446.4612398     
   2725499274.4253950     
   2556481534.6371679     
   2387599432.3081350     
   2884922600.8434072     
   2719977211.7072582     
   2555397682.6286745     
   2391207891.3761196     
   2227452396.1549892     
   2730583493.8959179     
   2572011850.5423708     
   2414336191.7185812     
   2257688855.0756435     
   2102261719.6409991     
   2605515402.9238801     
   2455601852.5228729     
   2307503818.0833731     
   2161529666.7757177     
   2018102252.4650578     
   2514252885.8046327     
   2375411685.5459466     
   2239676217.5630980     
   2107567522.8628805     
   1979770614.3820262     
   2387599432.3081350     
   2243235738.4054055     
   2100921889.3951566     
   1960672645.6148856     
   1822649505.5651987     
   2227452396.1549892     
   2085583212.5740404     
   1945243001.3682613     
   1806435593.0367770     
   1669232773.8431578     
   2102261719.6409991     
   1962362748.9403815     
   1823354236.8421962     
   1685262224.8268738     
   1548138806.6459556     
   2018102252.4650578     
   1881225851.3491678     
   1744701138.2203195     
   1608652130.2495139     
   1473249706.6004982     
   1979770614.3820262     
   1848623658.4574463     
   1717665938.0512712     
   1587250227.8279269     
   1457882176.5802577     
   1822649505.5651987     
   1781299907.5912554     
   1736488751.0081758     
   1696844344.4713218     
   1680791541.1389358     
   1669232773.8431578     
   1553401925.6337266     
   1428497656.6943319     
   1294896768.3639321     
   1158699254.6171219     
   1548138806.6459556     
   1398055492.1564245     
   1244429750.7417688     
   1085014734.4950569     
   917800858.11281431     
   1473249706.6004982     
   1328965373.1939034     
   1199139811.0315051     
   1088264579.0850112     
   1002257028.8063031     
   1457882176.5802577     
   1348950413.9133775     
   1274965683.0547771     
   1244050272.9707527     
   1263234663.1526699     
   1680791541.1389358     
   1383437153.5368328     
   1129379481.6701322     
   1010237884.1787753     
   1153039938.9515588     
   1158699254.6171219     
   1008366024.1413765     
   985266508.06822276     
   1161543805.4636872     
   1544045388.1296887     
   917800858.11281431     
   963229650.86406076     
   1145024922.0838349     
   1476519101.9962609     
   1957397446.1600614     
   1002257028.8063031     
   1164879094.9758723     
   1425522662.6197155     
   1808774128.1746533     
   2334722917.9103093     
   1263234663.1526699     
   1446896807.8625534     
   1715787090.1333475     
   2110497648.6049888     
   2663484795.0323534     
   4585360725.6823387     
   4456038904.2851591     
   4326487305.3128119     
   4195269833.1959333     
   4061311403.3204122     
   4305920065.2001553     
   4181349480.1705098     
   4057491966.4593248     
   3934187803.6904392     
   3811414877.2001934     
   4056350715.4894586     
   3933593061.4904685     
   3814684858.2197051     
   3700012266.7718277     
   3590049064.4539680     
   3850631476.8230205     
   3724304098.5904818     
   3607481478.3774953     
   3500169365.3447537     
   3402581582.1311288     
   3706381801.1035423     
   3567869684.5059991     
   3447292710.1915336     
   3343237492.7338266     
   3254755951.7340565     
   4061311403.3204122     
   3951540863.4967284     
   3842403001.4115252     
   3734044871.9061499     
   3626739833.7461615     
   3811414877.2001934     
   3713892887.7744594     
   3618241019.6130519     
   3524752806.0178928     
   3433813130.0415831     
   3590049064.4539680     
   3504658016.3409262     
   3422483600.1355948     
   3343887724.0445504     
   3269293398.4994059     
   3402581582.1311288     
   3328822435.7234569     
   3259657868.9753990     
   3195420620.4911251     
   3136484013.3643899     
   3254755951.7340565     
   3191576066.2947659     
   3134312012.9197574     
   3083159260.4159737     
   3038351336.2192440     
   3626739833.7461615     
   3461442055.4098210     
   3299726421.0606461     
   3141906186.1182580     
   2988431479.8429089     
   3433813130.0415831     
   3283674692.6628952     
   3137877931.2012286     
   2996831351.4310350     
   2861084728.7591152     
   3269293398.4994059     
   3134788181.8517051     
   3005422636.1915035     
   2881682872.6513829     
   2764189897.2243776     
   3136484013.3643899     
   3018031865.8036513     
   2905501300.8915973     
   2799423690.4490604     
   2700446858.2386899     
   3038351336.2192440     
   2936194867.5669770     
   2840654995.7432618     
   2752265105.2971845     
   2671647047.2311544     
   2988431479.8429089     
   2865688760.0558043     
   2745526247.2183418     
   2628252070.7428069     
   2514252885.8046327     
   2861084728.7591152     
   2749967593.5800796     
   2642297329.0978484     
   2538495233.9971557     
   2439073290.5265117     
   2764189897.2243776     
   2666392875.2428832     
   2573025223.6196952     
   2484604580.7888088     
   2401739201.3398118     
   2700446858.2386899     
   2617432639.4034815     
   2539855120.7853527     
   2468287442.9634914     
   2403379175.4039397     
   2671647047.2311544     
   2604429277.5550108     
   2543574733.0834341     
   2489658261.1756725     
   2443307970.8165579     
   2514252885.8046327     
   2375411685.5459466     
   2239676217.5630980     
   2107567522.8628805     
   1979770614.3820262     
   2439073290.5265117     
   2314427769.8352485     
   2194568150.5968442     
   2080229355.2241251     
   1972322034.0154119     
   2401739201.3398118     
   2293149712.1924005     
   2191035310.8255029     
   2096236280.2876420     
   2009731114.7662351     
   2403379175.4039397     
   2311763878.0773549     
   2228082031.0362315     
   2153138320.8624716     
   2087810282.2389348     
   2443307970.8165579     
   2368465950.3100605     
   2302628102.8613014     
   2246450333.6589847     
   2200601862.6747446     
   1979770614.3820262     
   1848623658.4574463     
   1717665938.0512712     
   1587250227.8279269     
   1457882176.5802577     
   1972322034.0154119     
   1855852794.5957148     
   1743856754.3457100     
   1637258259.7974672     
   1537189956.5531936     
   2009731114.7662351     
   1913079865.6270556     
   1825264652.1687210     
   1747489479.5936475     
   1681051087.4768536     
   2087810282.2389348     
   2012601251.1957378     
   1949787694.6111479     
   1900456827.0873339     
   1865645925.4820921     
   2200601862.6747446     
   2145480265.8890827     
   2105331216.8077183     
   2080935518.0808954     
   2072980163.7903516     
   1457882176.5802577     
   1348950413.9133775     
   1274965683.0547771     
   1244050272.9707527     
   1263234663.1526699     
   1537189956.5531936     
   1476391143.2903299     
   1448263615.6553800     
   1456771610.4827752     
   1505203360.0438771     
   1681051087.4768536     
   1652600362.6731372     
   1651856517.9542377     
   1681186000.9090366     
   1743194862.7398417     
   1865645925.4820921     
   1855140317.5534074     
   1867593820.9180629     
   1905213626.3736200     
   1971033895.5164890     
   2072980163.7903516     
   2069411061.4472671     
   2085063150.7850282     
   2122568198.0445933     
   2185748283.0293198     
   1263234663.1526699     
   1446896807.8625534     
   1715787090.1333475     
   2110497648.6049888     
   2663484795.0323534     
   1505203360.0438771     
   1613472736.8075516     
   1788946628.9292808     
   2066382508.0991523     
   2475997219.2342634     
   1743194862.7398417     
   1787878474.0377288     
   1884716041.8361552     
   2060617817.7014627     
   2340815267.9668875     
   1971033895.5164890     
   1969070616.7652185     
   2003660663.3636684     
   2093472220.1089947     
   2257156741.0747972     
   2185748283.0293198     
   2156332435.4561086     
   2146521184.9321308     
   2166825052.8714905     
   2228298031.8630753     
   3706381801.1035423     
   3567869684.5059991     
   3447292710.1915336     
   3343237492.7338266     
   3254755951.7340565     
   3468319868.4751143     
   3361127478.7571335     
   3264498913.0769114     
   3178280125.4737935     
   3102444383.9441390     
   3257482566.7697783     
   3178588928.4130812     
   3105488028.0946612     
   3038390453.7082400     
   2977593575.5682554     
   3069442100.0272350     
   3017168137.6472654     
   2969263856.3281870     
   2925036909.9036951     
   2884278608.8191924     
   2900936486.3165445     
   2874372874.9724360     
   2855021351.0535636     
   2839571657.0975537     
   2826220316.9253359     
   3254755951.7340565     
   3191576066.2947659     
   3134312012.9197574     
   3083159260.4159737     
   3038351336.2192440     
   3102444383.9441390     
   3049274415.3319364     
   3002178538.3167396     
   2961374678.0454264     
   2927107625.9928546     
   2977593575.5682554     
   2934212114.8027501     
   2897168538.5373011     
   2866681445.8306050     
   2842986321.3467426     
   2884278608.8191924     
   2850109567.9951530     
   2822638787.4528966     
   2802062310.6917362     
   2788585712.0731034     
   2826220316.9253359     
   2800241938.7218995     
   2781412860.9666109     
   2769885234.6507487     
   2765817381.3443518     
   3038351336.2192440     
   2936194867.5669770     
   2840654995.7432618     
   2752265105.2971845     
   2671647047.2311544     
   2927107625.9928546     
   2838828956.4316163     
   2758116295.0459399     
   2685482312.2188711     
   2621508682.7664104     
   2842986321.3467426     
   2768361154.2884736     
   2702189955.7579508     
   2644924457.3087406     
   2597062926.7103953     
   2788585712.0731034     
   2726802581.2997665     
   2674264094.1024041     
   2631329322.2301788     
   2598383813.8109355     
   2765817381.3443518     
   2715415899.8986192     
   2674942271.8563046     
   2644647728.8758020     
   2624796118.5438862     
   2671647047.2311544     
   2604429277.5550108     
   2543574733.0834341     
   2489658261.1756725     
   2443307970.8165579     
   2621508682.7664104     
   2569398562.7561579     
   2524483475.6767058     
   2487252980.2057776     
   2458218112.2983212     
   2597062926.7103953     
   2559202965.9199629     
   2529161708.2010512     
   2507315444.5853081     
   2494039472.5175033     
   2598383813.8109355     
   2573281179.5877213     
   2556426055.6022301     
   2548076194.7045264     
   2548477500.4186616     
   2624796118.5438862     
   2610409094.3915401     
   2604552562.1783795     
   2607379545.9457092     
   2619030040.3857031     
   2443307970.8165579     
   2368465950.3100605     
   2302628102.8613014     
   2246450333.6589847     
   2200601862.6747446     
   2458218112.2983212     
   2398803578.9784203     
   2349098769.3040318     
   2309638444.4337335     
   2280939683.7686100     
   2494039472.5175033     
   2449121950.3977103     
   2414407685.5347781     
   2390293297.1785507     
   2377142955.8279767     
   2548477500.4186616     
   2516639077.1558428     
   2495352626.9933424     
   2484885854.9834938     
   2485473201.8059392     
   2619030040.3857031     
   2598522314.1111040     
   2588858660.8449793     
   2590201688.2405682     
   2602688322.3157015     
   2200601862.6747446     
   2145480265.8890827     
   2105331216.8077183     
   2080935518.0808954     
   2072980163.7903516     
   2280939683.7686100     
   2241061754.5366077     
   2215058535.8447471     
   2203381533.1132426     
   2206416940.7960749     
   2377142955.8279767     
   2349468158.0780540     
   2334538527.5897732     
   2332600215.6652508     
   2343868604.4805622     
   2485473201.8059392     
   2467274827.1248345     
   2460779055.1485028     
   2466116425.6058350     
   2483415290.2579250     
   2602688322.3157015     
   2591627134.9257026     
   2591373179.0311694     
   2602000360.2888160     
   2623600205.0504856     
   2072980163.7903516     
   2069411061.4472671     
   2085063150.7850282     
   2122568198.0445933     
   2185748283.0293198     
   2206416940.7960749     
   2191937270.8818226     
   2192456275.0358357     
   2209944836.4094963     
   2247330112.4392328     
   2343868604.4805622     
   2319310967.0339260     
   2306313272.4205561     
   2306282790.7713599     
   2321312402.0744491     
   2483415290.2579250     
   2450561922.2323966     
   2426316050.4137254     
   2411624178.9719219     
   2407864923.0841684     
   2623600205.0504856     
   2584912223.9243846     
   2552181263.7886939     
   2525988934.4354095     
   2507143561.4448280     
   2185748283.0293198     
   2156332435.4561086     
   2146521184.9321308     
   2166825052.8714905     
   2228298031.8630753     
   2247330112.4392328     
   2182616684.8146777     
   2134336867.3599629     
   2112146453.0632844     
   2126965179.3837175     
   2321312402.0744491     
   2224631719.7482328     
   2141263633.3211026     
   2079564681.4206226     
   2049694816.7898383     
   2407864923.0841684     
   2282670404.9893527     
   2167947880.9633236     
   2070430963.8563848     
   1998879546.2278903     
   2507143561.4448280     
   2356940724.6212945     
   2214859567.2935457     
   2085876458.0647802     
   1976862632.1565979     
   2900936486.3165445     
   2874372874.9724360     
   2855021351.0535636     
   2839571657.0975537     
   2826220316.9253359     
   2703250687.9022012     
   2698552775.7404256     
   2700995517.9863386     
   2709658795.2251039     
   2724071883.2035832     
   2583623225.7444744     
   2589184872.5557675     
   2602952550.3139653     
   2624988615.6361327     
   2655353562.2063575     
   2555723219.7863145     
   2556624349.3994136     
   2568225272.9077930     
   2589930941.5923734     
   2621500894.5412846     
   2627393841.2514906     
   2606713030.2687979     
   2600678767.1206017     
   2606465915.7181144     
   2622724430.7662759     
   2826220316.9253359     
   2800241938.7218995     
   2781412860.9666109     
   2769885234.6507487     
   2765817381.3443518     
   2724071883.2035832     
   2708754909.2029471     
   2700356866.0120502     
   2698975572.6224618     
   2704715846.4286537     
   2655353562.2063575     
   2649564025.7027740     
   2650485498.4627299     
   2658156714.9229865     
   2672631897.3667083     
   2621500894.5412846     
   2623858717.7803249     
   2632774726.9718313     
   2648224126.2537613     
   2670213189.4895096     
   2622724430.7662759     
   2631663003.2942948     
   2647100397.5780916     
   2668942994.5783954     
   2697149764.2469630     
   2765817381.3443518     
   2715415899.8986192     
   2674942271.8563046     
   2644647728.8758020     
   2624796118.5438862     
   2704715846.4286537     
   2664437990.9539161     
   2634197229.2992435     
   2614136488.2212400     
   2604401480.5039492     
   2672631897.3667083     
   2639666888.1018243     
   2616753695.8592954     
   2603951672.5170383     
   2601319978.2438703     
   2670213189.4895096     
   2641446610.0122213     
   2622687454.9934001     
   2613944910.9209704     
   2615229119.2891464     
   2697149764.2469630     
   2669341581.4180346     
   2651465914.7237964     
   2643518066.1979494     
   2645497465.8651552     
   2624796118.5438862     
   2610409094.3915401     
   2604552562.1783795     
   2607379545.9457092     
   2619030040.3857031     
   2604401480.5039492     
   2597924362.1478381     
   2599934166.3411994     
   2610517561.8000875     
   2629752214.3827682     
   2601319978.2438703     
   2600853894.6883326     
   2608857423.0741925     
   2625369350.1770883     
   2650423962.0692959     
   2615229119.2891464     
   2618718325.8396735     
   2630720522.7881360     
   2651245534.3661222     
   2680302059.4099965     
   2645497465.8651552     
   2650808811.6578231     
   2664762249.5502024     
   2687357017.6274953     
   2718592437.5015664     
   2619030040.3857031     
   2598522314.1111040     
   2588858660.8449793     
   2590201688.2405682     
   2602688322.3157015     
   2629752214.3827682     
   2616760454.8140292     
   2614187576.3412628     
   2622119681.6676774     
   2640627714.6959920     
   2650423962.0692959     
   2643176569.1568565     
   2646017751.4800844     
   2658984256.7379169     
   2682106027.7967658     
   2680302059.4099965     
   2677054435.9732103     
   2683683888.0984139     
   2700199812.2554526     
   2726610063.2026181     
   2718592437.5015664     
   2717661759.5111232     
   2726529345.9987140     
   2745194823.8199964     
   2773658155.2065196     
   2602688322.3157015     
   2591627134.9257026     
   2591373179.0311694     
   2602000360.2888160     
   2623600205.0504856     
   2640627714.6959920     
   2630896070.7202940     
   2631239188.5137577     
   2641694175.2850471     
   2662309797.2018309     
   2682106027.7967658     
   2673416736.7148867     
   2674242258.2114887     
   2684596992.8878698     
   2704501406.0727906     
   2726610063.2026181     
   2718805823.2970424     
   2720112451.2880273     
   2730532775.3664737     
   2750071576.5820799     
   2773658155.2065196     
   2766699612.8428206     
   2768589549.2445898     
   2779327874.0968208     
   2798914544.3144426     
   2623600205.0504856     
   2584912223.9243846     
   2552181263.7886939     
   2525988934.4354095     
   2507143561.4448280     
   2662309797.2018309     
   2616743833.3679624     
   2576882482.2785873     
   2543056310.2041111     
   2515727032.6602383     
   2704501406.0727906     
   2654150663.7798386     
   2609396037.0850415     
   2570384498.6769733     
   2537321776.6559672     
   2750071576.5820799     
   2697037521.4693336     
   2649634066.2848754     
   2607897531.7701750     
   2571878659.8006492     
   2798914544.3144426     
   2745300769.8718214     
   2697494218.7021060     
   2655494888.9922214     
   2619302781.2951112     
   2507143561.4448280     
   2356940724.6212945     
   2214859567.2935457     
   2085876458.0647802     
   1976862632.1565979     
   2515727032.6602383     
   2347977644.0565467     
   2183754492.0980697     
   2026154641.1743166     
   1879738817.8839264     
   2537321776.6559672     
   2357111809.0437417     
   2176627863.3335557     
   1997339809.2714546     
   1821523062.1563463     
   2571878659.8006492     
   2384447947.2996368     
   2193946501.0788836     
   2000751958.1855233     
   1805467389.1494694     
   2619302781.2951112     
   2429956013.3072290     
   2235853176.8032789     
   2036994271.1033871     
   1833379295.6898389     
   2627393841.2514906     
   2606713030.2687979     
   2600678767.1206017     
   2606465915.7181144     
   2622724430.7662759     
   2674538759.1510239     
   2640220689.7709126     
   2615997578.3215675     
   2600976158.1041894     
   2594745226.2518520     
   2742834266.5750451     
   2698630393.0856090     
   2662166243.8701401     
   2633431132.7698622     
   2612455578.7089548     
   2829144969.9691429     
   2779587421.4961429     
   2737533875.8056893     
   2702878480.4105968     
   2675610195.0146108     
   2931770341.1177850     
   2881183124.1478086     
   2839965647.5634627     
   2807006441.1798186     
   2781784557.0114613     
   2622724430.7662759     
   2631663003.2942948     
   2647100397.5780916     
   2668942994.5783954     
   2697149764.2469630     
   2594745226.2518520     
   2604365616.9878688     
   2620987302.4821353     
   2644582333.6504140     
   2675135196.4087100     
   2612455578.7089548     
   2618149776.7294331     
   2631196270.6942501     
   2651637329.2766652     
   2679513645.4754367     
   2675610195.0146108     
   2672868974.0239091     
   2677646498.4976869     
   2690056342.3834038     
   2710225554.5621490     
   2781784557.0114613     
   2766578631.4150867     
   2758834055.6884146     
   2758723780.2601156     
   2766479449.3360844     
   2697149764.2469630     
   2669341581.4180346     
   2651465914.7237964     
   2643518066.1979494     
   2645497465.8651552     
   2675135196.4087100     
   2645008081.9700918     
   2624613486.0001445     
   2613969801.5853043     
   2613097570.6236110     
   2679513645.4754367     
   2644787679.2820368     
   2619626876.5649924     
   2604096705.6758819     
   2598263625.9917016     
   2710225554.5621490     
   2668820369.6789169     
   2636822980.5197062     
   2614365262.1870756     
   2601581215.1572542     
   2766479449.3360844     
   2716608902.2638483     
   2675975582.6673579     
   2644790239.9036765     
   2623270581.6791105     
   2645497465.8651552     
   2650808811.6578231     
   2664762249.5502024     
   2687357017.6274953     
   2718592437.5015664     
   2613097570.6236110     
   2616891938.0902567     
   2629204314.8551135     
   2650043588.1636052     
   2679417321.8912930     
   2598263625.9917016     
   2598273374.1682358     
   2606744559.0254469     
   2623716089.0004210     
   2649222248.7527876     
   2601581215.1572542     
   2595625650.4154630     
   2598116825.5720429     
   2609144275.2128334     
   2628788842.8651910     
   2623270581.6791105     
   2609346390.3548017     
   2603860679.9225221     
   2606973066.0769715     
   2618831394.5005198     
   2718592437.5015664     
   2717661759.5111232     
   2726529345.9987140     
   2745194823.8199964     
   2773658155.2065196     
   2679417321.8912930     
   2676741694.3047504     
   2683896732.6628056     
   2700889100.3028550     
   2727723841.1402016     
   2649222248.7527876     
   2642906168.7715802     
   2646575433.0881047     
   2660263350.0667257     
   2683996261.4674063     
   2628788842.8651910     
   2616893584.6582136     
   2615244239.4873519     
   2623924229.1334858     
   2643001730.2421956     
   2618831394.5005198     
   2599417966.2597547     
   2590589245.0988231     
   2592506617.2104425     
   2605306202.1686859     
   2773658155.2065196     
   2766699612.8428206     
   2768589549.2445898     
   2779327874.0968208     
   2798914544.3144426     
   2727723841.1402016     
   2719522891.7155600     
   2720490118.4249477     
   2730629237.5080709     
   2749945120.4896345     
   2683996261.4674063     
   2674609899.2696204     
   2674857757.1362314     
   2684755163.6689215     
   2704323007.8393769     
   2643001730.2421956     
   2632353245.8493209     
   2631968075.6596589     
   2641883924.2794714     
   2662150943.6571412     
   2605306202.1686859     
   2593170004.6799994     
   2592108734.6575289     
   2602196732.9737902     
   2623528871.8457022     
   2798914544.3144426     
   2745300769.8718214     
   2697494218.7021060     
   2655494888.9922214     
   2619302781.2951112     
   2749945120.4896345     
   2696979511.0885949     
   2649632175.7953267     
   2607939911.8680844     
   2571954376.6427646     
   2704323007.8393769     
   2654084513.8174047     
   2609417213.7904119     
   2570468621.9415812     
   2537445234.9955339     
   2662150943.6571412     
   2616717978.6714468     
   2576951526.6679783     
   2543182290.5548701     
   2515871493.6616325     
   2623528871.8457022     
   2584973392.4366307     
   2552322696.8962536     
   2526157641.8470120     
   2507283733.4715981     
   2619302781.2951112     
   2429956013.3072290     
   2235853176.8032789     
   2036994271.1033871     
   1833379295.6898389     
   2571954376.6427646     
   2384491836.8439736     
   2193970470.3494411     
   2000768831.8538556     
   1805491000.7334023     
   2537445234.9955339     
   2357181338.6707120     
   2176666945.9830031     
   1997374355.3515921     
   1821582146.7026589     
   2515871493.6616325     
   2348055306.4718704     
   2183799826.1630077     
   2026206381.6111960     
   1879841382.0509160     
   2507283733.4715981     
   2357009828.5072145     
   2214902372.2871046     
   2085943917.9643486     
   1977013651.2331331     
   2931770341.1177850     
   2881183124.1478086     
   2839965647.5634627     
   2807006441.1798186     
   2781784557.0114613     
   3006060417.2063622     
   2957613077.1420546     
   2917657068.7405496     
   2886009279.6937652     
   2862661651.3273697     
   3148784950.4194775     
   3094424524.9260492     
   3047230201.2365990     
   3007514927.0180993     
   2975631482.7808509     
   3349914074.3201776     
   3283044246.5890613     
   3221689651.4357080     
   3166178207.7762060     
   3116991882.8988800     
   3598922798.0298867     
   3514380218.7089319     
   3433554773.6893411     
   3356305843.8933930     
   3282941710.7856708     
   2781784557.0114613     
   2766578631.4150867     
   2758834055.6884146     
   2758723780.2601156     
   2766479449.3360844     
   2862661651.3273697     
   2834272155.9824333     
   2812314630.8434882     
   2797054089.2278824     
   2788796203.7391391     
   2975631482.7808509     
   2934106041.4457378     
   2898106732.8604965     
   2867940350.2410612     
   2843944352.8517728     
   3116991882.8988800     
   3063006717.5493479     
   3013789925.3478260     
   2969641856.5202546     
   2930888429.3010402     
   3282941710.7856708     
   3217591589.0271826     
   3156428559.1826353     
   3099706835.9172606     
   3047703832.5888672     
   2766479449.3360844     
   2716608902.2638483     
   2675975582.6673579     
   2644790239.9036765     
   2623270581.6791105     
   2788796203.7391391     
   2727081977.9651704     
   2674396495.8500075     
   2631057871.7534013     
   2597405328.4656730     
   2843944352.8517728     
   2768614378.9732823     
   2701936435.6337423     
   2644333732.4204311     
   2596273390.2053719     
   2930888429.3010402     
   2840669180.8518147     
   2758554811.2512174     
   2685053088.3879251     
   2620744849.9786921     
   3047703832.5888672     
   2941811205.9331555     
   2843332332.0557203     
   2752824959.7369499     
   2670950300.6957178     
   2623270581.6791105     
   2609346390.3548017     
   2603860679.9225221     
   2606973066.0769715     
   2618831394.5005198     
   2597405328.4656730     
   2572293548.3040643     
   2555416601.8755126     
   2547030981.6901126     
   2547382454.8593602     
   2596273390.2053719     
   2558190764.1882539     
   2528017696.0995712     
   2506119882.1655984     
   2492861123.2854104     
   2620744849.9786921     
   2568388602.4853673     
   2523448908.1747031     
   2486396331.4999080     
   2457717941.9914846     
   2670950300.6957178     
   2603576008.6971655     
   2542943201.4829054     
   2489602908.5347977     
   2444148825.3823509     
   2618831394.5005198     
   2599417966.2597547     
   2590589245.0988231     
   2592506617.2104425     
   2605306202.1686859     
   2547382454.8593602     
   2516468612.6869154     
   2495935744.5733080     
   2486056837.7118406     
   2487072469.0699167     
   2492861123.2854104     
   2448531790.5301476     
   2414300835.2524152     
   2390581967.3667784     
   2377758193.5674357     
   2457717941.9914846     
   2398383650.5203223     
   2348694212.9722376     
   2309218649.5266328     
   2280512219.4191732     
   2444148825.3823509     
   2368712069.4871244     
   2302223501.5675445     
   2245394252.1181736     
   2198957047.5415893     
   2605306202.1686859     
   2593170004.6799994     
   2592108734.6575289     
   2602196732.9737902     
   2623528871.8457022     
   2487072469.0699167     
   2468227872.1593566     
   2461247250.2558703     
   2466261995.1700249     
   2483403399.0917845     
   2377758193.5674357     
   2349851209.2168975     
   2334745520.5242987     
   2332686875.0257964     
   2343891769.8768921     
   2280512219.4191732     
   2240832405.2270923     
   2214977257.3890328     
   2203392974.2973170     
   2206461775.2399468     
   2198957047.5415893     
   2144515611.6675003     
   2104889888.9145434     
   2080843993.3938396     
   2073049425.0376587     
   2623528871.8457022     
   2584973392.4366307     
   2552322696.8962536     
   2526157641.8470120     
   2507283733.4715981     
   2483403399.0917845     
   2450598147.9283519     
   2426375287.3835731     
   2411680948.7503958     
   2407890995.4869294     
   2343891769.8768921     
   2319304656.7285385     
   2306279566.3342719     
   2306223882.9652500     
   2321228212.9746428     
   2206461775.2399468     
   2191876664.9745722     
   2192320433.0441732     
   2209765098.5680084     
   2247136726.6048808     
   2073049425.0376587     
   2069292481.7194004     
   2084817973.5355563     
   2122261037.1931691     
   2185444770.2764874     
   2507283733.4715981     
   2357009828.5072145     
   2214902372.2871046     
   2085943917.9643486     
   1977013651.2331331     
   2407890995.4869294     
   2282686771.1577411     
   2167980996.8615541     
   2070512891.8101230     
   1999048877.3216434     
   2321228212.9746428     
   2224595698.3051138     
   2141283479.4245198     
   2079652583.3501010     
   2049867926.6058598     
   2247136726.6048808     
   2182526728.1457658     
   2134338933.5056295     
   2112232204.8115020     
   2127130039.8196213     
   2185444770.2764874     
   2156185455.0607085     
   2146500187.0068798     
   2166901083.1710668     
   2228445304.8536468     
   3598922798.0298867     
   3514380218.7089319     
   3433554773.6893411     
   3356305843.8933930     
   3282941710.7856708     
   3845246214.3130989     
   3735879401.4629660     
   3629833352.7225771     
   3527277053.0595374     
   3428563022.2019534     
   4106558891.6588192     
   3976709269.6995792     
   3850588161.0574903     
   3728427783.0613275     
   3610543349.3578072     
   4382249588.0246468     
   4235270394.4318724     
   4093134059.2849631     
   3955929363.3449984     
   3823860565.9654460     
   4672136960.4310808     
   4510339507.1748428     
   4355122741.4587660     
   4206251378.8120441     
   4063744043.1967955     
   3282941710.7856708     
   3217591589.0271826     
   3156428559.1826353     
   3099706835.9172606     
   3047703832.5888672     
   3428563022.2019534     
   3352005991.7624025     
   3279099989.0368204     
   3210139494.5800052     
   3145456855.7554040     
   3610543349.3578072     
   3522369631.2454848     
   3437195177.5349712     
   3355322330.9775724     
   3277106288.4451561     
   3823860565.9654460     
   3723846495.5342970     
   3626116951.4489522     
   3530951963.6206889     
   3438697335.4176064     
   4063744043.1967955     
   3951771824.5554447     
   3841351253.9874663     
   3732715100.6013684     
   3626171584.4520497     
   3047703832.5888672     
   2941811205.9331555     
   2843332332.0557203     
   2752824959.7369499     
   2670950300.6957178     
   3145456855.7554040     
   3024310546.5144477     
   2909501867.3197913     
   2801585958.9856992     
   2701246152.2195220     
   3277106288.4451561     
   3140998270.3396001     
   3010131476.3284974     
   2885011273.1452322     
   2766282991.5865803     
   3438697335.4176064     
   3288261626.7644429     
   3142024508.0730863     
   3000409366.2388825     
   2863977086.9300623     
   3626171584.4520497     
   3462226813.0934329     
   3301544692.9553142     
   3144452513.2189741     
   2991401483.2050862     
   2670950300.6957178     
   2603576008.6971655     
   2542943201.4829054     
   2489602908.5347977     
   2444148825.3823509     
   2701246152.2195220     
   2618586593.8597503     
   2541568695.3796115     
   2470770301.9745846     
   2406841899.7407064     
   2766282991.5865803     
   2668962281.7259364     
   2576067397.0823379     
   2488137256.2461309     
   2405804108.5875731     
   2863977086.9300623     
   2753249290.3293595     
   2645730941.0072885     
   2541867082.5675316     
   2442199746.9294019     
   2991401483.2050862     
   2868929589.5990639     
   2748560085.9850259     
   2630615907.5957537     
   2515504218.8895283     
   2444148825.3823509     
   2368712069.4871244     
   2302223501.5675445     
   2245394252.1181736     
   2198957047.5415893     
   2406841899.7407064     
   2313887414.0637546     
   2228834296.7115493     
   2152504210.0394940     
   2085799085.4986608     
   2405804108.5875731     
   2295581800.2309299     
   2191892116.7345428     
   2095562939.5482922     
   2007561463.7334008     
   2442199746.9294019     
   2315954607.7951951     
   2194704290.6953945     
   2079160077.4821503     
   1970202171.3664844     
   2515504218.8895283     
   2375293439.8071570     
   2238590030.7896018     
   2105901126.4627593     
   1977887090.8081458     
   2198957047.5415893     
   2144515611.6675003     
   2104889888.9145434     
   2080843993.3938396     
   2073049425.0376587     
   2085799085.4986608     
   2011307019.2749147     
   1949091688.3100619     
   1900224543.2370620     
   1865725640.4197705     
   2007561463.7334008     
   1911618758.3716164     
   1824420273.6617129     
   1747158290.1232162     
   1681115193.9338241     
   1970202171.3664844     
   1854388299.2480915     
   1742970293.1202238     
   1636867292.2209735     
   1537206172.7336617     
   1977887090.8081458     
   1847303574.9234252     
   1716833787.4095728     
   1586831599.9763234     
   1457808415.6472621     
   2073049425.0376587     
   2069292481.7194004     
   2084817973.5355563     
   2122261037.1931691     
   2185444770.2764874     
   1865725640.4197705     
   1855047809.8759265     
   1867374532.1719546     
   1904917791.2429283     
   1970715381.0491858     
   1681115193.9338241     
   1652512566.6609135     
   1651649158.6745322     
   1680897353.8173656     
   1742868908.5361369     
   1537206172.7336617     
   1476282738.0845695     
   1448052159.2183464     
   1456484991.1395383     
   1504876598.9095368     
   1457808415.6472621     
   1348789264.5860662     
   1274730928.2068613     
   1243760394.0834992     
   1262915124.4967284     
   2185444770.2764874     
   2156185455.0607085     
   2146500187.0068798     
   2166901083.1710668     
   2228445304.8536468     
   1970715381.0491858     
   1968896226.9339247     
   2003612894.0801721     
   2093531604.6044900     
   2257301473.8404436     
   1742868908.5361369     
   1787680680.3355505     
   1884640456.9197583     
   2060652694.5700970     
   2340940662.7684622     
   1504876598.9095368     
   1613256129.6022339     
   1788842865.4000571     
   2066385665.2082326     
   2476088969.8895574     
   1262915124.4967284     
   1446667195.0524917     
   1715655644.7661927     
   2110463603.2881095     
   2663533141.8457994     
   4672136960.4310808     
   4510339507.1748428     
   4355122741.4587660     
   4206251378.8120441     
   4063744043.1967955     
   4954275752.7663755     
   4791878666.7742796     
   4631872300.6181850     
   4474403446.1398182     
   4319681086.1830587     
   5267126149.3744926     
   5102151888.1004572     
   4935759294.5319376     
   4767942048.2184277     
   4598797460.3439198     
   5600936161.3273907     
   5432951924.1711340     
   5260234059.2080612     
   5082184971.1797104     
   4898547424.7620716     
   5948337665.8269997     
   5777894118.8717403     
   5600044083.7735157     
   5413260748.2793322     
   5216764007.1477785     
   4063744043.1967955     
   3951771824.5554447     
   3841351253.9874663     
   3732715100.6013684     
   3626171584.4520497     
   4319681086.1830587     
   4193398138.8047051     
   4068611119.6402717     
   3945486930.1788621     
   3824246431.5310516     
   4598797460.3439198     
   4459375179.9809513     
   4321607346.2217045     
   4185586971.9853172     
   4051453932.9074583     
   4898547424.7620716     
   4746743658.9117088     
   4596925861.7057896     
   4449108056.8249159     
   4303356808.3075342     
   5216764007.1477785     
   5052956306.5028725     
   4891601644.7088633     
   4732630831.7097721     
   4576043623.7237949     
   3626171584.4520497     
   3462226813.0934329     
   3301544692.9553142     
   3144452513.2189741     
   2991401483.2050862     
   3824246431.5310516     
   3646834038.4103799     
   3471586994.2755103     
   3298713718.9465427     
   3128529373.9402537     
   4051453932.9074583     
   3861224328.5705662     
   3672171545.3718295     
   3484383359.4436550     
   3298031521.4697399     
   4303356808.3075342     
   4101000191.8679109     
   3898968332.2305808     
   3697239610.2725501     
   3495853387.6552701     
   4576043623.7237949     
   4362234352.7073765     
   4148042497.8073683     
   3933355358.2121115     
   3718101733.5858397     
   2991401483.2050862     
   2868929589.5990639     
   2748560085.9850259     
   2630615907.5957537     
   2515504218.8895283     
   3128529373.9402537     
   2994749518.8421993     
   2862642430.6701593     
   2732446564.3631830     
   2604476162.5415068     
   3298031521.4697399     
   3153609833.0702238     
   3010483567.8472342     
   2868805269.4784508     
   2728793848.8331404     
   3495853387.6552701     
   3341143878.1892543     
   3187405795.1964717     
   3034711955.1852670     
   2883193690.7963414     
   3718101733.5858397     
   3553146715.8963380     
   3388882823.8367801     
   3225312575.1349440     
   3062492048.2770729     
   2515504218.8895283     
   2375293439.8071570     
   2238590030.7896018     
   2105901126.4627593     
   1977887090.8081458     
   2604476162.5415068     
   2454114288.8535128     
   2305826136.7423558     
   2159924214.7173767     
   2016832825.2457230     
   2728793848.8331404     
   2570414039.2578878     
   2412986441.9712591     
   2256650976.2107682     
   2101608293.5534859     
   2883193690.7963414     
   2718976629.9674973     
   2554947884.9825020     
   2391134831.8695722     
   2227587389.0323811     
   3062492048.2770729     
   2894464575.9464407     
   2726189798.9400458     
   2557648329.5461607     
   2388825981.5117540     
   1977887090.8081458     
   1847303574.9234252     
   1716833787.4095728     
   1586831599.9763234     
   1457808415.6472621     
   2016832825.2457230     
   1880260425.3001692     
   1744018857.3912802     
   1608235720.5254667     
   1473086504.2108419     
   2101608293.5534859     
   1961749734.5077870     
   1822807928.9887938     
   1684811283.0892923     
   1547814993.3000567     
   2227587389.0323811     
   2085450538.7493045     
   1944901482.3051891     
   1805941966.1945941     
   1668645288.7075598     
   2388825981.5117540     
   2243807275.3967700     
   2100913014.2389076     
   1960150314.8245206     
   1821682708.3870556     
   1457808415.6472621     
   1348789264.5860662     
   1274730928.2068613     
   1243760394.0834992     
   1262915124.4967284     
   1473086504.2108419     
   1328784458.0868497     
   1198943349.5445981     
   1088050745.6676102     
   1002020786.4526353     
   1547814993.3000567     
   1397802640.1883283     
   1244239447.1939974     
   1084866760.1608732     
   917664775.01453674     
   1668645288.7075598     
   1552993234.4998817     
   1428249177.6700952     
   1294782268.0903437     
   1158703292.2547936     
   1821682708.3870556     
   1780643362.5247271     
   1736115215.9834304     
   1696730560.2456360     
   1680945432.1188898     
   1262915124.4967284     
   1446667195.0524917     
   1715655644.7661927     
   2110463603.2881095     
   2663533141.8457994     
   1002020786.4526353     
   1164701101.1196821     
   1425414394.8663819     
   1808742012.1092000     
   2334767366.0643649     
   917664775.01453674     
   963105347.55343843     
   1144937929.4623063     
   1476492900.6724253     
   1957450514.4682515     
   1158703292.2547936     
   1008337409.4628137     
   985218080.16899943     
   1161524843.7923291     
   1544112255.6859677     
   1680945432.1188898     
   1383531303.4105279     
   1129405738.5779619     
   1010226314.6963162     
   1153101371.7275150     
 </DataArray>
 <DataArray  type="Float64" Name="strain" NumberOfComponents="3" format="ascii">
  0.10022392458810225       -4.0029316994736774E-002  -3.6613543932280113E-003
   9.6754894190144825E-002  -3.5438090244565901E-002  -3.5074361721980640E-003
   9.3285863792187396E-002  -3.1805220144528412E-002  -2.9473227721213968E-003
   8.9816833394229967E-002  -2.9130706694624156E-002  -1.9810141929978986E-003
   8.6347802996272538E-002  -2.7414549894853479E-002  -6.0851043482768041E-004
   9.3678056403623255E-002  -3.3606337710632150E-002   7.4014028036482049E-003
   9.0575025684579147E-002  -3.0542561125528278E-002   6.9081712869299983E-003
   8.7471994965535149E-002  -2.8082261915966245E-002   6.7407439489920451E-003
   8.4368964246491096E-002  -2.6225440081946147E-002   6.8991207898337348E-003
   8.1265933527447043E-002  -2.4972095623467916E-002   7.3833018094558445E-003
   8.7306150994367226E-002  -2.7183358426527471E-002   1.6759270198161647E-002
   8.4488728953969805E-002  -2.5647032006490544E-002   1.5973768218286943E-002
   8.1671306913572272E-002  -2.4359303687403994E-002   1.5433679416925777E-002
   7.8853884873174906E-002  -2.3320173469267909E-002   1.5139003794077330E-002
   7.6036462832777429E-002  -2.2529641352082352E-002   1.5089741349742281E-002
   8.1108208360334194E-002  -2.0760379142422819E-002   2.4412247790312522E-002
   7.8496003998316646E-002  -2.0751502887452866E-002   2.3689354621872785E-002
   7.5883799636298960E-002  -2.0636345458841784E-002   2.3131483631679391E-002
   7.3271595274281343E-002  -2.0414906856589730E-002   2.2738634819732571E-002
   7.0659390912263725E-002  -2.0087187080696789E-002   2.2510808186032155E-002
   7.5084228501524464E-002  -1.4337399858318167E-002   3.0360335580100650E-002
   7.2596850817619685E-002  -1.5855973768415133E-002   3.0054930497687316E-002
   7.0109473133715100E-002  -1.6913387230279714E-002   2.9834156593253669E-002
   6.7622095449810446E-002  -1.7509640243911613E-002   2.9698013866799405E-002
   6.5134717765905764E-002  -1.7644732809311225E-002   2.9646502318324885E-002
   8.6347802996272538E-002  -2.7414549894853479E-002  -6.0851043482768041E-004
   8.3859631651252819E-002  -2.6214476200808856E-002  -3.6282911734586420E-004
   8.1371460306233157E-002  -2.5088212068084315E-002  -3.0870813543970588E-005
   7.8883288961213494E-002  -2.4035757496678883E-002   3.8736447657738982E-004
   7.6395117616193775E-002  -2.3057112486593145E-002   8.9187675301860558E-004
   8.1265933527447043E-002  -2.4972095623467916E-002   7.3833018094558445E-003
   7.8874913799752089E-002  -2.4028617813742825E-002   7.4472237904564254E-003
   7.6483894072057135E-002  -2.3101395925982565E-002   7.6191720197873458E-003
   7.4092874344362181E-002  -2.2190429960186379E-002   7.8991464974473707E-003
   7.1701854616667227E-002  -2.1295719916354594E-002   8.2871472234371524E-003
   7.6036462832777429E-002  -2.2529641352082352E-002   1.5089741349742281E-002
   7.3764343984417155E-002  -2.1842759426676517E-002   1.5029457633617044E-002
   7.1492225136056992E-002  -2.1114579783880483E-002   1.5098949427831659E-002
   6.9220106287696745E-002  -2.0345102423693431E-002   1.5298216732385718E-002
   6.6947987439336470E-002  -1.9534327346115987E-002   1.5627259547279504E-002
   7.0659390912263725E-002  -2.0087187080696789E-002   2.2510808186032155E-002
   6.8527922205248157E-002  -1.9656901039610347E-002   2.2383872412135693E-002
   6.6396453498232588E-002  -1.9127763641778400E-002   2.2408461410589248E-002
   6.4264984791217034E-002  -1.8499774887200816E-002   2.2584575181392168E-002
   6.2133516084201465E-002  -1.7772934775877630E-002   2.2912213724545050E-002
   6.5134717765905764E-002  -1.7644732809311225E-002   2.9646502318324885E-002
   6.3165648462244900E-002  -1.7471042652544150E-002   2.9510468126012657E-002
   6.1196579158584050E-002  -1.7140947499676512E-002   2.9547707968060055E-002
   5.9227509854923151E-002  -1.6654447350708000E-002   2.9758221844466998E-002
   5.7258440551262335E-002  -1.6011542205639051E-002   3.0142009755233623E-002
   7.6395117616193775E-002  -2.3057112486593145E-002   8.9187675301860558E-004
   7.2741097252012110E-002  -2.2116430126149556E-002   3.5657648106268702E-004
   6.9087076887830501E-002  -2.1177863503670569E-002   4.3064713835139212E-005
   6.5433056523648836E-002  -2.0241412619156296E-002  -4.8658548663371715E-005
   6.1779036159467227E-002  -1.9307077472606848E-002   8.1406693566377086E-005
   7.1701854616667227E-002  -2.1295719916354594E-002   8.2871472234371524E-003
   6.8270450877948252E-002  -2.0412513817642808E-002   7.6876370412911621E-003
   6.4839047139229333E-002  -1.9536059687207230E-002   7.3115716053417656E-003
   6.1407643400510387E-002  -1.8666357525046709E-002   7.1589509155895181E-003
   5.7976239661791440E-002  -1.7803407331162147E-002   7.2297749720334759E-003
   6.6947987439336470E-002  -1.9534327346115987E-002   1.5627259547279504E-002
   6.3740856567548479E-002  -1.8708597509136754E-002   1.4958903224632225E-002
   6.0533725695760404E-002  -1.7894255870743780E-002   1.4515647889649846E-002
   5.7326594823972399E-002  -1.7091302430937455E-002   1.4297493542332590E-002
   5.4119463952184366E-002  -1.6299737189717278E-002   1.4304440182680317E-002
   6.2133516084201465E-002  -1.7772934775877630E-002   2.2912213724545050E-002
   5.9152314320812610E-002  -1.7004681200630131E-002   2.2170375031085585E-002
   5.6171112557423776E-002  -1.6252452054280331E-002   2.1655293566759451E-002
   5.3189910794034928E-002  -1.5516247336827702E-002   2.1366969331566676E-002
   5.0208709030646025E-002  -1.4796067048272826E-002   2.1305402325506977E-002
   5.7258440551262335E-002  -1.6011542205639051E-002   3.0142009755233623E-002
   5.4504824137740854E-002  -1.5300764892123814E-002   2.9322052460651504E-002
   5.1751207724219372E-002  -1.4610648237816853E-002   2.8730508636670510E-002
   4.8997591310697919E-002  -1.3941192242718413E-002   2.8367378283291306E-002
   4.6243974897176410E-002  -1.3292396906827930E-002   2.8232661400513392E-002
   6.1779036159467227E-002  -1.9307077472606848E-002   8.1406693566377086E-005
   5.9084599067970589E-002  -1.8374456417855844E-002   1.4499262407152713E-005
   5.6390161976473896E-002  -1.7443147808738596E-002   1.0308970997890965E-004
   5.3695724884977231E-002  -1.6513151645253001E-002   3.4717803627989929E-004
   5.1001287793480565E-002  -1.5584467927400869E-002   7.4676424131170371E-004
   5.7976239661791440E-002  -1.7803407331162147E-002   7.2297749720334759E-003
   5.5433621217669926E-002  -1.6944629612347828E-002   7.1037563838393658E-003
   5.2891002773548496E-002  -1.6087444875398427E-002   7.1258772116657987E-003
   5.0348384329427023E-002  -1.5231853120314040E-002   7.2961374555114700E-003
   4.7805765885305551E-002  -1.4377854347094710E-002   7.6145371153779617E-003
   5.4119463952184366E-002  -1.6299737189717278E-002   1.4304440182680317E-002
   5.1721305692728065E-002  -1.5514802806839367E-002   1.4119029901218688E-002
   4.9323147433271750E-002  -1.4731741942058466E-002   1.4074400573067455E-002
   4.6924989173815497E-002  -1.3950554595374854E-002   1.4170552198226209E-002
   4.4526830914359189E-002  -1.3171240766788328E-002   1.4407484776694846E-002
   5.0208709030646025E-002  -1.4796067048272826E-002   2.1305402325506977E-002
   4.7947652493144859E-002  -1.4084976001330907E-002   2.1060319814545841E-002
   4.5686595955643672E-002  -1.3376039008718844E-002   2.0948659794184813E-002
   4.3425539418142506E-002  -1.2669256070435781E-002   2.0970422264424055E-002
   4.1164482880641319E-002  -1.1964627186482280E-002   2.1125607225262980E-002
   4.6243974897176410E-002  -1.3292396906827930E-002   2.8232661400513392E-002
   4.4112661618920357E-002  -1.2655149195822890E-002   2.7927626123820604E-002
   4.1981348340664276E-002  -1.2020336075378862E-002   2.7748654875017431E-002
   3.9850035062408209E-002  -1.1387957545496673E-002   2.7695747654105068E-002
   3.7718721784152143E-002  -1.0758013606176009E-002   2.7768904461082378E-002
   5.1001287793480565E-002  -1.5584467927400869E-002   7.4676424131170371E-004
   4.8198969506600742E-002  -1.4660883615946085E-002   4.4800057889093914E-004
   4.5396651219720807E-002  -1.3746185671654365E-002   2.1294203760247044E-004
   4.2594332932840900E-002  -1.2840374094524556E-002   4.1588617447407827E-005
   3.9792014645961049E-002  -1.1943448884558228E-002  -6.6059681574914819E-005
   4.7805765885305551E-002  -1.4377854347094710E-002   7.6145371153779617E-003
   4.5075384034850674E-002  -1.3525291344091750E-002   7.2355092426122924E-003
   4.2345002184395852E-002  -1.2674006899655754E-002   6.9366491215641091E-003
   3.9614620333940948E-002  -1.1824001013787874E-002   6.7179567522326344E-003
   3.6884238483486154E-002  -1.0975273686486542E-002   6.5794321346183127E-003
   4.4526830914359189E-002  -1.3171240766788328E-002   1.4407484776694846E-002
   4.1884848130913421E-002  -1.2389699072236859E-002   1.3955800502180538E-002
   3.9242865347467640E-002  -1.1601828127657338E-002   1.3600746609966602E-002
   3.6600882564021893E-002  -1.0807627933050297E-002   1.3342323100054315E-002
   3.3958899780576118E-002  -1.0007098488415633E-002   1.3180529972443289E-002
   4.1164482880641319E-002  -1.1964627186482280E-002   2.1125607225262980E-002
   3.8627361794788775E-002  -1.1254106800382135E-002   2.0608874357594439E-002
   3.6090240708936280E-002  -1.0529649355659046E-002   2.0205234502810782E-002
   3.3553119623083723E-002  -9.7912548523131672E-003   1.9914687660912405E-002
   3.1015998537231249E-002  -9.0389232903444472E-003   1.9737233831899251E-002
   3.7718721784152143E-002  -1.0758013606176009E-002   2.7768904461082378E-002
   3.5302925026476861E-002  -1.0118514528527578E-002   2.7194730808854484E-002
   3.2887128268801635E-002  -9.4574705836605044E-003   2.6750112800096149E-002
   3.0471331511126437E-002  -8.7748817715760305E-003   2.6435050434806873E-002
   2.8055534753451128E-002  -8.0707480922732611E-003   2.6249543712987378E-002
   3.9792014645961049E-002  -1.1943448884558228E-002  -6.6059681574914819E-005
   3.7407215231285873E-002  -1.1128371366676659E-002  -3.0563554074070076E-004
   3.5022415816610752E-002  -1.0468102865801743E-002  -4.7303891463534864E-004
   3.2637616401935576E-002  -9.9626433819342414E-003  -5.6826980326063481E-004
   3.0252816987260456E-002  -9.6119929150744188E-003  -5.9132820661522700E-004
   3.6884238483486154E-002  -1.0975273686486542E-002   6.5794321346183127E-003
   3.4556077713778999E-002  -1.0178906107570329E-002   6.1776349171110967E-003
   3.2227916944071872E-002  -9.4859794668548103E-003   5.8169425042693401E-003
   2.9899756174364703E-002  -8.8964937643395692E-003   5.4973548960932372E-003
   2.7571595404657701E-002  -8.4104490000251886E-003   5.2188720925827603E-003
   3.3958899780576118E-002  -1.0007098488415633E-002   1.3180529972443289E-002
   3.1656309975232111E-002  -9.2294408484644985E-003   1.2667879475400934E-002
   2.9353720169888131E-002  -8.5038560679072395E-003   1.2165266102419331E-002
   2.7051130364544110E-002  -7.8303441467453480E-003   1.1672689853498383E-002
   2.4748540559200116E-002  -7.2089050849769576E-003   1.1190150728638215E-002
   3.1015998537231249E-002  -9.0389232903444472E-003   1.9737233831899251E-002
   2.8707912015645418E-002  -8.2799755893584182E-003   1.9165098134128519E-002
   2.6399825494059712E-002  -7.5217326689602099E-003   1.8571931879813187E-002
   2.4091738972473908E-002  -6.7641945291500132E-003   1.7957735068953835E-002
   2.1783652450888182E-002  -6.0073611699283380E-003   1.7322507701550416E-002
   2.8055534753451128E-002  -8.0707480922732611E-003   2.6249543712987378E-002
   2.5710883835018794E-002  -7.3305103302524488E-003   2.5669290893294283E-002
   2.3366232916586460E-002  -6.5396092700130415E-003   2.5036939836451666E-002
   2.1021581998154099E-002  -5.6980449115555318E-003   2.4352490542460525E-002
   1.8676931079721737E-002  -4.8058172548794964E-003   2.3615943011319973E-002
   3.0252816987260456E-002  -9.6119929150744188E-003  -5.9132820661522700E-004
   2.9632140426576581E-002  -9.1366397252460319E-003  -3.6128142681501885E-004
   2.9011463865892539E-002  -8.2570720724727265E-003  -1.8052742254064391E-003
   2.8390787305208581E-002  -6.9732899567565843E-003  -4.9233066023883221E-003
   2.7770110744524623E-002  -5.2852933780946909E-003  -9.7153785577599461E-003
   2.7571595404657701E-002  -8.4104490000251886E-003   5.2188720925827603E-003
   2.5545264739351703E-002  -7.8718318977841761E-003   5.8818711217960562E-003
   2.3518934074045761E-002  -7.1246291814879292E-003   5.4076015201560135E-003
   2.1492603408739902E-002  -6.1688408511358928E-003   3.7960632876622158E-003
   1.9466272743433932E-002  -5.0044669067283998E-003   1.0472564243160232E-003
   2.4748540559200116E-002  -7.2089050849769576E-003   1.1190150728638215E-002
   2.1853326736809425E-002  -6.6070240703231531E-003   1.2090473158376247E-002
   1.8958112914418693E-002  -5.9921862905020773E-003   1.2390297904797787E-002
   1.6062899092027981E-002  -5.3643917455156592E-003   1.2089624967903306E-002
   1.3167685269637269E-002  -4.7236404353622197E-003   1.1188454347692611E-002
   2.1783652450888182E-002  -6.0073611699283380E-003   1.7322507701550416E-002
   1.8556326418949727E-002  -5.3422162428616027E-003   1.8264524682924721E-002
   1.5329000387011158E-002  -4.8597433995171968E-003   1.9142814928519505E-002
   1.2101674355072678E-002  -4.5599426398956408E-003   1.9957378438334866E-002
   8.8743483231341416E-003  -4.4428139639962061E-003   2.0708215212371525E-002
   1.8676931079721737E-002  -4.8058172548794964E-003   2.3615943011319973E-002
   1.5654263785772504E-002  -4.0774084153999968E-003   2.4404025695441089E-002
   1.2631596491823355E-002  -3.7273005085318445E-003   2.5665152591319795E-002
   9.6089291978741637E-003  -3.7554935342753934E-003   2.7399323698956646E-002
   6.5862619039249726E-003  -4.1619874926303035E-003   2.9606539018351641E-002
   2.7770110744524623E-002  -5.2852933780946909E-003  -9.7153785577599461E-003
   2.3347540121372745E-002  -4.2074996487491134E-003  -4.1845751442344259E-003
   1.8924969498220701E-002  -4.7543260809789767E-003   2.6073612565671311E-003
   1.4502398875068684E-002  -6.9257726747859322E-003   1.0660430644644447E-002
   1.0079828251916778E-002  -1.0721839430168245E-002   1.9974633019996801E-002
   1.9466272743433932E-002  -5.0044669067283998E-003   1.0472564243160232E-003
   1.6232905583295709E-002  -4.6912891682436841E-003   6.7435817471354076E-003
   1.2999538423157320E-002  -6.2890894556577592E-003   1.3557181008706509E-002
   9.7661712630191244E-003  -9.7978677689719573E-003   2.1488054209029051E-002
   6.5328041028807071E-003  -1.5217624108185834E-002   3.0536201348103198E-002
   1.3167685269637269E-002  -4.7236404353622197E-003   1.1188454347692611E-002
   1.0979662523988520E-002  -5.1750786877375887E-003   1.6763943715482676E-002
   8.7916397783397854E-003  -7.8238528303361254E-003   2.3312847973499723E-002
   6.6036170326910573E-003  -1.2669962863157767E-002   3.0835167121745180E-002
   4.4155942870422460E-003  -1.9713408786202979E-002   3.9330901160217646E-002
   8.8743483231341416E-003  -4.4428139639962061E-003   2.0708215212371525E-002
   7.5878109434510121E-003  -5.6588682072318264E-003   2.5876510760807880E-002
   6.3012735637679347E-003  -9.3586162050144778E-003   3.1874362150947806E-002
   5.0147361840848174E-003  -1.5542057957343907E-002   3.8701769382791976E-002
   3.7281988044017139E-003  -2.4209193464220347E-002   4.6358732456338980E-002
   6.5862619039249726E-003  -4.1619874926303035E-003   2.9606539018351641E-002
   6.0573508416833510E-003  -6.1426577267263971E-003   3.4081282883110853E-002
   5.5284397794418683E-003  -1.0893379579692636E-002   3.9241723541049989E-002
   4.9995287172002606E-003  -1.8414153051530109E-002   4.5087860992168910E-002
   4.4706176549587084E-003  -2.8704978142237714E-002   5.1619695236467145E-002
   7.5084228501524464E-002  -1.4337399858318167E-002   3.0360335580100650E-002
   7.2596850817619685E-002  -1.5855973768415133E-002   3.0054930497687316E-002
   7.0109473133715100E-002  -1.6913387230279714E-002   2.9834156593253669E-002
   6.7622095449810446E-002  -1.7509640243911613E-002   2.9698013866799405E-002
   6.5134717765905764E-002  -1.7644732809311225E-002   2.9646502318324885E-002
   6.9082328940442084E-002  -1.6377049765796237E-002   3.3292278610539017E-002
   6.6707587233393206E-002  -1.6846119983539271E-002   3.3226850725052104E-002
   6.4332845526344412E-002  -1.7092801493878512E-002   3.3302063615297306E-002
   6.1958103819295604E-002  -1.7117094296814094E-002   3.3517917281274512E-002
   5.9583362112246824E-002  -1.6918998392345924E-002   3.3874411722983944E-002
   6.2950627199591755E-002  -1.8416699673274223E-002   3.7393111203745555E-002
   6.0744531067151289E-002  -1.7836266198663298E-002   3.7328888774356361E-002
   5.8538434934710872E-002  -1.7272215757477463E-002   3.7461316718451751E-002
   5.6332338802270399E-002  -1.6724548349716626E-002   3.7790395036031689E-002
   5.4126242669829967E-002  -1.6193263975380789E-002   3.8316123727096210E-002
   5.6689123278973547E-002  -2.0456349580752237E-002   4.2662833359720521E-002
   5.4707682318893933E-002  -1.8826412413787366E-002   4.2361044645600247E-002
   5.2726241358814332E-002  -1.7451630021076449E-002   4.2311915902717073E-002
   5.0744800398734760E-002  -1.6332002402619103E-002   4.2515447131070874E-002
   4.8763359438655118E-002  -1.5467529558415655E-002   4.2971638330661963E-002
   5.0297817178587334E-002  -2.2495999488230278E-002   4.9101445078463812E-002
   4.8597040988621137E-002  -1.9816558628911490E-002   4.8323318338783838E-002
   4.6896264798654885E-002  -1.7631044284675323E-002   4.7853861168093093E-002
   4.5195488608688675E-002  -1.5939456455521597E-002   4.7693073566392158E-002
   4.3494712418722464E-002  -1.4741795141450409E-002   4.7840955533680896E-002
   6.5134717765905764E-002  -1.7644732809311225E-002   2.9646502318324885E-002
   6.3165648462244900E-002  -1.7471042652544150E-002   2.9510468126012657E-002
   6.1196579158584050E-002  -1.7140947499676512E-002   2.9547707968060055E-002
   5.9227509854923151E-002  -1.6654447350708000E-002   2.9758221844466998E-002
   5.7258440551262335E-002  -1.6011542205639051E-002   3.0142009755233623E-002
   5.9583362112246824E-002  -1.6918998392345924E-002   3.3874411722983944E-002
   5.7782666754818815E-002  -1.6563320256289898E-002   3.3952304029723240E-002
   5.5981971397390834E-002  -1.6114866364461695E-002   3.4193670194568718E-002
   5.4181276039962874E-002  -1.5573636716861199E-002   3.4598510217520161E-002
   5.2380580682534844E-002  -1.4939631313488411E-002   3.5166824098577548E-002
   5.4126242669829967E-002  -1.6193263975380789E-002   3.8316123727096210E-002
   5.2484121082381215E-002  -1.5655597860035661E-002   3.8544313292558870E-002
   5.0841999494932372E-002  -1.5088785229246768E-002   3.8926176539873888E-002
   4.9199877907483605E-002  -1.4492826083014231E-002   3.9461713469041280E-002
   4.7557756320034797E-002  -1.3867720421337992E-002   4.0150924080061129E-002
   4.8763359438655118E-002  -1.5467529558415655E-002   4.2971638330661963E-002
   4.7270011444931981E-002  -1.4747875463781389E-002   4.3286495914519239E-002
   4.5776663451208767E-002  -1.4062704094031923E-002   4.3745227003975123E-002
   4.4283315457485581E-002  -1.3412015449167319E-002   4.4347831599030045E-002
   4.2789967463762409E-002  -1.2795809529187518E-002   4.5094309699683512E-002
   4.3494712418722464E-002  -1.4741795141450409E-002   4.7840955533680896E-002
   4.2140337842471190E-002  -1.3840153067527228E-002   4.8178851895604335E-002
   4.0785963266219943E-002  -1.3036622958817010E-002   4.8650821586872922E-002
   3.9431588689968669E-002  -1.2331204815320431E-002   4.9256864607486794E-002
   3.8077214113717422E-002  -1.1723898637036934E-002   4.9996980957445480E-002
   5.7258440551262335E-002  -1.6011542205639051E-002   3.0142009755233623E-002
   5.4504824137740854E-002  -1.5300764892123814E-002   2.9322052460651504E-002
   5.1751207724219372E-002  -1.4610648237816853E-002   2.8730508636670510E-002
   4.8997591310697919E-002  -1.3941192242718413E-002   2.8367378283291306E-002
   4.6243974897176410E-002  -1.3292396906827930E-002   2.8232661400513392E-002
   5.2380580682534844E-002  -1.4939631313488411E-002   3.5166824098577548E-002
   4.9851959522742822E-002  -1.4266814348008139E-002   3.4380577447968380E-002
   4.7323338362950884E-002  -1.3609150014084193E-002   3.3815907834216438E-002
   4.4794717203158849E-002  -1.2966638311716946E-002   3.3472815257322146E-002
   4.2266096043366896E-002  -1.2339279240906387E-002   3.3351299717285343E-002
   4.7557756320034797E-002  -1.3867720421337992E-002   4.0150924080061129E-002
   4.5247293980228288E-002  -1.3232863803892422E-002   3.9403896101076474E-002
   4.2936831640421752E-002  -1.2607651790351601E-002   3.8871608725205342E-002
   4.0626369300615250E-002  -1.1992084380715761E-002   3.8554061952447503E-002
   3.8315906960808707E-002  -1.1386161574984732E-002   3.8451255782803340E-002
   4.2789967463762409E-002  -1.2795809529187518E-002   4.5094309699683512E-002
   4.0690827510197237E-002  -1.2198913259776671E-002   4.4392008419975565E-002
   3.8591687556632157E-002  -1.1606153566619003E-002   4.3897611309636944E-002
   3.6492547603067006E-002  -1.1017530449714435E-002   4.3611118368667511E-002
   3.4393407649501911E-002  -1.0433043909063078E-002   4.3532529597067625E-002
   3.8077214113717422E-002  -1.1723898637036934E-002   4.9996980957445480E-002
   3.6182560112649670E-002  -1.1164962715661031E-002   4.9344914404665707E-002
   3.4287906111581917E-002  -1.0604655342886432E-002   4.8893915587511161E-002
   3.2393252110514179E-002  -1.0042976518713047E-002   4.8643984505981980E-002
   3.0498598109446440E-002  -9.4799262431414233E-003   4.8595121160078247E-002
   4.6243974897176410E-002  -1.3292396906827930E-002   2.8232661400513392E-002
   4.4112661618920357E-002  -1.2655149195822890E-002   2.7927626123820604E-002
   4.1981348340664276E-002  -1.2020336075378862E-002   2.7748654875017431E-002
   3.9850035062408209E-002  -1.1387957545496673E-002   2.7695747654105068E-002
   3.7718721784152143E-002  -1.0758013606176009E-002   2.7768904461082378E-002
   4.2266096043366896E-002  -1.2339279240906387E-002   3.3351299717285343E-002
   4.0265300248344904E-002  -1.1715240776957014E-002   3.3081446080824028E-002
   3.8264504453322926E-002  -1.1082690895173553E-002   3.2946563382940747E-002
   3.6263708658300940E-002  -1.0441629595555973E-002   3.2946651623635664E-002
   3.4262912863278983E-002  -9.7920568781042494E-003   3.3081710802908948E-002
   3.8315906960808707E-002  -1.1386161574984732E-002   3.8451255782803340E-002
   3.6454535559708831E-002  -1.0775332358091361E-002   3.8227529794969406E-002
   3.4593164158608976E-002  -1.0145045714968035E-002   3.8147681656401519E-002
   3.2731792757509148E-002  -9.4953016456151666E-003   3.8211711367100047E-002
   3.0870421356409244E-002  -8.8261001500324898E-003   3.8419618927064442E-002
   3.4393407649501911E-002  -1.0433043909063078E-002   4.3532529597067625E-002
   3.2680367553012200E-002  -9.8354239392256515E-003   4.3365877266256653E-002
   3.0967327456522455E-002  -9.2074005347627039E-003   4.3352009695399818E-002
   2.9254287360032712E-002  -8.5489736956745246E-003   4.3490926884497190E-002
   2.7541247263543005E-002  -7.8601434219606747E-003   4.3782628833548727E-002
   3.0498598109446440E-002  -9.4799262431414233E-003   4.8595121160078247E-002
   2.8942796228254908E-002  -8.8955155203600533E-003   4.8496488494685797E-002
   2.7386994347063320E-002  -8.2697553545573455E-003   4.8559547499935629E-002
   2.5831192465871761E-002  -7.6026457457336119E-003   4.8784298175827828E-002
   2.4275390584680229E-002  -6.8941866938888596E-003   4.9170740522361700E-002
   3.7718721784152143E-002  -1.0758013606176009E-002   2.7768904461082378E-002
   3.5302925026476861E-002  -1.0118514528527578E-002   2.7194730808854484E-002
   3.2887128268801635E-002  -9.4574705836605044E-003   2.6750112800096149E-002
   3.0471331511126437E-002  -8.7748817715760305E-003   2.6435050434806873E-002
   2.8055534753451128E-002  -8.0707480922732611E-003   2.6249543712987378E-002
   3.4262912863278983E-002  -9.7920568781042494E-003   3.3081710802908948E-002
   3.1981777219667440E-002  -9.1341308554491740E-003   3.2590830065174214E-002
   2.9700641576055883E-002  -8.4680096402211802E-003   3.2239715912097650E-002
   2.7419505932444389E-002  -7.7936932324206218E-003   3.2028368343679253E-002
   2.5138370288832840E-002  -7.1111816320471588E-003   3.1956787359918803E-002
   3.0870421356409244E-002  -8.8261001500324898E-003   3.8419618927064442E-002
   2.8734157768050189E-002  -8.1497471823711309E-003   3.7998681429177977E-002
   2.6597894179691092E-002  -7.4785486967819809E-003   3.7727721457138041E-002
   2.4461630591332030E-002  -6.8125046932654386E-003   3.7606739010944919E-002
   2.2325367002972898E-002  -6.1516151718209455E-003   3.7635734090598699E-002
   2.7541247263543005E-002  -7.8601434219606747E-003   4.3782628833548727E-002
   2.5560066671625116E-002  -7.1653635092929630E-003   4.3418284900865002E-002
   2.3578886079707147E-002  -6.4890877533426636E-003   4.3214129435216797E-002
   2.1597705487789241E-002  -5.8313161541101981E-003   4.3170162436604133E-002
   1.9616524895871346E-002  -5.1920487115949543E-003   4.3286383905027183E-002
   2.4275390584680229E-002  -6.8941866938888596E-003   4.9170740522361700E-002
   2.2459503930392199E-002  -6.1809798362148505E-003   4.8849640480235879E-002
   2.0643617276104156E-002  -5.4996268099035128E-003   4.8698939846334222E-002
   1.8827730621816162E-002  -4.8501276149549161E-003   4.8718638620656812E-002
   1.7011843967528112E-002  -4.2324822513686300E-003   4.8908736803203623E-002
   2.8055534753451128E-002  -8.0707480922732611E-003   2.6249543712987378E-002
   2.5710883835018794E-002  -7.3305103302524488E-003   2.5669290893294283E-002
   2.3366232916586460E-002  -6.5396092700130415E-003   2.5036939836451666E-002
   2.1021581998154099E-002  -5.6980449115555318E-003   2.4352490542460525E-002
   1.8676931079721737E-002  -4.8058172548794964E-003   2.3615943011319973E-002
   2.5138370288832840E-002  -7.1111816320471588E-003   3.1956787359918803E-002
   2.2780618107010986E-002  -6.4194056353436557E-003   3.1550191141896444E-002
   2.0422865925189104E-002  -5.7172960385520888E-003   3.1169490634244651E-002
   1.8065113743367243E-002  -5.0048528416730964E-003   3.0814685836962369E-002
   1.5707361561545369E-002  -4.2820760447064288E-003   3.0485776750050209E-002
   2.2325367002972898E-002  -6.1516151718209455E-003   3.7635734090598699E-002
   2.0032507505280600E-002  -5.5083009404342520E-003   3.7362464776116988E-002
   1.7739648007588316E-002  -4.8949828070908169E-003   3.7193085119523864E-002
   1.5446788509896038E-002  -4.3116607717905535E-003   3.7127595120819902E-002
   1.3153929012203747E-002  -3.7583348345332501E-003   3.7165994780005512E-002
   1.9616524895871346E-002  -5.1920487115949543E-003   4.3286383905027183E-002
   1.7466552029827727E-002  -4.5971962455252646E-003   4.3106111795954583E-002
   1.5316579163784101E-002  -4.0726695756295936E-003   4.3107723292290109E-002
   1.3166606297740496E-002  -3.6184687019080643E-003   4.3291218394034020E-002
   1.1016633431696909E-002  -3.2345936243602380E-003   4.3656597101185961E-002
   1.7011843967528112E-002  -4.2324822513686300E-003   4.8908736803203623E-002
   1.5082751680652290E-002  -3.6860915506160552E-003   4.8781132201409561E-002
   1.3153659393776454E-002  -3.2503563441685090E-003   4.8913405152542944E-002
   1.1224567106900625E-002  -2.9252766320252768E-003   4.9305555656603633E-002
   9.2954748200247406E-003  -2.7108524141870038E-003   4.9957583713591602E-002
   1.8676931079721737E-002  -4.8058172548794964E-003   2.3615943011319973E-002
   1.5654263785772504E-002  -4.0774084153999968E-003   2.4404025695441089E-002
   1.2631596491823355E-002  -3.7273005085318445E-003   2.5665152591319795E-002
   9.6089291978741637E-003  -3.7554935342753934E-003   2.7399323698956646E-002
   6.5862619039249726E-003  -4.1619874926303035E-003   2.9606539018351641E-002
   1.5707361561545369E-002  -4.2820760447064288E-003   3.0485776750050209E-002
   1.3139374774393781E-002  -3.7720144110640064E-003   3.1264600268372189E-002
   1.0571387987242234E-002  -3.6977167041573888E-003   3.2479740588531175E-002
   8.0034012000906873E-003  -4.0591829239875962E-003   3.4131197710527597E-002
   5.4354144129390991E-003  -4.8564130705534003E-003   3.6218971634361719E-002
   1.3153929012203747E-002  -3.7583348345332501E-003   3.7165994780005512E-002
   1.1003895321929372E-002  -3.4666204067279327E-003   3.7878096138403206E-002
   8.8538616316549204E-003  -3.6681328997832802E-003   3.8989786888718028E-002
   6.7038279413804865E-003  -4.3628723136995805E-003   4.0501067030949779E-002
   4.5537942511060941E-003  -5.5508386484764416E-003   4.2411936565098424E-002
   1.1016633431696909E-002  -3.2345936243602380E-003   4.3656597101185961E-002
   9.2478254283791424E-003  -3.1612264023920672E-003   4.4244513305535048E-002
   7.4790174250614298E-003  -3.6385490954092756E-003   4.5195291491881090E-002
   5.7102094217437145E-003  -4.6665617034116740E-003   4.6508931660223428E-002
   3.9414014184259473E-003  -6.2452642263995106E-003   4.8185433810561902E-002
   9.2954748200247406E-003  -2.7108524141870038E-003   4.9957583713591602E-002
   7.8711650937432487E-003  -2.8558323980558131E-003   5.0363851769767876E-002
   6.4468553674617290E-003  -3.6089652910346881E-003   5.1096254398019902E-002
   5.0225456411802510E-003  -4.9702510931239827E-003   5.2154791598347877E-002
   3.5982359148987175E-003  -6.9396898043226907E-003   5.3539463370752549E-002
   6.5862619039249726E-003  -4.1619874926303035E-003   2.9606539018351641E-002
   6.0573508416833510E-003  -6.1426577267263971E-003   3.4081282883110853E-002
   5.5284397794418683E-003  -1.0893379579692636E-002   3.9241723541049989E-002
   4.9995287172002606E-003  -1.8414153051530109E-002   4.5087860992168910E-002
   4.4706176549587084E-003  -2.8704978142237714E-002   5.1619695236467145E-002
   5.4354144129390991E-003  -4.8564130705534003E-003   3.6218971634361719E-002
   5.4883895826018658E-003  -6.9897432639424162E-003   3.8355888374107971E-002
   5.5413647522646603E-003  -1.1359509624242009E-002   4.0970880784484243E-002
   5.5943399219275450E-003  -1.7965712151452089E-002   4.4063948865489255E-002
   5.6473150915902770E-003  -2.6808350845572759E-002   4.7635092617123398E-002
   4.5537942511060941E-003  -5.5508386484764416E-003   4.2411936565098424E-002
   4.9810345301228298E-003  -7.8368288011587128E-003   4.2744641631792452E-002
   5.4082748091396002E-003  -1.1825639668791368E-002   4.3347801246565135E-002
   5.8355150881564503E-003  -1.7517271251374509E-002   4.4221415409416952E-002
   6.2627553671731062E-003  -2.4911723548907805E-002   4.5365484120347022E-002
   3.9414014184259473E-003  -6.2452642263995106E-003   4.8185433810561902E-002
   4.5352856842463540E-003  -8.6839143383753148E-003   4.7247542656163606E-002
   5.1291699500667347E-003  -1.2291769713340735E-002   4.6372484927293525E-002
   5.7230542158871146E-003  -1.7068830351296818E-002   4.5560260623951479E-002
   6.3169384817074667E-003  -2.3015096252242850E-002   4.4810869746138376E-002
   3.5982359148987175E-003  -6.9396898043226907E-003   5.3539463370752549E-002
   4.1511430449722997E-003  -9.5309998755913616E-003   5.1864591447221331E-002
   4.7040501750459651E-003  -1.2757899757890018E-002   5.0044931826668526E-002
   5.2569573051195750E-003  -1.6620389451219110E-002   4.8080484509093274E-002
   5.8098644351931572E-003  -2.1118468955577896E-002   4.5971249494496824E-002
   5.0297817178587334E-002  -2.2495999488230278E-002   4.9101445078463812E-002
   4.8597040988621137E-002  -1.9816558628911490E-002   4.8323318338783838E-002
   4.6896264798654885E-002  -1.7631044284675323E-002   4.7853861168093093E-002
   4.5195488608688675E-002  -1.5939456455521597E-002   4.7693073566392158E-002
   4.3494712418722464E-002  -1.4741795141450409E-002   4.7840955533680896E-002
   4.3884216855282376E-002  -1.7434751366067147E-002   5.4452976133561648E-002
   4.2470725327458811E-002  -1.5936615738480014E-002   5.3388675983159689E-002
   4.1057233799635287E-002  -1.4644558071420385E-002   5.2590275588053875E-002
   3.9643742271811742E-002  -1.3558578364888160E-002   5.2057774948243582E-002
   3.8230250743988212E-002  -1.2678676618883444E-002   5.1791174063728962E-002
   3.7555830265907753E-002  -1.2373503243904072E-002   5.8479277679650443E-002
   3.6386853586532979E-002  -1.2056672848048469E-002   5.7416652673082005E-002
   3.5217876907158274E-002  -1.1658071858165364E-002   5.6577157608115533E-002
   3.4048900227783556E-002  -1.1177700274254722E-002   5.5960792484750985E-002
   3.2879923548408768E-002  -1.0615558096316563E-002   5.5567557302988110E-002
   3.1312657410463476E-002  -7.3122551217409681E-003   6.1180349716730045E-002
   3.0345425765843627E-002  -8.1767299576169863E-003   6.0407248408550163E-002
   2.9378194121223857E-002  -8.6715856449103568E-003   5.9814507228278239E-002
   2.8410962476604004E-002  -8.7968221836212564E-003   5.9402126175914324E-002
   2.7443730831984186E-002  -8.5524395737496955E-003   5.9170105251458202E-002
   2.5154698288949534E-002  -2.2510069995778648E-003   6.2556192244800746E-002
   2.4346441865390783E-002  -4.2967870671854203E-003   6.2360463189564230E-002
   2.3538185441831991E-002  -5.6850994316554188E-003   6.2302324448541807E-002
   2.2729929018273212E-002  -6.4159440929877944E-003   6.2381776021733545E-002
   2.1921672594714448E-002  -6.4893210511827171E-003   6.2598817909139348E-002
   4.3494712418722464E-002  -1.4741795141450409E-002   4.7840955533680896E-002
   4.2140337842471190E-002  -1.3840153067527228E-002   4.8178851895604335E-002
   4.0785963266219943E-002  -1.3036622958817010E-002   4.8650821586872922E-002
   3.9431588689968669E-002  -1.2331204815320431E-002   4.9256864607486794E-002
   3.8077214113717422E-002  -1.1723898637036934E-002   4.9996980957445480E-002
   3.8230250743988212E-002  -1.2678676618883444E-002   5.1791174063728962E-002
   3.7016575813030694E-002  -1.1938383666454486E-002   5.1964205424837415E-002
   3.5802900882073142E-002  -1.1271230340649266E-002   5.2284562747188262E-002
   3.4589225951115618E-002  -1.0677216641467594E-002   5.2752246030781325E-002
   3.3375551020158128E-002  -1.0156342568909738E-002   5.3367255275616754E-002
   3.2879923548408768E-002  -1.0615558096316563E-002   5.5567557302988110E-002
   3.1820200894642228E-002  -1.0036614265381855E-002   5.5600696001871078E-002
   3.0760478240875674E-002  -9.5058377224811405E-003   5.5794413293893598E-002
   2.9700755587109152E-002  -9.0232284676148144E-003   5.6148709179055734E-002
   2.8641032933342581E-002  -8.5887865007825415E-003   5.6663583657357408E-002
   2.7443730831984186E-002  -8.5524395737496955E-003   5.9170105251458202E-002
   2.6551213087305854E-002  -8.1348448643091126E-003   5.9088323626705241E-002
   2.5658695342627491E-002  -7.7404451043131782E-003   5.9180373226989075E-002
   2.4766177597949138E-002  -7.3692402937619505E-003   5.9446254052309654E-002
   2.3873659853270789E-002  -7.0212304326551789E-003   5.9885966102666909E-002
   2.1921672594714448E-002  -6.4893210511827171E-003   6.2598817909139348E-002
   2.1209612391021537E-002  -6.2330754632364815E-003   6.2427088299339989E-002
   2.0497552187328627E-002  -5.9750524861452436E-003   6.2442442546474547E-002
   1.9785491983635717E-002  -5.7152521199092463E-003   6.2644880650543189E-002
   1.9073431779942807E-002  -5.4536743645280938E-003   6.3034402611545803E-002
   3.8077214113717422E-002  -1.1723898637036934E-002   4.9996980957445480E-002
   3.6182560112649670E-002  -1.1164962715661031E-002   4.9344914404665707E-002
   3.4287906111581917E-002  -1.0604655342886432E-002   4.8893915587511161E-002
   3.2393252110514179E-002  -1.0042976518713047E-002   4.8643984505981980E-002
   3.0498598109446440E-002  -9.4799262431414233E-003   4.8595121160078247E-002
   3.3375551020158128E-002  -1.0156342568909738E-002   5.3367255275616754E-002
   3.1688430954531402E-002  -9.6697129509530633E-003   5.2691811013806350E-002
   3.0001310888904731E-002  -9.1784326155748552E-003   5.2230366887252688E-002
   2.8314190823278032E-002  -8.6825015627749538E-003   5.1982922895955949E-002
   2.6627070757651347E-002  -8.1819197925538378E-003   5.1949479039915814E-002
   2.8641032933342581E-002  -8.5887865007825415E-003   5.6663583657357408E-002
   2.7174379202788340E-002  -8.1744631862450956E-003   5.5968040952539461E-002
   2.5707725472234093E-002  -7.7522098882632923E-003   5.5499430782609674E-002
   2.4241071741679835E-002  -7.3220266068368643E-003   5.5257753147567944E-002
   2.2774418011125605E-002  -6.8839133419659748E-003   5.5243008047414444E-002
   2.3873659853270789E-002  -7.0212304326551789E-003   5.9885966102666909E-002
   2.2640404857420377E-002  -6.6792134215371834E-003   5.9173604220864505E-002
   2.1407149861569962E-002  -6.3259871609517779E-003   5.8701107273581604E-002
   2.0173894865719529E-002  -5.9615516508986621E-003   5.8468475260818165E-002
   1.8940639869869141E-002  -5.5859068913781396E-003   5.8475708182574200E-002
   1.9073431779942807E-002  -5.4536743645280938E-003   6.3034402611545803E-002
   1.8086507918427613E-002  -5.1839636568291880E-003   6.2308500818781920E-002
   1.7099584056912406E-002  -4.8997644336401247E-003   6.1835396360168660E-002
   1.6112660195397206E-002  -4.6010766949605361E-003   6.1615089235706466E-002
   1.5125736333882006E-002  -4.2879004407904708E-003   6.1647579445394951E-002
   3.0498598109446440E-002  -9.4799262431414233E-003   4.8595121160078247E-002
   2.8942796228254908E-002  -8.8955155203600533E-003   4.8496488494685797E-002
   2.7386994347063320E-002  -8.2697553545573455E-003   4.8559547499935629E-002
   2.5831192465871761E-002  -7.6026457457336119E-003   4.8784298175827828E-002
   2.4275390584680229E-002  -6.8941866938888596E-003   4.9170740522361700E-002
   2.6627070757651347E-002  -8.1819197925538378E-003   5.1949479039915814E-002
   2.5237704811476525E-002  -7.6639751410265133E-003   5.1910177488273201E-002
   2.3848338865301709E-002  -7.1159554443087358E-003   5.2042056136021780E-002
   2.2458972919126897E-002  -6.5378607024002763E-003   5.2345114983161939E-002
   2.1069606972952071E-002  -5.9296909153016553E-003   5.2819354029693233E-002
   2.2774418011125605E-002  -6.8839133419659748E-003   5.5243008047414444E-002
   2.1560976528716663E-002  -6.4324347616929733E-003   5.5251763211691007E-002
   2.0347535046307742E-002  -5.9621555340600568E-003   5.5441187104107961E-002
   1.9134093563898783E-002  -5.4730756590670483E-003   5.5811279724665284E-002
   1.7920652081489886E-002  -4.9651951367141733E-003   5.6362041073363178E-002
   1.8940639869869141E-002  -5.5859068913781396E-003   5.8475708182574200E-002
   1.7912611379975261E-002  -5.2008943823595444E-003   5.8521245664939360E-002
   1.6884582890081351E-002  -4.8083556238113570E-003   5.8756940404193977E-002
   1.5856554400187468E-002  -4.4082906157337665E-003   5.9182792400338288E-002
   1.4828525910293567E-002  -4.0006993581267747E-003   5.9798801653371855E-002
   1.5125736333882006E-002  -4.2879004407904708E-003   6.1647579445394951E-002
   1.4292609365252298E-002  -3.9693540030258379E-003   6.1718624848017933E-002
   1.3459482396622618E-002  -3.6545557135628376E-003   6.1989316036279801E-002
   1.2626355427992925E-002  -3.3435055724003911E-003   6.2459653010180347E-002
   1.1793228459363231E-002  -3.0362035795394871E-003   6.3129635769719639E-002
   2.4275390584680229E-002  -6.8941866938888596E-003   4.9170740522361700E-002
   2.2459503930392199E-002  -6.1809798362148505E-003   4.8849640480235879E-002
   2.0643617276104156E-002  -5.4996268099035128E-003   4.8698939846334222E-002
   1.8827730621816162E-002  -4.8501276149549161E-003   4.8718638620656812E-002
   1.7011843967528112E-002  -4.2324822513686300E-003   4.8908736803203623E-002
   2.1069606972952071E-002  -5.9296909153016553E-003   5.2819354029693233E-002
   1.9433723720478815E-002  -5.3196365452074512E-003   5.2535606846142335E-002
   1.7797840468005588E-002  -4.7358880543132281E-003   5.2441467057996932E-002
   1.6161957215532360E-002  -4.1784454426186633E-003   5.2536934665256704E-002
   1.4526073963059105E-002  -3.6473087101241974E-003   5.2822009667921832E-002
   1.7920652081489886E-002  -4.9651951367141733E-003   5.6362041073363178E-002
   1.6483980218012381E-002  -4.4582932541998577E-003   5.6121194700550367E-002
   1.5047308354534893E-002  -3.9721492987227214E-003   5.6089163710323714E-002
   1.3610636491057411E-002  -3.5067632702826881E-003   5.6265948102683414E-002
   1.2173964627579907E-002  -3.0621351688795428E-003   5.6651547877629077E-002
   1.4828525910293567E-002  -4.0006993581267747E-003   5.9798801653371855E-002
   1.3610273422992859E-002  -3.5969499631924168E-003   5.9606404043459918E-002
   1.2392020935692093E-002  -3.2084105431323257E-003   5.9642029803315004E-002
   1.1173768448391375E-002  -2.8350810979464632E-003   5.9905678932937370E-002
   9.9555159610906271E-003  -2.4769616276348327E-003   6.0397351432326767E-002
   1.1793228459363231E-002  -3.0362035795394871E-003   6.3129635769719639E-002
   1.0812603335420209E-002  -2.7356066721848094E-003   6.2991234874870905E-002
   9.8319782114772020E-003  -2.4446717875419577E-003   6.3100065336970546E-002
   8.8513530875342014E-003  -2.1633989256105782E-003   6.3456127156018449E-002
   7.8707279635912009E-003  -1.8917880863903447E-003   6.4059420332014505E-002
   1.7011843967528112E-002  -4.2324822513686300E-003   4.8908736803203623E-002
   1.5082751680652290E-002  -3.6860915506160552E-003   4.8781132201409561E-002
   1.3153659393776454E-002  -3.2503563441685090E-003   4.8913405152542944E-002
   1.1224567106900625E-002  -2.9252766320252768E-003   4.9305555656603633E-002
   9.2954748200247406E-003  -2.7108524141870038E-003   4.9957583713591602E-002
   1.4526073963059105E-002  -3.6473087101241974E-003   5.2822009667921832E-002
   1.2854440060588376E-002  -3.1846268531146582E-003   5.2715016883557952E-002
   1.1182806158117661E-002  -2.8325488678754285E-003   5.2863063315076897E-002
   9.5111722556469325E-003  -2.5910747544062862E-003   5.3266148962479248E-002
   7.8395383531762453E-003  -2.4602045127076755E-003   5.3924273825764424E-002
   1.2173964627579907E-002  -3.0621351688795428E-003   5.6651547877629077E-002
   1.0754950772469983E-002  -2.6831621556128171E-003   5.6565218533230294E-002
   9.3359369173600278E-003  -2.4147413915822230E-003   5.6729090067669699E-002
   7.9169230622500881E-003  -2.2568728767871811E-003   5.7143162480947869E-002
   6.4979092071401484E-003  -2.2095566112283471E-003   5.7807435773064603E-002
   9.9555159610906271E-003  -2.4769616276348327E-003   6.0397351432326767E-002
   8.7842838162970945E-003  -2.1816974581111981E-003   6.0331737150427042E-002
   7.6130516715035472E-003  -1.9969339152892465E-003   6.0511485410321142E-002
   6.4418195267099982E-003  -1.9226709991683553E-003   6.0936596212009315E-002
   5.2705873819164951E-003  -1.9589087097489077E-003   6.1607069555492049E-002
   7.8707279635912009E-003  -1.8917880863903447E-003   6.4059420332014505E-002
   6.9424391920697159E-003  -1.6802327606094680E-003   6.4014572735147879E-002
   6.0141504205482310E-003  -1.5791264389958537E-003   6.4210249343031156E-002
   5.0858616490267530E-003  -1.5884691215491201E-003   6.4646450155664503E-002
   4.1575728775052612E-003  -1.7082608082696904E-003   6.5323175173047532E-002
   9.2954748200247406E-003  -2.7108524141870038E-003   4.9957583713591602E-002
   7.8711650937432487E-003  -2.8558323980558131E-003   5.0363851769767876E-002
   6.4468553674617290E-003  -3.6089652910346881E-003   5.1096254398019902E-002
   5.0225456411802510E-003  -4.9702510931239827E-003   5.2154791598347877E-002
   3.5982359148987175E-003  -6.9396898043226907E-003   5.3539463370752549E-002
   7.8395383531762453E-003  -2.4602045127076755E-003   5.3924273825764424E-002
   6.7156670948918668E-003  -2.6418036185234528E-003   5.3857909232489565E-002
   5.5917958366075299E-003  -3.3377375475980020E-003   5.4066287003133456E-002
   4.4679245783231861E-003  -4.5480062999317880E-003   5.4549407137695335E-002
   3.3440533200388423E-003  -6.2726098755239157E-003   5.5307269636175715E-002
   6.4979092071401484E-003  -2.2095566112283471E-003   5.7807435773064603E-002
   5.6230842086952698E-003  -2.4277748389910092E-003   5.7362256616190238E-002
   4.7482592102504467E-003  -3.0665098041614408E-003   5.7140427615076664E-002
   3.8734342118056063E-003  -4.1257615067394858E-003   5.7141948769723609E-002
   2.9986092133607450E-003  -5.6055299467255293E-003   5.7366820080131525E-002
   5.2705873819164951E-003  -1.9589087097489077E-003   6.1607069555492049E-002
   4.5934164351535030E-003  -2.2137460594583852E-003   6.0876893920869320E-002
   3.9162454883905282E-003  -2.7952820607248727E-003   6.0318676233849733E-002
   3.2390745416275525E-003  -3.7035167135474594E-003   5.9932416494433025E-002
   2.5619035948645612E-003  -4.9384500179271706E-003   5.9718114702619278E-002
   4.1575728775052612E-003  -1.7082608082696904E-003   6.5323175173047532E-002
   3.6266637742664865E-003  -1.9997172799261498E-003   6.4401821146527372E-002
   3.0957546710277117E-003  -2.5240543172881380E-003   6.3601032859452400E-002
   2.5648455677889370E-003  -3.2812719203552526E-003   6.2920810311823006E-002
   2.0339364645501623E-003  -4.2713700891285900E-003   6.2361153503639022E-002
   3.5982359148987175E-003  -6.9396898043226907E-003   5.3539463370752549E-002
   4.1511430449722997E-003  -9.5309998755913616E-003   5.1864591447221331E-002
   4.7040501750459651E-003  -1.2757899757890018E-002   5.0044931826668526E-002
   5.2569573051195750E-003  -1.6620389451219110E-002   4.8080484509093274E-002
   5.8098644351931572E-003  -2.1118468955577896E-002   4.5971249494496824E-002
   3.3440533200388423E-003  -6.2726098755239157E-003   5.5307269636175715E-002
   3.7694580507395825E-003  -8.5417624084556665E-003   5.2953245047251130E-002
   4.1948627814402673E-003  -1.1385678032807045E-002   5.0489003356602169E-002
   4.6202675121410700E-003  -1.4804356748578343E-002   4.7914544564229833E-002
   5.0456722428417478E-003  -1.8797798555769463E-002   4.5229868670133566E-002
   2.9986092133607450E-003  -5.6055299467255293E-003   5.7366820080131525E-002
   3.3310821399867921E-003  -7.5525249413199158E-003   5.4394469545422763E-002
   3.6635550666128461E-003  -1.0013456307724058E-002   5.1346472504288462E-002
   3.9960279932388168E-003  -1.2988324045937739E-002   4.8222828956728032E-002
   4.3285009198649471E-003  -1.6477128155961029E-002   4.5023538902743021E-002
   2.5619035948645612E-003  -4.9384500179271706E-003   5.9718114702619278E-002
   2.8360153127140412E-003  -6.5632874741844149E-003   5.6188264941736996E-002
   3.1101270305635090E-003  -8.6412345826409678E-003   5.2617339269727378E-002
   3.3842387484130394E-003  -1.1172291343297164E-002   4.9005337686589774E-002
   3.6583504662624292E-003  -1.4156457756152596E-002   4.5352260192325133E-002
   2.0339364645501623E-003  -4.2713700891285900E-003   6.2361153503639022E-002
   2.2842575689212830E-003  -5.5740500070484700E-003   5.8334631236193424E-002
   2.5345786732923758E-003  -7.2690128575579882E-003   5.4301603652918362E-002
   2.7848997776635173E-003  -9.3562586406564507E-003   5.0262070753814003E-002
   3.0352208820346172E-003  -1.1835787356344163E-002   4.6216032538880736E-002
   2.5154698288949534E-002  -2.2510069995778648E-003   6.2556192244800746E-002
   2.4346441865390783E-002  -4.2967870671854203E-003   6.2360463189564230E-002
   2.3538185441831991E-002  -5.6850994316554188E-003   6.2302324448541807E-002
   2.2729929018273212E-002  -6.4159440929877944E-003   6.2381776021733545E-002
   2.1921672594714448E-002  -6.4893210511827171E-003   6.2598817909139348E-002
   1.8994862807097695E-002  -2.3843631528182030E-003   6.1641880888909983E-002
   1.8340960665161318E-002  -3.4717301035979697E-003   6.1871910398294788E-002
   1.7687058523224948E-002  -4.2206426538770186E-003   6.2273058156710276E-002
   1.7033156381288581E-002  -4.6311008036553254E-003   6.2845324164156502E-002
   1.6379254239352208E-002  -4.7031045529326299E-003   6.3588708420633383E-002
   1.2746060870639730E-002  -2.5177193060584857E-003   6.1845489301165249E-002
   1.2280040945142325E-002  -2.6466731400106719E-003   6.2182264072534646E-002
   1.1814021019644926E-002  -2.7561858760987781E-003   6.2723685027751330E-002
   1.1348001094147530E-002  -2.8462575143227437E-003   6.3469752166815344E-002
   1.0881981168650134E-002  -2.9168880546825982E-003   6.4420465489726603E-002
   6.4082924795755732E-003  -2.6510754592987823E-003   6.3167017481566404E-002
   6.1636827053337447E-003  -1.8216161764233532E-003   6.3291524212283734E-002
   5.9190729310919146E-003  -1.2917290983204578E-003   6.3654205061664901E-002
   5.6744631568500870E-003  -1.0614142249901074E-003   6.4255060029710084E-002
   5.4298533826082542E-003  -1.1306715564324277E-003   6.5094089116418841E-002
  -1.8442366094717499E-005  -2.7844316125391066E-003   6.5606465430113725E-002
  -8.1140542644020375E-006  -9.9655921283592352E-004   6.5199690817542288E-002
   2.2142575659203634E-006   1.7272767945786249E-004   6.5064618258451223E-002
   1.2542569396232356E-005   7.2342906434229304E-004   6.5201247752840696E-002
   2.2870881226551287E-005   6.5554494181757628E-004   6.5609579300710541E-002
   2.1921672594714448E-002  -6.4893210511827171E-003   6.2598817909139348E-002
   2.1209612391021537E-002  -6.2330754632364815E-003   6.2427088299339989E-002
   2.0497552187328627E-002  -5.9750524861452436E-003   6.2442442546474547E-002
   1.9785491983635717E-002  -5.7152521199092463E-003   6.2644880650543189E-002
   1.9073431779942807E-002  -5.4536743645280938E-003   6.3034402611545803E-002
   1.6379254239352208E-002  -4.7031045529326299E-003   6.3588708420633383E-002
   1.5850757128908155E-002  -4.5908056035438571E-003   6.3474567524797298E-002
   1.5322260018464120E-002  -4.4483556573233010E-003   6.3540468958524832E-002
   1.4793762908020069E-002  -4.2757547142710326E-003   6.3786412721815941E-002
   1.4265265797576032E-002  -4.0730027743870467E-003   6.4212398814670862E-002
   1.0881981168650134E-002  -2.9168880546825982E-003   6.4420465489726603E-002
   1.0530005624084585E-002  -2.9485357438511217E-003   6.4392286915540470E-002
   1.0178030079519035E-002  -2.9216588285012474E-003   6.4537109143547711E-002
   9.8260545349534816E-003  -2.8362573086328745E-003   6.4854932173748131E-002
   9.4740789903879352E-003  -2.6923311842460829E-003   6.5345756006142036E-002
   5.4298533826082542E-003  -1.1306715564324277E-003   6.5094089116418841E-002
   5.2473578765508157E-003  -1.3062658841584418E-003   6.5180246471569656E-002
   5.0648623704933841E-003  -1.3949619996792770E-003   6.5432363101543350E-002
   4.8823668644359481E-003  -1.3967599029946331E-003   6.5850439006339953E-002
   4.6998713583785139E-003  -1.3116595941051329E-003   6.6434474185959547E-002
   2.2870881226551287E-005   6.5554494181757628E-004   6.5609579300710541E-002
   2.8138863068516429E-006   3.3600397553426586E-004   6.5838446192884842E-002
  -1.7243108612841063E-005   1.3173482914266565E-004   6.6226230832511723E-002
  -3.7300103532533768E-005   4.2737502643365455E-005   6.6772933219591157E-002
  -5.7357098452233413E-005   6.9011996035872603E-005   6.7478553354123172E-002
   1.9073431779942807E-002  -5.4536743645280938E-003   6.3034402611545803E-002
   1.8086507918427613E-002  -5.1839636568291880E-003   6.2308500818781920E-002
   1.7099584056912406E-002  -4.8997644336401247E-003   6.1835396360168660E-002
   1.6112660195397206E-002  -4.6010766949605361E-003   6.1615089235706466E-002
   1.5125736333882006E-002  -4.2879004407904708E-003   6.1647579445394951E-002
   1.4265265797576032E-002  -4.0730027743870467E-003   6.4212398814670862E-002
   1.3530605706939092E-002  -3.8537904906040255E-003   6.3511571737041306E-002
   1.2795945616302165E-002  -3.6318085158545399E-003   6.3062474867017368E-002
   1.2061285525665232E-002  -3.4070568501384513E-003   6.2865108204598952E-002
   1.1326625435028298E-002  -3.1795354934557318E-003   6.2919471749786349E-002
   9.4740789903879352E-003  -2.6923311842460829E-003   6.5345756006142036E-002
   8.9906155440839866E-003  -2.5236173243786825E-003   6.4658284819123141E-002
   8.5071520977800380E-003  -2.3638525980687469E-003   6.4221476713164444E-002
   8.0236886514760911E-003  -2.2130370053160923E-003   6.4035331688266223E-002
   7.5402252051721477E-003  -2.0711705461207985E-003   6.4099849744428297E-002
   4.6998713583785139E-003  -1.3116595941051329E-003   6.6434474185959547E-002
   4.4665374298622652E-003  -1.1934441581534852E-003   6.5748640065027356E-002
   4.2332035013460233E-003  -1.0958966802830303E-003   6.5312401898610067E-002
   3.9998695728297780E-003  -1.0190171604939260E-003   6.5125759686707974E-002
   3.7665356443135328E-003  -9.6280559878579586E-004   6.5188713429320838E-002
  -5.7357098452233413E-005   6.9011996035872603E-005   6.7478553354123172E-002
  -4.1628635726057017E-005   1.3672900807182309E-004   6.6782637474753825E-002
  -2.5900172999877152E-005   1.7205923750267249E-004   6.6335250423354197E-002
  -1.0171710273697288E-005   1.7500268432816754E-004   6.6136392199924440E-002
   5.5567524524791079E-006   1.4555934854898478E-004   6.6186062804464374E-002
   1.5125736333882006E-002  -4.2879004407904708E-003   6.1647579445394951E-002
   1.4292609365252298E-002  -3.9693540030258379E-003   6.1718624848017933E-002
   1.3459482396622618E-002  -3.6545557135628376E-003   6.1989316036279801E-002
   1.2626355427992925E-002  -3.3435055724003911E-003   6.2459653010180347E-002
   1.1793228459363231E-002  -3.0362035795394871E-003   6.3129635769719639E-002
   1.1326625435028298E-002  -3.1795354934557318E-003   6.2919471749786349E-002
   1.0695206157407725E-002  -2.9513837582594016E-003   6.3002661185657033E-002
   1.0063786879787137E-002  -2.7247409570022030E-003   6.3289620217907155E-002
   9.4323676021665463E-003  -2.4996070896842054E-003   6.3780348846536730E-002
   8.8009483245459763E-003  -2.2759821563055338E-003   6.4474847071545716E-002
   7.5402252051721477E-003  -2.0711705461207985E-003   6.4099849744428297E-002
   7.1146374293013688E-003  -1.9334135134927155E-003   6.4197422427908768E-002
   6.6890496534305864E-003  -1.7949262004418945E-003   6.4502888518509272E-002
   6.2634618775598179E-003  -1.6557086069681291E-003   6.5016248016229905E-002
   5.8378741016890390E-003  -1.5157607330715805E-003   6.5737500921070585E-002
   3.7665356443135328E-003  -9.6280559878579586E-004   6.5188713429320838E-002
   3.5509031809332547E-003  -9.1544326872615434E-004   6.5302908574773222E-002
   3.3352707175529723E-003  -8.6511144388158948E-004   6.5629120938086150E-002
   3.1196382541726891E-003  -8.1181012425199806E-004   6.6167350519260079E-002
   2.9040057907924119E-003  -7.5553930983751627E-004   6.6917597318294719E-002
   5.5567524524791079E-006   1.4555934854898478E-004   6.6186062804464374E-002
   4.0034123033813596E-006   1.0252697604051786E-004   6.6319119626250256E-002
   2.4500721542836112E-006   6.4703312678993097E-005   6.6668317476637762E-002
   8.9673200518239349E-007   3.2088358464119060E-005   6.7233656355626698E-002
  -6.5660814391188538E-007   4.6821133963259598E-006   6.8015136263217313E-002
   1.1793228459363231E-002  -3.0362035795394871E-003   6.3129635769719639E-002
   1.0812603335420209E-002  -2.7356066721848094E-003   6.2991234874870905E-002
   9.8319782114772020E-003  -2.4446717875419577E-003   6.3100065336970546E-002
   8.8513530875342014E-003  -2.1633989256105782E-003   6.3456127156018449E-002
   7.8707279635912009E-003  -1.8917880863903447E-003   6.4059420332014505E-002
   8.8009483245459763E-003  -2.2759821563055338E-003   6.4474847071545716E-002
   8.0672923892976395E-003  -2.0555685554428660E-003   6.4358102043501786E-002
   7.3336364540493096E-003  -1.8400686856731296E-003   6.4488064035898657E-002
   6.5999805188009693E-003  -1.6294825469963040E-003   6.4864733048736786E-002
   5.8663245835526429E-003  -1.4238101394123959E-003   6.5488109082015966E-002
   5.8378741016890390E-003  -1.5157607330715805E-003   6.5737500921070585E-002
   5.3506630186282607E-003  -1.3755304387007283E-003   6.5647160051449688E-002
   4.8634519355674859E-003  -1.2354655838043987E-003   6.5803001865762781E-002
   4.3762408525067093E-003  -1.0955661683823038E-003   6.6205026364009684E-002
   3.8890297694459328E-003  -9.5583219243450257E-004   6.6853233546190854E-002
   2.9040057907924119E-003  -7.5553930983751627E-004   6.6917597318294719E-002
   2.6627152234120800E-003  -6.9549232195868782E-004   6.6858408898715332E-002
   2.4214246560317473E-003  -6.3086248193556377E-004   6.7044878826562973E-002
   2.1801340886514081E-003  -5.6164978976822218E-004   6.7477007101837364E-002
   1.9388435212710688E-003  -4.8785424545652600E-004   6.8154793724538781E-002
  -6.5660814391188538E-007   4.6821133963259598E-006   6.8015136263217313E-002
   3.4490036490836262E-006  -1.5454205216591799E-005   6.7991848585298165E-002
   7.5546154420860767E-006  -2.6259380066756544E-005   6.8213694918298984E-002
   1.1660227235090262E-005  -2.7733411154119703E-005   6.8680675262219326E-002
   1.5765839028084039E-005  -1.9876298478660459E-005   6.9392789617059636E-002
   7.8707279635912009E-003  -1.8917880863903447E-003   6.4059420332014505E-002
   6.9424391920697159E-003  -1.6802327606094680E-003   6.4014572735147879E-002
   6.0141504205482310E-003  -1.5791264389958537E-003   6.4210249343031156E-002
   5.0858616490267530E-003  -1.5884691215491201E-003   6.4646450155664503E-002
   4.1575728775052612E-003  -1.7082608082696904E-003   6.5323175173047532E-002
   5.8663245835526429E-003  -1.4238101394123959E-003   6.5488109082015966E-002
   5.1761659699014681E-003  -1.2624628864899567E-003   6.5370883213003272E-002
   4.4860073562502725E-003  -1.1848522117978710E-003   6.5489393454981115E-002
   3.7958487425990908E-003  -1.1909781153355004E-003   6.5843639807949689E-002
   3.1056901289479161E-003  -1.2808405971037606E-003   6.6433622271909132E-002
   3.8890297694459328E-003  -9.5583219243450257E-004   6.6853233546190854E-002
   3.4322132199058955E-003  -8.4469301237050098E-004   6.6690341830968614E-002
   2.9753966703658791E-003  -7.9057798459965245E-004   6.6758398132977889E-002
   2.5185801208258540E-003  -7.9348710912221024E-004   6.7057402452218778E-002
   2.0617635712858254E-003  -8.5342038593783087E-004   6.7587354788691323E-002
   1.9388435212710688E-003  -4.8785424545652600E-004   6.8154793724538781E-002
   1.7105809420830606E-003  -4.2692313825118400E-004   6.7972948589043930E-002
   1.4823183628950333E-003  -3.9630375740166285E-004   6.8017263377021867E-002
   1.2540557837070229E-003  -3.9599610290847777E-004   6.8287738088472022E-002
   1.0257932045189978E-003  -4.2600017477212315E-004   6.8784372723394702E-002
   1.5765839028084039E-005  -1.9876298478660459E-005   6.9392789617059636E-002
   1.1269136432921767E-005  -9.1532641314784335E-006   6.9218703487229472E-002
   6.7724338377560256E-006  -2.0295302037565133E-006   6.9265989187112686E-002
   2.2757312425833454E-006   1.4949033046787741E-006   6.9534646716708920E-002
  -2.2209713525719876E-006   1.4200363939176341E-006   7.0024676076018699E-002
   4.1575728775052612E-003  -1.7082608082696904E-003   6.5323175173047532E-002
   3.6266637742664865E-003  -1.9997172799261498E-003   6.4401821146527372E-002
   3.0957546710277117E-003  -2.5240543172881380E-003   6.3601032859452400E-002
   2.5648455677889370E-003  -3.2812719203552526E-003   6.2920810311823006E-002
   2.0339364645501623E-003  -4.2713700891285900E-003   6.2361153503639022E-002
   3.1056901289479161E-003  -1.2808405971037606E-003   6.6433622271909132E-002
   2.6984370516226069E-003  -1.4998020504250476E-003   6.5319643757461243E-002
   2.2911839742972978E-003  -1.8932248686228670E-003   6.4332411555395014E-002
   1.8839308969719748E-003  -2.4611090516971912E-003   6.3471925665710319E-002
   1.4766778196466795E-003  -3.2034545996485475E-003   6.2738186088407089E-002
   2.0617635712858254E-003  -8.5342038593783087E-004   6.7587354788691323E-002
   1.7843470928101540E-003  -9.9988682092386205E-004   6.6339170987144841E-002
   1.5069306143345000E-003  -1.2623954199579568E-003   6.5223914070915684E-002
   1.2295141358588356E-003  -1.6409461830394698E-003   6.4241584040004587E-002
   9.5209765738318852E-004  -2.1355391101688381E-003   6.3392180894411010E-002
   1.0257932045189978E-003  -4.2600017477212315E-004   6.8784372723394702E-002
   8.8439389782916759E-004  -4.9997159142282921E-004   6.7460402835578068E-002
   7.4299459113933135E-004  -6.3156597129258862E-004   6.6275540406015077E-002
   6.0159528444949078E-004  -8.2078331438157834E-004   6.5229785434706200E-002
   4.6019597775966495E-004  -1.0676236206890732E-003   6.4323137921651452E-002
  -2.2209713525719876E-006   1.4200363939176341E-006   7.0024676076018699E-002
  -1.4225333204026525E-006  -5.6361921629832779E-008   6.8683339302760715E-002
  -6.2409528822637839E-007  -7.3652262780332656E-007   6.7487290560693081E-002
   1.7434274394816096E-007  -6.2044572347180749E-007   6.6436529849815212E-002
   9.7278077611923086E-007   2.9186879069165172E-007   6.5531057170127527E-002
   2.0339364645501623E-003  -4.2713700891285900E-003   6.2361153503639022E-002
   2.2842575689212830E-003  -5.5740500070484700E-003   5.8334631236193424E-002
   2.5345786732923758E-003  -7.2690128575579882E-003   5.4301603652918362E-002
   2.7848997776635173E-003  -9.3562586406564507E-003   5.0262070753814003E-002
   3.0352208820346172E-003  -1.1835787356344163E-002   4.6216032538880736E-002
   1.4766778196466795E-003  -3.2034545996485475E-003   6.2738186088407089E-002
   1.7064330478025885E-003  -4.1801717986962306E-003   5.8386999308262522E-002
   1.9361882759584836E-003  -5.4511709350601179E-003   5.4001186091517273E-002
   2.1659435041144273E-003  -7.0164520087400498E-003   4.9580746438170731E-002
   2.3956987322703016E-003  -8.8760150197362275E-003   4.5125680348222952E-002
   9.5209765738318852E-004  -2.1355391101688381E-003   6.3392180894411010E-002
   1.1331658885520707E-003  -2.7862935903439912E-003   5.8814330596841241E-002
   1.3142341197209736E-003  -3.6333290125620255E-003   5.4173732741898295E-002
   1.4953023508898749E-003  -4.6766453768234822E-003   4.9470387329582255E-002
   1.6763705820587449E-003  -5.9162426831282922E-003   4.4704294359893759E-002
   4.6019597775966495E-004  -1.0676236206890732E-003   6.4323137921651452E-002
   5.6445609116971204E-004  -1.3924153819915297E-003   5.9616625101928770E-002
   6.6871620457976781E-004  -1.8154870900641551E-003   5.4819243604060930E-002
   7.7297631798985437E-004  -2.3368387449068870E-003   4.9930993428048957E-002
   8.7723643139989843E-004  -2.9564703465203568E-003   4.4951874573891631E-002
   9.7278077611923086E-007   2.9186879069165172E-007   6.5531057170127527E-002
   3.0365565553691631E-007   1.4628263608207348E-006   6.0793882823525158E-002
  -3.6546946505233713E-007   2.3548324338262816E-006   5.5937718678006010E-002
  -1.0345945856381211E-006   2.9678870094584919E-006   5.0962564733570415E-002
  -1.7037197062308440E-006   3.3019900875785879E-006   4.5868420990218262E-002
  -1.8442366094717499E-005  -2.7844316125391066E-003   6.5606465430113725E-002
  -8.1140542644020375E-006  -9.9655921283592352E-004   6.5199690817542288E-002
   2.2142575659203634E-006   1.7272767945786249E-004   6.5064618258451223E-002
   1.2542569396232356E-005   7.2342906434229304E-004   6.5201247752840696E-002
   2.2870881226551287E-005   6.5554494181757628E-004   6.5609579300710541E-002
  -6.4434648937611097E-003   1.2368386420902322E-004   6.6244262717044311E-002
  -6.1784416327317349E-003   1.1144482125206578E-003   6.5425641497735748E-002
  -5.9134183717023669E-003   1.7493368821023120E-003   6.4844708123345002E-002
  -5.6483951106729990E-003   2.0283498729540168E-003   6.4501462593871850E-002
  -5.3833718496436311E-003   1.9514871850757343E-003   6.4395904909316320E-002
  -1.2776096330813523E-002   3.0317993409571808E-003   6.5953597038243716E-002
  -1.2290392329147887E-002   3.2254556378772947E-003   6.4985839040877499E-002
  -1.1804688327482236E-002   3.3259460847467892E-003   6.4221754679866169E-002
  -1.1318984325816593E-002   3.3332706815656851E-003   6.3661343955209684E-002
  -1.0833280324150950E-002   3.2474294283339200E-003   6.3304606866908114E-002
  -1.9016336677251985E-002   5.9399148177053107E-003   6.4734468393711816E-002
  -1.8343966143512830E-002   5.3364630632338761E-003   6.3880283446967417E-002
  -1.7671595609773688E-002   4.9025552873912803E-003   6.3195757928014851E-002
  -1.6999225076034553E-002   4.6381914901772979E-003   6.2680891836854588E-002
  -1.6326854542295405E-002   4.5433716715920641E-003   6.2335685173486345E-002
  -2.5164185933076455E-002   8.8480302944534683E-003   6.2586876783449041E-002
  -2.4339163075826592E-002   7.4474704885905407E-003   6.2108974716005405E-002
  -2.3514140218576722E-002   6.4791644900357576E-003   6.1766717867791060E-002
  -2.2689117361326856E-002   5.9431122987890321E-003   6.1560106238806131E-002
  -2.1864094504076996E-002   5.8393139148502082E-003   6.1489139829050521E-002
   2.2870881226551287E-005   6.5554494181757628E-004   6.5609579300710541E-002
   2.8138863068516429E-006   3.3600397553426586E-004   6.5838446192884842E-002
  -1.7243108612841063E-005   1.3173482914266565E-004   6.6226230832511723E-002
  -3.7300103532533768E-005   4.2737502643365455E-005   6.6772933219591157E-002
  -5.7357098452233413E-005   6.9011996035872603E-005   6.7478553354123172E-002
  -5.3833718496436311E-003   1.9514871850757343E-003   6.4395904909316320E-002
  -5.2381972961213635E-003   1.7261829553795460E-003   6.4674552066335766E-002
  -5.0930227425990959E-003   1.5598713207770551E-003   6.5124744572786677E-002
  -4.9478481890768249E-003   1.4525522812684887E-003   6.5746482428668956E-002
  -4.8026736355545607E-003   1.4042258368537897E-003   6.6539765633982562E-002
  -1.0833280324150950E-002   3.2474294283339200E-003   6.3304606866908114E-002
  -1.0510246620207893E-002   3.1163619352248123E-003   6.3576755063974810E-002
  -1.0187212916264836E-002   2.9880078124113335E-003   6.4033076212451620E-002
  -9.8641792123217754E-003   2.8623670598937230E-003   6.4673570312338530E-002
  -9.5411455083787150E-003   2.7394396776717345E-003   6.5498237363635900E-002
  -1.6326854542295405E-002   4.5433716715920641E-003   6.2335685173486345E-002
  -1.5813334085952729E-002   4.5065409150700300E-003   6.2545055185801862E-002
  -1.5299813629610057E-002   4.4161443040456119E-003   6.2951225751506440E-002
  -1.4786293173267389E-002   4.2721818385188185E-003   6.3554196870600099E-002
  -1.4272772716924715E-002   4.0746535184896099E-003   6.4353968543082674E-002
  -2.1864094504076996E-002   5.8393139148502082E-003   6.1489139829050521E-002
  -2.1147459693355880E-002   5.8967198949153310E-003   6.1579452431816950E-002
  -2.0430824882634775E-002   5.8442807956798765E-003   6.1879193189951193E-002
  -1.9714190071913648E-002   5.6819966171439661E-003   6.2388362103453290E-002
  -1.8997555261192546E-002   5.4098673593075963E-003   6.3106959172323285E-002
  -5.7357098452233413E-005   6.9011996035872603E-005   6.7478553354123172E-002
  -4.1628635726057017E-005   1.3672900807182309E-004   6.6782637474753825E-002
  -2.5900172999877152E-005   1.7205923750267249E-004   6.6335250423354197E-002
  -1.0171710273697288E-005   1.7500268432816754E-004   6.6136392199924440E-002
   5.5567524524791079E-006   1.4555934854898478E-004   6.6186062804464374E-002
  -4.8026736355545607E-003   1.4042258368537897E-003   6.6539765633982562E-002
  -4.5407104702861380E-003   1.3749423807681849E-003   6.5821753592943399E-002
  -4.2787473050177171E-003   1.3247523062467348E-003   6.5347682129018952E-002
  -4.0167841397492961E-003   1.2536556132897170E-003   6.5117551242209193E-002
  -3.7548209744808735E-003   1.1616523018967428E-003   6.5131360932514260E-002
  -9.5411455083787150E-003   2.7394396776717345E-003   6.5498237363635900E-002
  -9.0375358914231239E-003   2.6131557534645466E-003   6.4769609325096317E-002
  -8.5339262744675362E-003   2.4774453749909151E-003   6.4280333612816348E-002
  -8.0303166575119555E-003   2.3323085422509906E-003   6.4030410226796022E-002
  -7.5267070405563592E-003   2.1777452552447785E-003   6.4019839167035353E-002
  -1.4272772716924715E-002   4.0746535184896099E-003   6.4353968543082674E-002
  -1.3532104899137020E-002   3.8513691261608252E-003   6.3626204671212147E-002
  -1.2791437081349350E-002   3.6301384437351196E-003   6.3133204874746038E-002
  -1.2050769263561670E-002   3.4109614712122356E-003   6.2874969153684665E-002
  -1.1310101445773976E-002   3.1938382085927308E-003   6.2851497508027862E-002
  -1.8997555261192546E-002   5.4098673593075963E-003   6.3106959172323285E-002
  -1.8024417493427845E-002   5.0895824988573257E-003   6.2391539631291126E-002
  -1.7051279725663143E-002   4.7828315124791021E-003   6.1906295914808451E-002
  -1.6078141957898431E-002   4.4896144001737442E-003   6.1651228022875260E-002
  -1.5105004190133740E-002   4.2099311619405722E-003   6.1626335955491496E-002
   5.5567524524791079E-006   1.4555934854898478E-004   6.6186062804464374E-002
   4.0034123033813596E-006   1.0252697604051786E-004   6.6319119626250256E-002
   2.4500721542836112E-006   6.4703312678993097E-005   6.6668317476637762E-002
   8.9673200518239349E-007   3.2088358464119060E-005   6.7233656355626698E-002
  -6.5660814391188538E-007   4.6821133963259598E-006   6.8015136263217313E-002
  -3.7548209744808735E-003   1.1616523018967428E-003   6.5131360932514260E-002
  -3.5423771149611129E-003   1.0603315276361547E-003   6.5254505787148781E-002
  -3.3299332554413454E-003   9.6128244607525393E-004   6.5589504012519451E-002
  -3.1174893959215761E-003   8.6450505721407181E-004   6.6136355608626379E-002
  -2.9050455364018173E-003   7.6999936105259792E-004   6.6895060575469456E-002
  -7.5267070405563592E-003   2.1777452552447785E-003   6.4019839167035353E-002
  -7.1045536392330653E-003   2.0181360792317915E-003   6.4130135038071370E-002
  -6.6824002379097646E-003   1.8578615794715148E-003   6.4447996621978157E-002
  -6.2602468365864647E-003   1.6969217559640246E-003   6.4973423918755838E-002
  -5.8380934352631701E-003   1.5353166087090919E-003   6.5706416928404454E-002
  -1.1310101445773976E-002   3.1938382085927308E-003   6.2851497508027862E-002
  -1.0682526160512480E-002   2.9759406308275393E-003   6.2946007379018093E-002
  -1.0054950875250983E-002   2.7544407128677756E-003   6.3243795305014089E-002
  -9.4273755899894774E-003   2.5293384547138108E-003   6.3744861286015406E-002
  -8.7998003047279841E-003   2.3006338563655304E-003   6.4449205322022529E-002
  -1.5105004190133740E-002   4.2099311619405722E-003   6.1626335955491496E-002
  -1.4276294678799366E-002   3.9337451824232317E-003   6.1702122809989157E-002
  -1.3447585167464988E-002   3.6510198462640087E-003   6.1976900061627038E-002
  -1.2618875656130612E-002   3.3617551534639231E-003   6.2450667710405111E-002
  -1.1790166144796242E-002   3.0659511040218579E-003   6.3123425756323348E-002
  -6.5660814391188538E-007   4.6821133963259598E-006   6.8015136263217313E-002
   3.4490036490836262E-006  -1.5454205216591799E-005   6.7991848585298165E-002
   7.5546154420860767E-006  -2.6259380066756544E-005   6.8213694918298984E-002
   1.1660227235090262E-005  -2.7733411154119703E-005   6.8680675262219326E-002
   1.5765839028084039E-005  -1.9876298478660459E-005   6.9392789617059636E-002
  -2.9050455364018173E-003   7.6999936105259792E-004   6.6895060575469456E-002
  -2.6563338391956647E-003   6.8072351024661693E-004   6.6851345572326915E-002
  -2.4076221419895259E-003   5.9963565745119185E-004   6.7051708729091081E-002
  -2.1589104447833725E-003   5.2673580266614228E-004   6.7496150045761497E-002
  -1.9101987475772346E-003   4.6202394589178741E-004   6.8184669522338703E-002
  -5.8380934352631701E-003   1.5353166087090919E-003   6.5706416928404454E-002
  -5.3458315036571391E-003   1.3769012257099089E-003   6.5641131454286405E-002
  -4.8535695720511082E-003   1.2255306949689321E-003   6.5818868289061486E-002
  -4.3613076404450911E-003   1.0812050164864077E-003   6.6239627432729931E-002
  -3.8690457088390463E-003   9.4392419026223529E-004   6.6903408885291588E-002
  -8.7998003047279841E-003   2.3006338563655304E-003   6.4449205322022529E-002
  -8.0650439897353328E-003   2.0730789411730483E-003   6.4361206231176638E-002
  -7.3302876747426918E-003   1.8514257324868874E-003   6.4515173598210629E-002
  -6.5955313597500474E-003   1.6356742303065049E-003   6.4911107423124670E-002
  -5.8607750447573978E-003   1.4258244346326276E-003   6.5549007705918649E-002
  -1.1790166144796242E-002   3.0659511040218579E-003   6.3123425756323348E-002
  -1.0813971297430253E-002   2.7692566566365207E-003   6.3011569902997389E-002
  -9.8377764500642423E-003   2.4773207700045929E-003   6.3140624656538136E-002
  -8.8615816026982389E-003   2.1901434441268727E-003   6.3510590016945562E-002
  -7.8853867553322424E-003   1.9077246790031310E-003   6.4121465984219750E-002
   1.5765839028084039E-005  -1.9876298478660459E-005   6.9392789617059636E-002
   1.1269136432921767E-005  -9.1532641314784335E-006   6.9218703487229472E-002
   6.7724338377560256E-006  -2.0295302037565133E-006   6.9265989187112686E-002
   2.2757312425833454E-006   1.4949033046787741E-006   6.9534646716708920E-002
  -2.2209713525719876E-006   1.4200363939176341E-006   7.0024676076018699E-002
  -1.9101987475772346E-003   4.6202394589178741E-004   6.8184669522338703E-002
  -1.6901207663051546E-003   4.1440361184430508E-004   6.7992101745518008E-002
  -1.4700427850330728E-003   3.9277832524048373E-004   6.8027311506718452E-002
  -1.2499648037609980E-003   3.9714808607975438E-004   6.8290298805940217E-002
  -1.0298868224889110E-003   4.2751289436249174E-004   6.8781063643182871E-002
  -3.8690457088390463E-003   9.4392419026223529E-004   6.6903408885291588E-002
  -3.4179873353918123E-003   8.3796048782017185E-004   6.6721953809343093E-002
  -2.9669289619445663E-003   7.8758618068437702E-004   6.6774681979723735E-002
  -2.5158705884973168E-003   7.9280126885471550E-004   6.7061593396433528E-002
  -2.0648122150500724E-003   8.5360575233112135E-004   6.7582688059472401E-002
  -5.8607750447573978E-003   1.4258244346326276E-003   6.5549007705918649E-002
  -5.1723305708270559E-003   1.2615173637960525E-003   6.5408259678705255E-002
  -4.4838860968967071E-003   1.1823940361284438E-003   6.5508100606128605E-002
  -3.7954416229663687E-003   1.1884544516296228E-003   6.5848530488189325E-002
  -3.1069971490360160E-003   1.2796986102997787E-003   6.6429549324886789E-002
  -7.8853867553322424E-003   1.9077246790031310E-003   6.4121465984219750E-002
  -6.9531504726108792E-003   1.6850742397718776E-003   6.4051019353604022E-002
  -6.0209141898895126E-003   1.5772018915723718E-003   6.4227567385932993E-002
  -5.0886779071681581E-003   1.5841076344044400E-003   6.4651110081207247E-002
  -4.1564416244467828E-003   1.7057914682683251E-003   6.5321647439426367E-002
  -2.2209713525719876E-006   1.4200363939176341E-006   7.0024676076018699E-002
  -1.4225333204026525E-006  -5.6361921629832779E-008   6.8683339302760715E-002
  -6.2409528822637839E-007  -7.3652262780332656E-007   6.7487290560693081E-002
   1.7434274394816096E-007  -6.2044572347180749E-007   6.6436529849815212E-002
   9.7278077611923086E-007   2.9186879069165172E-007   6.5531057170127527E-002
  -1.0298868224889110E-003   4.2751289436249174E-004   6.8781063643182871E-002
  -8.8705407532004357E-004   5.0014018399285876E-004   6.7458876682877644E-002
  -7.4422132815117267E-004   6.3129738887465758E-004   6.6275470309655499E-002
  -6.0138858098230611E-004   8.2098450900824210E-004   6.5230844523516782E-002
  -4.5855583381343434E-004   1.0692015443934944E-003   6.4324999324461563E-002
  -2.0648122150500724E-003   8.5360575233112135E-004   6.7582688059472401E-002
  -1.7864526028512984E-003   1.0003367299072641E-003   6.6337384589761461E-002
  -1.5080929906525235E-003   1.2633313003767993E-003   6.5224354263026793E-002
  -1.2297333784537482E-003   1.6425894637398485E-003   6.4243597079268772E-002
  -9.5137376625497455E-004   2.1381112199961860E-003   6.3395113038487327E-002
  -3.1069971490360160E-003   1.2796986102997787E-003   6.6429549324886789E-002
  -2.6996181159141580E-003   1.5005332758219331E-003   6.5318863023411916E-002
  -2.2922390827922858E-003   1.8953652118790451E-003   6.4333942420806395E-002
  -1.8848600496704131E-003   2.4641944184711755E-003   6.3474787517070669E-002
  -1.4774810165485552E-003   3.2070208955989332E-003   6.2741398312204863E-002
  -4.1564416244467828E-003   1.7057914682683251E-003   6.5321647439426367E-002
  -3.6265506145086307E-003   2.0007298217361580E-003   6.4403311983829092E-002
  -3.0966596045704543E-003   2.5273991233810966E-003   6.3604234782994706E-002
  -2.5667685946322953E-003   3.2857993732030924E-003   6.2924415836923292E-002
  -2.0368775846941259E-003   4.2759305712017914E-003   6.2363855145614822E-002
   9.7278077611923086E-007   2.9186879069165172E-007   6.5531057170127527E-002
   3.0365565553691631E-007   1.4628263608207348E-006   6.0793882823525158E-002
  -3.6546946505233713E-007   2.3548324338262816E-006   5.5937718678006010E-002
  -1.0345945856381211E-006   2.9678870094584919E-006   5.0962564733570415E-002
  -1.7037197062308440E-006   3.3019900875785879E-006   4.5868420990218262E-002
  -4.5855583381343434E-004   1.0692015443934944E-003   6.4324999324461563E-002
  -5.6404054256039768E-004   1.3956843184961265E-003   5.9617571180640261E-002
  -6.6952525130737836E-004   1.8201686547823226E-003   5.4819501668482762E-002
  -7.7500996005436685E-004   2.3426545532522838E-003   4.9930790787989371E-002
  -8.8049466880130850E-004   2.9631420139060172E-003   4.4951438539159616E-002
  -9.5137376625497455E-004   2.1381112199961860E-003   6.3395113038487327E-002
  -1.1333256280480122E-003   2.7899058106314878E-003   5.8815711611128307E-002
  -1.3152774898410515E-003   3.6379824771310409E-003   5.4174017246013367E-002
  -1.4972293516340744E-003   4.6823412194953867E-003   4.9470029943142618E-002
  -1.6791812134271007E-003   5.9229820377242337E-003   4.4703749702516005E-002
  -1.4774810165485552E-003   3.2070208955989332E-003   6.2741398312204863E-002
  -1.7075516008072905E-003   4.1841273027664883E-003   5.8388304114988944E-002
  -1.9376221850660193E-003   5.4557962994796483E-003   5.4001265410597785E-002
  -2.1676927693247963E-003   7.0220278857386839E-003   4.9580282199031052E-002
  -2.3977633535834974E-003   8.8828220615424502E-003   4.5125354480288454E-002
  -2.0368775846941259E-003   4.2759305712017914E-003   6.2363855145614822E-002
  -2.2867184608382288E-003   5.5783487949023769E-003   5.8335348692223121E-002
  -2.5365593369823629E-003   7.2736101218282834E-003   5.4301246162236250E-002
  -2.7864002131264935E-003   9.3617145519813774E-003   5.0261547555654013E-002
  -3.0362410892705999E-003   1.1842662085360889E-002   4.6216252872476993E-002
  -2.5164185933076455E-002   8.8480302944534683E-003   6.2586876783449041E-002
  -2.4339163075826592E-002   7.4474704885905407E-003   6.2108974716005405E-002
  -2.3514140218576722E-002   6.4791644900357576E-003   6.1766717867791060E-002
  -2.2689117361326856E-002   5.9431122987890321E-003   6.1560106238806131E-002
  -2.1864094504076996E-002   5.8393139148502082E-003   6.1489139829050521E-002
  -3.1307610421659790E-002   1.0113619693449261E-002   5.8514852872343232E-002
  -3.0328644980813439E-002   9.1913892928219831E-003   5.8307711357823089E-002
  -2.9349679539967161E-002   8.5089145742624217E-003   5.8272809791266436E-002
  -2.8370714099120835E-002   8.0661955377706249E-003   5.8410148172673294E-002
  -2.7391748658274529E-002   7.8632321833465024E-003   5.8719726502043851E-002
  -3.7534576466374772E-002   1.1379209092445025E-002   5.5017407429093515E-002
  -3.6365073713197749E-002   1.0935308097053412E-002   5.4888528342256354E-002
  -3.5195570960020746E-002   1.0538664658489148E-002   5.4968483932116861E-002
  -3.4026068206843764E-002   1.0189278776752330E-002   5.5257274198675307E-002
  -3.2856565453666726E-002   9.8871504518428244E-003   5.5754899141931408E-002
  -4.3845084067221457E-002   1.2644798491440803E-002   5.2094540453699392E-002
  -4.2448449272979451E-002   1.2679226901284778E-002   5.1851425669305028E-002
  -4.1051814478737569E-002   1.2568414742715760E-002   5.1853740290342447E-002
  -3.9655179684495626E-002   1.2312362015734008E-002   5.2101484316811997E-002
  -3.8258544890253682E-002   1.1911068720339105E-002   5.2594657748713664E-002
  -5.0239133224199678E-002   1.3910387890436582E-002   4.9746251946161280E-002
  -4.8578771660158615E-002   1.4423145705516283E-002   4.9196403338969075E-002
  -4.6918410096117510E-002   1.4598164826942497E-002   4.8928578865943179E-002
  -4.5258048532076441E-002   1.4435445254715646E-002   4.8942778527083522E-002
  -4.3597686968035371E-002   1.3934986988835385E-002   4.9239002322390146E-002
  -2.1864094504076996E-002   5.8393139148502082E-003   6.1489139829050521E-002
  -2.1147459693355880E-002   5.8967198949153310E-003   6.1579452431816950E-002
  -2.0430824882634775E-002   5.8442807956798765E-003   6.1879193189951193E-002
  -1.9714190071913648E-002   5.6819966171439661E-003   6.2388362103453290E-002
  -1.8997555261192546E-002   5.4098673593075963E-003   6.3106959172323285E-002
  -2.7391748658274529E-002   7.8632321833465024E-003   5.8719726502043851E-002
  -2.6477201501649276E-002   7.7414354682740771E-003   5.8767726912819285E-002
  -2.5562654345024007E-002   7.5422163498371914E-003   5.9002123860035269E-002
  -2.4648107188398747E-002   7.2655748280359665E-003   5.9422917343691574E-002
  -2.3733560031773498E-002   6.9115109028702881E-003   6.0030107363788332E-002
  -3.2856565453666726E-002   9.8871504518428244E-003   5.5754899141931408E-002
  -3.1767137570064788E-002   9.5861510416328372E-003   5.5793010036652074E-002
  -3.0677709686462832E-002   9.2401519039945687E-003   5.5994485848885785E-002
  -2.9588281802860883E-002   8.8491530389278577E-003   5.6359326578632518E-002
  -2.8498853919258920E-002   8.4131544464328689E-003   5.6887532225892129E-002
  -3.8258544890253682E-002   1.1911068720339105E-002   5.2594657748713664E-002
  -3.7017267898602498E-002   1.1430866614991646E-002   5.2655301803315582E-002
  -3.5775990906951230E-002   1.0938087458151832E-002   5.2856279156503025E-002
  -3.4534713915300004E-002   1.0432731249819860E-002   5.3197589808275977E-002
  -3.3293436923648778E-002   9.9147979899955330E-003   5.3679233758634648E-002
  -4.3597686968035371E-002   1.3934986988835385E-002   4.9239002322390146E-002
  -4.2227592487262294E-002   1.3275582188350371E-002   4.9354602212809406E-002
  -4.0857498006489232E-002   1.2636023012309219E-002   4.9587503782886760E-002
  -3.9487403525716169E-002   1.2016309460711739E-002   4.9937707032622278E-002
  -3.8117309044943093E-002   1.1416441533558142E-002   5.0405211962015861E-002
  -1.8997555261192546E-002   5.4098673593075963E-003   6.3106959172323285E-002
  -1.8024417493427845E-002   5.0895824988573257E-003   6.2391539631291126E-002
  -1.7051279725663143E-002   4.7828315124791021E-003   6.1906295914808451E-002
  -1.6078141957898431E-002   4.4896144001737442E-003   6.1651228022875260E-002
  -1.5105004190133740E-002   4.2099311619405722E-003   6.1626335955491496E-002
  -2.3733560031773498E-002   6.9115109028702881E-003   6.0030107363788332E-002
  -2.2530141794311741E-002   6.5248326231519271E-003   5.9298367135165175E-002
  -2.1326723556849947E-002   6.1503480376926684E-003   5.8797012021386624E-002
  -2.0123305319388159E-002   5.7880571464926124E-003   5.8526042022452762E-002
  -1.8919887081926393E-002   5.4379599495515407E-003   5.8485457138363672E-002
  -2.8498853919258920E-002   8.4131544464328689E-003   5.6887532225892129E-002
  -2.7064945921804848E-002   7.9600827474466118E-003   5.6138131129864516E-002
  -2.5631037924350793E-002   7.5178645629061236E-003   5.5619324438976894E-002
  -2.4197129926896724E-002   7.0864998928115916E-003   5.5331112153229195E-002
  -2.2763221929442641E-002   6.6659887371626203E-003   5.5273494272621265E-002
  -3.3293436923648778E-002   9.9147979899955330E-003   5.3679233758634648E-002
  -3.1628829875907219E-002   9.3953328717411994E-003   5.2910831615389398E-002
  -2.9964222828165674E-002   8.8853810881195788E-003   5.2373233167579226E-002
  -2.8299615780424114E-002   8.3849426391303487E-003   5.2066438415204225E-002
  -2.6635008732682573E-002   7.8940175247736999E-003   5.1990447358264226E-002
  -3.8117309044943093E-002   1.1416441533558142E-002   5.0405211962015861E-002
  -3.6221793656618845E-002   1.0830582996035953E-002   4.9616468591739626E-002
  -3.4326278268294597E-002   1.0252897613333173E-002   4.9058738207193642E-002
  -3.2430762879970342E-002   9.6833853854493349E-003   4.8732020808378129E-002
  -3.0535247491646100E-002   9.1220463123845574E-003   4.8636316395292756E-002
  -1.5105004190133740E-002   4.2099311619405722E-003   6.1626335955491496E-002
  -1.4276294678799366E-002   3.9337451824232317E-003   6.1702122809989157E-002
  -1.3447585167464988E-002   3.6510198462640087E-003   6.1976900061627038E-002
  -1.2618875656130612E-002   3.3617551534639231E-003   6.2450667710405111E-002
  -1.1790166144796242E-002   3.0659511040218579E-003   6.3123425756323348E-002
  -1.8919887081926393E-002   5.4379599495515407E-003   5.8485457138363672E-002
  -1.7896111318550317E-002   5.0890768814796372E-003   5.8520715495457898E-002
  -1.6872335555174266E-002   4.7304283768865030E-003   5.8747115959495139E-002
  -1.5848559791798188E-002   4.3620144357720478E-003   5.9164658530475603E-002
  -1.4824784028422140E-002   3.9838350581362647E-003   5.9773343208399388E-002
  -2.2763221929442641E-002   6.6659887371626203E-003   5.5273494272621265E-002
  -2.1552228204221958E-002   6.2444085805362926E-003   5.5264998052432096E-002
  -2.0341234479001245E-002   5.8098369075086781E-003   5.5439795648989029E-002
  -1.9130240753780534E-002   5.3622737180800649E-003   5.5797887062292224E-002
  -1.7919247028559824E-002   4.9017190122505605E-003   5.6339272292341258E-002
  -2.6635008732682573E-002   7.8940175247736999E-003   5.1990447358264226E-002
  -2.5244645335814261E-002   7.3997402795928230E-003   5.1934970480911939E-002
  -2.3854281938945940E-002   6.8892454381310683E-003   5.2054939130108641E-002
  -2.2463918542077618E-002   6.3625330003884133E-003   5.2350353305854469E-002
  -2.1073555145209311E-002   5.8196029663648008E-003   5.2821213008149480E-002
  -3.0535247491646100E-002   9.1220463123845574E-003   4.8636316395292756E-002
  -2.8973362713327205E-002   8.5550719786492424E-003   4.8530632780897476E-002
  -2.7411477935008338E-002   7.9686539687532643E-003   4.8592546402854264E-002
  -2.5849593156689436E-002   7.3627922826962691E-003   4.8822057261163038E-002
  -2.4287708378370576E-002   6.7374869204791521E-003   4.9219165355824046E-002
  -1.1790166144796242E-002   3.0659511040218579E-003   6.3123425756323348E-002
  -1.0813971297430253E-002   2.7692566566365207E-003   6.3011569902997389E-002
  -9.8377764500642423E-003   2.4773207700045929E-003   6.3140624656538136E-002
  -8.8615816026982389E-003   2.1901434441268727E-003   6.3510590016945562E-002
  -7.8853867553322424E-003   1.9077246790031310E-003   6.4121465984219750E-002
  -1.4824784028422140E-002   3.9838350581362647E-003   5.9773343208399388E-002
  -1.3615525189506109E-002   3.6033534971532388E-003   5.9598755438535211E-002
  -1.2406266350590080E-002   3.2280330059969720E-003   5.9649385044904302E-002
  -1.1197007511674026E-002   2.8578735846678874E-003   5.9925232027506825E-002
  -9.9877486727579894E-003   2.4928752331647708E-003   6.0426296386342615E-002
  -1.7919247028559824E-002   4.9017190122505605E-003   5.6339272292341258E-002
  -1.6492617428727149E-002   4.4374503376701235E-003   5.6102355115011882E-002
  -1.5065987828894472E-002   3.9787452419892538E-003   5.6074962083282401E-002
  -1.3639358229061791E-002   3.5256037252082394E-003   5.6257093197152948E-002
  -1.2212728629229142E-002   3.0780257873266326E-003   5.6648748456623266E-002
  -2.1073555145209311E-002   5.8196029663648008E-003   5.2821213008149480E-002
  -1.9445248015093359E-002   5.2715471781870360E-003   5.2522368932427684E-002
  -1.7816940884977425E-002   4.7294574779816953E-003   5.2417355771672364E-002
  -1.6188633754861487E-002   4.1933338657488117E-003   5.2506173525883743E-002
  -1.4560326624745538E-002   3.6631763414885499E-003   5.2788822195061390E-002
  -2.4287708378370576E-002   6.7374869204791521E-003   4.9219165355824046E-002
  -2.2473416948604788E-002   6.1056440187036709E-003   4.8858796890782541E-002
  -2.0659125518838958E-002   5.4801697139738592E-003   4.8676566110074260E-002
  -1.8844834089073136E-002   4.8610640062894256E-003   4.8672473013699147E-002
  -1.7030542659307341E-002   4.2483268956502451E-003   4.8846517601657258E-002
  -7.8853867553322424E-003   1.9077246790031310E-003   6.4121465984219750E-002
  -6.9531504726108792E-003   1.6850742397718776E-003   6.4051019353604022E-002
  -6.0209141898895126E-003   1.5772018915723718E-003   6.4227567385932993E-002
  -5.0886779071681581E-003   1.5841076344044400E-003   6.4651110081207247E-002
  -4.1564416244467828E-003   1.7057914682683251E-003   6.5321647439426367E-002
  -9.9877486727579894E-003   2.4928752331647708E-003   6.0426296386342615E-002
  -8.8076897532742976E-003   2.1876039671840930E-003   6.0348595286623563E-002
  -7.6276308337905659E-003   1.9966258024214922E-003   6.0519544797484198E-002
  -6.4475719143068473E-003   1.9199407388761219E-003   6.0939144918924562E-002
  -5.2675129948231425E-003   1.9575487765485233E-003   6.1607395650944419E-002
  -1.2212728629229142E-002   3.0780257873266326E-003   5.6648748456623266E-002
  -1.0783191125348304E-002   2.6901336945967247E-003   5.6563307897986720E-002
  -9.3536536214674920E-003   2.4160497132705155E-003   5.6728173897564779E-002
  -7.9241161175866697E-003   2.2557738433478074E-003   5.7143346455357104E-002
  -6.4945786137058439E-003   2.2093060848288326E-003   5.7808825571364103E-002
  -1.4560326624745538E-002   3.6631763414885499E-003   5.2788822195061390E-002
  -1.2879654588832895E-002   3.1926634220091482E-003   5.2695157187693659E-002
  -1.1198982552920237E-002   2.8354736241196984E-003   5.2853454686174986E-002
  -9.5183105170075950E-003   2.5916069478196021E-003   5.3263714690505677E-002
  -7.8376384810949357E-003   2.4610633931091974E-003   5.3925937200685260E-002
  -1.7030542659307341E-002   4.2483268956502451E-003   4.8846517601657258E-002
  -1.5097080143728098E-002   3.6951931494216272E-003   4.8744143155744157E-002
  -1.3163617628148855E-002   3.2548975349686871E-003   4.8895387163314874E-002
  -1.1230155112569619E-002   2.9274400522911817E-003   4.9300249624369602E-002
  -9.2966925969903691E-003   2.7128207013893402E-003   4.9958730538908203E-002
  -4.1564416244467828E-003   1.7057914682683251E-003   6.5321647439426367E-002
  -3.6265506145086307E-003   2.0007298217361580E-003   6.4403311983829092E-002
  -3.0966596045704543E-003   2.5273991233810966E-003   6.3604234782994706E-002
  -2.5667685946322953E-003   3.2857993732030924E-003   6.2924415836923292E-002
  -2.0368775846941259E-003   4.2759305712017914E-003   6.2363855145614822E-002
  -5.2675129948231425E-003   1.9575487765485233E-003   6.1607395650944419E-002
  -4.5923019620755408E-003   2.2151946109771337E-003   6.0877884435123319E-002
  -3.9170909293279078E-003   2.7986229377008343E-003   6.0319755010158127E-002
  -3.2418798965803339E-003   3.7078337567192921E-003   5.9933007376048897E-002
  -2.5666688638326732E-003   4.9428270680329511E-003   5.9717641532795795E-002
  -6.4945786137058439E-003   2.2093060848288326E-003   5.7808825571364103E-002
  -5.6219240220557153E-003   2.4296594002181093E-003   5.7362190139437080E-002
  -4.7492694304055571E-003   3.0698467520204470E-003   5.7139060034459219E-002
  -3.8766148387553981E-003   4.1298681402357103E-003   5.7139435256430345E-002
  -3.0039602471052685E-003   5.6097235648640553E-003   5.7363315805350673E-002
  -7.8376384810949357E-003   2.4610633931091974E-003   5.3925937200685260E-002
  -6.7154167944491741E-003   2.6441241894591960E-003   5.3856229096770597E-002
  -5.5931951078033830E-003   3.3410705663399001E-003   5.4062149855898023E-002
  -4.4709734211576188E-003   4.5519025237521302E-003   5.4543699478067566E-002
  -3.3487517345118277E-003   6.2766200616956314E-003   5.5300877963279323E-002
  -9.2966925969903691E-003   2.7128207013893402E-003   4.9958730538908203E-002
  -7.8727802792558921E-003   2.8585889786999497E-003   5.0360001307123703E-002
  -6.4488679615213734E-003   3.6122943806597974E-003   5.1089024474474609E-002
  -5.0249556437868825E-003   4.9739369072684392E-003   5.2145800040960699E-002
  -3.6010433260523778E-003   6.9435165585265413E-003   5.3530328006582195E-002
  -2.0368775846941259E-003   4.2759305712017914E-003   6.2363855145614822E-002
  -2.2867184608382288E-003   5.5783487949023769E-003   5.8335348692223121E-002
  -2.5365593369823629E-003   7.2736101218282834E-003   5.4301246162236250E-002
  -2.7864002131264935E-003   9.3617145519813774E-003   5.0261547555654013E-002
  -3.0362410892705999E-003   1.1842662085360889E-002   4.6216252872476993E-002
  -2.5666688638326732E-003   4.9428270680329511E-003   5.9717641532795795E-002
  -2.8396168158123687E-003   6.5674942957760774E-003   5.6187328197924935E-002
  -3.1125647677920330E-003   8.6457268640830198E-003   5.2616396787978248E-002
  -3.3855127197716835E-003   1.1177524772954382E-002   4.9004847302955568E-002
  -3.6584606717514137E-003   1.4162888022389408E-002   4.5352679742857616E-002
  -3.0039602471052685E-003   5.6097235648640553E-003   5.7363315805350673E-002
  -3.3350372734011566E-003   7.5566397966501109E-003   5.4391917826338620E-002
  -3.6661142996970170E-003   1.0017843606337409E-002   5.1344879773769544E-002
  -3.9971913259929338E-003   1.2993334993927106E-002   4.8222201647644423E-002
  -4.3282683522888228E-003   1.6483113959418150E-002   4.5023883447962376E-002
  -3.3487517345118277E-003   6.2766200616956314E-003   5.5300877963279323E-002
  -3.7729798336046064E-003   8.5457852975240889E-003   5.2949117577463366E-002
  -4.1972079326974138E-003   1.1389960348591972E-002   5.0486695119610708E-002
  -4.6214360317902428E-003   1.4809145214899970E-002   4.7913610589720101E-002
  -5.0456641308830015E-003   1.8803339896446669E-002   4.5229863987792579E-002
  -3.6010433260523778E-003   6.9435165585265413E-003   5.3530328006582195E-002
  -4.1534444964227424E-003   9.5349307983980669E-003   5.1858927451300274E-002
  -4.7058456667931348E-003   1.2762077090846424E-002   5.0041842825500504E-002
  -5.2582468371635480E-003   1.6624955435872807E-002   4.8079074129182553E-002
  -5.8106480075338918E-003   2.1123565833475411E-002   4.5970621362347419E-002
  -5.0239133224199678E-002   1.3910387890436582E-002   4.9746251946161280E-002
  -4.8578771660158615E-002   1.4423145705516283E-002   4.9196403338969075E-002
  -4.6918410096117510E-002   1.4598164826942497E-002   4.8928578865943179E-002
  -4.5258048532076441E-002   1.4435445254715646E-002   4.8942778527083522E-002
  -4.3597686968035371E-002   1.3934986988835385E-002   4.9239002322390146E-002
  -5.6629469806895746E-002   1.6317050027928548E-002   4.5446593107212219E-002
  -5.4702650936735070E-002   1.6286764461675179E-002   4.4718869126380539E-002
  -5.2775832066574234E-002   1.6087667088497348E-002   4.4242035623622111E-002
  -5.0849013196413495E-002   1.5719757908395415E-002   4.4016092598936810E-002
  -4.8922194326252715E-002   1.5183036921368964E-002   4.4041040052324509E-002
  -6.2928839684895876E-002   1.8723712165420486E-002   4.0519427443565584E-002
  -6.0766697164708609E-002   1.8150383217834076E-002   3.9782754975823453E-002
  -5.8604554644521287E-002   1.7577169350052192E-002   3.9265839330061482E-002
  -5.6442412124333985E-002   1.7004070562075042E-002   3.8968680506279399E-002
  -5.4280269604146669E-002   1.6431086853902460E-002   3.8891278504477239E-002
  -6.9137242858200013E-002   2.1130374302912439E-002   3.4964754955221319E-002
  -6.6770910344079393E-002   2.0014001973992973E-002   3.4388060887297817E-002
  -6.4404577829958592E-002   1.9066671611607095E-002   3.3999989985261242E-002
  -6.2038245315837945E-002   1.8288383215754798E-002   3.3800542249111311E-002
  -5.9671912801717304E-002   1.7679136786435942E-002   3.3789717678848197E-002
  -7.5254679326808072E-002   2.3537036440404391E-002   2.8782575642179731E-002
  -7.2715290474847261E-002   2.1877620730151870E-002   2.8534786860803796E-002
  -7.0175901622886283E-002   2.0556173873161887E-002   2.8444487589221357E-002
  -6.7636512770925417E-002   1.9572695869434442E-002   2.8511677827432663E-002
  -6.5097123918964522E-002   1.8927186718969535E-002   2.8736357575437521E-002
  -4.3597686968035371E-002   1.3934986988835385E-002   4.9239002322390146E-002
  -4.2227592487262294E-002   1.3275582188350371E-002   4.9354602212809406E-002
  -4.0857498006489232E-002   1.2636023012309219E-002   4.9587503782886760E-002
  -3.9487403525716169E-002   1.2016309460711739E-002   4.9937707032622278E-002
  -3.8117309044943093E-002   1.1416441533558142E-002   5.0405211962015861E-002
  -4.8922194326252715E-002   1.5183036921368964E-002   4.4041040052324509E-002
  -4.7427913754819223E-002   1.4561680604962171E-002   4.4139649820373175E-002
  -4.5933633183385766E-002   1.3939865436719295E-002   4.4369330090084494E-002
  -4.4439352611952289E-002   1.3317591416639706E-002   4.4730080861458486E-002
  -4.2945072040518797E-002   1.2694858544724186E-002   4.5221902134495229E-002
  -5.4280269604146669E-002   1.6431086853902460E-002   3.8891278504477239E-002
  -5.2648034120048239E-002   1.5847779021574041E-002   3.8952593673875172E-002
  -5.1015798635949808E-002   1.5243707861129087E-002   3.9158748166940337E-002
  -4.9383563151851322E-002   1.4618873372567781E-002   3.9509741983672728E-002
  -4.7751327667752898E-002   1.3973275555890063E-002   4.0005575124072351E-002
  -5.9671912801717304E-002   1.7679136786435942E-002   3.3789717678848197E-002
  -5.7887953582949299E-002   1.7133877438185792E-002   3.3793433773315243E-002
  -5.6103994364181328E-002   1.6547550285539048E-002   3.3955758013454199E-002
  -5.4320035145413309E-002   1.5920155328495802E-002   3.4276690399264932E-002
  -5.2536075926645352E-002   1.5251692567056052E-002   3.4756230930747437E-002
  -6.5097123918964522E-002   1.8927186718969535E-002   2.8736357575437521E-002
  -6.3147672143522446E-002   1.8419975854797738E-002   2.8662170118693708E-002
  -6.1198220368080342E-002   1.7851392709948954E-002   2.8760359629626198E-002
  -5.9248768592638293E-002   1.7221437284423852E-002   2.9030926108235197E-002
  -5.7299316817196189E-002   1.6530109578221985E-002   2.9473869554520415E-002
  -3.8117309044943093E-002   1.1416441533558142E-002   5.0405211962015861E-002
  -3.6221793656618845E-002   1.0830582996035953E-002   4.9616468591739626E-002
  -3.4326278268294597E-002   1.0252897613333173E-002   4.9058738207193642E-002
  -3.2430762879970342E-002   9.6833853854493349E-003   4.8732020808378129E-002
  -3.0535247491646100E-002   9.1220463123845574E-003   4.8636316395292756E-002
  -4.2945072040518797E-002   1.2694858544724186E-002   4.5221902134495229E-002
  -4.0822018125443511E-002   1.2077270147151625E-002   4.4460652151252111E-002
  -3.8698964210368239E-002   1.1470429550101496E-002   4.3923466235780889E-002
  -3.6575910295292974E-002   1.0874336753573889E-002   4.3610344388081576E-002
  -3.4452856380217667E-002   1.0288991757568755E-002   4.3521286608153853E-002
  -4.7751327667752898E-002   1.3973275555890063E-002   4.0005575124072351E-002
  -4.5407684143885081E-002   1.3323957298266992E-002   3.9274393173565889E-002
  -4.3064040620017244E-002   1.2687961486869806E-002   3.8760326372872661E-002
  -4.0720397096149399E-002   1.2065288121698218E-002   3.8463374721992794E-002
  -3.8376753572281604E-002   1.1455937202752675E-002   3.8383538220926050E-002
  -5.2536075926645352E-002   1.5251692567056052E-002   3.4756230930747437E-002
  -4.9978791711943499E-002   1.4570644449382400E-002   3.4057691658680611E-002
  -4.7421507497241645E-002   1.3905493423638067E-002   3.3569318618468902E-002
  -4.4864223282539813E-002   1.3256239489822770E-002   3.3291111810111830E-002
  -4.2306939067837945E-002   1.2622882647936567E-002   3.3223071233609298E-002
  -5.7299316817196189E-002   1.6530109578221985E-002   2.9473869554520415E-002
  -5.4535340829618834E-002   1.5817331600498058E-002   2.8810547606596848E-002
  -5.1771364842041451E-002   1.5123025360406439E-002   2.8350442972569612E-002
  -4.9007388854464068E-002   1.4447190857947240E-002   2.8093555652438568E-002
  -4.6243412866886713E-002   1.3789828093120682E-002   2.8039885646203966E-002
  -3.0535247491646100E-002   9.1220463123845574E-003   4.8636316395292756E-002
  -2.8973362713327205E-002   8.5550719786492424E-003   4.8530632780897476E-002
  -2.7411477935008338E-002   7.9686539687532643E-003   4.8592546402854264E-002
  -2.5849593156689436E-002   7.3627922826962691E-003   4.8822057261163038E-002
  -2.4287708378370576E-002   6.7374869204791521E-003   4.9219165355824046E-002
  -3.4452856380217667E-002   1.0288991757568755E-002   4.3521286608153853E-002
  -3.2729596109007490E-002   9.6980001361926249E-003   4.3382350583092866E-002
  -3.1006335837797362E-002   9.0849674635522237E-003   4.3398568307462415E-002
  -2.9283075566587238E-002   8.4498937396474336E-003   4.3569939781262501E-002
  -2.7559815295377058E-002   7.7927789644784418E-003   4.3896465004493068E-002
  -3.8376753572281604E-002   1.1455937202752675E-002   3.8383538220926050E-002
  -3.6504561295101726E-002   1.0840928293735785E-002   3.8208752410095748E-002
  -3.4632369017921869E-002   1.0201280958351114E-002   3.8176676861774381E-002
  -3.2760176740742018E-002   9.5369951965983725E-003   3.8287311575961970E-002
  -3.0887984463562147E-002   8.8480710084776759E-003   3.8540656552658425E-002
  -4.2306939067837945E-002   1.2622882647936567E-002   3.3223071233609298E-002
  -4.0298258271609974E-002   1.1983856451279001E-002   3.3009838261906059E-002
  -3.8289577475381927E-002   1.1317594453150094E-002   3.2926872065790230E-002
  -3.6280896679153886E-002   1.0624096653549313E-002   3.2974172645261743E-002
  -3.4272215882925845E-002   9.9033630524769378E-003   3.3151740000320715E-002
  -4.6243412866886713E-002   1.3789828093120682E-002   2.8039885646203966E-002
  -4.4110687038532048E-002   1.3126784608822217E-002   2.7785608138523932E-002
  -4.1977961210177439E-002   1.2433907947949047E-002   2.7649153919509895E-002
  -3.9845235381822788E-002   1.1711198110500441E-002   2.7630522989161493E-002
  -3.7712509553468165E-002   1.0958655096476311E-002   2.7729715347479256E-002
  -2.4287708378370576E-002   6.7374869204791521E-003   4.9219165355824046E-002
  -2.2473416948604788E-002   6.1056440187036709E-003   4.8858796890782541E-002
  -2.0659125518838958E-002   5.4801697139738592E-003   4.8676566110074260E-002
  -1.8844834089073136E-002   4.8610640062894256E-003   4.8672473013699147E-002
  -1.7030542659307341E-002   4.2483268956502451E-003   4.8846517601657258E-002
  -2.7559815295377058E-002   7.7927789644784418E-003   4.3896465004493068E-002
  -2.5574028961154648E-002   7.1293504068360991E-003   4.3481282550077882E-002
  -2.3588242626932286E-002   6.4753353355113813E-003   4.3230952220242841E-002
  -2.1602456292709907E-002   5.8307337505049163E-003   4.3145474014987570E-002
  -1.9616669958487515E-002   5.1955456518161247E-003   4.3224847934312638E-002
  -3.0887984463562147E-002   8.8480710084776759E-003   3.8540656552658425E-002
  -2.8743988784636340E-002   8.1530567949680000E-003   3.8073704998142208E-002
  -2.6599993105710585E-002   7.4705009570490144E-003   3.7758320008453042E-002
  -2.4455997426784816E-002   6.8004034947201294E-003   3.7594501583590345E-002
  -2.2312001747859030E-002   6.1427644079819488E-003   3.7582249723554756E-002
  -3.4272215882925845E-002   9.9033630524769378E-003   3.3151740000320715E-002
  -3.1983296419049914E-002   9.1767631831001645E-003   3.2636064234975753E-002
  -2.9694376955173945E-002   8.4656665785865365E-003   3.2258669474704751E-002
  -2.7405457491297969E-002   7.7700732389357034E-003   3.2019555719507084E-002
  -2.5116538027422045E-002   7.0899831641477451E-003   3.1918722969383202E-002
  -3.7712509553468165E-002   1.0958655096476311E-002   2.7729715347479256E-002
  -3.5291951864395238E-002   1.0200469571232329E-002   2.7168360260578450E-002
  -3.2871394175322283E-002   9.4608322001240586E-003   2.6732000618998053E-002
  -3.0450836486249327E-002   8.7397429831508611E-003   2.6420636422738175E-002
  -2.8030278797176400E-002   8.0372019203135414E-003   2.6234267671798484E-002
  -1.7030542659307341E-002   4.2483268956502451E-003   4.8846517601657258E-002
  -1.5097080143728098E-002   3.6951931494216272E-003   4.8744143155744157E-002
  -1.3163617628148855E-002   3.2548975349686871E-003   4.8895387163314874E-002
  -1.1230155112569619E-002   2.9274400522911817E-003   4.9300249624369602E-002
  -9.2966925969903691E-003   2.7128207013893402E-003   4.9958730538908203E-002
  -1.9616669958487515E-002   5.1955456518161247E-003   4.3224847934312638E-002
  -1.7467755461149995E-002   4.6002770861897080E-003   4.3066734382273597E-002
  -1.5318840963812502E-002   4.0754341003710615E-003   4.3085906340267321E-002
  -1.3169926466474954E-002   3.6210166943591651E-003   4.3282363808293686E-002
  -1.1021011969137490E-002   3.2370248681544700E-003   4.3656106786352233E-002
  -2.2312001747859030E-002   6.1427644079819488E-003   3.7582249723554756E-002
  -2.0023968212214693E-002   5.5053610229580940E-003   3.7325984513421728E-002
  -1.7735934676570298E-002   4.8959706657731999E-003   3.7170671869869845E-002
  -1.5447901140925967E-002   4.3145933364269230E-003   3.7116311792898989E-002
  -1.3159867605281574E-002   3.7612290349195998E-003   3.7162904282509623E-002
  -2.5116538027422045E-002   7.0899831641477451E-003   3.1918722969383202E-002
  -2.2765718396922111E-002   6.4104449597262719E-003   3.1521893549187587E-002
  -2.0414898766422312E-002   5.7165072311754564E-003   3.1149683752121914E-002
  -1.8064079135922461E-002   5.0081699784947937E-003   3.0802093578186182E-002
  -1.5713259505422635E-002   4.2854332016847296E-003   3.0479123027379706E-002
  -2.8030278797176400E-002   8.0372019203135414E-003   2.6234267671798484E-002
  -2.5693006015272440E-002   7.3155288964945053E-003   2.5654461489571956E-002
  -2.3355733233368509E-002   6.5370437965776296E-003   2.5022941987023983E-002
  -2.1018460451464577E-002   5.7017466205627546E-003   2.4339709164154538E-002
  -1.8681187669560617E-002   4.8096373684498595E-003   2.3604763020963260E-002
  -9.2966925969903691E-003   2.7128207013893402E-003   4.9958730538908203E-002
  -7.8727802792558921E-003   2.8585889786999497E-003   5.0360001307123703E-002
  -6.4488679615213734E-003   3.6122943806597974E-003   5.1089024474474609E-002
  -5.0249556437868825E-003   4.9739369072684392E-003   5.2145800040960699E-002
  -3.6010433260523778E-003   6.9435165585265413E-003   5.3530328006582195E-002
  -1.1021011969137490E-002   3.2370248681544700E-003   4.3656106786352233E-002
  -9.2512554810886827E-003   3.1636305956577182E-003   4.4240286387879135E-002
  -7.4814989930399381E-003   3.6410058507708731E-003   4.5188401930899069E-002
  -5.7117425049911866E-003   4.6691506334923527E-003   4.6500453415412535E-002
  -3.9419860169423865E-003   6.2480649438231284E-003   4.8176440841418811E-002
  -1.3159867605281574E-002   3.7612290349195998E-003   3.7162904282509623E-002
  -1.1008083404560567E-002   3.4686722126160974E-003   3.7872825120307485E-002
  -8.8562992038395717E-003   3.6697173208816158E-003   3.8982865441956310E-002
  -6.7045150031185725E-003   4.3643643597160442E-003   4.0493025247456640E-002
  -4.5527308023975699E-003   5.5526133291193824E-003   4.2403304536807962E-002
  -1.5713259505422635E-002   4.2854332016847296E-003   3.0479123027379706E-002
  -1.3143264049671383E-002   3.7737138295742267E-003   3.1257617504408600E-002
  -1.0573268593920132E-002   3.6984287909924696E-003   3.2472415007646395E-002
  -8.0032731381689363E-003   4.0595780859396247E-003   3.4123515537093550E-002
  -5.4332776824176296E-003   4.8571617144154700E-003   3.6210919092749844E-002
  -1.8681187669560617E-002   4.8096373684498595E-003   2.3604763020963260E-002
  -1.5656797416421175E-002   4.0787554465323006E-003   2.4394663540182604E-002
  -1.2632407163281734E-002   3.7271402611033788E-003   2.5657050627969358E-002
  -9.6080169101423057E-003   3.7547918121635798E-003   2.7391924284323077E-002
  -6.5836266570028501E-003   4.1617100997120016E-003   2.9599284509244095E-002
  -3.6010433260523778E-003   6.9435165585265413E-003   5.3530328006582195E-002
  -4.1534444964227424E-003   9.5349307983980669E-003   5.1858927451300274E-002
  -4.7058456667931348E-003   1.2762077090846424E-002   5.0041842825500504E-002
  -5.2582468371635480E-003   1.6624955435872807E-002   4.8079074129182553E-002
  -5.8106480075338918E-003   2.1123565833475411E-002   4.5970621362347419E-002
  -3.9419860169423865E-003   6.2480649438231284E-003   4.8176440841418811E-002
  -4.5361347864225909E-003   8.6869926300360278E-003   4.7241669301346267E-002
  -5.1302835559027329E-003   1.2295177540403573E-002   4.6369086633572365E-002
  -5.7244323253829166E-003   1.7072619674926605E-002   4.5558692838096437E-002
  -6.3185810948630239E-003   2.3019319033604990E-002   4.4810487914918928E-002
  -4.5527308023975699E-003   5.5526133291193824E-003   4.2403304536807962E-002
  -4.9807542281711595E-003   7.8390544616734337E-003   4.2738687183522750E-002
  -5.4087776539448115E-003   1.1828277989960723E-002   4.3344131645351891E-002
  -5.8368010797183578E-003   1.7520283913980958E-002   4.4219637922295954E-002
  -6.2648245054920532E-003   2.4915072233734126E-002   4.5365206014354675E-002
  -5.4332776824176296E-003   4.8571617144154700E-003   3.6210919092749844E-002
  -5.4873028216684914E-003   6.9911162933112281E-003   3.8349981097829312E-002
  -5.5413279609191892E-003   1.1361378439518094E-002   4.0966977860840040E-002
  -5.5953531001699149E-003   1.7967948153035367E-002   4.4061909381782213E-002
  -5.6493782394207472E-003   2.6810825433863594E-002   4.7634775660654632E-002
  -6.5836266570028501E-003   4.1617100997120016E-003   2.9599284509244095E-002
  -6.0557805669144427E-003   6.1431781249486894E-003   3.4075551044266517E-002
  -5.5279344768260352E-003   1.0894478889074743E-002   3.9237625280036492E-002
  -5.0000883867377111E-003   1.8415612392089539E-002   4.5085507216553689E-002
  -4.4722422966492203E-003   2.8706578633992841E-002   5.1619196853818217E-002
  -7.5254679326808072E-002   2.3537036440404391E-002   2.8782575642179731E-002
  -7.2715290474847261E-002   2.1877620730151870E-002   2.8534786860803796E-002
  -7.0175901622886283E-002   2.0556173873161887E-002   2.8444487589221357E-002
  -6.7636512770925417E-002   1.9572695869434442E-002   2.8511677827432663E-002
  -6.5097123918964522E-002   1.8927186718969535E-002   2.8736357575437521E-002
  -8.1328898421084678E-002   2.4577844139691829E-002   2.1079130005534741E-002
  -7.8627771673632288E-002   2.3576646398910633E-002   2.1039054793312195E-002
  -7.5926644926179898E-002   2.2653474083844216E-002   2.1164965862278895E-002
  -7.3225518178727564E-002   2.1808327194492522E-002   2.1456863212435215E-002
  -7.0524391431275105E-002   2.1041205730855550E-002   2.1914746843780836E-002
  -8.7407649471394538E-002   2.5618651838979267E-002   1.4163874052134928E-002
  -8.4536288057054765E-002   2.5275672067669341E-002   1.4071568981518068E-002
  -8.1664926642715102E-002   2.4750774294526434E-002   1.4153746963486313E-002
  -7.8793565228375315E-002   2.4043958519550435E-002   1.4410407998039651E-002
  -7.5922203814035652E-002   2.3155224742741454E-002   1.4841552085178206E-002
  -9.3490932477737293E-002   2.6659459538266650E-002   8.0368077819803485E-003
  -9.0440839625114552E-002   2.6974697736428022E-002   7.6323294254212956E-003
  -8.7390746772491784E-002   2.6848074505208541E-002   7.4108308928431815E-003
  -8.4340653919869057E-002   2.6279589844608375E-002   7.3723121842457356E-003
  -8.1290561067246289E-002   2.5269243754627302E-002   7.5167732996298114E-003
  -9.9578747440113302E-002   2.7700267237554144E-002   2.6979311950708906E-003
  -9.6341426377811734E-002   2.8673723405186702E-002   1.7213361250218440E-003
  -9.3104105315510166E-002   2.8945374715890759E-002   9.3621765034965221E-004
  -8.9866784253208487E-002   2.8515221169666455E-002   3.4257577105403086E-004
  -8.6629463190906919E-002   2.7383262766513261E-002  -5.9589512864721694E-005
  -6.5097123918964522E-002   1.8927186718969535E-002   2.8736357575437521E-002
  -6.3147672143522446E-002   1.8419975854797738E-002   2.8662170118693708E-002
  -6.1198220368080342E-002   1.7851392709948954E-002   2.8760359629626198E-002
  -5.9248768592638293E-002   1.7221437284423852E-002   2.9030926108235197E-002
  -5.7299316817196189E-002   1.6530109578221985E-002   2.9473869554520415E-002
  -7.0524391431275105E-002   2.1041205730855550E-002   2.1914746843780836E-002
  -6.8405885578545364E-002   2.0310504144439939E-002   2.1833412650223816E-002
  -6.6287379725815748E-002   1.9574616886752022E-002   2.1917809643565614E-002
  -6.4168873873086132E-002   1.8833543957792152E-002   2.2167937823806098E-002
  -6.2050368020356406E-002   1.8087285357559990E-002   2.2583797190945470E-002
  -7.5922203814035652E-002   2.3155224742741454E-002   1.4841552085178206E-002
  -7.3641289664796022E-002   2.2201032434082182E-002   1.4809257764212297E-002
  -7.1360375515556268E-002   2.1297841063555201E-002   1.4936048849367785E-002
  -6.9079461366316569E-002   2.0445650631160564E-002   1.5221925340644447E-002
  -6.6798547217076912E-002   1.9644461136897884E-002   1.5666887238042215E-002
  -8.1290561067246289E-002   2.5269243754627302E-002   7.5167732996298114E-003
  -7.8853884402274213E-002   2.4091560723724488E-002   7.5897054606595231E-003
  -7.6417207737302109E-002   2.3021065240358130E-002   7.8150772470331996E-003
  -7.3980531072329977E-002   2.2057757304528587E-002   8.1928886587502477E-003
  -7.1543854407357887E-002   2.1201636916235972E-002   8.7231396958112536E-003
  -8.6629463190906919E-002   2.7383262766513261E-002  -5.9589512864721694E-005
  -8.4043669790979991E-002   2.5982089013366627E-002   1.7475573956549084E-004
  -8.1457876391053008E-002   2.4744289417161253E-002   5.5489483656147309E-004
  -7.8872082991126052E-002   2.3669863977897339E-002   1.0808277781235477E-003
  -7.6286289591199097E-002   2.2758812695573782E-002   1.7525545642518292E-003
  -5.7299316817196189E-002   1.6530109578221985E-002   2.9473869554520415E-002
  -5.4535340829618834E-002   1.5817331600498058E-002   2.8810547606596848E-002
  -5.1771364842041451E-002   1.5123025360406439E-002   2.8350442972569612E-002
  -4.9007388854464068E-002   1.4447190857947240E-002   2.8093555652438568E-002
  -4.6243412866886713E-002   1.3789828093120682E-002   2.8039885646203966E-002
  -6.2050368020356406E-002   1.8087285357559990E-002   2.2583797190945470E-002
  -5.9081195840146122E-002   1.7339617993769013E-002   2.1935746069091655E-002
  -5.6112023659935853E-002   1.6594318774132394E-002   2.1494870018607268E-002
  -5.3142851479725618E-002   1.5851387698649931E-002   2.1261169039492413E-002
  -5.0173679299515300E-002   1.5110824767321840E-002   2.1234643131747055E-002
  -6.6798547217076912E-002   1.9644461136897884E-002   1.5666887238042215E-002
  -6.3620221086760548E-002   1.8861904387039843E-002   1.5018003348779979E-002
  -6.0441894956444073E-002   1.8065612187858182E-002   1.4580252288360518E-002
  -5.7263568826127681E-002   1.7255584539352678E-002   1.4353634056783859E-002
  -5.4085242695811234E-002   1.6431821441523387E-002   1.4338148654049976E-002
  -7.1543854407357887E-002   2.1201636916235972E-002   8.7231396958112536E-003
  -6.8152416569462054E-002   2.0384190780310542E-002   8.0573194456625176E-003
  -6.4760978731566166E-002   1.9536905601583832E-002   7.6065897818299033E-003
  -6.1369540893670270E-002   1.8659781380055120E-002   7.3709507043133345E-003
  -5.7978103055774444E-002   1.7752818115724794E-002   7.3504022131126515E-003
  -7.6286289591199097E-002   2.2758812695573782E-002   1.7525545642518292E-003
  -7.2677782288250614E-002   2.1906477173581462E-002   1.0536943597390103E-003
  -6.9069274985302076E-002   2.1008199015309759E-002   5.7388249901507704E-004
  -6.5460767682353538E-002   2.0063978220757964E-002   3.1311898208040423E-004
  -6.1852260379405055E-002   1.9073814789926091E-002   2.7140380893520000E-004
  -4.6243412866886713E-002   1.3789828093120682E-002   2.8039885646203966E-002
  -4.4110687038532048E-002   1.3126784608822217E-002   2.7785608138523932E-002
  -4.1977961210177439E-002   1.2433907947949047E-002   2.7649153919509895E-002
  -3.9845235381822788E-002   1.1711198110500441E-002   2.7630522989161493E-002
  -3.7712509553468165E-002   1.0958655096476311E-002   2.7729715347479256E-002
  -5.0173679299515300E-002   1.5110824767321840E-002   2.1234643131747055E-002
  -4.7916547452030001E-002   1.4366355717757517E-002   2.0985644612263266E-002
  -4.5659415604544715E-002   1.3611706287565473E-002   2.0867634842375027E-002
  -4.3402283757059477E-002   1.2846876476745900E-002   2.0880613822082117E-002
  -4.1145151909574129E-002   1.2071866285299104E-002   2.1024581551384758E-002
  -5.4085242695811234E-002   1.6431821441523387E-002   1.4338148654049976E-002
  -5.1690539368265703E-002   1.5605926826692762E-002   1.4114081918710067E-002
  -4.9295836040720124E-002   1.4789504627182024E-002   1.4034169393895526E-002
  -4.6901132713174490E-002   1.3982554842991806E-002   1.4098411079605626E-002
  -4.4506429385628959E-002   1.3185077474121842E-002   1.4306806975841219E-002
  -5.7978103055774444E-002   1.7752818115724794E-002   7.3504022131126515E-003
  -5.5432662787239018E-002   1.6845497935627590E-002   7.1709200578646062E-003
  -5.2887222518703481E-002   1.5967302966798623E-002   7.1487575740711157E-003
  -5.0341782250167971E-002   1.5118233209237766E-002   7.2839147617324070E-003
  -4.7796341981632524E-002   1.4298288662944497E-002   7.5763916208484647E-003
  -6.1852260379405055E-002   1.9073814789926091E-002   2.7140380893520000E-004
  -5.9142917708949971E-002   1.8085069044562974E-002   1.5615902972648810E-004
  -5.6433575038494943E-002   1.7145101306414889E-002   2.1139938290204441E-004
  -5.3724232368039859E-002   1.6253911575483032E-002   4.3712486846209098E-004
  -5.1014889697584831E-002   1.5411499851767374E-002   8.3333548640651678E-004
  -3.7712509553468165E-002   1.0958655096476311E-002   2.7729715347479256E-002
  -3.5291951864395238E-002   1.0200469571232329E-002   2.7168360260578450E-002
  -3.2871394175322283E-002   9.4608322001240586E-003   2.6732000618998053E-002
  -3.0450836486249327E-002   8.7397429831508611E-003   2.6420636422738175E-002
  -2.8030278797176400E-002   8.0372019203135414E-003   2.6234267671798484E-002
  -4.1145151909574129E-002   1.2071866285299104E-002   2.1024581551384758E-002
  -3.8607061936845377E-002   1.1295894930349992E-002   2.0540531286750374E-002
  -3.6068971964116611E-002   1.0528181629025218E-002   2.0166550144107176E-002
  -3.3530881991387818E-002   9.7687263813239431E-003   1.9902638123455288E-002
  -3.0992792018659038E-002   9.0175291872467422E-003   1.9748795224794669E-002
  -4.4506429385628959E-002   1.3185077474121842E-002   1.4306806975841219E-002
  -4.1865733452573363E-002   1.2391320289468100E-002   1.3889771432961467E-002
  -3.9225037519517850E-002   1.1595531057926489E-002   1.3567878688743859E-002
  -3.6584341586462253E-002   1.0797709779496803E-002   1.3341128743188505E-002
  -3.3943645653406726E-002   9.9978564541797765E-003   1.3209521596295459E-002
  -4.7796341981632524E-002   1.4298288662944497E-002   7.5763916208484647E-003
  -4.5067966411579279E-002   1.3486745648585707E-002   7.2160806992114454E-003
  -4.2339590841525984E-002   1.2662880486827816E-002   6.9359862529081232E-003
  -3.9611215271472745E-002   1.1826693177669885E-002   6.7361082819374987E-003
  -3.6882839701419437E-002   1.0978183721112894E-002   6.6164467863005574E-003
  -5.1014889697584831E-002   1.5411499851767374E-002   8.3333548640651678E-004
  -4.8213760813862971E-002   1.4582171007703648E-002   5.1945908550132813E-004
  -4.5412631930141056E-002   1.3730229915728864E-002   2.7087283660007233E-004
  -4.2611503046419114E-002   1.2855676575842842E-002   8.7576739702659168E-005
  -3.9810374162697282E-002   1.1958510988046234E-002  -3.0429205190030117E-005
  -2.8030278797176400E-002   8.0372019203135414E-003   2.6234267671798484E-002
  -2.5693006015272440E-002   7.3155288964945053E-003   2.5654461489571956E-002
  -2.3355733233368509E-002   6.5370437965776296E-003   2.5022941987023983E-002
  -2.1018460451464577E-002   5.7017466205627546E-003   2.4339709164154538E-002
  -1.8681187669560617E-002   4.8096373684498595E-003   2.3604763020963260E-002
  -3.0992792018659038E-002   9.0175291872467422E-003   1.9748795224794669E-002
  -2.8690801759718804E-002   8.2691674411015659E-003   1.9167379809732377E-002
  -2.6388811500778542E-002   7.5182185371973076E-003   1.8567112669064550E-002
  -2.4086821241838238E-002   6.7646824755338147E-003   1.7947993802790982E-002
  -2.1784830982897990E-002   6.0085592561105461E-003   1.7310023210911296E-002
  -3.3943645653406726E-002   9.9978564541797765E-003   1.3209521596295459E-002
  -3.1644076322714348E-002   9.2228059857085432E-003   1.2680721866736216E-002
  -2.9344506992021901E-002   8.4993932778165276E-003   1.2165932006287003E-002
  -2.7044937661329489E-002   7.8276183305043164E-003   1.1665152014947923E-002
  -2.4745368330637077E-002   7.2074811437714548E-003   1.1178381892718997E-002
  -3.6882839701419437E-002   1.0978183721112894E-002   6.6164467863005574E-003
  -3.4552829704259096E-002   1.0176444530315396E-002   6.1944876605828023E-003
  -3.2222819707098671E-002   9.4805680184358657E-003   5.8193999986913166E-003
  -2.9892809709938274E-002   8.8905541854748752E-003   5.4911838006255643E-003
  -2.7562799712777909E-002   8.4064030314322524E-003   5.2098390663858213E-003
  -3.9810374162697282E-002   1.1958510988046234E-002  -3.0429205190030117E-005
  -3.7417061904353122E-002   1.1130083074922248E-002  -2.9132280872723459E-004
  -3.5023749646008906E-002   1.0461742759055481E-002  -4.7248335372232497E-004
  -3.2630437387664718E-002   9.9534900404454479E-003  -5.7391084017614086E-004
  -3.0237125129320530E-002   9.6053249190930501E-003  -5.9560526808766223E-004
  -1.8681187669560617E-002   4.8096373684498595E-003   2.3604763020963260E-002
  -1.5656797416421175E-002   4.0787554465323006E-003   2.4394663540182604E-002
  -1.2632407163281734E-002   3.7271402611033788E-003   2.5657050627969358E-002
  -9.6080169101423057E-003   3.7547918121635798E-003   2.7391924284323077E-002
  -6.5836266570028501E-003   4.1617100997120016E-003   2.9599284509244095E-002
  -2.1784830982897990E-002   6.0085592561105461E-003   1.7310023210911296E-002
  -1.8556590859805142E-002   5.3426343038789903E-003   1.8255518211430455E-002
  -1.5328350736712335E-002   4.8596930437894148E-003   1.9136226383289295E-002
  -1.2100110613619437E-002   4.5597354758415420E-003   1.9952147726487832E-002
  -8.8718704905265677E-003   4.4427616000355385E-003   2.0703282241025689E-002
  -2.4745368330637077E-002   7.2074811437714548E-003   1.1178381892718997E-002
  -2.1850551734818494E-002   6.6065131612260963E-003   1.2083188330190897E-002
  -1.8955735138999792E-002   5.9922458264753675E-003   1.2385934541775057E-002
  -1.6060918543181178E-002   5.3646791395200663E-003   1.2086620527471129E-002
  -1.3166101947362563E-002   4.7238131003591866E-003   1.1185246287278960E-002
  -2.7562799712777909E-002   8.4064030314322524E-003   5.2098390663858213E-003
  -2.5538680041461086E-002   7.8703920185726056E-003   5.8776738964640834E-003
  -2.3514560370144308E-002   7.1247986091612509E-003   5.4061751034268288E-003
  -2.1490440698827603E-002   6.1696228031978655E-003   3.7953426872732385E-003
  -1.9466321027510711E-002   5.0048646006827791E-003   1.0451766480046171E-003
  -3.0237125129320530E-002   9.6053249190930501E-003  -5.9560526808766223E-004
  -2.9620975779733216E-002   9.1342708759198921E-003  -3.6102508975049963E-004
  -2.9004826430145791E-002   8.2573513918471342E-003  -1.8030519317563665E-003
  -2.8388677080558422E-002   6.9745664668765528E-003  -4.9216857941053252E-003
  -2.7772527730971053E-002   5.2859161010068156E-003  -9.7169266767980211E-003
  -6.5836266570028501E-003   4.1617100997120016E-003   2.9599284509244095E-002
  -6.0557805669144427E-003   6.1431781249486894E-003   3.4075551044266517E-002
  -5.5279344768260352E-003   1.0894478889074743E-002   3.9237625280036492E-002
  -5.0000883867377111E-003   1.8415612392089539E-002   4.5085507216553689E-002
  -4.4722422966492203E-003   2.8706578633992841E-002   5.1619196853818217E-002
  -8.8718704905265677E-003   4.4427616000355385E-003   2.0703282241025689E-002
  -7.5861948561352643E-003   5.6591298269845214E-003   2.5872349622420299E-002
  -6.3005192217437389E-003   9.3591985673026623E-003   3.1871268391673646E-002
  -5.0148435873524216E-003   1.5542967820989004E-002   3.8700038548785537E-002
  -3.7291679529609101E-003   2.4210437588044087E-002   4.6358660093756221E-002
  -1.3166101947362563E-002   4.7238131003591866E-003   1.1185246287278960E-002
  -1.0978553081556756E-002   5.1750815290207419E-003   1.6760982289525689E-002
  -8.7910042157509777E-003   7.8239182455300538E-003   2.3310613366742644E-002
  -6.6034553499451920E-003   1.2670323249888364E-002   3.0834139518929174E-002
  -4.4159064841395035E-003   1.9714296542095333E-002   3.9331560746086236E-002
  -1.9466321027510711E-002   5.0048646006827791E-003   1.0451766480046171E-003
  -1.6232855243179200E-002   4.6910332310564351E-003   6.7414490455835474E-003
  -1.2999389458847693E-002   6.2886379237574869E-003   1.3555660205243673E-002
  -9.7659236745160603E-003   9.7976786787882207E-003   2.1487810126985706E-002
  -6.5324578901846744E-003   1.5218155496146690E-002   3.0537898810808706E-002
  -2.7772527730971053E-002   5.2859161010068156E-003  -9.7169266767980211E-003
  -2.3349101341002432E-002   4.2069849330916842E-003  -4.1862501094072080E-003
  -1.8925674951033700E-002   4.7533576019853641E-003   2.6064089071761165E-003
  -1.4502248561064968E-002   6.9250341076871891E-003   1.0661050372952979E-002
  -1.0078822171096347E-002   1.0722014450197825E-002   1.9977674287921632E-002
 </DataArray>
 </PointData>
 </Piece>
 </UnstructuredGrid>
 </VTKFile>
