 <VTKFile type="UnstructuredGrid"  version="0.1"   >
 <UnstructuredGrid>
 <Piece  NumberOfPoints="          1600 "  NumberOfCells="         1024 ">
 <Points>
 <DataArray  type="Float64" NumberOfComponents="3"  format="ascii" >
   0.0000000000000000        0.0000000000000000        0.0000000000000000     
   3.1250000000000000E-002   0.0000000000000000        0.0000000000000000     
   6.2500000000000000E-002   0.0000000000000000        0.0000000000000000     
   9.3750000000000000E-002   0.0000000000000000        0.0000000000000000     
  0.12500000000000000        0.0000000000000000        0.0000000000000000     
   0.0000000000000000        3.1250000000000000E-002   0.0000000000000000     
   3.1250000000000000E-002   3.1250000000000000E-002   0.0000000000000000     
   6.2500000000000000E-002   3.1250000000000000E-002   0.0000000000000000     
   9.3750000000000000E-002   3.1250000000000000E-002   0.0000000000000000     
  0.12500000000000000        3.1250000000000000E-002   0.0000000000000000     
   0.0000000000000000        6.2500000000000000E-002   0.0000000000000000     
   3.1250000000000000E-002   6.2500000000000000E-002   0.0000000000000000     
   6.2500000000000000E-002   6.2500000000000000E-002   0.0000000000000000     
   9.3750000000000000E-002   6.2500000000000000E-002   0.0000000000000000     
  0.12500000000000000        6.2500000000000000E-002   0.0000000000000000     
   0.0000000000000000        9.3750000000000000E-002   0.0000000000000000     
   3.1250000000000000E-002   9.3750000000000000E-002   0.0000000000000000     
   6.2500000000000000E-002   9.3750000000000000E-002   0.0000000000000000     
   9.3750000000000000E-002   9.3750000000000000E-002   0.0000000000000000     
  0.12500000000000000        9.3750000000000000E-002   0.0000000000000000     
   0.0000000000000000       0.12500000000000000        0.0000000000000000     
   3.1250000000000000E-002  0.12500000000000000        0.0000000000000000     
   6.2500000000000000E-002  0.12500000000000000        0.0000000000000000     
   9.3750000000000000E-002  0.12500000000000000        0.0000000000000000     
  0.12500000000000000       0.12500000000000000        0.0000000000000000     
  0.12500000000000000        0.0000000000000000        0.0000000000000000     
  0.15625000000000000        0.0000000000000000        0.0000000000000000     
  0.18750000000000000        0.0000000000000000        0.0000000000000000     
  0.21875000000000000        0.0000000000000000        0.0000000000000000     
  0.25000000000000000        0.0000000000000000        0.0000000000000000     
  0.12500000000000000        3.1250000000000000E-002   0.0000000000000000     
  0.15625000000000000        3.1250000000000000E-002   0.0000000000000000     
  0.18750000000000000        3.1250000000000000E-002   0.0000000000000000     
  0.21875000000000000        3.1250000000000000E-002   0.0000000000000000     
  0.25000000000000000        3.1250000000000000E-002   0.0000000000000000     
  0.12500000000000000        6.2500000000000000E-002   0.0000000000000000     
  0.15625000000000000        6.2500000000000000E-002   0.0000000000000000     
  0.18750000000000000        6.2500000000000000E-002   0.0000000000000000     
  0.21875000000000000        6.2500000000000000E-002   0.0000000000000000     
  0.25000000000000000        6.2500000000000000E-002   0.0000000000000000     
  0.12500000000000000        9.3750000000000000E-002   0.0000000000000000     
  0.15625000000000000        9.3750000000000000E-002   0.0000000000000000     
  0.18750000000000000        9.3750000000000000E-002   0.0000000000000000     
  0.21875000000000000        9.3750000000000000E-002   0.0000000000000000     
  0.25000000000000000        9.3750000000000000E-002   0.0000000000000000     
  0.12500000000000000       0.12500000000000000        0.0000000000000000     
  0.15625000000000000       0.12500000000000000        0.0000000000000000     
  0.18750000000000000       0.12500000000000000        0.0000000000000000     
  0.21875000000000000       0.12500000000000000        0.0000000000000000     
  0.25000000000000000       0.12500000000000000        0.0000000000000000     
  0.25000000000000000        0.0000000000000000        0.0000000000000000     
  0.28125000000000000        0.0000000000000000        0.0000000000000000     
  0.31250000000000000        0.0000000000000000        0.0000000000000000     
  0.34375000000000000        0.0000000000000000        0.0000000000000000     
  0.37500000000000000        0.0000000000000000        0.0000000000000000     
  0.25000000000000000        3.1250000000000000E-002   0.0000000000000000     
  0.28125000000000000        3.1250000000000000E-002   0.0000000000000000     
  0.31250000000000000        3.1250000000000000E-002   0.0000000000000000     
  0.34375000000000000        3.1250000000000000E-002   0.0000000000000000     
  0.37500000000000000        3.1250000000000000E-002   0.0000000000000000     
  0.25000000000000000        6.2500000000000000E-002   0.0000000000000000     
  0.28125000000000000        6.2500000000000000E-002   0.0000000000000000     
  0.31250000000000000        6.2500000000000000E-002   0.0000000000000000     
  0.34375000000000000        6.2500000000000000E-002   0.0000000000000000     
  0.37500000000000000        6.2500000000000000E-002   0.0000000000000000     
  0.25000000000000000        9.3750000000000000E-002   0.0000000000000000     
  0.28125000000000000        9.3750000000000000E-002   0.0000000000000000     
  0.31250000000000000        9.3750000000000000E-002   0.0000000000000000     
  0.34375000000000000        9.3750000000000000E-002   0.0000000000000000     
  0.37500000000000000        9.3750000000000000E-002   0.0000000000000000     
  0.25000000000000000       0.12500000000000000        0.0000000000000000     
  0.28125000000000000       0.12500000000000000        0.0000000000000000     
  0.31250000000000000       0.12500000000000000        0.0000000000000000     
  0.34375000000000000       0.12500000000000000        0.0000000000000000     
  0.37500000000000000       0.12500000000000000        0.0000000000000000     
  0.37500000000000000        0.0000000000000000        0.0000000000000000     
  0.40625000000000000        0.0000000000000000        0.0000000000000000     
  0.43750000000000000        0.0000000000000000        0.0000000000000000     
  0.46875000000000000        0.0000000000000000        0.0000000000000000     
  0.50000000000000000        0.0000000000000000        0.0000000000000000     
  0.37500000000000000        3.1250000000000000E-002   0.0000000000000000     
  0.40625000000000000        3.1250000000000000E-002   0.0000000000000000     
  0.43750000000000000        3.1250000000000000E-002   0.0000000000000000     
  0.46875000000000000        3.1250000000000000E-002   0.0000000000000000     
  0.50000000000000000        3.1250000000000000E-002   0.0000000000000000     
  0.37500000000000000        6.2500000000000000E-002   0.0000000000000000     
  0.40625000000000000        6.2500000000000000E-002   0.0000000000000000     
  0.43750000000000000        6.2500000000000000E-002   0.0000000000000000     
  0.46875000000000000        6.2500000000000000E-002   0.0000000000000000     
  0.50000000000000000        6.2500000000000000E-002   0.0000000000000000     
  0.37500000000000000        9.3750000000000000E-002   0.0000000000000000     
  0.40625000000000000        9.3750000000000000E-002   0.0000000000000000     
  0.43750000000000000        9.3750000000000000E-002   0.0000000000000000     
  0.46875000000000000        9.3750000000000000E-002   0.0000000000000000     
  0.50000000000000000        9.3750000000000000E-002   0.0000000000000000     
  0.37500000000000000       0.12500000000000000        0.0000000000000000     
  0.40625000000000000       0.12500000000000000        0.0000000000000000     
  0.43750000000000000       0.12500000000000000        0.0000000000000000     
  0.46875000000000000       0.12500000000000000        0.0000000000000000     
  0.50000000000000000       0.12500000000000000        0.0000000000000000     
  0.50000000000000000        0.0000000000000000        0.0000000000000000     
  0.53125000000000000        0.0000000000000000        0.0000000000000000     
  0.56250000000000000        0.0000000000000000        0.0000000000000000     
  0.59375000000000000        0.0000000000000000        0.0000000000000000     
  0.62500000000000000        0.0000000000000000        0.0000000000000000     
  0.50000000000000000        3.1250000000000000E-002   0.0000000000000000     
  0.53125000000000000        3.1250000000000000E-002   0.0000000000000000     
  0.56250000000000000        3.1250000000000000E-002   0.0000000000000000     
  0.59375000000000000        3.1250000000000000E-002   0.0000000000000000     
  0.62500000000000000        3.1250000000000000E-002   0.0000000000000000     
  0.50000000000000000        6.2500000000000000E-002   0.0000000000000000     
  0.53125000000000000        6.2500000000000000E-002   0.0000000000000000     
  0.56250000000000000        6.2500000000000000E-002   0.0000000000000000     
  0.59375000000000000        6.2500000000000000E-002   0.0000000000000000     
  0.62500000000000000        6.2500000000000000E-002   0.0000000000000000     
  0.50000000000000000        9.3750000000000000E-002   0.0000000000000000     
  0.53125000000000000        9.3750000000000000E-002   0.0000000000000000     
  0.56250000000000000        9.3750000000000000E-002   0.0000000000000000     
  0.59375000000000000        9.3750000000000000E-002   0.0000000000000000     
  0.62500000000000000        9.3750000000000000E-002   0.0000000000000000     
  0.50000000000000000       0.12500000000000000        0.0000000000000000     
  0.53125000000000000       0.12500000000000000        0.0000000000000000     
  0.56250000000000000       0.12500000000000000        0.0000000000000000     
  0.59375000000000000       0.12500000000000000        0.0000000000000000     
  0.62500000000000000       0.12500000000000000        0.0000000000000000     
  0.62500000000000000        0.0000000000000000        0.0000000000000000     
  0.65625000000000000        0.0000000000000000        0.0000000000000000     
  0.68750000000000000        0.0000000000000000        0.0000000000000000     
  0.71875000000000000        0.0000000000000000        0.0000000000000000     
  0.75000000000000000        0.0000000000000000        0.0000000000000000     
  0.62500000000000000        3.1250000000000000E-002   0.0000000000000000     
  0.65625000000000000        3.1250000000000000E-002   0.0000000000000000     
  0.68750000000000000        3.1250000000000000E-002   0.0000000000000000     
  0.71875000000000000        3.1250000000000000E-002   0.0000000000000000     
  0.75000000000000000        3.1250000000000000E-002   0.0000000000000000     
  0.62500000000000000        6.2500000000000000E-002   0.0000000000000000     
  0.65625000000000000        6.2500000000000000E-002   0.0000000000000000     
  0.68750000000000000        6.2500000000000000E-002   0.0000000000000000     
  0.71875000000000000        6.2500000000000000E-002   0.0000000000000000     
  0.75000000000000000        6.2500000000000000E-002   0.0000000000000000     
  0.62500000000000000        9.3750000000000000E-002   0.0000000000000000     
  0.65625000000000000        9.3750000000000000E-002   0.0000000000000000     
  0.68750000000000000        9.3750000000000000E-002   0.0000000000000000     
  0.71875000000000000        9.3750000000000000E-002   0.0000000000000000     
  0.75000000000000000        9.3750000000000000E-002   0.0000000000000000     
  0.62500000000000000       0.12500000000000000        0.0000000000000000     
  0.65625000000000000       0.12500000000000000        0.0000000000000000     
  0.68750000000000000       0.12500000000000000        0.0000000000000000     
  0.71875000000000000       0.12500000000000000        0.0000000000000000     
  0.75000000000000000       0.12500000000000000        0.0000000000000000     
  0.75000000000000000        0.0000000000000000        0.0000000000000000     
  0.78125000000000000        0.0000000000000000        0.0000000000000000     
  0.81250000000000000        0.0000000000000000        0.0000000000000000     
  0.84375000000000000        0.0000000000000000        0.0000000000000000     
  0.87500000000000000        0.0000000000000000        0.0000000000000000     
  0.75000000000000000        3.1250000000000000E-002   0.0000000000000000     
  0.78125000000000000        3.1250000000000000E-002   0.0000000000000000     
  0.81250000000000000        3.1250000000000000E-002   0.0000000000000000     
  0.84375000000000000        3.1250000000000000E-002   0.0000000000000000     
  0.87500000000000000        3.1250000000000000E-002   0.0000000000000000     
  0.75000000000000000        6.2500000000000000E-002   0.0000000000000000     
  0.78125000000000000        6.2500000000000000E-002   0.0000000000000000     
  0.81250000000000000        6.2500000000000000E-002   0.0000000000000000     
  0.84375000000000000        6.2500000000000000E-002   0.0000000000000000     
  0.87500000000000000        6.2500000000000000E-002   0.0000000000000000     
  0.75000000000000000        9.3750000000000000E-002   0.0000000000000000     
  0.78125000000000000        9.3750000000000000E-002   0.0000000000000000     
  0.81250000000000000        9.3750000000000000E-002   0.0000000000000000     
  0.84375000000000000        9.3750000000000000E-002   0.0000000000000000     
  0.87500000000000000        9.3750000000000000E-002   0.0000000000000000     
  0.75000000000000000       0.12500000000000000        0.0000000000000000     
  0.78125000000000000       0.12500000000000000        0.0000000000000000     
  0.81250000000000000       0.12500000000000000        0.0000000000000000     
  0.84375000000000000       0.12500000000000000        0.0000000000000000     
  0.87500000000000000       0.12500000000000000        0.0000000000000000     
  0.87500000000000000        0.0000000000000000        0.0000000000000000     
  0.90625000000000000        0.0000000000000000        0.0000000000000000     
  0.93750000000000000        0.0000000000000000        0.0000000000000000     
  0.96875000000000000        0.0000000000000000        0.0000000000000000     
   1.0000000000000000        0.0000000000000000        0.0000000000000000     
  0.87500000000000000        3.1250000000000000E-002   0.0000000000000000     
  0.90625000000000000        3.1250000000000000E-002   0.0000000000000000     
  0.93750000000000000        3.1250000000000000E-002   0.0000000000000000     
  0.96875000000000000        3.1250000000000000E-002   0.0000000000000000     
   1.0000000000000000        3.1250000000000000E-002   0.0000000000000000     
  0.87500000000000000        6.2500000000000000E-002   0.0000000000000000     
  0.90625000000000000        6.2500000000000000E-002   0.0000000000000000     
  0.93750000000000000        6.2500000000000000E-002   0.0000000000000000     
  0.96875000000000000        6.2500000000000000E-002   0.0000000000000000     
   1.0000000000000000        6.2500000000000000E-002   0.0000000000000000     
  0.87500000000000000        9.3750000000000000E-002   0.0000000000000000     
  0.90625000000000000        9.3750000000000000E-002   0.0000000000000000     
  0.93750000000000000        9.3750000000000000E-002   0.0000000000000000     
  0.96875000000000000        9.3750000000000000E-002   0.0000000000000000     
   1.0000000000000000        9.3750000000000000E-002   0.0000000000000000     
  0.87500000000000000       0.12500000000000000        0.0000000000000000     
  0.90625000000000000       0.12500000000000000        0.0000000000000000     
  0.93750000000000000       0.12500000000000000        0.0000000000000000     
  0.96875000000000000       0.12500000000000000        0.0000000000000000     
   1.0000000000000000       0.12500000000000000        0.0000000000000000     
   0.0000000000000000       0.12500000000000000        0.0000000000000000     
   3.1250000000000000E-002  0.12500000000000000        0.0000000000000000     
   6.2500000000000000E-002  0.12500000000000000        0.0000000000000000     
   9.3750000000000000E-002  0.12500000000000000        0.0000000000000000     
  0.12500000000000000       0.12500000000000000        0.0000000000000000     
   0.0000000000000000       0.15625000000000000        0.0000000000000000     
   3.1250000000000000E-002  0.15625000000000000        0.0000000000000000     
   6.2500000000000000E-002  0.15625000000000000        0.0000000000000000     
   9.3750000000000000E-002  0.15625000000000000        0.0000000000000000     
  0.12500000000000000       0.15625000000000000        0.0000000000000000     
   0.0000000000000000       0.18750000000000000        0.0000000000000000     
   3.1250000000000000E-002  0.18750000000000000        0.0000000000000000     
   6.2500000000000000E-002  0.18750000000000000        0.0000000000000000     
   9.3750000000000000E-002  0.18750000000000000        0.0000000000000000     
  0.12500000000000000       0.18750000000000000        0.0000000000000000     
   0.0000000000000000       0.21875000000000000        0.0000000000000000     
   3.1250000000000000E-002  0.21875000000000000        0.0000000000000000     
   6.2500000000000000E-002  0.21875000000000000        0.0000000000000000     
   9.3750000000000000E-002  0.21875000000000000        0.0000000000000000     
  0.12500000000000000       0.21875000000000000        0.0000000000000000     
   0.0000000000000000       0.25000000000000000        0.0000000000000000     
   3.1250000000000000E-002  0.25000000000000000        0.0000000000000000     
   6.2500000000000000E-002  0.25000000000000000        0.0000000000000000     
   9.3750000000000000E-002  0.25000000000000000        0.0000000000000000     
  0.12500000000000000       0.25000000000000000        0.0000000000000000     
  0.12500000000000000       0.12500000000000000        0.0000000000000000     
  0.15625000000000000       0.12500000000000000        0.0000000000000000     
  0.18750000000000000       0.12500000000000000        0.0000000000000000     
  0.21875000000000000       0.12500000000000000        0.0000000000000000     
  0.25000000000000000       0.12500000000000000        0.0000000000000000     
  0.12500000000000000       0.15625000000000000        0.0000000000000000     
  0.15625000000000000       0.15625000000000000        0.0000000000000000     
  0.18750000000000000       0.15625000000000000        0.0000000000000000     
  0.21875000000000000       0.15625000000000000        0.0000000000000000     
  0.25000000000000000       0.15625000000000000        0.0000000000000000     
  0.12500000000000000       0.18750000000000000        0.0000000000000000     
  0.15625000000000000       0.18750000000000000        0.0000000000000000     
  0.18750000000000000       0.18750000000000000        0.0000000000000000     
  0.21875000000000000       0.18750000000000000        0.0000000000000000     
  0.25000000000000000       0.18750000000000000        0.0000000000000000     
  0.12500000000000000       0.21875000000000000        0.0000000000000000     
  0.15625000000000000       0.21875000000000000        0.0000000000000000     
  0.18750000000000000       0.21875000000000000        0.0000000000000000     
  0.21875000000000000       0.21875000000000000        0.0000000000000000     
  0.25000000000000000       0.21875000000000000        0.0000000000000000     
  0.12500000000000000       0.25000000000000000        0.0000000000000000     
  0.15625000000000000       0.25000000000000000        0.0000000000000000     
  0.18750000000000000       0.25000000000000000        0.0000000000000000     
  0.21875000000000000       0.25000000000000000        0.0000000000000000     
  0.25000000000000000       0.25000000000000000        0.0000000000000000     
  0.25000000000000000       0.12500000000000000        0.0000000000000000     
  0.28125000000000000       0.12500000000000000        0.0000000000000000     
  0.31250000000000000       0.12500000000000000        0.0000000000000000     
  0.34375000000000000       0.12500000000000000        0.0000000000000000     
  0.37500000000000000       0.12500000000000000        0.0000000000000000     
  0.25000000000000000       0.15625000000000000        0.0000000000000000     
  0.28125000000000000       0.15625000000000000        0.0000000000000000     
  0.31250000000000000       0.15625000000000000        0.0000000000000000     
  0.34375000000000000       0.15625000000000000        0.0000000000000000     
  0.37500000000000000       0.15625000000000000        0.0000000000000000     
  0.25000000000000000       0.18750000000000000        0.0000000000000000     
  0.28125000000000000       0.18750000000000000        0.0000000000000000     
  0.31250000000000000       0.18750000000000000        0.0000000000000000     
  0.34375000000000000       0.18750000000000000        0.0000000000000000     
  0.37500000000000000       0.18750000000000000        0.0000000000000000     
  0.25000000000000000       0.21875000000000000        0.0000000000000000     
  0.28125000000000000       0.21875000000000000        0.0000000000000000     
  0.31250000000000000       0.21875000000000000        0.0000000000000000     
  0.34375000000000000       0.21875000000000000        0.0000000000000000     
  0.37500000000000000       0.21875000000000000        0.0000000000000000     
  0.25000000000000000       0.25000000000000000        0.0000000000000000     
  0.28125000000000000       0.25000000000000000        0.0000000000000000     
  0.31250000000000000       0.25000000000000000        0.0000000000000000     
  0.34375000000000000       0.25000000000000000        0.0000000000000000     
  0.37500000000000000       0.25000000000000000        0.0000000000000000     
  0.37500000000000000       0.12500000000000000        0.0000000000000000     
  0.40625000000000000       0.12500000000000000        0.0000000000000000     
  0.43750000000000000       0.12500000000000000        0.0000000000000000     
  0.46875000000000000       0.12500000000000000        0.0000000000000000     
  0.50000000000000000       0.12500000000000000        0.0000000000000000     
  0.37500000000000000       0.15625000000000000        0.0000000000000000     
  0.40625000000000000       0.15625000000000000        0.0000000000000000     
  0.43750000000000000       0.15625000000000000        0.0000000000000000     
  0.46875000000000000       0.15625000000000000        0.0000000000000000     
  0.50000000000000000       0.15625000000000000        0.0000000000000000     
  0.37500000000000000       0.18750000000000000        0.0000000000000000     
  0.40625000000000000       0.18750000000000000        0.0000000000000000     
  0.43750000000000000       0.18750000000000000        0.0000000000000000     
  0.46875000000000000       0.18750000000000000        0.0000000000000000     
  0.50000000000000000       0.18750000000000000        0.0000000000000000     
  0.37500000000000000       0.21875000000000000        0.0000000000000000     
  0.40625000000000000       0.21875000000000000        0.0000000000000000     
  0.43750000000000000       0.21875000000000000        0.0000000000000000     
  0.46875000000000000       0.21875000000000000        0.0000000000000000     
  0.50000000000000000       0.21875000000000000        0.0000000000000000     
  0.37500000000000000       0.25000000000000000        0.0000000000000000     
  0.40625000000000000       0.25000000000000000        0.0000000000000000     
  0.43750000000000000       0.25000000000000000        0.0000000000000000     
  0.46875000000000000       0.25000000000000000        0.0000000000000000     
  0.50000000000000000       0.25000000000000000        0.0000000000000000     
  0.50000000000000000       0.12500000000000000        0.0000000000000000     
  0.53125000000000000       0.12500000000000000        0.0000000000000000     
  0.56250000000000000       0.12500000000000000        0.0000000000000000     
  0.59375000000000000       0.12500000000000000        0.0000000000000000     
  0.62500000000000000       0.12500000000000000        0.0000000000000000     
  0.50000000000000000       0.15625000000000000        0.0000000000000000     
  0.53125000000000000       0.15625000000000000        0.0000000000000000     
  0.56250000000000000       0.15625000000000000        0.0000000000000000     
  0.59375000000000000       0.15625000000000000        0.0000000000000000     
  0.62500000000000000       0.15625000000000000        0.0000000000000000     
  0.50000000000000000       0.18750000000000000        0.0000000000000000     
  0.53125000000000000       0.18750000000000000        0.0000000000000000     
  0.56250000000000000       0.18750000000000000        0.0000000000000000     
  0.59375000000000000       0.18750000000000000        0.0000000000000000     
  0.62500000000000000       0.18750000000000000        0.0000000000000000     
  0.50000000000000000       0.21875000000000000        0.0000000000000000     
  0.53125000000000000       0.21875000000000000        0.0000000000000000     
  0.56250000000000000       0.21875000000000000        0.0000000000000000     
  0.59375000000000000       0.21875000000000000        0.0000000000000000     
  0.62500000000000000       0.21875000000000000        0.0000000000000000     
  0.50000000000000000       0.25000000000000000        0.0000000000000000     
  0.53125000000000000       0.25000000000000000        0.0000000000000000     
  0.56250000000000000       0.25000000000000000        0.0000000000000000     
  0.59375000000000000       0.25000000000000000        0.0000000000000000     
  0.62500000000000000       0.25000000000000000        0.0000000000000000     
  0.62500000000000000       0.12500000000000000        0.0000000000000000     
  0.65625000000000000       0.12500000000000000        0.0000000000000000     
  0.68750000000000000       0.12500000000000000        0.0000000000000000     
  0.71875000000000000       0.12500000000000000        0.0000000000000000     
  0.75000000000000000       0.12500000000000000        0.0000000000000000     
  0.62500000000000000       0.15625000000000000        0.0000000000000000     
  0.65625000000000000       0.15625000000000000        0.0000000000000000     
  0.68750000000000000       0.15625000000000000        0.0000000000000000     
  0.71875000000000000       0.15625000000000000        0.0000000000000000     
  0.75000000000000000       0.15625000000000000        0.0000000000000000     
  0.62500000000000000       0.18750000000000000        0.0000000000000000     
  0.65625000000000000       0.18750000000000000        0.0000000000000000     
  0.68750000000000000       0.18750000000000000        0.0000000000000000     
  0.71875000000000000       0.18750000000000000        0.0000000000000000     
  0.75000000000000000       0.18750000000000000        0.0000000000000000     
  0.62500000000000000       0.21875000000000000        0.0000000000000000     
  0.65625000000000000       0.21875000000000000        0.0000000000000000     
  0.68750000000000000       0.21875000000000000        0.0000000000000000     
  0.71875000000000000       0.21875000000000000        0.0000000000000000     
  0.75000000000000000       0.21875000000000000        0.0000000000000000     
  0.62500000000000000       0.25000000000000000        0.0000000000000000     
  0.65625000000000000       0.25000000000000000        0.0000000000000000     
  0.68750000000000000       0.25000000000000000        0.0000000000000000     
  0.71875000000000000       0.25000000000000000        0.0000000000000000     
  0.75000000000000000       0.25000000000000000        0.0000000000000000     
  0.75000000000000000       0.12500000000000000        0.0000000000000000     
  0.78125000000000000       0.12500000000000000        0.0000000000000000     
  0.81250000000000000       0.12500000000000000        0.0000000000000000     
  0.84375000000000000       0.12500000000000000        0.0000000000000000     
  0.87500000000000000       0.12500000000000000        0.0000000000000000     
  0.75000000000000000       0.15625000000000000        0.0000000000000000     
  0.78125000000000000       0.15625000000000000        0.0000000000000000     
  0.81250000000000000       0.15625000000000000        0.0000000000000000     
  0.84375000000000000       0.15625000000000000        0.0000000000000000     
  0.87500000000000000       0.15625000000000000        0.0000000000000000     
  0.75000000000000000       0.18750000000000000        0.0000000000000000     
  0.78125000000000000       0.18750000000000000        0.0000000000000000     
  0.81250000000000000       0.18750000000000000        0.0000000000000000     
  0.84375000000000000       0.18750000000000000        0.0000000000000000     
  0.87500000000000000       0.18750000000000000        0.0000000000000000     
  0.75000000000000000       0.21875000000000000        0.0000000000000000     
  0.78125000000000000       0.21875000000000000        0.0000000000000000     
  0.81250000000000000       0.21875000000000000        0.0000000000000000     
  0.84375000000000000       0.21875000000000000        0.0000000000000000     
  0.87500000000000000       0.21875000000000000        0.0000000000000000     
  0.75000000000000000       0.25000000000000000        0.0000000000000000     
  0.78125000000000000       0.25000000000000000        0.0000000000000000     
  0.81250000000000000       0.25000000000000000        0.0000000000000000     
  0.84375000000000000       0.25000000000000000        0.0000000000000000     
  0.87500000000000000       0.25000000000000000        0.0000000000000000     
  0.87500000000000000       0.12500000000000000        0.0000000000000000     
  0.90625000000000000       0.12500000000000000        0.0000000000000000     
  0.93750000000000000       0.12500000000000000        0.0000000000000000     
  0.96875000000000000       0.12500000000000000        0.0000000000000000     
   1.0000000000000000       0.12500000000000000        0.0000000000000000     
  0.87500000000000000       0.15625000000000000        0.0000000000000000     
  0.90625000000000000       0.15625000000000000        0.0000000000000000     
  0.93750000000000000       0.15625000000000000        0.0000000000000000     
  0.96875000000000000       0.15625000000000000        0.0000000000000000     
   1.0000000000000000       0.15625000000000000        0.0000000000000000     
  0.87500000000000000       0.18750000000000000        0.0000000000000000     
  0.90625000000000000       0.18750000000000000        0.0000000000000000     
  0.93750000000000000       0.18750000000000000        0.0000000000000000     
  0.96875000000000000       0.18750000000000000        0.0000000000000000     
   1.0000000000000000       0.18750000000000000        0.0000000000000000     
  0.87500000000000000       0.21875000000000000        0.0000000000000000     
  0.90625000000000000       0.21875000000000000        0.0000000000000000     
  0.93750000000000000       0.21875000000000000        0.0000000000000000     
  0.96875000000000000       0.21875000000000000        0.0000000000000000     
   1.0000000000000000       0.21875000000000000        0.0000000000000000     
  0.87500000000000000       0.25000000000000000        0.0000000000000000     
  0.90625000000000000       0.25000000000000000        0.0000000000000000     
  0.93750000000000000       0.25000000000000000        0.0000000000000000     
  0.96875000000000000       0.25000000000000000        0.0000000000000000     
   1.0000000000000000       0.25000000000000000        0.0000000000000000     
   0.0000000000000000       0.25000000000000000        0.0000000000000000     
   3.1250000000000000E-002  0.25000000000000000        0.0000000000000000     
   6.2500000000000000E-002  0.25000000000000000        0.0000000000000000     
   9.3750000000000000E-002  0.25000000000000000        0.0000000000000000     
  0.12500000000000000       0.25000000000000000        0.0000000000000000     
   0.0000000000000000       0.28125000000000000        0.0000000000000000     
   3.1250000000000000E-002  0.28125000000000000        0.0000000000000000     
   6.2500000000000000E-002  0.28125000000000000        0.0000000000000000     
   9.3750000000000000E-002  0.28125000000000000        0.0000000000000000     
  0.12500000000000000       0.28125000000000000        0.0000000000000000     
   0.0000000000000000       0.31250000000000000        0.0000000000000000     
   3.1250000000000000E-002  0.31250000000000000        0.0000000000000000     
   6.2500000000000000E-002  0.31250000000000000        0.0000000000000000     
   9.3750000000000000E-002  0.31250000000000000        0.0000000000000000     
  0.12500000000000000       0.31250000000000000        0.0000000000000000     
   0.0000000000000000       0.34375000000000000        0.0000000000000000     
   3.1250000000000000E-002  0.34375000000000000        0.0000000000000000     
   6.2500000000000000E-002  0.34375000000000000        0.0000000000000000     
   9.3750000000000000E-002  0.34375000000000000        0.0000000000000000     
  0.12500000000000000       0.34375000000000000        0.0000000000000000     
   0.0000000000000000       0.37500000000000000        0.0000000000000000     
   3.1250000000000000E-002  0.37500000000000000        0.0000000000000000     
   6.2500000000000000E-002  0.37500000000000000        0.0000000000000000     
   9.3750000000000000E-002  0.37500000000000000        0.0000000000000000     
  0.12500000000000000       0.37500000000000000        0.0000000000000000     
  0.12500000000000000       0.25000000000000000        0.0000000000000000     
  0.15625000000000000       0.25000000000000000        0.0000000000000000     
  0.18750000000000000       0.25000000000000000        0.0000000000000000     
  0.21875000000000000       0.25000000000000000        0.0000000000000000     
  0.25000000000000000       0.25000000000000000        0.0000000000000000     
  0.12500000000000000       0.28125000000000000        0.0000000000000000     
  0.15625000000000000       0.28125000000000000        0.0000000000000000     
  0.18750000000000000       0.28125000000000000        0.0000000000000000     
  0.21875000000000000       0.28125000000000000        0.0000000000000000     
  0.25000000000000000       0.28125000000000000        0.0000000000000000     
  0.12500000000000000       0.31250000000000000        0.0000000000000000     
  0.15625000000000000       0.31250000000000000        0.0000000000000000     
  0.18750000000000000       0.31250000000000000        0.0000000000000000     
  0.21875000000000000       0.31250000000000000        0.0000000000000000     
  0.25000000000000000       0.31250000000000000        0.0000000000000000     
  0.12500000000000000       0.34375000000000000        0.0000000000000000     
  0.15625000000000000       0.34375000000000000        0.0000000000000000     
  0.18750000000000000       0.34375000000000000        0.0000000000000000     
  0.21875000000000000       0.34375000000000000        0.0000000000000000     
  0.25000000000000000       0.34375000000000000        0.0000000000000000     
  0.12500000000000000       0.37500000000000000        0.0000000000000000     
  0.15625000000000000       0.37500000000000000        0.0000000000000000     
  0.18750000000000000       0.37500000000000000        0.0000000000000000     
  0.21875000000000000       0.37500000000000000        0.0000000000000000     
  0.25000000000000000       0.37500000000000000        0.0000000000000000     
  0.25000000000000000       0.25000000000000000        0.0000000000000000     
  0.28125000000000000       0.25000000000000000        0.0000000000000000     
  0.31250000000000000       0.25000000000000000        0.0000000000000000     
  0.34375000000000000       0.25000000000000000        0.0000000000000000     
  0.37500000000000000       0.25000000000000000        0.0000000000000000     
  0.25000000000000000       0.28125000000000000        0.0000000000000000     
  0.28125000000000000       0.28125000000000000        0.0000000000000000     
  0.31250000000000000       0.28125000000000000        0.0000000000000000     
  0.34375000000000000       0.28125000000000000        0.0000000000000000     
  0.37500000000000000       0.28125000000000000        0.0000000000000000     
  0.25000000000000000       0.31250000000000000        0.0000000000000000     
  0.28125000000000000       0.31250000000000000        0.0000000000000000     
  0.31250000000000000       0.31250000000000000        0.0000000000000000     
  0.34375000000000000       0.31250000000000000        0.0000000000000000     
  0.37500000000000000       0.31250000000000000        0.0000000000000000     
  0.25000000000000000       0.34375000000000000        0.0000000000000000     
  0.28125000000000000       0.34375000000000000        0.0000000000000000     
  0.31250000000000000       0.34375000000000000        0.0000000000000000     
  0.34375000000000000       0.34375000000000000        0.0000000000000000     
  0.37500000000000000       0.34375000000000000        0.0000000000000000     
  0.25000000000000000       0.37500000000000000        0.0000000000000000     
  0.28125000000000000       0.37500000000000000        0.0000000000000000     
  0.31250000000000000       0.37500000000000000        0.0000000000000000     
  0.34375000000000000       0.37500000000000000        0.0000000000000000     
  0.37500000000000000       0.37500000000000000        0.0000000000000000     
  0.37500000000000000       0.25000000000000000        0.0000000000000000     
  0.40625000000000000       0.25000000000000000        0.0000000000000000     
  0.43750000000000000       0.25000000000000000        0.0000000000000000     
  0.46875000000000000       0.25000000000000000        0.0000000000000000     
  0.50000000000000000       0.25000000000000000        0.0000000000000000     
  0.37500000000000000       0.28125000000000000        0.0000000000000000     
  0.40625000000000000       0.28125000000000000        0.0000000000000000     
  0.43750000000000000       0.28125000000000000        0.0000000000000000     
  0.46875000000000000       0.28125000000000000        0.0000000000000000     
  0.50000000000000000       0.28125000000000000        0.0000000000000000     
  0.37500000000000000       0.31250000000000000        0.0000000000000000     
  0.40625000000000000       0.31250000000000000        0.0000000000000000     
  0.43750000000000000       0.31250000000000000        0.0000000000000000     
  0.46875000000000000       0.31250000000000000        0.0000000000000000     
  0.50000000000000000       0.31250000000000000        0.0000000000000000     
  0.37500000000000000       0.34375000000000000        0.0000000000000000     
  0.40625000000000000       0.34375000000000000        0.0000000000000000     
  0.43750000000000000       0.34375000000000000        0.0000000000000000     
  0.46875000000000000       0.34375000000000000        0.0000000000000000     
  0.50000000000000000       0.34375000000000000        0.0000000000000000     
  0.37500000000000000       0.37500000000000000        0.0000000000000000     
  0.40625000000000000       0.37500000000000000        0.0000000000000000     
  0.43750000000000000       0.37500000000000000        0.0000000000000000     
  0.46875000000000000       0.37500000000000000        0.0000000000000000     
  0.50000000000000000       0.37500000000000000        0.0000000000000000     
  0.50000000000000000       0.25000000000000000        0.0000000000000000     
  0.53125000000000000       0.25000000000000000        0.0000000000000000     
  0.56250000000000000       0.25000000000000000        0.0000000000000000     
  0.59375000000000000       0.25000000000000000        0.0000000000000000     
  0.62500000000000000       0.25000000000000000        0.0000000000000000     
  0.50000000000000000       0.28125000000000000        0.0000000000000000     
  0.53125000000000000       0.28125000000000000        0.0000000000000000     
  0.56250000000000000       0.28125000000000000        0.0000000000000000     
  0.59375000000000000       0.28125000000000000        0.0000000000000000     
  0.62500000000000000       0.28125000000000000        0.0000000000000000     
  0.50000000000000000       0.31250000000000000        0.0000000000000000     
  0.53125000000000000       0.31250000000000000        0.0000000000000000     
  0.56250000000000000       0.31250000000000000        0.0000000000000000     
  0.59375000000000000       0.31250000000000000        0.0000000000000000     
  0.62500000000000000       0.31250000000000000        0.0000000000000000     
  0.50000000000000000       0.34375000000000000        0.0000000000000000     
  0.53125000000000000       0.34375000000000000        0.0000000000000000     
  0.56250000000000000       0.34375000000000000        0.0000000000000000     
  0.59375000000000000       0.34375000000000000        0.0000000000000000     
  0.62500000000000000       0.34375000000000000        0.0000000000000000     
  0.50000000000000000       0.37500000000000000        0.0000000000000000     
  0.53125000000000000       0.37500000000000000        0.0000000000000000     
  0.56250000000000000       0.37500000000000000        0.0000000000000000     
  0.59375000000000000       0.37500000000000000        0.0000000000000000     
  0.62500000000000000       0.37500000000000000        0.0000000000000000     
  0.62500000000000000       0.25000000000000000        0.0000000000000000     
  0.65625000000000000       0.25000000000000000        0.0000000000000000     
  0.68750000000000000       0.25000000000000000        0.0000000000000000     
  0.71875000000000000       0.25000000000000000        0.0000000000000000     
  0.75000000000000000       0.25000000000000000        0.0000000000000000     
  0.62500000000000000       0.28125000000000000        0.0000000000000000     
  0.65625000000000000       0.28125000000000000        0.0000000000000000     
  0.68750000000000000       0.28125000000000000        0.0000000000000000     
  0.71875000000000000       0.28125000000000000        0.0000000000000000     
  0.75000000000000000       0.28125000000000000        0.0000000000000000     
  0.62500000000000000       0.31250000000000000        0.0000000000000000     
  0.65625000000000000       0.31250000000000000        0.0000000000000000     
  0.68750000000000000       0.31250000000000000        0.0000000000000000     
  0.71875000000000000       0.31250000000000000        0.0000000000000000     
  0.75000000000000000       0.31250000000000000        0.0000000000000000     
  0.62500000000000000       0.34375000000000000        0.0000000000000000     
  0.65625000000000000       0.34375000000000000        0.0000000000000000     
  0.68750000000000000       0.34375000000000000        0.0000000000000000     
  0.71875000000000000       0.34375000000000000        0.0000000000000000     
  0.75000000000000000       0.34375000000000000        0.0000000000000000     
  0.62500000000000000       0.37500000000000000        0.0000000000000000     
  0.65625000000000000       0.37500000000000000        0.0000000000000000     
  0.68750000000000000       0.37500000000000000        0.0000000000000000     
  0.71875000000000000       0.37500000000000000        0.0000000000000000     
  0.75000000000000000       0.37500000000000000        0.0000000000000000     
  0.75000000000000000       0.25000000000000000        0.0000000000000000     
  0.78125000000000000       0.25000000000000000        0.0000000000000000     
  0.81250000000000000       0.25000000000000000        0.0000000000000000     
  0.84375000000000000       0.25000000000000000        0.0000000000000000     
  0.87500000000000000       0.25000000000000000        0.0000000000000000     
  0.75000000000000000       0.28125000000000000        0.0000000000000000     
  0.78125000000000000       0.28125000000000000        0.0000000000000000     
  0.81250000000000000       0.28125000000000000        0.0000000000000000     
  0.84375000000000000       0.28125000000000000        0.0000000000000000     
  0.87500000000000000       0.28125000000000000        0.0000000000000000     
  0.75000000000000000       0.31250000000000000        0.0000000000000000     
  0.78125000000000000       0.31250000000000000        0.0000000000000000     
  0.81250000000000000       0.31250000000000000        0.0000000000000000     
  0.84375000000000000       0.31250000000000000        0.0000000000000000     
  0.87500000000000000       0.31250000000000000        0.0000000000000000     
  0.75000000000000000       0.34375000000000000        0.0000000000000000     
  0.78125000000000000       0.34375000000000000        0.0000000000000000     
  0.81250000000000000       0.34375000000000000        0.0000000000000000     
  0.84375000000000000       0.34375000000000000        0.0000000000000000     
  0.87500000000000000       0.34375000000000000        0.0000000000000000     
  0.75000000000000000       0.37500000000000000        0.0000000000000000     
  0.78125000000000000       0.37500000000000000        0.0000000000000000     
  0.81250000000000000       0.37500000000000000        0.0000000000000000     
  0.84375000000000000       0.37500000000000000        0.0000000000000000     
  0.87500000000000000       0.37500000000000000        0.0000000000000000     
  0.87500000000000000       0.25000000000000000        0.0000000000000000     
  0.90625000000000000       0.25000000000000000        0.0000000000000000     
  0.93750000000000000       0.25000000000000000        0.0000000000000000     
  0.96875000000000000       0.25000000000000000        0.0000000000000000     
   1.0000000000000000       0.25000000000000000        0.0000000000000000     
  0.87500000000000000       0.28125000000000000        0.0000000000000000     
  0.90625000000000000       0.28125000000000000        0.0000000000000000     
  0.93750000000000000       0.28125000000000000        0.0000000000000000     
  0.96875000000000000       0.28125000000000000        0.0000000000000000     
   1.0000000000000000       0.28125000000000000        0.0000000000000000     
  0.87500000000000000       0.31250000000000000        0.0000000000000000     
  0.90625000000000000       0.31250000000000000        0.0000000000000000     
  0.93750000000000000       0.31250000000000000        0.0000000000000000     
  0.96875000000000000       0.31250000000000000        0.0000000000000000     
   1.0000000000000000       0.31250000000000000        0.0000000000000000     
  0.87500000000000000       0.34375000000000000        0.0000000000000000     
  0.90625000000000000       0.34375000000000000        0.0000000000000000     
  0.93750000000000000       0.34375000000000000        0.0000000000000000     
  0.96875000000000000       0.34375000000000000        0.0000000000000000     
   1.0000000000000000       0.34375000000000000        0.0000000000000000     
  0.87500000000000000       0.37500000000000000        0.0000000000000000     
  0.90625000000000000       0.37500000000000000        0.0000000000000000     
  0.93750000000000000       0.37500000000000000        0.0000000000000000     
  0.96875000000000000       0.37500000000000000        0.0000000000000000     
   1.0000000000000000       0.37500000000000000        0.0000000000000000     
   0.0000000000000000       0.37500000000000000        0.0000000000000000     
   3.1250000000000000E-002  0.37500000000000000        0.0000000000000000     
   6.2500000000000000E-002  0.37500000000000000        0.0000000000000000     
   9.3750000000000000E-002  0.37500000000000000        0.0000000000000000     
  0.12500000000000000       0.37500000000000000        0.0000000000000000     
   0.0000000000000000       0.40625000000000000        0.0000000000000000     
   3.1250000000000000E-002  0.40625000000000000        0.0000000000000000     
   6.2500000000000000E-002  0.40625000000000000        0.0000000000000000     
   9.3750000000000000E-002  0.40625000000000000        0.0000000000000000     
  0.12500000000000000       0.40625000000000000        0.0000000000000000     
   0.0000000000000000       0.43750000000000000        0.0000000000000000     
   3.1250000000000000E-002  0.43750000000000000        0.0000000000000000     
   6.2500000000000000E-002  0.43750000000000000        0.0000000000000000     
   9.3750000000000000E-002  0.43750000000000000        0.0000000000000000     
  0.12500000000000000       0.43750000000000000        0.0000000000000000     
   0.0000000000000000       0.46875000000000000        0.0000000000000000     
   3.1250000000000000E-002  0.46875000000000000        0.0000000000000000     
   6.2500000000000000E-002  0.46875000000000000        0.0000000000000000     
   9.3750000000000000E-002  0.46875000000000000        0.0000000000000000     
  0.12500000000000000       0.46875000000000000        0.0000000000000000     
   0.0000000000000000       0.50000000000000000        0.0000000000000000     
   3.1250000000000000E-002  0.50000000000000000        0.0000000000000000     
   6.2500000000000000E-002  0.50000000000000000        0.0000000000000000     
   9.3750000000000000E-002  0.50000000000000000        0.0000000000000000     
  0.12500000000000000       0.50000000000000000        0.0000000000000000     
  0.12500000000000000       0.37500000000000000        0.0000000000000000     
  0.15625000000000000       0.37500000000000000        0.0000000000000000     
  0.18750000000000000       0.37500000000000000        0.0000000000000000     
  0.21875000000000000       0.37500000000000000        0.0000000000000000     
  0.25000000000000000       0.37500000000000000        0.0000000000000000     
  0.12500000000000000       0.40625000000000000        0.0000000000000000     
  0.15625000000000000       0.40625000000000000        0.0000000000000000     
  0.18750000000000000       0.40625000000000000        0.0000000000000000     
  0.21875000000000000       0.40625000000000000        0.0000000000000000     
  0.25000000000000000       0.40625000000000000        0.0000000000000000     
  0.12500000000000000       0.43750000000000000        0.0000000000000000     
  0.15625000000000000       0.43750000000000000        0.0000000000000000     
  0.18750000000000000       0.43750000000000000        0.0000000000000000     
  0.21875000000000000       0.43750000000000000        0.0000000000000000     
  0.25000000000000000       0.43750000000000000        0.0000000000000000     
  0.12500000000000000       0.46875000000000000        0.0000000000000000     
  0.15625000000000000       0.46875000000000000        0.0000000000000000     
  0.18750000000000000       0.46875000000000000        0.0000000000000000     
  0.21875000000000000       0.46875000000000000        0.0000000000000000     
  0.25000000000000000       0.46875000000000000        0.0000000000000000     
  0.12500000000000000       0.50000000000000000        0.0000000000000000     
  0.15625000000000000       0.50000000000000000        0.0000000000000000     
  0.18750000000000000       0.50000000000000000        0.0000000000000000     
  0.21875000000000000       0.50000000000000000        0.0000000000000000     
  0.25000000000000000       0.50000000000000000        0.0000000000000000     
  0.25000000000000000       0.37500000000000000        0.0000000000000000     
  0.28125000000000000       0.37500000000000000        0.0000000000000000     
  0.31250000000000000       0.37500000000000000        0.0000000000000000     
  0.34375000000000000       0.37500000000000000        0.0000000000000000     
  0.37500000000000000       0.37500000000000000        0.0000000000000000     
  0.25000000000000000       0.40625000000000000        0.0000000000000000     
  0.28125000000000000       0.40625000000000000        0.0000000000000000     
  0.31250000000000000       0.40625000000000000        0.0000000000000000     
  0.34375000000000000       0.40625000000000000        0.0000000000000000     
  0.37500000000000000       0.40625000000000000        0.0000000000000000     
  0.25000000000000000       0.43750000000000000        0.0000000000000000     
  0.28125000000000000       0.43750000000000000        0.0000000000000000     
  0.31250000000000000       0.43750000000000000        0.0000000000000000     
  0.34375000000000000       0.43750000000000000        0.0000000000000000     
  0.37500000000000000       0.43750000000000000        0.0000000000000000     
  0.25000000000000000       0.46875000000000000        0.0000000000000000     
  0.28125000000000000       0.46875000000000000        0.0000000000000000     
  0.31250000000000000       0.46875000000000000        0.0000000000000000     
  0.34375000000000000       0.46875000000000000        0.0000000000000000     
  0.37500000000000000       0.46875000000000000        0.0000000000000000     
  0.25000000000000000       0.50000000000000000        0.0000000000000000     
  0.28125000000000000       0.50000000000000000        0.0000000000000000     
  0.31250000000000000       0.50000000000000000        0.0000000000000000     
  0.34375000000000000       0.50000000000000000        0.0000000000000000     
  0.37500000000000000       0.50000000000000000        0.0000000000000000     
  0.37500000000000000       0.37500000000000000        0.0000000000000000     
  0.40625000000000000       0.37500000000000000        0.0000000000000000     
  0.43750000000000000       0.37500000000000000        0.0000000000000000     
  0.46875000000000000       0.37500000000000000        0.0000000000000000     
  0.50000000000000000       0.37500000000000000        0.0000000000000000     
  0.37500000000000000       0.40625000000000000        0.0000000000000000     
  0.40625000000000000       0.40625000000000000        0.0000000000000000     
  0.43750000000000000       0.40625000000000000        0.0000000000000000     
  0.46875000000000000       0.40625000000000000        0.0000000000000000     
  0.50000000000000000       0.40625000000000000        0.0000000000000000     
  0.37500000000000000       0.43750000000000000        0.0000000000000000     
  0.40625000000000000       0.43750000000000000        0.0000000000000000     
  0.43750000000000000       0.43750000000000000        0.0000000000000000     
  0.46875000000000000       0.43750000000000000        0.0000000000000000     
  0.50000000000000000       0.43750000000000000        0.0000000000000000     
  0.37500000000000000       0.46875000000000000        0.0000000000000000     
  0.40625000000000000       0.46875000000000000        0.0000000000000000     
  0.43750000000000000       0.46875000000000000        0.0000000000000000     
  0.46875000000000000       0.46875000000000000        0.0000000000000000     
  0.50000000000000000       0.46875000000000000        0.0000000000000000     
  0.37500000000000000       0.50000000000000000        0.0000000000000000     
  0.40625000000000000       0.50000000000000000        0.0000000000000000     
  0.43750000000000000       0.50000000000000000        0.0000000000000000     
  0.46875000000000000       0.50000000000000000        0.0000000000000000     
  0.50000000000000000       0.50000000000000000        0.0000000000000000     
  0.50000000000000000       0.37500000000000000        0.0000000000000000     
  0.53125000000000000       0.37500000000000000        0.0000000000000000     
  0.56250000000000000       0.37500000000000000        0.0000000000000000     
  0.59375000000000000       0.37500000000000000        0.0000000000000000     
  0.62500000000000000       0.37500000000000000        0.0000000000000000     
  0.50000000000000000       0.40625000000000000        0.0000000000000000     
  0.53125000000000000       0.40625000000000000        0.0000000000000000     
  0.56250000000000000       0.40625000000000000        0.0000000000000000     
  0.59375000000000000       0.40625000000000000        0.0000000000000000     
  0.62500000000000000       0.40625000000000000        0.0000000000000000     
  0.50000000000000000       0.43750000000000000        0.0000000000000000     
  0.53125000000000000       0.43750000000000000        0.0000000000000000     
  0.56250000000000000       0.43750000000000000        0.0000000000000000     
  0.59375000000000000       0.43750000000000000        0.0000000000000000     
  0.62500000000000000       0.43750000000000000        0.0000000000000000     
  0.50000000000000000       0.46875000000000000        0.0000000000000000     
  0.53125000000000000       0.46875000000000000        0.0000000000000000     
  0.56250000000000000       0.46875000000000000        0.0000000000000000     
  0.59375000000000000       0.46875000000000000        0.0000000000000000     
  0.62500000000000000       0.46875000000000000        0.0000000000000000     
  0.50000000000000000       0.50000000000000000        0.0000000000000000     
  0.53125000000000000       0.50000000000000000        0.0000000000000000     
  0.56250000000000000       0.50000000000000000        0.0000000000000000     
  0.59375000000000000       0.50000000000000000        0.0000000000000000     
  0.62500000000000000       0.50000000000000000        0.0000000000000000     
  0.62500000000000000       0.37500000000000000        0.0000000000000000     
  0.65625000000000000       0.37500000000000000        0.0000000000000000     
  0.68750000000000000       0.37500000000000000        0.0000000000000000     
  0.71875000000000000       0.37500000000000000        0.0000000000000000     
  0.75000000000000000       0.37500000000000000        0.0000000000000000     
  0.62500000000000000       0.40625000000000000        0.0000000000000000     
  0.65625000000000000       0.40625000000000000        0.0000000000000000     
  0.68750000000000000       0.40625000000000000        0.0000000000000000     
  0.71875000000000000       0.40625000000000000        0.0000000000000000     
  0.75000000000000000       0.40625000000000000        0.0000000000000000     
  0.62500000000000000       0.43750000000000000        0.0000000000000000     
  0.65625000000000000       0.43750000000000000        0.0000000000000000     
  0.68750000000000000       0.43750000000000000        0.0000000000000000     
  0.71875000000000000       0.43750000000000000        0.0000000000000000     
  0.75000000000000000       0.43750000000000000        0.0000000000000000     
  0.62500000000000000       0.46875000000000000        0.0000000000000000     
  0.65625000000000000       0.46875000000000000        0.0000000000000000     
  0.68750000000000000       0.46875000000000000        0.0000000000000000     
  0.71875000000000000       0.46875000000000000        0.0000000000000000     
  0.75000000000000000       0.46875000000000000        0.0000000000000000     
  0.62500000000000000       0.50000000000000000        0.0000000000000000     
  0.65625000000000000       0.50000000000000000        0.0000000000000000     
  0.68750000000000000       0.50000000000000000        0.0000000000000000     
  0.71875000000000000       0.50000000000000000        0.0000000000000000     
  0.75000000000000000       0.50000000000000000        0.0000000000000000     
  0.75000000000000000       0.37500000000000000        0.0000000000000000     
  0.78125000000000000       0.37500000000000000        0.0000000000000000     
  0.81250000000000000       0.37500000000000000        0.0000000000000000     
  0.84375000000000000       0.37500000000000000        0.0000000000000000     
  0.87500000000000000       0.37500000000000000        0.0000000000000000     
  0.75000000000000000       0.40625000000000000        0.0000000000000000     
  0.78125000000000000       0.40625000000000000        0.0000000000000000     
  0.81250000000000000       0.40625000000000000        0.0000000000000000     
  0.84375000000000000       0.40625000000000000        0.0000000000000000     
  0.87500000000000000       0.40625000000000000        0.0000000000000000     
  0.75000000000000000       0.43750000000000000        0.0000000000000000     
  0.78125000000000000       0.43750000000000000        0.0000000000000000     
  0.81250000000000000       0.43750000000000000        0.0000000000000000     
  0.84375000000000000       0.43750000000000000        0.0000000000000000     
  0.87500000000000000       0.43750000000000000        0.0000000000000000     
  0.75000000000000000       0.46875000000000000        0.0000000000000000     
  0.78125000000000000       0.46875000000000000        0.0000000000000000     
  0.81250000000000000       0.46875000000000000        0.0000000000000000     
  0.84375000000000000       0.46875000000000000        0.0000000000000000     
  0.87500000000000000       0.46875000000000000        0.0000000000000000     
  0.75000000000000000       0.50000000000000000        0.0000000000000000     
  0.78125000000000000       0.50000000000000000        0.0000000000000000     
  0.81250000000000000       0.50000000000000000        0.0000000000000000     
  0.84375000000000000       0.50000000000000000        0.0000000000000000     
  0.87500000000000000       0.50000000000000000        0.0000000000000000     
  0.87500000000000000       0.37500000000000000        0.0000000000000000     
  0.90625000000000000       0.37500000000000000        0.0000000000000000     
  0.93750000000000000       0.37500000000000000        0.0000000000000000     
  0.96875000000000000       0.37500000000000000        0.0000000000000000     
   1.0000000000000000       0.37500000000000000        0.0000000000000000     
  0.87500000000000000       0.40625000000000000        0.0000000000000000     
  0.90625000000000000       0.40625000000000000        0.0000000000000000     
  0.93750000000000000       0.40625000000000000        0.0000000000000000     
  0.96875000000000000       0.40625000000000000        0.0000000000000000     
   1.0000000000000000       0.40625000000000000        0.0000000000000000     
  0.87500000000000000       0.43750000000000000        0.0000000000000000     
  0.90625000000000000       0.43750000000000000        0.0000000000000000     
  0.93750000000000000       0.43750000000000000        0.0000000000000000     
  0.96875000000000000       0.43750000000000000        0.0000000000000000     
   1.0000000000000000       0.43750000000000000        0.0000000000000000     
  0.87500000000000000       0.46875000000000000        0.0000000000000000     
  0.90625000000000000       0.46875000000000000        0.0000000000000000     
  0.93750000000000000       0.46875000000000000        0.0000000000000000     
  0.96875000000000000       0.46875000000000000        0.0000000000000000     
   1.0000000000000000       0.46875000000000000        0.0000000000000000     
  0.87500000000000000       0.50000000000000000        0.0000000000000000     
  0.90625000000000000       0.50000000000000000        0.0000000000000000     
  0.93750000000000000       0.50000000000000000        0.0000000000000000     
  0.96875000000000000       0.50000000000000000        0.0000000000000000     
   1.0000000000000000       0.50000000000000000        0.0000000000000000     
   0.0000000000000000       0.50000000000000000        0.0000000000000000     
   3.1250000000000000E-002  0.50000000000000000        0.0000000000000000     
   6.2500000000000000E-002  0.50000000000000000        0.0000000000000000     
   9.3750000000000000E-002  0.50000000000000000        0.0000000000000000     
  0.12500000000000000       0.50000000000000000        0.0000000000000000     
   0.0000000000000000       0.53125000000000000        0.0000000000000000     
   3.1250000000000000E-002  0.53125000000000000        0.0000000000000000     
   6.2500000000000000E-002  0.53125000000000000        0.0000000000000000     
   9.3750000000000000E-002  0.53125000000000000        0.0000000000000000     
  0.12500000000000000       0.53125000000000000        0.0000000000000000     
   0.0000000000000000       0.56250000000000000        0.0000000000000000     
   3.1250000000000000E-002  0.56250000000000000        0.0000000000000000     
   6.2500000000000000E-002  0.56250000000000000        0.0000000000000000     
   9.3750000000000000E-002  0.56250000000000000        0.0000000000000000     
  0.12500000000000000       0.56250000000000000        0.0000000000000000     
   0.0000000000000000       0.59375000000000000        0.0000000000000000     
   3.1250000000000000E-002  0.59375000000000000        0.0000000000000000     
   6.2500000000000000E-002  0.59375000000000000        0.0000000000000000     
   9.3750000000000000E-002  0.59375000000000000        0.0000000000000000     
  0.12500000000000000       0.59375000000000000        0.0000000000000000     
   0.0000000000000000       0.62500000000000000        0.0000000000000000     
   3.1250000000000000E-002  0.62500000000000000        0.0000000000000000     
   6.2500000000000000E-002  0.62500000000000000        0.0000000000000000     
   9.3750000000000000E-002  0.62500000000000000        0.0000000000000000     
  0.12500000000000000       0.62500000000000000        0.0000000000000000     
  0.12500000000000000       0.50000000000000000        0.0000000000000000     
  0.15625000000000000       0.50000000000000000        0.0000000000000000     
  0.18750000000000000       0.50000000000000000        0.0000000000000000     
  0.21875000000000000       0.50000000000000000        0.0000000000000000     
  0.25000000000000000       0.50000000000000000        0.0000000000000000     
  0.12500000000000000       0.53125000000000000        0.0000000000000000     
  0.15625000000000000       0.53125000000000000        0.0000000000000000     
  0.18750000000000000       0.53125000000000000        0.0000000000000000     
  0.21875000000000000       0.53125000000000000        0.0000000000000000     
  0.25000000000000000       0.53125000000000000        0.0000000000000000     
  0.12500000000000000       0.56250000000000000        0.0000000000000000     
  0.15625000000000000       0.56250000000000000        0.0000000000000000     
  0.18750000000000000       0.56250000000000000        0.0000000000000000     
  0.21875000000000000       0.56250000000000000        0.0000000000000000     
  0.25000000000000000       0.56250000000000000        0.0000000000000000     
  0.12500000000000000       0.59375000000000000        0.0000000000000000     
  0.15625000000000000       0.59375000000000000        0.0000000000000000     
  0.18750000000000000       0.59375000000000000        0.0000000000000000     
  0.21875000000000000       0.59375000000000000        0.0000000000000000     
  0.25000000000000000       0.59375000000000000        0.0000000000000000     
  0.12500000000000000       0.62500000000000000        0.0000000000000000     
  0.15625000000000000       0.62500000000000000        0.0000000000000000     
  0.18750000000000000       0.62500000000000000        0.0000000000000000     
  0.21875000000000000       0.62500000000000000        0.0000000000000000     
  0.25000000000000000       0.62500000000000000        0.0000000000000000     
  0.25000000000000000       0.50000000000000000        0.0000000000000000     
  0.28125000000000000       0.50000000000000000        0.0000000000000000     
  0.31250000000000000       0.50000000000000000        0.0000000000000000     
  0.34375000000000000       0.50000000000000000        0.0000000000000000     
  0.37500000000000000       0.50000000000000000        0.0000000000000000     
  0.25000000000000000       0.53125000000000000        0.0000000000000000     
  0.28125000000000000       0.53125000000000000        0.0000000000000000     
  0.31250000000000000       0.53125000000000000        0.0000000000000000     
  0.34375000000000000       0.53125000000000000        0.0000000000000000     
  0.37500000000000000       0.53125000000000000        0.0000000000000000     
  0.25000000000000000       0.56250000000000000        0.0000000000000000     
  0.28125000000000000       0.56250000000000000        0.0000000000000000     
  0.31250000000000000       0.56250000000000000        0.0000000000000000     
  0.34375000000000000       0.56250000000000000        0.0000000000000000     
  0.37500000000000000       0.56250000000000000        0.0000000000000000     
  0.25000000000000000       0.59375000000000000        0.0000000000000000     
  0.28125000000000000       0.59375000000000000        0.0000000000000000     
  0.31250000000000000       0.59375000000000000        0.0000000000000000     
  0.34375000000000000       0.59375000000000000        0.0000000000000000     
  0.37500000000000000       0.59375000000000000        0.0000000000000000     
  0.25000000000000000       0.62500000000000000        0.0000000000000000     
  0.28125000000000000       0.62500000000000000        0.0000000000000000     
  0.31250000000000000       0.62500000000000000        0.0000000000000000     
  0.34375000000000000       0.62500000000000000        0.0000000000000000     
  0.37500000000000000       0.62500000000000000        0.0000000000000000     
  0.37500000000000000       0.50000000000000000        0.0000000000000000     
  0.40625000000000000       0.50000000000000000        0.0000000000000000     
  0.43750000000000000       0.50000000000000000        0.0000000000000000     
  0.46875000000000000       0.50000000000000000        0.0000000000000000     
  0.50000000000000000       0.50000000000000000        0.0000000000000000     
  0.37500000000000000       0.53125000000000000        0.0000000000000000     
  0.40625000000000000       0.53125000000000000        0.0000000000000000     
  0.43750000000000000       0.53125000000000000        0.0000000000000000     
  0.46875000000000000       0.53125000000000000        0.0000000000000000     
  0.50000000000000000       0.53125000000000000        0.0000000000000000     
  0.37500000000000000       0.56250000000000000        0.0000000000000000     
  0.40625000000000000       0.56250000000000000        0.0000000000000000     
  0.43750000000000000       0.56250000000000000        0.0000000000000000     
  0.46875000000000000       0.56250000000000000        0.0000000000000000     
  0.50000000000000000       0.56250000000000000        0.0000000000000000     
  0.37500000000000000       0.59375000000000000        0.0000000000000000     
  0.40625000000000000       0.59375000000000000        0.0000000000000000     
  0.43750000000000000       0.59375000000000000        0.0000000000000000     
  0.46875000000000000       0.59375000000000000        0.0000000000000000     
  0.50000000000000000       0.59375000000000000        0.0000000000000000     
  0.37500000000000000       0.62500000000000000        0.0000000000000000     
  0.40625000000000000       0.62500000000000000        0.0000000000000000     
  0.43750000000000000       0.62500000000000000        0.0000000000000000     
  0.46875000000000000       0.62500000000000000        0.0000000000000000     
  0.50000000000000000       0.62500000000000000        0.0000000000000000     
  0.50000000000000000       0.50000000000000000        0.0000000000000000     
  0.53125000000000000       0.50000000000000000        0.0000000000000000     
  0.56250000000000000       0.50000000000000000        0.0000000000000000     
  0.59375000000000000       0.50000000000000000        0.0000000000000000     
  0.62500000000000000       0.50000000000000000        0.0000000000000000     
  0.50000000000000000       0.53125000000000000        0.0000000000000000     
  0.53125000000000000       0.53125000000000000        0.0000000000000000     
  0.56250000000000000       0.53125000000000000        0.0000000000000000     
  0.59375000000000000       0.53125000000000000        0.0000000000000000     
  0.62500000000000000       0.53125000000000000        0.0000000000000000     
  0.50000000000000000       0.56250000000000000        0.0000000000000000     
  0.53125000000000000       0.56250000000000000        0.0000000000000000     
  0.56250000000000000       0.56250000000000000        0.0000000000000000     
  0.59375000000000000       0.56250000000000000        0.0000000000000000     
  0.62500000000000000       0.56250000000000000        0.0000000000000000     
  0.50000000000000000       0.59375000000000000        0.0000000000000000     
  0.53125000000000000       0.59375000000000000        0.0000000000000000     
  0.56250000000000000       0.59375000000000000        0.0000000000000000     
  0.59375000000000000       0.59375000000000000        0.0000000000000000     
  0.62500000000000000       0.59375000000000000        0.0000000000000000     
  0.50000000000000000       0.62500000000000000        0.0000000000000000     
  0.53125000000000000       0.62500000000000000        0.0000000000000000     
  0.56250000000000000       0.62500000000000000        0.0000000000000000     
  0.59375000000000000       0.62500000000000000        0.0000000000000000     
  0.62500000000000000       0.62500000000000000        0.0000000000000000     
  0.62500000000000000       0.50000000000000000        0.0000000000000000     
  0.65625000000000000       0.50000000000000000        0.0000000000000000     
  0.68750000000000000       0.50000000000000000        0.0000000000000000     
  0.71875000000000000       0.50000000000000000        0.0000000000000000     
  0.75000000000000000       0.50000000000000000        0.0000000000000000     
  0.62500000000000000       0.53125000000000000        0.0000000000000000     
  0.65625000000000000       0.53125000000000000        0.0000000000000000     
  0.68750000000000000       0.53125000000000000        0.0000000000000000     
  0.71875000000000000       0.53125000000000000        0.0000000000000000     
  0.75000000000000000       0.53125000000000000        0.0000000000000000     
  0.62500000000000000       0.56250000000000000        0.0000000000000000     
  0.65625000000000000       0.56250000000000000        0.0000000000000000     
  0.68750000000000000       0.56250000000000000        0.0000000000000000     
  0.71875000000000000       0.56250000000000000        0.0000000000000000     
  0.75000000000000000       0.56250000000000000        0.0000000000000000     
  0.62500000000000000       0.59375000000000000        0.0000000000000000     
  0.65625000000000000       0.59375000000000000        0.0000000000000000     
  0.68750000000000000       0.59375000000000000        0.0000000000000000     
  0.71875000000000000       0.59375000000000000        0.0000000000000000     
  0.75000000000000000       0.59375000000000000        0.0000000000000000     
  0.62500000000000000       0.62500000000000000        0.0000000000000000     
  0.65625000000000000       0.62500000000000000        0.0000000000000000     
  0.68750000000000000       0.62500000000000000        0.0000000000000000     
  0.71875000000000000       0.62500000000000000        0.0000000000000000     
  0.75000000000000000       0.62500000000000000        0.0000000000000000     
  0.75000000000000000       0.50000000000000000        0.0000000000000000     
  0.78125000000000000       0.50000000000000000        0.0000000000000000     
  0.81250000000000000       0.50000000000000000        0.0000000000000000     
  0.84375000000000000       0.50000000000000000        0.0000000000000000     
  0.87500000000000000       0.50000000000000000        0.0000000000000000     
  0.75000000000000000       0.53125000000000000        0.0000000000000000     
  0.78125000000000000       0.53125000000000000        0.0000000000000000     
  0.81250000000000000       0.53125000000000000        0.0000000000000000     
  0.84375000000000000       0.53125000000000000        0.0000000000000000     
  0.87500000000000000       0.53125000000000000        0.0000000000000000     
  0.75000000000000000       0.56250000000000000        0.0000000000000000     
  0.78125000000000000       0.56250000000000000        0.0000000000000000     
  0.81250000000000000       0.56250000000000000        0.0000000000000000     
  0.84375000000000000       0.56250000000000000        0.0000000000000000     
  0.87500000000000000       0.56250000000000000        0.0000000000000000     
  0.75000000000000000       0.59375000000000000        0.0000000000000000     
  0.78125000000000000       0.59375000000000000        0.0000000000000000     
  0.81250000000000000       0.59375000000000000        0.0000000000000000     
  0.84375000000000000       0.59375000000000000        0.0000000000000000     
  0.87500000000000000       0.59375000000000000        0.0000000000000000     
  0.75000000000000000       0.62500000000000000        0.0000000000000000     
  0.78125000000000000       0.62500000000000000        0.0000000000000000     
  0.81250000000000000       0.62500000000000000        0.0000000000000000     
  0.84375000000000000       0.62500000000000000        0.0000000000000000     
  0.87500000000000000       0.62500000000000000        0.0000000000000000     
  0.87500000000000000       0.50000000000000000        0.0000000000000000     
  0.90625000000000000       0.50000000000000000        0.0000000000000000     
  0.93750000000000000       0.50000000000000000        0.0000000000000000     
  0.96875000000000000       0.50000000000000000        0.0000000000000000     
   1.0000000000000000       0.50000000000000000        0.0000000000000000     
  0.87500000000000000       0.53125000000000000        0.0000000000000000     
  0.90625000000000000       0.53125000000000000        0.0000000000000000     
  0.93750000000000000       0.53125000000000000        0.0000000000000000     
  0.96875000000000000       0.53125000000000000        0.0000000000000000     
   1.0000000000000000       0.53125000000000000        0.0000000000000000     
  0.87500000000000000       0.56250000000000000        0.0000000000000000     
  0.90625000000000000       0.56250000000000000        0.0000000000000000     
  0.93750000000000000       0.56250000000000000        0.0000000000000000     
  0.96875000000000000       0.56250000000000000        0.0000000000000000     
   1.0000000000000000       0.56250000000000000        0.0000000000000000     
  0.87500000000000000       0.59375000000000000        0.0000000000000000     
  0.90625000000000000       0.59375000000000000        0.0000000000000000     
  0.93750000000000000       0.59375000000000000        0.0000000000000000     
  0.96875000000000000       0.59375000000000000        0.0000000000000000     
   1.0000000000000000       0.59375000000000000        0.0000000000000000     
  0.87500000000000000       0.62500000000000000        0.0000000000000000     
  0.90625000000000000       0.62500000000000000        0.0000000000000000     
  0.93750000000000000       0.62500000000000000        0.0000000000000000     
  0.96875000000000000       0.62500000000000000        0.0000000000000000     
   1.0000000000000000       0.62500000000000000        0.0000000000000000     
   0.0000000000000000       0.62500000000000000        0.0000000000000000     
   3.1250000000000000E-002  0.62500000000000000        0.0000000000000000     
   6.2500000000000000E-002  0.62500000000000000        0.0000000000000000     
   9.3750000000000000E-002  0.62500000000000000        0.0000000000000000     
  0.12500000000000000       0.62500000000000000        0.0000000000000000     
   0.0000000000000000       0.65625000000000000        0.0000000000000000     
   3.1250000000000000E-002  0.65625000000000000        0.0000000000000000     
   6.2500000000000000E-002  0.65625000000000000        0.0000000000000000     
   9.3750000000000000E-002  0.65625000000000000        0.0000000000000000     
  0.12500000000000000       0.65625000000000000        0.0000000000000000     
   0.0000000000000000       0.68750000000000000        0.0000000000000000     
   3.1250000000000000E-002  0.68750000000000000        0.0000000000000000     
   6.2500000000000000E-002  0.68750000000000000        0.0000000000000000     
   9.3750000000000000E-002  0.68750000000000000        0.0000000000000000     
  0.12500000000000000       0.68750000000000000        0.0000000000000000     
   0.0000000000000000       0.71875000000000000        0.0000000000000000     
   3.1250000000000000E-002  0.71875000000000000        0.0000000000000000     
   6.2500000000000000E-002  0.71875000000000000        0.0000000000000000     
   9.3750000000000000E-002  0.71875000000000000        0.0000000000000000     
  0.12500000000000000       0.71875000000000000        0.0000000000000000     
   0.0000000000000000       0.75000000000000000        0.0000000000000000     
   3.1250000000000000E-002  0.75000000000000000        0.0000000000000000     
   6.2500000000000000E-002  0.75000000000000000        0.0000000000000000     
   9.3750000000000000E-002  0.75000000000000000        0.0000000000000000     
  0.12500000000000000       0.75000000000000000        0.0000000000000000     
  0.12500000000000000       0.62500000000000000        0.0000000000000000     
  0.15625000000000000       0.62500000000000000        0.0000000000000000     
  0.18750000000000000       0.62500000000000000        0.0000000000000000     
  0.21875000000000000       0.62500000000000000        0.0000000000000000     
  0.25000000000000000       0.62500000000000000        0.0000000000000000     
  0.12500000000000000       0.65625000000000000        0.0000000000000000     
  0.15625000000000000       0.65625000000000000        0.0000000000000000     
  0.18750000000000000       0.65625000000000000        0.0000000000000000     
  0.21875000000000000       0.65625000000000000        0.0000000000000000     
  0.25000000000000000       0.65625000000000000        0.0000000000000000     
  0.12500000000000000       0.68750000000000000        0.0000000000000000     
  0.15625000000000000       0.68750000000000000        0.0000000000000000     
  0.18750000000000000       0.68750000000000000        0.0000000000000000     
  0.21875000000000000       0.68750000000000000        0.0000000000000000     
  0.25000000000000000       0.68750000000000000        0.0000000000000000     
  0.12500000000000000       0.71875000000000000        0.0000000000000000     
  0.15625000000000000       0.71875000000000000        0.0000000000000000     
  0.18750000000000000       0.71875000000000000        0.0000000000000000     
  0.21875000000000000       0.71875000000000000        0.0000000000000000     
  0.25000000000000000       0.71875000000000000        0.0000000000000000     
  0.12500000000000000       0.75000000000000000        0.0000000000000000     
  0.15625000000000000       0.75000000000000000        0.0000000000000000     
  0.18750000000000000       0.75000000000000000        0.0000000000000000     
  0.21875000000000000       0.75000000000000000        0.0000000000000000     
  0.25000000000000000       0.75000000000000000        0.0000000000000000     
  0.25000000000000000       0.62500000000000000        0.0000000000000000     
  0.28125000000000000       0.62500000000000000        0.0000000000000000     
  0.31250000000000000       0.62500000000000000        0.0000000000000000     
  0.34375000000000000       0.62500000000000000        0.0000000000000000     
  0.37500000000000000       0.62500000000000000        0.0000000000000000     
  0.25000000000000000       0.65625000000000000        0.0000000000000000     
  0.28125000000000000       0.65625000000000000        0.0000000000000000     
  0.31250000000000000       0.65625000000000000        0.0000000000000000     
  0.34375000000000000       0.65625000000000000        0.0000000000000000     
  0.37500000000000000       0.65625000000000000        0.0000000000000000     
  0.25000000000000000       0.68750000000000000        0.0000000000000000     
  0.28125000000000000       0.68750000000000000        0.0000000000000000     
  0.31250000000000000       0.68750000000000000        0.0000000000000000     
  0.34375000000000000       0.68750000000000000        0.0000000000000000     
  0.37500000000000000       0.68750000000000000        0.0000000000000000     
  0.25000000000000000       0.71875000000000000        0.0000000000000000     
  0.28125000000000000       0.71875000000000000        0.0000000000000000     
  0.31250000000000000       0.71875000000000000        0.0000000000000000     
  0.34375000000000000       0.71875000000000000        0.0000000000000000     
  0.37500000000000000       0.71875000000000000        0.0000000000000000     
  0.25000000000000000       0.75000000000000000        0.0000000000000000     
  0.28125000000000000       0.75000000000000000        0.0000000000000000     
  0.31250000000000000       0.75000000000000000        0.0000000000000000     
  0.34375000000000000       0.75000000000000000        0.0000000000000000     
  0.37500000000000000       0.75000000000000000        0.0000000000000000     
  0.37500000000000000       0.62500000000000000        0.0000000000000000     
  0.40625000000000000       0.62500000000000000        0.0000000000000000     
  0.43750000000000000       0.62500000000000000        0.0000000000000000     
  0.46875000000000000       0.62500000000000000        0.0000000000000000     
  0.50000000000000000       0.62500000000000000        0.0000000000000000     
  0.37500000000000000       0.65625000000000000        0.0000000000000000     
  0.40625000000000000       0.65625000000000000        0.0000000000000000     
  0.43750000000000000       0.65625000000000000        0.0000000000000000     
  0.46875000000000000       0.65625000000000000        0.0000000000000000     
  0.50000000000000000       0.65625000000000000        0.0000000000000000     
  0.37500000000000000       0.68750000000000000        0.0000000000000000     
  0.40625000000000000       0.68750000000000000        0.0000000000000000     
  0.43750000000000000       0.68750000000000000        0.0000000000000000     
  0.46875000000000000       0.68750000000000000        0.0000000000000000     
  0.50000000000000000       0.68750000000000000        0.0000000000000000     
  0.37500000000000000       0.71875000000000000        0.0000000000000000     
  0.40625000000000000       0.71875000000000000        0.0000000000000000     
  0.43750000000000000       0.71875000000000000        0.0000000000000000     
  0.46875000000000000       0.71875000000000000        0.0000000000000000     
  0.50000000000000000       0.71875000000000000        0.0000000000000000     
  0.37500000000000000       0.75000000000000000        0.0000000000000000     
  0.40625000000000000       0.75000000000000000        0.0000000000000000     
  0.43750000000000000       0.75000000000000000        0.0000000000000000     
  0.46875000000000000       0.75000000000000000        0.0000000000000000     
  0.50000000000000000       0.75000000000000000        0.0000000000000000     
  0.50000000000000000       0.62500000000000000        0.0000000000000000     
  0.53125000000000000       0.62500000000000000        0.0000000000000000     
  0.56250000000000000       0.62500000000000000        0.0000000000000000     
  0.59375000000000000       0.62500000000000000        0.0000000000000000     
  0.62500000000000000       0.62500000000000000        0.0000000000000000     
  0.50000000000000000       0.65625000000000000        0.0000000000000000     
  0.53125000000000000       0.65625000000000000        0.0000000000000000     
  0.56250000000000000       0.65625000000000000        0.0000000000000000     
  0.59375000000000000       0.65625000000000000        0.0000000000000000     
  0.62500000000000000       0.65625000000000000        0.0000000000000000     
  0.50000000000000000       0.68750000000000000        0.0000000000000000     
  0.53125000000000000       0.68750000000000000        0.0000000000000000     
  0.56250000000000000       0.68750000000000000        0.0000000000000000     
  0.59375000000000000       0.68750000000000000        0.0000000000000000     
  0.62500000000000000       0.68750000000000000        0.0000000000000000     
  0.50000000000000000       0.71875000000000000        0.0000000000000000     
  0.53125000000000000       0.71875000000000000        0.0000000000000000     
  0.56250000000000000       0.71875000000000000        0.0000000000000000     
  0.59375000000000000       0.71875000000000000        0.0000000000000000     
  0.62500000000000000       0.71875000000000000        0.0000000000000000     
  0.50000000000000000       0.75000000000000000        0.0000000000000000     
  0.53125000000000000       0.75000000000000000        0.0000000000000000     
  0.56250000000000000       0.75000000000000000        0.0000000000000000     
  0.59375000000000000       0.75000000000000000        0.0000000000000000     
  0.62500000000000000       0.75000000000000000        0.0000000000000000     
  0.62500000000000000       0.62500000000000000        0.0000000000000000     
  0.65625000000000000       0.62500000000000000        0.0000000000000000     
  0.68750000000000000       0.62500000000000000        0.0000000000000000     
  0.71875000000000000       0.62500000000000000        0.0000000000000000     
  0.75000000000000000       0.62500000000000000        0.0000000000000000     
  0.62500000000000000       0.65625000000000000        0.0000000000000000     
  0.65625000000000000       0.65625000000000000        0.0000000000000000     
  0.68750000000000000       0.65625000000000000        0.0000000000000000     
  0.71875000000000000       0.65625000000000000        0.0000000000000000     
  0.75000000000000000       0.65625000000000000        0.0000000000000000     
  0.62500000000000000       0.68750000000000000        0.0000000000000000     
  0.65625000000000000       0.68750000000000000        0.0000000000000000     
  0.68750000000000000       0.68750000000000000        0.0000000000000000     
  0.71875000000000000       0.68750000000000000        0.0000000000000000     
  0.75000000000000000       0.68750000000000000        0.0000000000000000     
  0.62500000000000000       0.71875000000000000        0.0000000000000000     
  0.65625000000000000       0.71875000000000000        0.0000000000000000     
  0.68750000000000000       0.71875000000000000        0.0000000000000000     
  0.71875000000000000       0.71875000000000000        0.0000000000000000     
  0.75000000000000000       0.71875000000000000        0.0000000000000000     
  0.62500000000000000       0.75000000000000000        0.0000000000000000     
  0.65625000000000000       0.75000000000000000        0.0000000000000000     
  0.68750000000000000       0.75000000000000000        0.0000000000000000     
  0.71875000000000000       0.75000000000000000        0.0000000000000000     
  0.75000000000000000       0.75000000000000000        0.0000000000000000     
  0.75000000000000000       0.62500000000000000        0.0000000000000000     
  0.78125000000000000       0.62500000000000000        0.0000000000000000     
  0.81250000000000000       0.62500000000000000        0.0000000000000000     
  0.84375000000000000       0.62500000000000000        0.0000000000000000     
  0.87500000000000000       0.62500000000000000        0.0000000000000000     
  0.75000000000000000       0.65625000000000000        0.0000000000000000     
  0.78125000000000000       0.65625000000000000        0.0000000000000000     
  0.81250000000000000       0.65625000000000000        0.0000000000000000     
  0.84375000000000000       0.65625000000000000        0.0000000000000000     
  0.87500000000000000       0.65625000000000000        0.0000000000000000     
  0.75000000000000000       0.68750000000000000        0.0000000000000000     
  0.78125000000000000       0.68750000000000000        0.0000000000000000     
  0.81250000000000000       0.68750000000000000        0.0000000000000000     
  0.84375000000000000       0.68750000000000000        0.0000000000000000     
  0.87500000000000000       0.68750000000000000        0.0000000000000000     
  0.75000000000000000       0.71875000000000000        0.0000000000000000     
  0.78125000000000000       0.71875000000000000        0.0000000000000000     
  0.81250000000000000       0.71875000000000000        0.0000000000000000     
  0.84375000000000000       0.71875000000000000        0.0000000000000000     
  0.87500000000000000       0.71875000000000000        0.0000000000000000     
  0.75000000000000000       0.75000000000000000        0.0000000000000000     
  0.78125000000000000       0.75000000000000000        0.0000000000000000     
  0.81250000000000000       0.75000000000000000        0.0000000000000000     
  0.84375000000000000       0.75000000000000000        0.0000000000000000     
  0.87500000000000000       0.75000000000000000        0.0000000000000000     
  0.87500000000000000       0.62500000000000000        0.0000000000000000     
  0.90625000000000000       0.62500000000000000        0.0000000000000000     
  0.93750000000000000       0.62500000000000000        0.0000000000000000     
  0.96875000000000000       0.62500000000000000        0.0000000000000000     
   1.0000000000000000       0.62500000000000000        0.0000000000000000     
  0.87500000000000000       0.65625000000000000        0.0000000000000000     
  0.90625000000000000       0.65625000000000000        0.0000000000000000     
  0.93750000000000000       0.65625000000000000        0.0000000000000000     
  0.96875000000000000       0.65625000000000000        0.0000000000000000     
   1.0000000000000000       0.65625000000000000        0.0000000000000000     
  0.87500000000000000       0.68750000000000000        0.0000000000000000     
  0.90625000000000000       0.68750000000000000        0.0000000000000000     
  0.93750000000000000       0.68750000000000000        0.0000000000000000     
  0.96875000000000000       0.68750000000000000        0.0000000000000000     
   1.0000000000000000       0.68750000000000000        0.0000000000000000     
  0.87500000000000000       0.71875000000000000        0.0000000000000000     
  0.90625000000000000       0.71875000000000000        0.0000000000000000     
  0.93750000000000000       0.71875000000000000        0.0000000000000000     
  0.96875000000000000       0.71875000000000000        0.0000000000000000     
   1.0000000000000000       0.71875000000000000        0.0000000000000000     
  0.87500000000000000       0.75000000000000000        0.0000000000000000     
  0.90625000000000000       0.75000000000000000        0.0000000000000000     
  0.93750000000000000       0.75000000000000000        0.0000000000000000     
  0.96875000000000000       0.75000000000000000        0.0000000000000000     
   1.0000000000000000       0.75000000000000000        0.0000000000000000     
   0.0000000000000000       0.75000000000000000        0.0000000000000000     
   3.1250000000000000E-002  0.75000000000000000        0.0000000000000000     
   6.2500000000000000E-002  0.75000000000000000        0.0000000000000000     
   9.3750000000000000E-002  0.75000000000000000        0.0000000000000000     
  0.12500000000000000       0.75000000000000000        0.0000000000000000     
   0.0000000000000000       0.78125000000000000        0.0000000000000000     
   3.1250000000000000E-002  0.78125000000000000        0.0000000000000000     
   6.2500000000000000E-002  0.78125000000000000        0.0000000000000000     
   9.3750000000000000E-002  0.78125000000000000        0.0000000000000000     
  0.12500000000000000       0.78125000000000000        0.0000000000000000     
   0.0000000000000000       0.81250000000000000        0.0000000000000000     
   3.1250000000000000E-002  0.81250000000000000        0.0000000000000000     
   6.2500000000000000E-002  0.81250000000000000        0.0000000000000000     
   9.3750000000000000E-002  0.81250000000000000        0.0000000000000000     
  0.12500000000000000       0.81250000000000000        0.0000000000000000     
   0.0000000000000000       0.84375000000000000        0.0000000000000000     
   3.1250000000000000E-002  0.84375000000000000        0.0000000000000000     
   6.2500000000000000E-002  0.84375000000000000        0.0000000000000000     
   9.3750000000000000E-002  0.84375000000000000        0.0000000000000000     
  0.12500000000000000       0.84375000000000000        0.0000000000000000     
   0.0000000000000000       0.87500000000000000        0.0000000000000000     
   3.1250000000000000E-002  0.87500000000000000        0.0000000000000000     
   6.2500000000000000E-002  0.87500000000000000        0.0000000000000000     
   9.3750000000000000E-002  0.87500000000000000        0.0000000000000000     
  0.12500000000000000       0.87500000000000000        0.0000000000000000     
  0.12500000000000000       0.75000000000000000        0.0000000000000000     
  0.15625000000000000       0.75000000000000000        0.0000000000000000     
  0.18750000000000000       0.75000000000000000        0.0000000000000000     
  0.21875000000000000       0.75000000000000000        0.0000000000000000     
  0.25000000000000000       0.75000000000000000        0.0000000000000000     
  0.12500000000000000       0.78125000000000000        0.0000000000000000     
  0.15625000000000000       0.78125000000000000        0.0000000000000000     
  0.18750000000000000       0.78125000000000000        0.0000000000000000     
  0.21875000000000000       0.78125000000000000        0.0000000000000000     
  0.25000000000000000       0.78125000000000000        0.0000000000000000     
  0.12500000000000000       0.81250000000000000        0.0000000000000000     
  0.15625000000000000       0.81250000000000000        0.0000000000000000     
  0.18750000000000000       0.81250000000000000        0.0000000000000000     
  0.21875000000000000       0.81250000000000000        0.0000000000000000     
  0.25000000000000000       0.81250000000000000        0.0000000000000000     
  0.12500000000000000       0.84375000000000000        0.0000000000000000     
  0.15625000000000000       0.84375000000000000        0.0000000000000000     
  0.18750000000000000       0.84375000000000000        0.0000000000000000     
  0.21875000000000000       0.84375000000000000        0.0000000000000000     
  0.25000000000000000       0.84375000000000000        0.0000000000000000     
  0.12500000000000000       0.87500000000000000        0.0000000000000000     
  0.15625000000000000       0.87500000000000000        0.0000000000000000     
  0.18750000000000000       0.87500000000000000        0.0000000000000000     
  0.21875000000000000       0.87500000000000000        0.0000000000000000     
  0.25000000000000000       0.87500000000000000        0.0000000000000000     
  0.25000000000000000       0.75000000000000000        0.0000000000000000     
  0.28125000000000000       0.75000000000000000        0.0000000000000000     
  0.31250000000000000       0.75000000000000000        0.0000000000000000     
  0.34375000000000000       0.75000000000000000        0.0000000000000000     
  0.37500000000000000       0.75000000000000000        0.0000000000000000     
  0.25000000000000000       0.78125000000000000        0.0000000000000000     
  0.28125000000000000       0.78125000000000000        0.0000000000000000     
  0.31250000000000000       0.78125000000000000        0.0000000000000000     
  0.34375000000000000       0.78125000000000000        0.0000000000000000     
  0.37500000000000000       0.78125000000000000        0.0000000000000000     
  0.25000000000000000       0.81250000000000000        0.0000000000000000     
  0.28125000000000000       0.81250000000000000        0.0000000000000000     
  0.31250000000000000       0.81250000000000000        0.0000000000000000     
  0.34375000000000000       0.81250000000000000        0.0000000000000000     
  0.37500000000000000       0.81250000000000000        0.0000000000000000     
  0.25000000000000000       0.84375000000000000        0.0000000000000000     
  0.28125000000000000       0.84375000000000000        0.0000000000000000     
  0.31250000000000000       0.84375000000000000        0.0000000000000000     
  0.34375000000000000       0.84375000000000000        0.0000000000000000     
  0.37500000000000000       0.84375000000000000        0.0000000000000000     
  0.25000000000000000       0.87500000000000000        0.0000000000000000     
  0.28125000000000000       0.87500000000000000        0.0000000000000000     
  0.31250000000000000       0.87500000000000000        0.0000000000000000     
  0.34375000000000000       0.87500000000000000        0.0000000000000000     
  0.37500000000000000       0.87500000000000000        0.0000000000000000     
  0.37500000000000000       0.75000000000000000        0.0000000000000000     
  0.40625000000000000       0.75000000000000000        0.0000000000000000     
  0.43750000000000000       0.75000000000000000        0.0000000000000000     
  0.46875000000000000       0.75000000000000000        0.0000000000000000     
  0.50000000000000000       0.75000000000000000        0.0000000000000000     
  0.37500000000000000       0.78125000000000000        0.0000000000000000     
  0.40625000000000000       0.78125000000000000        0.0000000000000000     
  0.43750000000000000       0.78125000000000000        0.0000000000000000     
  0.46875000000000000       0.78125000000000000        0.0000000000000000     
  0.50000000000000000       0.78125000000000000        0.0000000000000000     
  0.37500000000000000       0.81250000000000000        0.0000000000000000     
  0.40625000000000000       0.81250000000000000        0.0000000000000000     
  0.43750000000000000       0.81250000000000000        0.0000000000000000     
  0.46875000000000000       0.81250000000000000        0.0000000000000000     
  0.50000000000000000       0.81250000000000000        0.0000000000000000     
  0.37500000000000000       0.84375000000000000        0.0000000000000000     
  0.40625000000000000       0.84375000000000000        0.0000000000000000     
  0.43750000000000000       0.84375000000000000        0.0000000000000000     
  0.46875000000000000       0.84375000000000000        0.0000000000000000     
  0.50000000000000000       0.84375000000000000        0.0000000000000000     
  0.37500000000000000       0.87500000000000000        0.0000000000000000     
  0.40625000000000000       0.87500000000000000        0.0000000000000000     
  0.43750000000000000       0.87500000000000000        0.0000000000000000     
  0.46875000000000000       0.87500000000000000        0.0000000000000000     
  0.50000000000000000       0.87500000000000000        0.0000000000000000     
  0.50000000000000000       0.75000000000000000        0.0000000000000000     
  0.53125000000000000       0.75000000000000000        0.0000000000000000     
  0.56250000000000000       0.75000000000000000        0.0000000000000000     
  0.59375000000000000       0.75000000000000000        0.0000000000000000     
  0.62500000000000000       0.75000000000000000        0.0000000000000000     
  0.50000000000000000       0.78125000000000000        0.0000000000000000     
  0.53125000000000000       0.78125000000000000        0.0000000000000000     
  0.56250000000000000       0.78125000000000000        0.0000000000000000     
  0.59375000000000000       0.78125000000000000        0.0000000000000000     
  0.62500000000000000       0.78125000000000000        0.0000000000000000     
  0.50000000000000000       0.81250000000000000        0.0000000000000000     
  0.53125000000000000       0.81250000000000000        0.0000000000000000     
  0.56250000000000000       0.81250000000000000        0.0000000000000000     
  0.59375000000000000       0.81250000000000000        0.0000000000000000     
  0.62500000000000000       0.81250000000000000        0.0000000000000000     
  0.50000000000000000       0.84375000000000000        0.0000000000000000     
  0.53125000000000000       0.84375000000000000        0.0000000000000000     
  0.56250000000000000       0.84375000000000000        0.0000000000000000     
  0.59375000000000000       0.84375000000000000        0.0000000000000000     
  0.62500000000000000       0.84375000000000000        0.0000000000000000     
  0.50000000000000000       0.87500000000000000        0.0000000000000000     
  0.53125000000000000       0.87500000000000000        0.0000000000000000     
  0.56250000000000000       0.87500000000000000        0.0000000000000000     
  0.59375000000000000       0.87500000000000000        0.0000000000000000     
  0.62500000000000000       0.87500000000000000        0.0000000000000000     
  0.62500000000000000       0.75000000000000000        0.0000000000000000     
  0.65625000000000000       0.75000000000000000        0.0000000000000000     
  0.68750000000000000       0.75000000000000000        0.0000000000000000     
  0.71875000000000000       0.75000000000000000        0.0000000000000000     
  0.75000000000000000       0.75000000000000000        0.0000000000000000     
  0.62500000000000000       0.78125000000000000        0.0000000000000000     
  0.65625000000000000       0.78125000000000000        0.0000000000000000     
  0.68750000000000000       0.78125000000000000        0.0000000000000000     
  0.71875000000000000       0.78125000000000000        0.0000000000000000     
  0.75000000000000000       0.78125000000000000        0.0000000000000000     
  0.62500000000000000       0.81250000000000000        0.0000000000000000     
  0.65625000000000000       0.81250000000000000        0.0000000000000000     
  0.68750000000000000       0.81250000000000000        0.0000000000000000     
  0.71875000000000000       0.81250000000000000        0.0000000000000000     
  0.75000000000000000       0.81250000000000000        0.0000000000000000     
  0.62500000000000000       0.84375000000000000        0.0000000000000000     
  0.65625000000000000       0.84375000000000000        0.0000000000000000     
  0.68750000000000000       0.84375000000000000        0.0000000000000000     
  0.71875000000000000       0.84375000000000000        0.0000000000000000     
  0.75000000000000000       0.84375000000000000        0.0000000000000000     
  0.62500000000000000       0.87500000000000000        0.0000000000000000     
  0.65625000000000000       0.87500000000000000        0.0000000000000000     
  0.68750000000000000       0.87500000000000000        0.0000000000000000     
  0.71875000000000000       0.87500000000000000        0.0000000000000000     
  0.75000000000000000       0.87500000000000000        0.0000000000000000     
  0.75000000000000000       0.75000000000000000        0.0000000000000000     
  0.78125000000000000       0.75000000000000000        0.0000000000000000     
  0.81250000000000000       0.75000000000000000        0.0000000000000000     
  0.84375000000000000       0.75000000000000000        0.0000000000000000     
  0.87500000000000000       0.75000000000000000        0.0000000000000000     
  0.75000000000000000       0.78125000000000000        0.0000000000000000     
  0.78125000000000000       0.78125000000000000        0.0000000000000000     
  0.81250000000000000       0.78125000000000000        0.0000000000000000     
  0.84375000000000000       0.78125000000000000        0.0000000000000000     
  0.87500000000000000       0.78125000000000000        0.0000000000000000     
  0.75000000000000000       0.81250000000000000        0.0000000000000000     
  0.78125000000000000       0.81250000000000000        0.0000000000000000     
  0.81250000000000000       0.81250000000000000        0.0000000000000000     
  0.84375000000000000       0.81250000000000000        0.0000000000000000     
  0.87500000000000000       0.81250000000000000        0.0000000000000000     
  0.75000000000000000       0.84375000000000000        0.0000000000000000     
  0.78125000000000000       0.84375000000000000        0.0000000000000000     
  0.81250000000000000       0.84375000000000000        0.0000000000000000     
  0.84375000000000000       0.84375000000000000        0.0000000000000000     
  0.87500000000000000       0.84375000000000000        0.0000000000000000     
  0.75000000000000000       0.87500000000000000        0.0000000000000000     
  0.78125000000000000       0.87500000000000000        0.0000000000000000     
  0.81250000000000000       0.87500000000000000        0.0000000000000000     
  0.84375000000000000       0.87500000000000000        0.0000000000000000     
  0.87500000000000000       0.87500000000000000        0.0000000000000000     
  0.87500000000000000       0.75000000000000000        0.0000000000000000     
  0.90625000000000000       0.75000000000000000        0.0000000000000000     
  0.93750000000000000       0.75000000000000000        0.0000000000000000     
  0.96875000000000000       0.75000000000000000        0.0000000000000000     
   1.0000000000000000       0.75000000000000000        0.0000000000000000     
  0.87500000000000000       0.78125000000000000        0.0000000000000000     
  0.90625000000000000       0.78125000000000000        0.0000000000000000     
  0.93750000000000000       0.78125000000000000        0.0000000000000000     
  0.96875000000000000       0.78125000000000000        0.0000000000000000     
   1.0000000000000000       0.78125000000000000        0.0000000000000000     
  0.87500000000000000       0.81250000000000000        0.0000000000000000     
  0.90625000000000000       0.81250000000000000        0.0000000000000000     
  0.93750000000000000       0.81250000000000000        0.0000000000000000     
  0.96875000000000000       0.81250000000000000        0.0000000000000000     
   1.0000000000000000       0.81250000000000000        0.0000000000000000     
  0.87500000000000000       0.84375000000000000        0.0000000000000000     
  0.90625000000000000       0.84375000000000000        0.0000000000000000     
  0.93750000000000000       0.84375000000000000        0.0000000000000000     
  0.96875000000000000       0.84375000000000000        0.0000000000000000     
   1.0000000000000000       0.84375000000000000        0.0000000000000000     
  0.87500000000000000       0.87500000000000000        0.0000000000000000     
  0.90625000000000000       0.87500000000000000        0.0000000000000000     
  0.93750000000000000       0.87500000000000000        0.0000000000000000     
  0.96875000000000000       0.87500000000000000        0.0000000000000000     
   1.0000000000000000       0.87500000000000000        0.0000000000000000     
   0.0000000000000000       0.87500000000000000        0.0000000000000000     
   3.1250000000000000E-002  0.87500000000000000        0.0000000000000000     
   6.2500000000000000E-002  0.87500000000000000        0.0000000000000000     
   9.3750000000000000E-002  0.87500000000000000        0.0000000000000000     
  0.12500000000000000       0.87500000000000000        0.0000000000000000     
   0.0000000000000000       0.90625000000000000        0.0000000000000000     
   3.1250000000000000E-002  0.90625000000000000        0.0000000000000000     
   6.2500000000000000E-002  0.90625000000000000        0.0000000000000000     
   9.3750000000000000E-002  0.90625000000000000        0.0000000000000000     
  0.12500000000000000       0.90625000000000000        0.0000000000000000     
   0.0000000000000000       0.93750000000000000        0.0000000000000000     
   3.1250000000000000E-002  0.93750000000000000        0.0000000000000000     
   6.2500000000000000E-002  0.93750000000000000        0.0000000000000000     
   9.3750000000000000E-002  0.93750000000000000        0.0000000000000000     
  0.12500000000000000       0.93750000000000000        0.0000000000000000     
   0.0000000000000000       0.96875000000000000        0.0000000000000000     
   3.1250000000000000E-002  0.96875000000000000        0.0000000000000000     
   6.2500000000000000E-002  0.96875000000000000        0.0000000000000000     
   9.3750000000000000E-002  0.96875000000000000        0.0000000000000000     
  0.12500000000000000       0.96875000000000000        0.0000000000000000     
   0.0000000000000000        1.0000000000000000        0.0000000000000000     
   3.1250000000000000E-002   1.0000000000000000        0.0000000000000000     
   6.2500000000000000E-002   1.0000000000000000        0.0000000000000000     
   9.3750000000000000E-002   1.0000000000000000        0.0000000000000000     
  0.12500000000000000        1.0000000000000000        0.0000000000000000     
  0.12500000000000000       0.87500000000000000        0.0000000000000000     
  0.15625000000000000       0.87500000000000000        0.0000000000000000     
  0.18750000000000000       0.87500000000000000        0.0000000000000000     
  0.21875000000000000       0.87500000000000000        0.0000000000000000     
  0.25000000000000000       0.87500000000000000        0.0000000000000000     
  0.12500000000000000       0.90625000000000000        0.0000000000000000     
  0.15625000000000000       0.90625000000000000        0.0000000000000000     
  0.18750000000000000       0.90625000000000000        0.0000000000000000     
  0.21875000000000000       0.90625000000000000        0.0000000000000000     
  0.25000000000000000       0.90625000000000000        0.0000000000000000     
  0.12500000000000000       0.93750000000000000        0.0000000000000000     
  0.15625000000000000       0.93750000000000000        0.0000000000000000     
  0.18750000000000000       0.93750000000000000        0.0000000000000000     
  0.21875000000000000       0.93750000000000000        0.0000000000000000     
  0.25000000000000000       0.93750000000000000        0.0000000000000000     
  0.12500000000000000       0.96875000000000000        0.0000000000000000     
  0.15625000000000000       0.96875000000000000        0.0000000000000000     
  0.18750000000000000       0.96875000000000000        0.0000000000000000     
  0.21875000000000000       0.96875000000000000        0.0000000000000000     
  0.25000000000000000       0.96875000000000000        0.0000000000000000     
  0.12500000000000000        1.0000000000000000        0.0000000000000000     
  0.15625000000000000        1.0000000000000000        0.0000000000000000     
  0.18750000000000000        1.0000000000000000        0.0000000000000000     
  0.21875000000000000        1.0000000000000000        0.0000000000000000     
  0.25000000000000000        1.0000000000000000        0.0000000000000000     
  0.25000000000000000       0.87500000000000000        0.0000000000000000     
  0.28125000000000000       0.87500000000000000        0.0000000000000000     
  0.31250000000000000       0.87500000000000000        0.0000000000000000     
  0.34375000000000000       0.87500000000000000        0.0000000000000000     
  0.37500000000000000       0.87500000000000000        0.0000000000000000     
  0.25000000000000000       0.90625000000000000        0.0000000000000000     
  0.28125000000000000       0.90625000000000000        0.0000000000000000     
  0.31250000000000000       0.90625000000000000        0.0000000000000000     
  0.34375000000000000       0.90625000000000000        0.0000000000000000     
  0.37500000000000000       0.90625000000000000        0.0000000000000000     
  0.25000000000000000       0.93750000000000000        0.0000000000000000     
  0.28125000000000000       0.93750000000000000        0.0000000000000000     
  0.31250000000000000       0.93750000000000000        0.0000000000000000     
  0.34375000000000000       0.93750000000000000        0.0000000000000000     
  0.37500000000000000       0.93750000000000000        0.0000000000000000     
  0.25000000000000000       0.96875000000000000        0.0000000000000000     
  0.28125000000000000       0.96875000000000000        0.0000000000000000     
  0.31250000000000000       0.96875000000000000        0.0000000000000000     
  0.34375000000000000       0.96875000000000000        0.0000000000000000     
  0.37500000000000000       0.96875000000000000        0.0000000000000000     
  0.25000000000000000        1.0000000000000000        0.0000000000000000     
  0.28125000000000000        1.0000000000000000        0.0000000000000000     
  0.31250000000000000        1.0000000000000000        0.0000000000000000     
  0.34375000000000000        1.0000000000000000        0.0000000000000000     
  0.37500000000000000        1.0000000000000000        0.0000000000000000     
  0.37500000000000000       0.87500000000000000        0.0000000000000000     
  0.40625000000000000       0.87500000000000000        0.0000000000000000     
  0.43750000000000000       0.87500000000000000        0.0000000000000000     
  0.46875000000000000       0.87500000000000000        0.0000000000000000     
  0.50000000000000000       0.87500000000000000        0.0000000000000000     
  0.37500000000000000       0.90625000000000000        0.0000000000000000     
  0.40625000000000000       0.90625000000000000        0.0000000000000000     
  0.43750000000000000       0.90625000000000000        0.0000000000000000     
  0.46875000000000000       0.90625000000000000        0.0000000000000000     
  0.50000000000000000       0.90625000000000000        0.0000000000000000     
  0.37500000000000000       0.93750000000000000        0.0000000000000000     
  0.40625000000000000       0.93750000000000000        0.0000000000000000     
  0.43750000000000000       0.93750000000000000        0.0000000000000000     
  0.46875000000000000       0.93750000000000000        0.0000000000000000     
  0.50000000000000000       0.93750000000000000        0.0000000000000000     
  0.37500000000000000       0.96875000000000000        0.0000000000000000     
  0.40625000000000000       0.96875000000000000        0.0000000000000000     
  0.43750000000000000       0.96875000000000000        0.0000000000000000     
  0.46875000000000000       0.96875000000000000        0.0000000000000000     
  0.50000000000000000       0.96875000000000000        0.0000000000000000     
  0.37500000000000000        1.0000000000000000        0.0000000000000000     
  0.40625000000000000        1.0000000000000000        0.0000000000000000     
  0.43750000000000000        1.0000000000000000        0.0000000000000000     
  0.46875000000000000        1.0000000000000000        0.0000000000000000     
  0.50000000000000000        1.0000000000000000        0.0000000000000000     
  0.50000000000000000       0.87500000000000000        0.0000000000000000     
  0.53125000000000000       0.87500000000000000        0.0000000000000000     
  0.56250000000000000       0.87500000000000000        0.0000000000000000     
  0.59375000000000000       0.87500000000000000        0.0000000000000000     
  0.62500000000000000       0.87500000000000000        0.0000000000000000     
  0.50000000000000000       0.90625000000000000        0.0000000000000000     
  0.53125000000000000       0.90625000000000000        0.0000000000000000     
  0.56250000000000000       0.90625000000000000        0.0000000000000000     
  0.59375000000000000       0.90625000000000000        0.0000000000000000     
  0.62500000000000000       0.90625000000000000        0.0000000000000000     
  0.50000000000000000       0.93750000000000000        0.0000000000000000     
  0.53125000000000000       0.93750000000000000        0.0000000000000000     
  0.56250000000000000       0.93750000000000000        0.0000000000000000     
  0.59375000000000000       0.93750000000000000        0.0000000000000000     
  0.62500000000000000       0.93750000000000000        0.0000000000000000     
  0.50000000000000000       0.96875000000000000        0.0000000000000000     
  0.53125000000000000       0.96875000000000000        0.0000000000000000     
  0.56250000000000000       0.96875000000000000        0.0000000000000000     
  0.59375000000000000       0.96875000000000000        0.0000000000000000     
  0.62500000000000000       0.96875000000000000        0.0000000000000000     
  0.50000000000000000        1.0000000000000000        0.0000000000000000     
  0.53125000000000000        1.0000000000000000        0.0000000000000000     
  0.56250000000000000        1.0000000000000000        0.0000000000000000     
  0.59375000000000000        1.0000000000000000        0.0000000000000000     
  0.62500000000000000        1.0000000000000000        0.0000000000000000     
  0.62500000000000000       0.87500000000000000        0.0000000000000000     
  0.65625000000000000       0.87500000000000000        0.0000000000000000     
  0.68750000000000000       0.87500000000000000        0.0000000000000000     
  0.71875000000000000       0.87500000000000000        0.0000000000000000     
  0.75000000000000000       0.87500000000000000        0.0000000000000000     
  0.62500000000000000       0.90625000000000000        0.0000000000000000     
  0.65625000000000000       0.90625000000000000        0.0000000000000000     
  0.68750000000000000       0.90625000000000000        0.0000000000000000     
  0.71875000000000000       0.90625000000000000        0.0000000000000000     
  0.75000000000000000       0.90625000000000000        0.0000000000000000     
  0.62500000000000000       0.93750000000000000        0.0000000000000000     
  0.65625000000000000       0.93750000000000000        0.0000000000000000     
  0.68750000000000000       0.93750000000000000        0.0000000000000000     
  0.71875000000000000       0.93750000000000000        0.0000000000000000     
  0.75000000000000000       0.93750000000000000        0.0000000000000000     
  0.62500000000000000       0.96875000000000000        0.0000000000000000     
  0.65625000000000000       0.96875000000000000        0.0000000000000000     
  0.68750000000000000       0.96875000000000000        0.0000000000000000     
  0.71875000000000000       0.96875000000000000        0.0000000000000000     
  0.75000000000000000       0.96875000000000000        0.0000000000000000     
  0.62500000000000000        1.0000000000000000        0.0000000000000000     
  0.65625000000000000        1.0000000000000000        0.0000000000000000     
  0.68750000000000000        1.0000000000000000        0.0000000000000000     
  0.71875000000000000        1.0000000000000000        0.0000000000000000     
  0.75000000000000000        1.0000000000000000        0.0000000000000000     
  0.75000000000000000       0.87500000000000000        0.0000000000000000     
  0.78125000000000000       0.87500000000000000        0.0000000000000000     
  0.81250000000000000       0.87500000000000000        0.0000000000000000     
  0.84375000000000000       0.87500000000000000        0.0000000000000000     
  0.87500000000000000       0.87500000000000000        0.0000000000000000     
  0.75000000000000000       0.90625000000000000        0.0000000000000000     
  0.78125000000000000       0.90625000000000000        0.0000000000000000     
  0.81250000000000000       0.90625000000000000        0.0000000000000000     
  0.84375000000000000       0.90625000000000000        0.0000000000000000     
  0.87500000000000000       0.90625000000000000        0.0000000000000000     
  0.75000000000000000       0.93750000000000000        0.0000000000000000     
  0.78125000000000000       0.93750000000000000        0.0000000000000000     
  0.81250000000000000       0.93750000000000000        0.0000000000000000     
  0.84375000000000000       0.93750000000000000        0.0000000000000000     
  0.87500000000000000       0.93750000000000000        0.0000000000000000     
  0.75000000000000000       0.96875000000000000        0.0000000000000000     
  0.78125000000000000       0.96875000000000000        0.0000000000000000     
  0.81250000000000000       0.96875000000000000        0.0000000000000000     
  0.84375000000000000       0.96875000000000000        0.0000000000000000     
  0.87500000000000000       0.96875000000000000        0.0000000000000000     
  0.75000000000000000        1.0000000000000000        0.0000000000000000     
  0.78125000000000000        1.0000000000000000        0.0000000000000000     
  0.81250000000000000        1.0000000000000000        0.0000000000000000     
  0.84375000000000000        1.0000000000000000        0.0000000000000000     
  0.87500000000000000        1.0000000000000000        0.0000000000000000     
  0.87500000000000000       0.87500000000000000        0.0000000000000000     
  0.90625000000000000       0.87500000000000000        0.0000000000000000     
  0.93750000000000000       0.87500000000000000        0.0000000000000000     
  0.96875000000000000       0.87500000000000000        0.0000000000000000     
   1.0000000000000000       0.87500000000000000        0.0000000000000000     
  0.87500000000000000       0.90625000000000000        0.0000000000000000     
  0.90625000000000000       0.90625000000000000        0.0000000000000000     
  0.93750000000000000       0.90625000000000000        0.0000000000000000     
  0.96875000000000000       0.90625000000000000        0.0000000000000000     
   1.0000000000000000       0.90625000000000000        0.0000000000000000     
  0.87500000000000000       0.93750000000000000        0.0000000000000000     
  0.90625000000000000       0.93750000000000000        0.0000000000000000     
  0.93750000000000000       0.93750000000000000        0.0000000000000000     
  0.96875000000000000       0.93750000000000000        0.0000000000000000     
   1.0000000000000000       0.93750000000000000        0.0000000000000000     
  0.87500000000000000       0.96875000000000000        0.0000000000000000     
  0.90625000000000000       0.96875000000000000        0.0000000000000000     
  0.93750000000000000       0.96875000000000000        0.0000000000000000     
  0.96875000000000000       0.96875000000000000        0.0000000000000000     
   1.0000000000000000       0.96875000000000000        0.0000000000000000     
  0.87500000000000000        1.0000000000000000        0.0000000000000000     
  0.90625000000000000        1.0000000000000000        0.0000000000000000     
  0.93750000000000000        1.0000000000000000        0.0000000000000000     
  0.96875000000000000        1.0000000000000000        0.0000000000000000     
   1.0000000000000000        1.0000000000000000        0.0000000000000000     
 </DataArray>
 </Points>
 <Cells>
 <DataArray  type="Int32"  Name="connectivity"  format="ascii">
           0           1           6           5
           1           2           7           6
           2           3           8           7
           3           4           9           8
           5           6          11          10
           6           7          12          11
           7           8          13          12
           8           9          14          13
          10          11          16          15
          11          12          17          16
          12          13          18          17
          13          14          19          18
          15          16          21          20
          16          17          22          21
          17          18          23          22
          18          19          24          23
          25          26          31          30
          26          27          32          31
          27          28          33          32
          28          29          34          33
          30          31          36          35
          31          32          37          36
          32          33          38          37
          33          34          39          38
          35          36          41          40
          36          37          42          41
          37          38          43          42
          38          39          44          43
          40          41          46          45
          41          42          47          46
          42          43          48          47
          43          44          49          48
          50          51          56          55
          51          52          57          56
          52          53          58          57
          53          54          59          58
          55          56          61          60
          56          57          62          61
          57          58          63          62
          58          59          64          63
          60          61          66          65
          61          62          67          66
          62          63          68          67
          63          64          69          68
          65          66          71          70
          66          67          72          71
          67          68          73          72
          68          69          74          73
          75          76          81          80
          76          77          82          81
          77          78          83          82
          78          79          84          83
          80          81          86          85
          81          82          87          86
          82          83          88          87
          83          84          89          88
          85          86          91          90
          86          87          92          91
          87          88          93          92
          88          89          94          93
          90          91          96          95
          91          92          97          96
          92          93          98          97
          93          94          99          98
         100         101         106         105
         101         102         107         106
         102         103         108         107
         103         104         109         108
         105         106         111         110
         106         107         112         111
         107         108         113         112
         108         109         114         113
         110         111         116         115
         111         112         117         116
         112         113         118         117
         113         114         119         118
         115         116         121         120
         116         117         122         121
         117         118         123         122
         118         119         124         123
         125         126         131         130
         126         127         132         131
         127         128         133         132
         128         129         134         133
         130         131         136         135
         131         132         137         136
         132         133         138         137
         133         134         139         138
         135         136         141         140
         136         137         142         141
         137         138         143         142
         138         139         144         143
         140         141         146         145
         141         142         147         146
         142         143         148         147
         143         144         149         148
         150         151         156         155
         151         152         157         156
         152         153         158         157
         153         154         159         158
         155         156         161         160
         156         157         162         161
         157         158         163         162
         158         159         164         163
         160         161         166         165
         161         162         167         166
         162         163         168         167
         163         164         169         168
         165         166         171         170
         166         167         172         171
         167         168         173         172
         168         169         174         173
         175         176         181         180
         176         177         182         181
         177         178         183         182
         178         179         184         183
         180         181         186         185
         181         182         187         186
         182         183         188         187
         183         184         189         188
         185         186         191         190
         186         187         192         191
         187         188         193         192
         188         189         194         193
         190         191         196         195
         191         192         197         196
         192         193         198         197
         193         194         199         198
         200         201         206         205
         201         202         207         206
         202         203         208         207
         203         204         209         208
         205         206         211         210
         206         207         212         211
         207         208         213         212
         208         209         214         213
         210         211         216         215
         211         212         217         216
         212         213         218         217
         213         214         219         218
         215         216         221         220
         216         217         222         221
         217         218         223         222
         218         219         224         223
         225         226         231         230
         226         227         232         231
         227         228         233         232
         228         229         234         233
         230         231         236         235
         231         232         237         236
         232         233         238         237
         233         234         239         238
         235         236         241         240
         236         237         242         241
         237         238         243         242
         238         239         244         243
         240         241         246         245
         241         242         247         246
         242         243         248         247
         243         244         249         248
         250         251         256         255
         251         252         257         256
         252         253         258         257
         253         254         259         258
         255         256         261         260
         256         257         262         261
         257         258         263         262
         258         259         264         263
         260         261         266         265
         261         262         267         266
         262         263         268         267
         263         264         269         268
         265         266         271         270
         266         267         272         271
         267         268         273         272
         268         269         274         273
         275         276         281         280
         276         277         282         281
         277         278         283         282
         278         279         284         283
         280         281         286         285
         281         282         287         286
         282         283         288         287
         283         284         289         288
         285         286         291         290
         286         287         292         291
         287         288         293         292
         288         289         294         293
         290         291         296         295
         291         292         297         296
         292         293         298         297
         293         294         299         298
         300         301         306         305
         301         302         307         306
         302         303         308         307
         303         304         309         308
         305         306         311         310
         306         307         312         311
         307         308         313         312
         308         309         314         313
         310         311         316         315
         311         312         317         316
         312         313         318         317
         313         314         319         318
         315         316         321         320
         316         317         322         321
         317         318         323         322
         318         319         324         323
         325         326         331         330
         326         327         332         331
         327         328         333         332
         328         329         334         333
         330         331         336         335
         331         332         337         336
         332         333         338         337
         333         334         339         338
         335         336         341         340
         336         337         342         341
         337         338         343         342
         338         339         344         343
         340         341         346         345
         341         342         347         346
         342         343         348         347
         343         344         349         348
         350         351         356         355
         351         352         357         356
         352         353         358         357
         353         354         359         358
         355         356         361         360
         356         357         362         361
         357         358         363         362
         358         359         364         363
         360         361         366         365
         361         362         367         366
         362         363         368         367
         363         364         369         368
         365         366         371         370
         366         367         372         371
         367         368         373         372
         368         369         374         373
         375         376         381         380
         376         377         382         381
         377         378         383         382
         378         379         384         383
         380         381         386         385
         381         382         387         386
         382         383         388         387
         383         384         389         388
         385         386         391         390
         386         387         392         391
         387         388         393         392
         388         389         394         393
         390         391         396         395
         391         392         397         396
         392         393         398         397
         393         394         399         398
         400         401         406         405
         401         402         407         406
         402         403         408         407
         403         404         409         408
         405         406         411         410
         406         407         412         411
         407         408         413         412
         408         409         414         413
         410         411         416         415
         411         412         417         416
         412         413         418         417
         413         414         419         418
         415         416         421         420
         416         417         422         421
         417         418         423         422
         418         419         424         423
         425         426         431         430
         426         427         432         431
         427         428         433         432
         428         429         434         433
         430         431         436         435
         431         432         437         436
         432         433         438         437
         433         434         439         438
         435         436         441         440
         436         437         442         441
         437         438         443         442
         438         439         444         443
         440         441         446         445
         441         442         447         446
         442         443         448         447
         443         444         449         448
         450         451         456         455
         451         452         457         456
         452         453         458         457
         453         454         459         458
         455         456         461         460
         456         457         462         461
         457         458         463         462
         458         459         464         463
         460         461         466         465
         461         462         467         466
         462         463         468         467
         463         464         469         468
         465         466         471         470
         466         467         472         471
         467         468         473         472
         468         469         474         473
         475         476         481         480
         476         477         482         481
         477         478         483         482
         478         479         484         483
         480         481         486         485
         481         482         487         486
         482         483         488         487
         483         484         489         488
         485         486         491         490
         486         487         492         491
         487         488         493         492
         488         489         494         493
         490         491         496         495
         491         492         497         496
         492         493         498         497
         493         494         499         498
         500         501         506         505
         501         502         507         506
         502         503         508         507
         503         504         509         508
         505         506         511         510
         506         507         512         511
         507         508         513         512
         508         509         514         513
         510         511         516         515
         511         512         517         516
         512         513         518         517
         513         514         519         518
         515         516         521         520
         516         517         522         521
         517         518         523         522
         518         519         524         523
         525         526         531         530
         526         527         532         531
         527         528         533         532
         528         529         534         533
         530         531         536         535
         531         532         537         536
         532         533         538         537
         533         534         539         538
         535         536         541         540
         536         537         542         541
         537         538         543         542
         538         539         544         543
         540         541         546         545
         541         542         547         546
         542         543         548         547
         543         544         549         548
         550         551         556         555
         551         552         557         556
         552         553         558         557
         553         554         559         558
         555         556         561         560
         556         557         562         561
         557         558         563         562
         558         559         564         563
         560         561         566         565
         561         562         567         566
         562         563         568         567
         563         564         569         568
         565         566         571         570
         566         567         572         571
         567         568         573         572
         568         569         574         573
         575         576         581         580
         576         577         582         581
         577         578         583         582
         578         579         584         583
         580         581         586         585
         581         582         587         586
         582         583         588         587
         583         584         589         588
         585         586         591         590
         586         587         592         591
         587         588         593         592
         588         589         594         593
         590         591         596         595
         591         592         597         596
         592         593         598         597
         593         594         599         598
         600         601         606         605
         601         602         607         606
         602         603         608         607
         603         604         609         608
         605         606         611         610
         606         607         612         611
         607         608         613         612
         608         609         614         613
         610         611         616         615
         611         612         617         616
         612         613         618         617
         613         614         619         618
         615         616         621         620
         616         617         622         621
         617         618         623         622
         618         619         624         623
         625         626         631         630
         626         627         632         631
         627         628         633         632
         628         629         634         633
         630         631         636         635
         631         632         637         636
         632         633         638         637
         633         634         639         638
         635         636         641         640
         636         637         642         641
         637         638         643         642
         638         639         644         643
         640         641         646         645
         641         642         647         646
         642         643         648         647
         643         644         649         648
         650         651         656         655
         651         652         657         656
         652         653         658         657
         653         654         659         658
         655         656         661         660
         656         657         662         661
         657         658         663         662
         658         659         664         663
         660         661         666         665
         661         662         667         666
         662         663         668         667
         663         664         669         668
         665         666         671         670
         666         667         672         671
         667         668         673         672
         668         669         674         673
         675         676         681         680
         676         677         682         681
         677         678         683         682
         678         679         684         683
         680         681         686         685
         681         682         687         686
         682         683         688         687
         683         684         689         688
         685         686         691         690
         686         687         692         691
         687         688         693         692
         688         689         694         693
         690         691         696         695
         691         692         697         696
         692         693         698         697
         693         694         699         698
         700         701         706         705
         701         702         707         706
         702         703         708         707
         703         704         709         708
         705         706         711         710
         706         707         712         711
         707         708         713         712
         708         709         714         713
         710         711         716         715
         711         712         717         716
         712         713         718         717
         713         714         719         718
         715         716         721         720
         716         717         722         721
         717         718         723         722
         718         719         724         723
         725         726         731         730
         726         727         732         731
         727         728         733         732
         728         729         734         733
         730         731         736         735
         731         732         737         736
         732         733         738         737
         733         734         739         738
         735         736         741         740
         736         737         742         741
         737         738         743         742
         738         739         744         743
         740         741         746         745
         741         742         747         746
         742         743         748         747
         743         744         749         748
         750         751         756         755
         751         752         757         756
         752         753         758         757
         753         754         759         758
         755         756         761         760
         756         757         762         761
         757         758         763         762
         758         759         764         763
         760         761         766         765
         761         762         767         766
         762         763         768         767
         763         764         769         768
         765         766         771         770
         766         767         772         771
         767         768         773         772
         768         769         774         773
         775         776         781         780
         776         777         782         781
         777         778         783         782
         778         779         784         783
         780         781         786         785
         781         782         787         786
         782         783         788         787
         783         784         789         788
         785         786         791         790
         786         787         792         791
         787         788         793         792
         788         789         794         793
         790         791         796         795
         791         792         797         796
         792         793         798         797
         793         794         799         798
         800         801         806         805
         801         802         807         806
         802         803         808         807
         803         804         809         808
         805         806         811         810
         806         807         812         811
         807         808         813         812
         808         809         814         813
         810         811         816         815
         811         812         817         816
         812         813         818         817
         813         814         819         818
         815         816         821         820
         816         817         822         821
         817         818         823         822
         818         819         824         823
         825         826         831         830
         826         827         832         831
         827         828         833         832
         828         829         834         833
         830         831         836         835
         831         832         837         836
         832         833         838         837
         833         834         839         838
         835         836         841         840
         836         837         842         841
         837         838         843         842
         838         839         844         843
         840         841         846         845
         841         842         847         846
         842         843         848         847
         843         844         849         848
         850         851         856         855
         851         852         857         856
         852         853         858         857
         853         854         859         858
         855         856         861         860
         856         857         862         861
         857         858         863         862
         858         859         864         863
         860         861         866         865
         861         862         867         866
         862         863         868         867
         863         864         869         868
         865         866         871         870
         866         867         872         871
         867         868         873         872
         868         869         874         873
         875         876         881         880
         876         877         882         881
         877         878         883         882
         878         879         884         883
         880         881         886         885
         881         882         887         886
         882         883         888         887
         883         884         889         888
         885         886         891         890
         886         887         892         891
         887         888         893         892
         888         889         894         893
         890         891         896         895
         891         892         897         896
         892         893         898         897
         893         894         899         898
         900         901         906         905
         901         902         907         906
         902         903         908         907
         903         904         909         908
         905         906         911         910
         906         907         912         911
         907         908         913         912
         908         909         914         913
         910         911         916         915
         911         912         917         916
         912         913         918         917
         913         914         919         918
         915         916         921         920
         916         917         922         921
         917         918         923         922
         918         919         924         923
         925         926         931         930
         926         927         932         931
         927         928         933         932
         928         929         934         933
         930         931         936         935
         931         932         937         936
         932         933         938         937
         933         934         939         938
         935         936         941         940
         936         937         942         941
         937         938         943         942
         938         939         944         943
         940         941         946         945
         941         942         947         946
         942         943         948         947
         943         944         949         948
         950         951         956         955
         951         952         957         956
         952         953         958         957
         953         954         959         958
         955         956         961         960
         956         957         962         961
         957         958         963         962
         958         959         964         963
         960         961         966         965
         961         962         967         966
         962         963         968         967
         963         964         969         968
         965         966         971         970
         966         967         972         971
         967         968         973         972
         968         969         974         973
         975         976         981         980
         976         977         982         981
         977         978         983         982
         978         979         984         983
         980         981         986         985
         981         982         987         986
         982         983         988         987
         983         984         989         988
         985         986         991         990
         986         987         992         991
         987         988         993         992
         988         989         994         993
         990         991         996         995
         991         992         997         996
         992         993         998         997
         993         994         999         998
        1000        1001        1006        1005
        1001        1002        1007        1006
        1002        1003        1008        1007
        1003        1004        1009        1008
        1005        1006        1011        1010
        1006        1007        1012        1011
        1007        1008        1013        1012
        1008        1009        1014        1013
        1010        1011        1016        1015
        1011        1012        1017        1016
        1012        1013        1018        1017
        1013        1014        1019        1018
        1015        1016        1021        1020
        1016        1017        1022        1021
        1017        1018        1023        1022
        1018        1019        1024        1023
        1025        1026        1031        1030
        1026        1027        1032        1031
        1027        1028        1033        1032
        1028        1029        1034        1033
        1030        1031        1036        1035
        1031        1032        1037        1036
        1032        1033        1038        1037
        1033        1034        1039        1038
        1035        1036        1041        1040
        1036        1037        1042        1041
        1037        1038        1043        1042
        1038        1039        1044        1043
        1040        1041        1046        1045
        1041        1042        1047        1046
        1042        1043        1048        1047
        1043        1044        1049        1048
        1050        1051        1056        1055
        1051        1052        1057        1056
        1052        1053        1058        1057
        1053        1054        1059        1058
        1055        1056        1061        1060
        1056        1057        1062        1061
        1057        1058        1063        1062
        1058        1059        1064        1063
        1060        1061        1066        1065
        1061        1062        1067        1066
        1062        1063        1068        1067
        1063        1064        1069        1068
        1065        1066        1071        1070
        1066        1067        1072        1071
        1067        1068        1073        1072
        1068        1069        1074        1073
        1075        1076        1081        1080
        1076        1077        1082        1081
        1077        1078        1083        1082
        1078        1079        1084        1083
        1080        1081        1086        1085
        1081        1082        1087        1086
        1082        1083        1088        1087
        1083        1084        1089        1088
        1085        1086        1091        1090
        1086        1087        1092        1091
        1087        1088        1093        1092
        1088        1089        1094        1093
        1090        1091        1096        1095
        1091        1092        1097        1096
        1092        1093        1098        1097
        1093        1094        1099        1098
        1100        1101        1106        1105
        1101        1102        1107        1106
        1102        1103        1108        1107
        1103        1104        1109        1108
        1105        1106        1111        1110
        1106        1107        1112        1111
        1107        1108        1113        1112
        1108        1109        1114        1113
        1110        1111        1116        1115
        1111        1112        1117        1116
        1112        1113        1118        1117
        1113        1114        1119        1118
        1115        1116        1121        1120
        1116        1117        1122        1121
        1117        1118        1123        1122
        1118        1119        1124        1123
        1125        1126        1131        1130
        1126        1127        1132        1131
        1127        1128        1133        1132
        1128        1129        1134        1133
        1130        1131        1136        1135
        1131        1132        1137        1136
        1132        1133        1138        1137
        1133        1134        1139        1138
        1135        1136        1141        1140
        1136        1137        1142        1141
        1137        1138        1143        1142
        1138        1139        1144        1143
        1140        1141        1146        1145
        1141        1142        1147        1146
        1142        1143        1148        1147
        1143        1144        1149        1148
        1150        1151        1156        1155
        1151        1152        1157        1156
        1152        1153        1158        1157
        1153        1154        1159        1158
        1155        1156        1161        1160
        1156        1157        1162        1161
        1157        1158        1163        1162
        1158        1159        1164        1163
        1160        1161        1166        1165
        1161        1162        1167        1166
        1162        1163        1168        1167
        1163        1164        1169        1168
        1165        1166        1171        1170
        1166        1167        1172        1171
        1167        1168        1173        1172
        1168        1169        1174        1173
        1175        1176        1181        1180
        1176        1177        1182        1181
        1177        1178        1183        1182
        1178        1179        1184        1183
        1180        1181        1186        1185
        1181        1182        1187        1186
        1182        1183        1188        1187
        1183        1184        1189        1188
        1185        1186        1191        1190
        1186        1187        1192        1191
        1187        1188        1193        1192
        1188        1189        1194        1193
        1190        1191        1196        1195
        1191        1192        1197        1196
        1192        1193        1198        1197
        1193        1194        1199        1198
        1200        1201        1206        1205
        1201        1202        1207        1206
        1202        1203        1208        1207
        1203        1204        1209        1208
        1205        1206        1211        1210
        1206        1207        1212        1211
        1207        1208        1213        1212
        1208        1209        1214        1213
        1210        1211        1216        1215
        1211        1212        1217        1216
        1212        1213        1218        1217
        1213        1214        1219        1218
        1215        1216        1221        1220
        1216        1217        1222        1221
        1217        1218        1223        1222
        1218        1219        1224        1223
        1225        1226        1231        1230
        1226        1227        1232        1231
        1227        1228        1233        1232
        1228        1229        1234        1233
        1230        1231        1236        1235
        1231        1232        1237        1236
        1232        1233        1238        1237
        1233        1234        1239        1238
        1235        1236        1241        1240
        1236        1237        1242        1241
        1237        1238        1243        1242
        1238        1239        1244        1243
        1240        1241        1246        1245
        1241        1242        1247        1246
        1242        1243        1248        1247
        1243        1244        1249        1248
        1250        1251        1256        1255
        1251        1252        1257        1256
        1252        1253        1258        1257
        1253        1254        1259        1258
        1255        1256        1261        1260
        1256        1257        1262        1261
        1257        1258        1263        1262
        1258        1259        1264        1263
        1260        1261        1266        1265
        1261        1262        1267        1266
        1262        1263        1268        1267
        1263        1264        1269        1268
        1265        1266        1271        1270
        1266        1267        1272        1271
        1267        1268        1273        1272
        1268        1269        1274        1273
        1275        1276        1281        1280
        1276        1277        1282        1281
        1277        1278        1283        1282
        1278        1279        1284        1283
        1280        1281        1286        1285
        1281        1282        1287        1286
        1282        1283        1288        1287
        1283        1284        1289        1288
        1285        1286        1291        1290
        1286        1287        1292        1291
        1287        1288        1293        1292
        1288        1289        1294        1293
        1290        1291        1296        1295
        1291        1292        1297        1296
        1292        1293        1298        1297
        1293        1294        1299        1298
        1300        1301        1306        1305
        1301        1302        1307        1306
        1302        1303        1308        1307
        1303        1304        1309        1308
        1305        1306        1311        1310
        1306        1307        1312        1311
        1307        1308        1313        1312
        1308        1309        1314        1313
        1310        1311        1316        1315
        1311        1312        1317        1316
        1312        1313        1318        1317
        1313        1314        1319        1318
        1315        1316        1321        1320
        1316        1317        1322        1321
        1317        1318        1323        1322
        1318        1319        1324        1323
        1325        1326        1331        1330
        1326        1327        1332        1331
        1327        1328        1333        1332
        1328        1329        1334        1333
        1330        1331        1336        1335
        1331        1332        1337        1336
        1332        1333        1338        1337
        1333        1334        1339        1338
        1335        1336        1341        1340
        1336        1337        1342        1341
        1337        1338        1343        1342
        1338        1339        1344        1343
        1340        1341        1346        1345
        1341        1342        1347        1346
        1342        1343        1348        1347
        1343        1344        1349        1348
        1350        1351        1356        1355
        1351        1352        1357        1356
        1352        1353        1358        1357
        1353        1354        1359        1358
        1355        1356        1361        1360
        1356        1357        1362        1361
        1357        1358        1363        1362
        1358        1359        1364        1363
        1360        1361        1366        1365
        1361        1362        1367        1366
        1362        1363        1368        1367
        1363        1364        1369        1368
        1365        1366        1371        1370
        1366        1367        1372        1371
        1367        1368        1373        1372
        1368        1369        1374        1373
        1375        1376        1381        1380
        1376        1377        1382        1381
        1377        1378        1383        1382
        1378        1379        1384        1383
        1380        1381        1386        1385
        1381        1382        1387        1386
        1382        1383        1388        1387
        1383        1384        1389        1388
        1385        1386        1391        1390
        1386        1387        1392        1391
        1387        1388        1393        1392
        1388        1389        1394        1393
        1390        1391        1396        1395
        1391        1392        1397        1396
        1392        1393        1398        1397
        1393        1394        1399        1398
        1400        1401        1406        1405
        1401        1402        1407        1406
        1402        1403        1408        1407
        1403        1404        1409        1408
        1405        1406        1411        1410
        1406        1407        1412        1411
        1407        1408        1413        1412
        1408        1409        1414        1413
        1410        1411        1416        1415
        1411        1412        1417        1416
        1412        1413        1418        1417
        1413        1414        1419        1418
        1415        1416        1421        1420
        1416        1417        1422        1421
        1417        1418        1423        1422
        1418        1419        1424        1423
        1425        1426        1431        1430
        1426        1427        1432        1431
        1427        1428        1433        1432
        1428        1429        1434        1433
        1430        1431        1436        1435
        1431        1432        1437        1436
        1432        1433        1438        1437
        1433        1434        1439        1438
        1435        1436        1441        1440
        1436        1437        1442        1441
        1437        1438        1443        1442
        1438        1439        1444        1443
        1440        1441        1446        1445
        1441        1442        1447        1446
        1442        1443        1448        1447
        1443        1444        1449        1448
        1450        1451        1456        1455
        1451        1452        1457        1456
        1452        1453        1458        1457
        1453        1454        1459        1458
        1455        1456        1461        1460
        1456        1457        1462        1461
        1457        1458        1463        1462
        1458        1459        1464        1463
        1460        1461        1466        1465
        1461        1462        1467        1466
        1462        1463        1468        1467
        1463        1464        1469        1468
        1465        1466        1471        1470
        1466        1467        1472        1471
        1467        1468        1473        1472
        1468        1469        1474        1473
        1475        1476        1481        1480
        1476        1477        1482        1481
        1477        1478        1483        1482
        1478        1479        1484        1483
        1480        1481        1486        1485
        1481        1482        1487        1486
        1482        1483        1488        1487
        1483        1484        1489        1488
        1485        1486        1491        1490
        1486        1487        1492        1491
        1487        1488        1493        1492
        1488        1489        1494        1493
        1490        1491        1496        1495
        1491        1492        1497        1496
        1492        1493        1498        1497
        1493        1494        1499        1498
        1500        1501        1506        1505
        1501        1502        1507        1506
        1502        1503        1508        1507
        1503        1504        1509        1508
        1505        1506        1511        1510
        1506        1507        1512        1511
        1507        1508        1513        1512
        1508        1509        1514        1513
        1510        1511        1516        1515
        1511        1512        1517        1516
        1512        1513        1518        1517
        1513        1514        1519        1518
        1515        1516        1521        1520
        1516        1517        1522        1521
        1517        1518        1523        1522
        1518        1519        1524        1523
        1525        1526        1531        1530
        1526        1527        1532        1531
        1527        1528        1533        1532
        1528        1529        1534        1533
        1530        1531        1536        1535
        1531        1532        1537        1536
        1532        1533        1538        1537
        1533        1534        1539        1538
        1535        1536        1541        1540
        1536        1537        1542        1541
        1537        1538        1543        1542
        1538        1539        1544        1543
        1540        1541        1546        1545
        1541        1542        1547        1546
        1542        1543        1548        1547
        1543        1544        1549        1548
        1550        1551        1556        1555
        1551        1552        1557        1556
        1552        1553        1558        1557
        1553        1554        1559        1558
        1555        1556        1561        1560
        1556        1557        1562        1561
        1557        1558        1563        1562
        1558        1559        1564        1563
        1560        1561        1566        1565
        1561        1562        1567        1566
        1562        1563        1568        1567
        1563        1564        1569        1568
        1565        1566        1571        1570
        1566        1567        1572        1571
        1567        1568        1573        1572
        1568        1569        1574        1573
        1575        1576        1581        1580
        1576        1577        1582        1581
        1577        1578        1583        1582
        1578        1579        1584        1583
        1580        1581        1586        1585
        1581        1582        1587        1586
        1582        1583        1588        1587
        1583        1584        1589        1588
        1585        1586        1591        1590
        1586        1587        1592        1591
        1587        1588        1593        1592
        1588        1589        1594        1593
        1590        1591        1596        1595
        1591        1592        1597        1596
        1592        1593        1598        1597
        1593        1594        1599        1598
 </DataArray>
 <DataArray  type="Int32"  Name="offsets"  format="ascii"> 
           4
           8
          12
          16
          20
          24
          28
          32
          36
          40
          44
          48
          52
          56
          60
          64
          68
          72
          76
          80
          84
          88
          92
          96
         100
         104
         108
         112
         116
         120
         124
         128
         132
         136
         140
         144
         148
         152
         156
         160
         164
         168
         172
         176
         180
         184
         188
         192
         196
         200
         204
         208
         212
         216
         220
         224
         228
         232
         236
         240
         244
         248
         252
         256
         260
         264
         268
         272
         276
         280
         284
         288
         292
         296
         300
         304
         308
         312
         316
         320
         324
         328
         332
         336
         340
         344
         348
         352
         356
         360
         364
         368
         372
         376
         380
         384
         388
         392
         396
         400
         404
         408
         412
         416
         420
         424
         428
         432
         436
         440
         444
         448
         452
         456
         460
         464
         468
         472
         476
         480
         484
         488
         492
         496
         500
         504
         508
         512
         516
         520
         524
         528
         532
         536
         540
         544
         548
         552
         556
         560
         564
         568
         572
         576
         580
         584
         588
         592
         596
         600
         604
         608
         612
         616
         620
         624
         628
         632
         636
         640
         644
         648
         652
         656
         660
         664
         668
         672
         676
         680
         684
         688
         692
         696
         700
         704
         708
         712
         716
         720
         724
         728
         732
         736
         740
         744
         748
         752
         756
         760
         764
         768
         772
         776
         780
         784
         788
         792
         796
         800
         804
         808
         812
         816
         820
         824
         828
         832
         836
         840
         844
         848
         852
         856
         860
         864
         868
         872
         876
         880
         884
         888
         892
         896
         900
         904
         908
         912
         916
         920
         924
         928
         932
         936
         940
         944
         948
         952
         956
         960
         964
         968
         972
         976
         980
         984
         988
         992
         996
        1000
        1004
        1008
        1012
        1016
        1020
        1024
        1028
        1032
        1036
        1040
        1044
        1048
        1052
        1056
        1060
        1064
        1068
        1072
        1076
        1080
        1084
        1088
        1092
        1096
        1100
        1104
        1108
        1112
        1116
        1120
        1124
        1128
        1132
        1136
        1140
        1144
        1148
        1152
        1156
        1160
        1164
        1168
        1172
        1176
        1180
        1184
        1188
        1192
        1196
        1200
        1204
        1208
        1212
        1216
        1220
        1224
        1228
        1232
        1236
        1240
        1244
        1248
        1252
        1256
        1260
        1264
        1268
        1272
        1276
        1280
        1284
        1288
        1292
        1296
        1300
        1304
        1308
        1312
        1316
        1320
        1324
        1328
        1332
        1336
        1340
        1344
        1348
        1352
        1356
        1360
        1364
        1368
        1372
        1376
        1380
        1384
        1388
        1392
        1396
        1400
        1404
        1408
        1412
        1416
        1420
        1424
        1428
        1432
        1436
        1440
        1444
        1448
        1452
        1456
        1460
        1464
        1468
        1472
        1476
        1480
        1484
        1488
        1492
        1496
        1500
        1504
        1508
        1512
        1516
        1520
        1524
        1528
        1532
        1536
        1540
        1544
        1548
        1552
        1556
        1560
        1564
        1568
        1572
        1576
        1580
        1584
        1588
        1592
        1596
        1600
        1604
        1608
        1612
        1616
        1620
        1624
        1628
        1632
        1636
        1640
        1644
        1648
        1652
        1656
        1660
        1664
        1668
        1672
        1676
        1680
        1684
        1688
        1692
        1696
        1700
        1704
        1708
        1712
        1716
        1720
        1724
        1728
        1732
        1736
        1740
        1744
        1748
        1752
        1756
        1760
        1764
        1768
        1772
        1776
        1780
        1784
        1788
        1792
        1796
        1800
        1804
        1808
        1812
        1816
        1820
        1824
        1828
        1832
        1836
        1840
        1844
        1848
        1852
        1856
        1860
        1864
        1868
        1872
        1876
        1880
        1884
        1888
        1892
        1896
        1900
        1904
        1908
        1912
        1916
        1920
        1924
        1928
        1932
        1936
        1940
        1944
        1948
        1952
        1956
        1960
        1964
        1968
        1972
        1976
        1980
        1984
        1988
        1992
        1996
        2000
        2004
        2008
        2012
        2016
        2020
        2024
        2028
        2032
        2036
        2040
        2044
        2048
        2052
        2056
        2060
        2064
        2068
        2072
        2076
        2080
        2084
        2088
        2092
        2096
        2100
        2104
        2108
        2112
        2116
        2120
        2124
        2128
        2132
        2136
        2140
        2144
        2148
        2152
        2156
        2160
        2164
        2168
        2172
        2176
        2180
        2184
        2188
        2192
        2196
        2200
        2204
        2208
        2212
        2216
        2220
        2224
        2228
        2232
        2236
        2240
        2244
        2248
        2252
        2256
        2260
        2264
        2268
        2272
        2276
        2280
        2284
        2288
        2292
        2296
        2300
        2304
        2308
        2312
        2316
        2320
        2324
        2328
        2332
        2336
        2340
        2344
        2348
        2352
        2356
        2360
        2364
        2368
        2372
        2376
        2380
        2384
        2388
        2392
        2396
        2400
        2404
        2408
        2412
        2416
        2420
        2424
        2428
        2432
        2436
        2440
        2444
        2448
        2452
        2456
        2460
        2464
        2468
        2472
        2476
        2480
        2484
        2488
        2492
        2496
        2500
        2504
        2508
        2512
        2516
        2520
        2524
        2528
        2532
        2536
        2540
        2544
        2548
        2552
        2556
        2560
        2564
        2568
        2572
        2576
        2580
        2584
        2588
        2592
        2596
        2600
        2604
        2608
        2612
        2616
        2620
        2624
        2628
        2632
        2636
        2640
        2644
        2648
        2652
        2656
        2660
        2664
        2668
        2672
        2676
        2680
        2684
        2688
        2692
        2696
        2700
        2704
        2708
        2712
        2716
        2720
        2724
        2728
        2732
        2736
        2740
        2744
        2748
        2752
        2756
        2760
        2764
        2768
        2772
        2776
        2780
        2784
        2788
        2792
        2796
        2800
        2804
        2808
        2812
        2816
        2820
        2824
        2828
        2832
        2836
        2840
        2844
        2848
        2852
        2856
        2860
        2864
        2868
        2872
        2876
        2880
        2884
        2888
        2892
        2896
        2900
        2904
        2908
        2912
        2916
        2920
        2924
        2928
        2932
        2936
        2940
        2944
        2948
        2952
        2956
        2960
        2964
        2968
        2972
        2976
        2980
        2984
        2988
        2992
        2996
        3000
        3004
        3008
        3012
        3016
        3020
        3024
        3028
        3032
        3036
        3040
        3044
        3048
        3052
        3056
        3060
        3064
        3068
        3072
        3076
        3080
        3084
        3088
        3092
        3096
        3100
        3104
        3108
        3112
        3116
        3120
        3124
        3128
        3132
        3136
        3140
        3144
        3148
        3152
        3156
        3160
        3164
        3168
        3172
        3176
        3180
        3184
        3188
        3192
        3196
        3200
        3204
        3208
        3212
        3216
        3220
        3224
        3228
        3232
        3236
        3240
        3244
        3248
        3252
        3256
        3260
        3264
        3268
        3272
        3276
        3280
        3284
        3288
        3292
        3296
        3300
        3304
        3308
        3312
        3316
        3320
        3324
        3328
        3332
        3336
        3340
        3344
        3348
        3352
        3356
        3360
        3364
        3368
        3372
        3376
        3380
        3384
        3388
        3392
        3396
        3400
        3404
        3408
        3412
        3416
        3420
        3424
        3428
        3432
        3436
        3440
        3444
        3448
        3452
        3456
        3460
        3464
        3468
        3472
        3476
        3480
        3484
        3488
        3492
        3496
        3500
        3504
        3508
        3512
        3516
        3520
        3524
        3528
        3532
        3536
        3540
        3544
        3548
        3552
        3556
        3560
        3564
        3568
        3572
        3576
        3580
        3584
        3588
        3592
        3596
        3600
        3604
        3608
        3612
        3616
        3620
        3624
        3628
        3632
        3636
        3640
        3644
        3648
        3652
        3656
        3660
        3664
        3668
        3672
        3676
        3680
        3684
        3688
        3692
        3696
        3700
        3704
        3708
        3712
        3716
        3720
        3724
        3728
        3732
        3736
        3740
        3744
        3748
        3752
        3756
        3760
        3764
        3768
        3772
        3776
        3780
        3784
        3788
        3792
        3796
        3800
        3804
        3808
        3812
        3816
        3820
        3824
        3828
        3832
        3836
        3840
        3844
        3848
        3852
        3856
        3860
        3864
        3868
        3872
        3876
        3880
        3884
        3888
        3892
        3896
        3900
        3904
        3908
        3912
        3916
        3920
        3924
        3928
        3932
        3936
        3940
        3944
        3948
        3952
        3956
        3960
        3964
        3968
        3972
        3976
        3980
        3984
        3988
        3992
        3996
        4000
        4004
        4008
        4012
        4016
        4020
        4024
        4028
        4032
        4036
        4040
        4044
        4048
        4052
        4056
        4060
        4064
        4068
        4072
        4076
        4080
        4084
        4088
        4092
        4096
 </DataArray>
 <DataArray  type="UInt8"  Name="types"  format="ascii">
 9
 9
 9
 9
 9
 9
 9
 9
 9
 9
 9
 9
 9
 9
 9
 9
 9
 9
 9
 9
 9
 9
 9
 9
 9
 9
 9
 9
 9
 9
 9
 9
 9
 9
 9
 9
 9
 9
 9
 9
 9
 9
 9
 9
 9
 9
 9
 9
 9
 9
 9
 9
 9
 9
 9
 9
 9
 9
 9
 9
 9
 9
 9
 9
 9
 9
 9
 9
 9
 9
 9
 9
 9
 9
 9
 9
 9
 9
 9
 9
 9
 9
 9
 9
 9
 9
 9
 9
 9
 9
 9
 9
 9
 9
 9
 9
 9
 9
 9
 9
 9
 9
 9
 9
 9
 9
 9
 9
 9
 9
 9
 9
 9
 9
 9
 9
 9
 9
 9
 9
 9
 9
 9
 9
 9
 9
 9
 9
 9
 9
 9
 9
 9
 9
 9
 9
 9
 9
 9
 9
 9
 9
 9
 9
 9
 9
 9
 9
 9
 9
 9
 9
 9
 9
 9
 9
 9
 9
 9
 9
 9
 9
 9
 9
 9
 9
 9
 9
 9
 9
 9
 9
 9
 9
 9
 9
 9
 9
 9
 9
 9
 9
 9
 9
 9
 9
 9
 9
 9
 9
 9
 9
 9
 9
 9
 9
 9
 9
 9
 9
 9
 9
 9
 9
 9
 9
 9
 9
 9
 9
 9
 9
 9
 9
 9
 9
 9
 9
 9
 9
 9
 9
 9
 9
 9
 9
 9
 9
 9
 9
 9
 9
 9
 9
 9
 9
 9
 9
 9
 9
 9
 9
 9
 9
 9
 9
 9
 9
 9
 9
 9
 9
 9
 9
 9
 9
 9
 9
 9
 9
 9
 9
 9
 9
 9
 9
 9
 9
 9
 9
 9
 9
 9
 9
 9
 9
 9
 9
 9
 9
 9
 9
 9
 9
 9
 9
 9
 9
 9
 9
 9
 9
 9
 9
 9
 9
 9
 9
 9
 9
 9
 9
 9
 9
 9
 9
 9
 9
 9
 9
 9
 9
 9
 9
 9
 9
 9
 9
 9
 9
 9
 9
 9
 9
 9
 9
 9
 9
 9
 9
 9
 9
 9
 9
 9
 9
 9
 9
 9
 9
 9
 9
 9
 9
 9
 9
 9
 9
 9
 9
 9
 9
 9
 9
 9
 9
 9
 9
 9
 9
 9
 9
 9
 9
 9
 9
 9
 9
 9
 9
 9
 9
 9
 9
 9
 9
 9
 9
 9
 9
 9
 9
 9
 9
 9
 9
 9
 9
 9
 9
 9
 9
 9
 9
 9
 9
 9
 9
 9
 9
 9
 9
 9
 9
 9
 9
 9
 9
 9
 9
 9
 9
 9
 9
 9
 9
 9
 9
 9
 9
 9
 9
 9
 9
 9
 9
 9
 9
 9
 9
 9
 9
 9
 9
 9
 9
 9
 9
 9
 9
 9
 9
 9
 9
 9
 9
 9
 9
 9
 9
 9
 9
 9
 9
 9
 9
 9
 9
 9
 9
 9
 9
 9
 9
 9
 9
 9
 9
 9
 9
 9
 9
 9
 9
 9
 9
 9
 9
 9
 9
 9
 9
 9
 9
 9
 9
 9
 9
 9
 9
 9
 9
 9
 9
 9
 9
 9
 9
 9
 9
 9
 9
 9
 9
 9
 9
 9
 9
 9
 9
 9
 9
 9
 9
 9
 9
 9
 9
 9
 9
 9
 9
 9
 9
 9
 9
 9
 9
 9
 9
 9
 9
 9
 9
 9
 9
 9
 9
 9
 9
 9
 9
 9
 9
 9
 9
 9
 9
 9
 9
 9
 9
 9
 9
 9
 9
 9
 9
 9
 9
 9
 9
 9
 9
 9
 9
 9
 9
 9
 9
 9
 9
 9
 9
 9
 9
 9
 9
 9
 9
 9
 9
 9
 9
 9
 9
 9
 9
 9
 9
 9
 9
 9
 9
 9
 9
 9
 9
 9
 9
 9
 9
 9
 9
 9
 9
 9
 9
 9
 9
 9
 9
 9
 9
 9
 9
 9
 9
 9
 9
 9
 9
 9
 9
 9
 9
 9
 9
 9
 9
 9
 9
 9
 9
 9
 9
 9
 9
 9
 9
 9
 9
 9
 9
 9
 9
 9
 9
 9
 9
 9
 9
 9
 9
 9
 9
 9
 9
 9
 9
 9
 9
 9
 9
 9
 9
 9
 9
 9
 9
 9
 9
 9
 9
 9
 9
 9
 9
 9
 9
 9
 9
 9
 9
 9
 9
 9
 9
 9
 9
 9
 9
 9
 9
 9
 9
 9
 9
 9
 9
 9
 9
 9
 9
 9
 9
 9
 9
 9
 9
 9
 9
 9
 9
 9
 9
 9
 9
 9
 9
 9
 9
 9
 9
 9
 9
 9
 9
 9
 9
 9
 9
 9
 9
 9
 9
 9
 9
 9
 9
 9
 9
 9
 9
 9
 9
 9
 9
 9
 9
 9
 9
 9
 9
 9
 9
 9
 9
 9
 9
 9
 9
 9
 9
 9
 9
 9
 9
 9
 9
 9
 9
 9
 9
 9
 9
 9
 9
 9
 9
 9
 9
 9
 9
 9
 9
 9
 9
 9
 9
 9
 9
 9
 9
 9
 9
 9
 9
 9
 9
 9
 9
 9
 9
 9
 9
 9
 9
 9
 9
 9
 9
 9
 9
 9
 9
 9
 9
 9
 9
 9
 9
 9
 9
 9
 9
 9
 9
 9
 9
 9
 9
 9
 9
 9
 9
 9
 9
 9
 9
 9
 9
 9
 9
 9
 9
 9
 9
 9
 9
 9
 9
 9
 9
 9
 9
 9
 9
 9
 9
 9
 9
 9
 9
 9
 9
 9
 9
 9
 9
 9
 9
 9
 9
 9
 9
 9
 9
 9
 9
 9
 9
 9
 9
 9
 9
 9
 9
 9
 9
 9
 9
 9
 9
 9
 9
 9
 9
 9
 9
 9
 9
 9
 9
 9
 9
 9
 9
 9
 9
 9
 9
 9
 9
 9
 9
 9
 9
 9
 9
 9
 9
 9
 9
 9
 9
 9
 9
 9
 9
 9
 9
 9
 9
 9
 9
 9
 9
 9
 9
 9
 9
 9
 9
 9
 9
 9
 9
 9
 9
 9
 9
 9
 9
 9
 9
 9
 9
 9
 9
 9
 9
 9
 9
 9
 9
 9
 9
 9
 9
 9
 9
 9
 9
 9
 9
 9
 9
 9
 9
 9
 9
 9
 9
 9
 9
 9
 9
 9
 9
 9
 9
 9
 9
 9
 9
 9
 9
 9
 9
 9
 9
 9
 9
 9
 9
 9
 9
 9
 9
 9
 9
 9
 9
 9
 9
 9
 9
 9
 9
 9
 9
 9
 9
 </DataArray>
 </Cells> 
 <PointData>
 <DataArray  type="Float64" Name="disp" NumberOfComponents="3" format="ascii">
   0.0000000000000000        0.0000000000000000        0.0000000000000000     
   6.0957231459591770E-003   3.7903466958117259E-003   0.0000000000000000     
   1.1665660596736432E-002   7.3237279176813150E-003   0.0000000000000000     
   1.6709812352331769E-002   1.0600143665608769E-002   0.0000000000000000     
   2.1228178412745186E-002   1.3619593939594084E-002   0.0000000000000000     
   0.0000000000000000        0.0000000000000000        0.0000000000000000     
   4.8910127331650895E-003   3.0221229259467962E-003   0.0000000000000000     
   9.5734107033799993E-003   6.0604972381433989E-003   0.0000000000000000     
   1.4047193910644731E-002   9.1151229365898090E-003   0.0000000000000000     
   1.8312362354959286E-002   1.2186000021286024E-002   0.0000000000000000     
   0.0000000000000000        0.0000000000000000        0.0000000000000000     
   3.9534997752244819E-003   2.4251354392775199E-003   0.0000000000000000     
   7.9104866845132304E-003   5.0629138377179961E-003   0.0000000000000000     
   1.1870960727866245E-002   7.9133351953214314E-003   0.0000000000000000     
   1.5834921905283527E-002   1.0976399512087823E-002   0.0000000000000000     
   0.0000000000000000        0.0000000000000000        0.0000000000000000     
   3.2831842721373567E-003   1.9993842358038958E-003   0.0000000000000000     
   6.6768885401361274E-003   4.3309777164051086E-003   0.0000000000000000     
   1.0181112803996310E-002   6.9947804418036361E-003   0.0000000000000000     
   1.3795857063717906E-002   9.9907924119994815E-003   0.0000000000000000     
   0.0000000000000000        0.0000000000000000        0.0000000000000000     
   2.8800662239037138E-003   1.7448693155259244E-003   0.0000000000000000     
   5.8726162702486887E-003   3.8646888742047327E-003   0.0000000000000000     
   8.9776501390349261E-003   6.3594586760364249E-003   0.0000000000000000     
   1.2195167830262425E-002   9.2291787210209992E-003   0.0000000000000000     
   2.1228178412745186E-002   1.3619593939594084E-002   0.0000000000000000     
   2.5433377294121096E-002   1.6612608821348053E-002   0.0000000000000000     
   2.9538027512603929E-002   1.9809718392581461E-002   0.0000000000000000     
   3.3542129068193670E-002   2.3210922653294302E-002   0.0000000000000000     
   3.7445681960890334E-002   2.6816221603486595E-002   0.0000000000000000     
   1.8312362354959286E-002   1.2186000021286024E-002   0.0000000000000000     
   2.2407014176274040E-002   1.5341467289424208E-002   0.0000000000000000     
   2.6369247514539368E-002   1.8649863538196511E-002   0.0000000000000000     
   3.0199062369755277E-002   2.2111188767602943E-002   0.0000000000000000     
   3.3896458741921764E-002   2.5725442977643495E-002   0.0000000000000000     
   1.5834921905283527E-002   1.0976399512087823E-002   0.0000000000000000     
   1.9730572193344550E-002   1.4210943367229755E-002   0.0000000000000000     
   2.3486113568628807E-002   1.7575803339959818E-002   0.0000000000000000     
   2.7101546031136285E-002   2.1070979430278011E-002   0.0000000000000000     
   3.0576869580866993E-002   2.4696471638184329E-002   0.0000000000000000     
   1.3795857063717906E-002   9.9907924119994815E-003   0.0000000000000000     
   1.7404051345332634E-002   1.3221037054764710E-002   0.0000000000000000     
   2.0888625674872235E-002   1.6587537797871390E-002   0.0000000000000000     
   2.4249580052336683E-002   2.0090294641319513E-002   0.0000000000000000     
   2.7486914477726006E-002   2.3729307585109091E-002   0.0000000000000000     
   1.2195167830262425E-002   9.2291787210209992E-003   0.0000000000000000     
   1.5427451632238295E-002   1.2371748352029062E-002   0.0000000000000000     
   1.8576783833269647E-002   1.5685066911931212E-002   0.0000000000000000     
   2.1643164433356486E-002   1.9169134400727452E-002   0.0000000000000000     
   2.4626593432498803E-002   2.2823950818417781E-002   0.0000000000000000     
   3.7445681960890334E-002   2.6816221603486595E-002   0.0000000000000000     
   4.1253713374297563E-002   3.0620971709367933E-002   0.0000000000000000     
   4.4971250492019006E-002   3.4620529437147926E-002   0.0000000000000000     
   4.8598293314054658E-002   3.8814894786826593E-002   0.0000000000000000     
   5.2134841840404539E-002   4.3204067758403908E-002   0.0000000000000000     
   3.3896458741921764E-002   2.5725442977643495E-002   0.0000000000000000     
   3.7484927487810363E-002   2.9521324077315308E-002   0.0000000000000000     
   4.0987959464192585E-002   3.3527529975615498E-002   0.0000000000000000     
   4.4405554671068437E-002   3.7744060672544093E-002   0.0000000000000000     
   4.7737713108437919E-002   4.2170916168101057E-002   0.0000000000000000     
   3.0576869580866993E-002   2.4696471638184329E-002   0.0000000000000000     
   3.3941590012946408E-002   2.8496658998357342E-002   0.0000000000000000     
   3.7225213122500003E-002   3.2515920545475634E-002   0.0000000000000000     
   4.0427738909527784E-002   3.6754256279539183E-002   0.0000000000000000     
   4.3549167374029744E-002   4.1211666200548003E-002   0.0000000000000000     
   2.7486914477726006E-002   2.3729307585109091E-002   0.0000000000000000     
   3.0623700949705693E-002   2.7546976472494048E-002   0.0000000000000000     
   3.3683011466941255E-002   3.1585701146728304E-002   0.0000000000000000     
   3.6664846029432693E-002   3.5845481607811876E-002   0.0000000000000000     
   3.9569204637180021E-002   4.0326317855744746E-002   0.0000000000000000     
   2.4626593432498803E-002   2.2823950818417781E-002   0.0000000000000000     
   2.7531260298088219E-002   2.6672276499725405E-002   0.0000000000000000     
   3.0361354497516348E-002   3.0736871779373533E-002   0.0000000000000000     
   3.3116876030783185E-002   3.5017736657362158E-002   0.0000000000000000     
   3.5797824897888741E-002   3.9514871133691287E-002   0.0000000000000000     
   5.2134841840404539E-002   4.3204067758403908E-002   0.0000000000000000     
   5.5576794429191188E-002   4.7792956001938683E-002   0.0000000000000000     
   5.8920049438537195E-002   5.2586467167489680E-002   0.0000000000000000     
   6.2164606868442544E-002   5.7584601255056905E-002   0.0000000000000000     
   6.5310466718907251E-002   6.2787358264640367E-002   0.0000000000000000     
   4.7737713108437919E-002   4.2170916168101057E-002   0.0000000000000000     
   5.0979477927950032E-002   4.6802536064758961E-002   0.0000000000000000     
   5.4125892281253793E-002   5.1633359964990327E-002   0.0000000000000000     
   5.7176956168349197E-002   5.6663387868795149E-002   0.0000000000000000     
   6.0132669589236243E-002   6.1892619776173455E-002   0.0000000000000000     
   4.3549167374029744E-002   4.1211666200548003E-002   0.0000000000000000     
   4.6584824153952639E-002   4.5876731049511559E-002   0.0000000000000000     
   4.9530034887243210E-002   5.0738031567439293E-002   0.0000000000000000     
   5.2384799573901464E-002   5.5795567754331206E-002   0.0000000000000000     
   5.5149118213927401E-002   6.1049339610187311E-002   0.0000000000000000     
   3.9569204637180021E-002   4.0326317855744746E-002   0.0000000000000000     
   4.2392833107199004E-002   4.5015540956196469E-002   0.0000000000000000     
   4.5132477256505453E-002   4.9900481974836569E-002   0.0000000000000000     
   4.7788137085099366E-002   5.4981140911665068E-002   0.0000000000000000     
   5.0359812592980738E-002   6.0257517766681944E-002   0.0000000000000000     
   3.5797824897888741E-002   3.9514871133691287E-002   0.0000000000000000     
   3.8403504787689141E-002   4.4218965784813699E-002   0.0000000000000000     
   4.0933219389040522E-002   4.9120711187182184E-002   0.0000000000000000     
   4.3386968701942884E-002   5.4220107340796735E-002   0.0000000000000000     
   4.5764752726396241E-002   5.9517154245657351E-002   0.0000000000000000     
   6.5310466718907251E-002   6.2787358264640367E-002   0.0000000000000000     
   6.8364081493942658E-002   6.8180604938613054E-002   0.0000000000000000     
   7.1331903697560040E-002   7.3750208019347965E-002   0.0000000000000000     
   7.4213933329759466E-002   7.9496167506845086E-002   0.0000000000000000     
   7.7010170390540880E-002   8.5418483401104445E-002   0.0000000000000000     
   6.0132669589236243E-002   6.1892619776173455E-002   0.0000000000000000     
   6.3000170883452250E-002   6.7310658502999485E-002   0.0000000000000000     
   6.5786598390534537E-002   7.2907106865147508E-002   0.0000000000000000     
   6.8491952110483104E-002   7.8681964862617512E-002   0.0000000000000000     
   7.1116232043297964E-002   8.4635232495409496E-002   0.0000000000000000     
   5.5149118213927401E-002   6.1049339610187311E-002   0.0000000000000000     
   5.7829977252085406E-002   6.6491055947241334E-002   0.0000000000000000     
   6.0434363133139865E-002   7.2112425577726985E-002   0.0000000000000000     
   6.2962275857090785E-002   7.7913448501644278E-002   0.0000000000000000     
   6.5413715423938187E-002   8.3894124718993213E-002   0.0000000000000000     
   5.0359812592980738E-002   6.0257517766681944E-002   0.0000000000000000     
   5.2853500599842104E-002   6.5721797271338603E-002   0.0000000000000000     
   5.5275197925376024E-002   7.1366164157086437E-002   0.0000000000000000     
   5.7624904569582504E-002   7.7190618423925425E-002   0.0000000000000000     
   5.9902620532461530E-002   8.3195160071855609E-002   0.0000000000000000     
   4.5764752726396241E-002   5.9517154245657351E-002   0.0000000000000000     
   4.8070740926722352E-002   6.5002882475291290E-002   0.0000000000000000     
   5.0309102767243020E-002   7.0668322603225822E-002   0.0000000000000000     
   5.2479838247958224E-002   7.6513474629460954E-002   0.0000000000000000     
   5.4582947368867991E-002   8.2538338553996685E-002   0.0000000000000000     
   7.7010170390540880E-002   8.5418483401104445E-002   0.0000000000000000     
   7.9708275348195828E-002   9.1509443542902469E-002   0.0000000000000000     
   8.2295908671015827E-002   9.7761335773015670E-002   0.0000000000000000     
   8.4773070359000849E-002  0.10417416009144402        0.0000000000000000     
   8.7139760412150935E-002  0.11074791649818752        0.0000000000000000     
   7.1116232043297964E-002   8.4635232495409496E-002   0.0000000000000000     
   7.3647871555394720E-002   9.0757550568242557E-002   0.0000000000000000     
   7.6075304013188974E-002   9.7039559885835763E-002   0.0000000000000000     
   7.8398529416680726E-002  0.10348126044818912        0.0000000000000000     
   8.0617547765870004E-002  0.11008265225530264        0.0000000000000000     
   6.5413715423938187E-002   8.3894124718993213E-002   0.0000000000000000     
   6.7778104777444101E-002   9.0044204837458369E-002   0.0000000000000000     
   7.0044866861370583E-002   9.6353439464724314E-002   0.0000000000000000     
   7.2214001675717635E-002  0.10282182860079102        0.0000000000000000     
   7.4285509220485282E-002  0.10944937224565857        0.0000000000000000     
   5.9902620532461530E-002   8.3195160071855609E-002   0.0000000000000000     
   6.2098975014343950E-002   8.9369406350549907E-002   0.0000000000000000     
   6.4204597215560627E-002   9.5702974509681293E-002   0.0000000000000000     
   6.6219487136111588E-002  0.10219586454924975        0.0000000000000000     
   6.8143644775996756E-002  0.10884807646925532        0.0000000000000000     
   5.4582947368867991E-002   8.2538338553996685E-002   0.0000000000000000     
   5.6610482266094303E-002   8.8733155107517198E-002   0.0000000000000000     
   5.8554495075759147E-002   9.5088165020706744E-002   0.0000000000000000     
   6.0414985797862537E-002  0.10160336829356528        0.0000000000000000     
   6.2191954432404467E-002  0.10827876492609285        0.0000000000000000     
   8.7139760412150935E-002  0.11074791649818752        0.0000000000000000     
   8.9410413259260746E-002  0.11746862060870542        0.0000000000000000     
   9.1599463329125039E-002  0.12432228803845691        0.0000000000000000     
   9.3706910621743786E-002  0.13130891878744202        0.0000000000000000     
   9.5732755137117015E-002  0.13842851285566074        0.0000000000000000     
   8.0617547765870004E-002  0.11008265225530264        0.0000000000000000     
   8.2746564774588791E-002  0.11683143116543439        0.0000000000000000     
   8.4799786156669152E-002  0.12371529303684251        0.0000000000000000     
   8.6777211912111060E-002  0.13073423786952695        0.0000000000000000     
   8.8678842040914543E-002  0.13788826566348775        0.0000000000000000     
   7.4285509220485282E-002  0.10944937224565857        0.0000000000000000     
   7.6272892475165138E-002  0.11622405285110360        0.0000000000000000     
   7.8189654419248814E-002  0.12313385286890288        0.0000000000000000     
   8.0035795052736350E-002  0.13017877229905636        0.0000000000000000     
   8.1811314375627719E-002  0.13735881114156409        0.0000000000000000     
   6.8143644775996756E-002  0.10884807646925532        0.0000000000000000     
   6.9989396360989733E-002  0.11564648566571302        0.0000000000000000     
   7.1769068116864038E-002  0.12257796753463801        0.0000000000000000     
   7.3482660043619655E-002  0.12964252207603030        0.0000000000000000     
   7.5130172141256571E-002  0.13684014928988983        0.0000000000000000     
   6.2191954432404467E-002  0.10827876492609285        0.0000000000000000     
   6.3896076432062646E-002  0.11509872960926266        0.0000000000000000     
   6.5538027249514810E-002  0.12204763703404793        0.0000000000000000     
   6.7117806884760947E-002  0.12912548720044870        0.0000000000000000     
   6.8635415337801070E-002  0.13633228010846490        0.0000000000000000     
   9.5732755137117015E-002  0.13842851285566074        0.0000000000000000     
   9.7664181211183851E-002  0.14565796404020909        0.0000000000000000     
   9.9488373179883460E-002  0.15297416613818307        0.0000000000000000     
  0.10120533104321588       0.16037711914958272        0.0000000000000000     
  0.10281505480118107       0.16786682307440803        0.0000000000000000     
   8.8678842040914543E-002  0.13788826566348775        0.0000000000000000     
   9.0490864391024550E-002  0.14516174616610561        0.0000000000000000     
   9.2199466810386058E-002  0.15253904912476135        0.0000000000000000     
   9.3804649298999038E-002  0.16002017453945500        0.0000000000000000     
   9.5306411856863546E-002  0.16760512241018649        0.0000000000000000     
   8.1811314375627719E-002  0.13735881114156409        0.0000000000000000     
   8.3502242615171793E-002  0.14466363294677695        0.0000000000000000     
   8.5094609998617343E-002  0.15208290126504589        0.0000000000000000     
   8.6588416525964398E-002  0.15961661609637093        0.0000000000000000     
   8.7983662197212972E-002  0.16726477744075199        0.0000000000000000     
   7.5130172141256571E-002  0.13684014928988983        0.0000000000000000     
   7.6698315883625565E-002  0.14416362438222310        0.0000000000000000     
   7.8173802744577345E-002  0.15160572255903668        0.0000000000000000     
   7.9556632724111939E-002  0.15916644382033052        0.0000000000000000     
   8.0846805822229320E-002  0.16684578816610457        0.0000000000000000     
   6.8635415337801070E-002  0.13633228010846490        0.0000000000000000     
   7.0079084196385866E-002  0.14366172047244410        0.0000000000000000     
   7.1437045048266049E-002  0.15110751300673370        0.0000000000000000     
   7.2709297893441646E-002  0.15866965771133376        0.0000000000000000     
   7.3895842731912603E-002  0.16634815458624425        0.0000000000000000     
   0.0000000000000000        0.0000000000000000        0.0000000000000000     
   2.8800662239037138E-003   1.7448693155259244E-003   0.0000000000000000     
   5.8726162702486887E-003   3.8646888742047327E-003   0.0000000000000000     
   8.9776501390349261E-003   6.3594586760364249E-003   0.0000000000000000     
   1.2195167830262425E-002   9.2291787210209992E-003   0.0000000000000000     
   0.0000000000000000        0.0000000000000000        0.0000000000000000     
   2.6103177146231662E-003   1.5889455266111375E-003   0.0000000000000000     
   5.2897066770353322E-003   3.5567467224550658E-003   0.0000000000000000     
   8.0381668872364989E-003   5.9034035875317852E-003   0.0000000000000000     
   1.0855698345226664E-002   8.6289161218412944E-003   0.0000000000000000     
   0.0000000000000000        0.0000000000000000        0.0000000000000000     
   2.3401108283953300E-003   1.4589677172270662E-003   0.0000000000000000     
   4.7201965626804746E-003   3.2998506724943024E-003   0.0000000000000000     
   7.1402572028554327E-003   5.5226488658017062E-003   0.0000000000000000     
   9.6002927489202070E-003   8.1273622971492817E-003   0.0000000000000000     
   0.0000000000000000        0.0000000000000000        0.0000000000000000     
   2.0694455652202032E-003   1.3549358873737110E-003   0.0000000000000000     
   4.1640859271841130E-003   3.0940007243224414E-003   0.0000000000000000     
   6.2839210858917317E-003   5.2171945108461905E-003   0.0000000000000000     
   8.4289510413430562E-003   7.7245172469449603E-003   0.0000000000000000     
   0.0000000000000000        0.0000000000000000        0.0000000000000000     
   1.7983219250977873E-003   1.2768500370510716E-003   0.0000000000000000     
   3.6213747705462506E-003   2.9391968779394840E-003   0.0000000000000000     
   5.4691585363453900E-003   4.9870405226652374E-003   0.0000000000000000     
   7.3416732224952062E-003   7.4203809712283311E-003   0.0000000000000000     
   1.2195167830262425E-002   9.2291787210209992E-003   0.0000000000000000     
   1.5427451632238295E-002   1.2371748352029062E-002   0.0000000000000000     
   1.8576783833269647E-002   1.5685066911931212E-002   0.0000000000000000     
   2.1643164433356486E-002   1.9169134400727452E-002   0.0000000000000000     
   2.4626593432498803E-002   2.2823950818417781E-002   0.0000000000000000     
   1.0855698345226664E-002   8.6289161218412944E-003   0.0000000000000000     
   1.3688955261343335E-002   1.1650951612603398E-002   0.0000000000000000     
   1.6484591845924025E-002   1.4887177347037893E-002   0.0000000000000000     
   1.9242608098968723E-002   1.8337593325144782E-002   0.0000000000000000     
   2.1963004020477437E-002   2.2002199546924065E-002   0.0000000000000000     
   9.6002927489202070E-003   8.1273622971492817E-003   0.0000000000000000     
   1.2076744439929578E-002   1.1046521190068296E-002   0.0000000000000000     
   1.4546053514938326E-002   1.4212655768090023E-002   0.0000000000000000     
   1.7008219973946456E-002   1.7625766031214459E-002   0.0000000000000000     
   1.9463243816953964E-002   2.1285851979441620E-002   0.0000000000000000     
   8.4289510413430562E-003   7.7245172469449603E-003   0.0000000000000000     
   1.0590819167997020E-002   1.0558457084423760E-002   0.0000000000000000     
   1.2761168840312562E-002   1.3661502175087607E-002   0.0000000000000000     
   1.4940000058289686E-002   1.7033652518936494E-002   0.0000000000000000     
   1.7127312821928382E-002   2.0674908115970426E-002   0.0000000000000000     
   7.3416732224952062E-003   7.4203809712283311E-003   0.0000000000000000     
   9.2311794455456654E-003   1.0186759295669789E-002   0.0000000000000000     
   1.1129937822046732E-002   1.3233716568030641E-002   0.0000000000000000     
   1.3037948351998407E-002   1.6561252788310873E-002   0.0000000000000000     
   1.4955211035400687E-002   2.0169367956510503E-002   0.0000000000000000     
   2.4626593432498803E-002   2.2823950818417781E-002   0.0000000000000000     
   2.7531260298088219E-002   2.6672276499725405E-002   0.0000000000000000     
   3.0361354497516348E-002   3.0736871779373533E-002   0.0000000000000000     
   3.3116876030783185E-002   3.5017736657362158E-002   0.0000000000000000     
   3.5797824897888741E-002   3.9514871133691287E-002   0.0000000000000000     
   2.1963004020477437E-002   2.2002199546924065E-002   0.0000000000000000     
   2.4629306471645563E-002   2.5879204951179669E-002   0.0000000000000000     
   2.7225042313668492E-002   2.9966818476715507E-002   0.0000000000000000     
   2.9750211546546227E-002   3.4265040123531598E-002   0.0000000000000000     
   3.2204814170278769E-002   3.8773869891627906E-002   0.0000000000000000     
   1.9463243816953964E-002   2.1285851979441620E-002   0.0000000000000000     
   2.1882877883929300E-002   2.5174407697985079E-002   0.0000000000000000     
   2.4238875014840906E-002   2.9272927272058446E-002   0.0000000000000000     
   2.6531235209688805E-002   3.3581410701661721E-002   0.0000000000000000     
   2.8759958468472971E-002   3.8099857986794897E-002   0.0000000000000000     
   1.7127312821928382E-002   2.0674908115970426E-002   0.0000000000000000     
   1.9291974534939433E-002   2.4557884740141634E-002   0.0000000000000000     
   2.1402852601033608E-002   2.8655198165402337E-002   0.0000000000000000     
   2.3459947020210911E-002   3.2966848391752554E-002   0.0000000000000000     
   2.5463257792471342E-002   3.7492835419192252E-002   0.0000000000000000     
   1.4955211035400687E-002   2.0169367956510503E-002   0.0000000000000000     
   1.6856596424675952E-002   2.4029636077649331E-002   0.0000000000000000     
   1.8716975072246574E-002   2.8113631156747185E-002   0.0000000000000000     
   2.0536346978112557E-002   3.2421353193804070E-002   0.0000000000000000     
   2.2314712142273888E-002   3.6952802188819966E-002   0.0000000000000000     
   3.5797824897888741E-002   3.9514871133691287E-002   0.0000000000000000     
   3.8403504787689141E-002   4.4218965784813699E-002   0.0000000000000000     
   4.0933219389040522E-002   4.9120711187182184E-002   0.0000000000000000     
   4.3386968701942884E-002   5.4220107340796735E-002   0.0000000000000000     
   4.5764752726396241E-002   5.9517154245657351E-002   0.0000000000000000     
   3.2204814170278769E-002   3.8773869891627906E-002   0.0000000000000000     
   3.4590328598001499E-002   4.3488261180582889E-002   0.0000000000000000     
   3.6908233242849801E-002   4.8403167389974931E-002   0.0000000000000000     
   3.9158528104823682E-002   5.3518588519804025E-002   0.0000000000000000     
   4.1341213183923142E-002   5.8834524570070205E-002   0.0000000000000000     
   2.8759958468472971E-002   3.8099857986794897E-002   0.0000000000000000     
   3.0926793940714556E-002   4.2824682788723638E-002   0.0000000000000000     
   3.3033490775934690E-002   4.7752298768713598E-002   0.0000000000000000     
   3.5080048974133395E-002   5.2882705926764785E-002   0.0000000000000000     
   3.7066468535310655E-002   5.8215904262877205E-002   0.0000000000000000     
   2.5463257792471342E-002   3.7492835419192252E-002   0.0000000000000000     
   2.7412900815828305E-002   4.2228230609235966E-002   0.0000000000000000     
   2.9308991988295199E-002   4.7168105323398220E-002   0.0000000000000000     
   3.1151531309872024E-002   5.2312459561679008E-002   0.0000000000000000     
   3.2940518780558786E-002   5.7661293324078329E-002   0.0000000000000000     
   2.2314712142273888E-002   3.6952802188819966E-002   0.0000000000000000     
   2.4048649223342756E-002   4.1698904642119880E-002   0.0000000000000000     
   2.5734736879931313E-002   4.6650587054028775E-002   0.0000000000000000     
   2.7372975112039573E-002   5.1807849424546686E-002   0.0000000000000000     
   2.8963363919667529E-002   5.7170691753673591E-002   0.0000000000000000     
   4.5764752726396241E-002   5.9517154245657351E-002   0.0000000000000000     
   4.8070740926722352E-002   6.5002882475291290E-002   0.0000000000000000     
   5.0309102767243020E-002   7.0668322603225822E-002   0.0000000000000000     
   5.2479838247958224E-002   7.6513474629460954E-002   0.0000000000000000     
   5.4582947368867991E-002   8.2538338553996685E-002   0.0000000000000000     
   4.1341213183923142E-002   5.8834524570070205E-002   0.0000000000000000     
   4.3458572063790835E-002   6.4340299799121592E-002   0.0000000000000000     
   4.5512888328069448E-002   7.0025238465306297E-002   0.0000000000000000     
   4.7504161976758962E-002   7.5889340568624342E-002   0.0000000000000000     
   4.9432393009859389E-002   8.1932606109075740E-002   0.0000000000000000     
   3.7066468535310655E-002   5.8215904262877205E-002   0.0000000000000000     
   3.8993867842112243E-002   6.3740037482851647E-002   0.0000000000000000     
   4.0863365277183900E-002   6.9443249292488962E-002   0.0000000000000000     
   4.2674960840525668E-002   7.5325539691789123E-002   0.0000000000000000     
   4.4428654532137513E-002   8.1386908680752143E-002   0.0000000000000000     
   3.2940518780558786E-002   5.7661293324078329E-002   0.0000000000000000     
   3.4676628261686548E-002   6.3202095526481483E-002   0.0000000000000000     
   3.6360533614586410E-002   6.8922355084773804E-002   0.0000000000000000     
   3.7992234839258350E-002   7.4822071998955256E-002   0.0000000000000000     
   3.9571731935702362E-002   8.0901246269025867E-002   0.0000000000000000     
   2.8963363919667529E-002   5.7170691753673591E-002   0.0000000000000000     
   3.0506853322513783E-002   6.2726473930011101E-002   0.0000000000000000     
   3.2004393340276931E-002   6.8462555842160822E-002   0.0000000000000000     
   3.3455983972956987E-002   7.4378937490122768E-002   0.0000000000000000     
   3.4861625220553936E-002   8.0475618873896898E-002   0.0000000000000000     
   5.4582947368867991E-002   8.2538338553996685E-002   0.0000000000000000     
   5.6610482266094303E-002   8.8733155107517198E-002   0.0000000000000000     
   5.8554495075759147E-002   9.5088165020706744E-002   0.0000000000000000     
   6.0414985797862537E-002  0.10160336829356528        0.0000000000000000     
   6.2191954432404467E-002  0.10827876492609285        0.0000000000000000     
   4.9432393009859389E-002   8.1932606109075740E-002   0.0000000000000000     
   5.1290948122745983E-002   8.8146052623692808E-002   0.0000000000000000     
   5.3073194010793981E-002   9.4520697649507782E-002   0.0000000000000000     
   5.4779130674003411E-002  0.10105654118652077        0.0000000000000000     
   5.6408758112374245E-002  0.10775358323473171        0.0000000000000000     
   4.4428654532137513E-002   8.1386908680752143E-002   0.0000000000000000     
   4.6118694174349842E-002   8.7618700414409223E-002   0.0000000000000000     
   4.7739327589493015E-002   9.4012259047791646E-002   0.0000000000000000     
   4.9290554777567074E-002  0.10056758458089933        0.0000000000000000     
   5.0772375738571983E-002  0.10728467701373233        0.0000000000000000     
   3.9571731935702362E-002   8.0901246269025867E-002   0.0000000000000000     
   4.1093720420905866E-002   8.7151098479666553E-002   0.0000000000000000     
   4.2552895811856256E-002   9.3562849215558228E-002   0.0000000000000000     
   4.3949258108553518E-002  0.10013649847670099        0.0000000000000000     
   4.5282807310997673E-002  0.10687204626309474        0.0000000000000000     
   3.4861625220553936E-002   8.0475618873896898E-002   0.0000000000000000     
   3.6216026862414076E-002   8.6743246819464742E-002   0.0000000000000000     
   3.7513898677883684E-002   9.3172468152807691E-002   0.0000000000000000     
   3.8755240666962766E-002   9.9763282873925718E-002   0.0000000000000000     
   3.9940052829651330E-002  0.10651569098281891        0.0000000000000000     
   6.2191954432404467E-002  0.10827876492609285        0.0000000000000000     
   6.3896076432062646E-002  0.11509872960926266        0.0000000000000000     
   6.5538027249514810E-002  0.12204763703404793        0.0000000000000000     
   6.7117806884760947E-002  0.12912548720044870        0.0000000000000000     
   6.8635415337801070E-002  0.13633228010846490        0.0000000000000000     
   5.6408758112374245E-002  0.10775358323473171        0.0000000000000000     
   5.7971060046795475E-002  0.11459370292974549        0.0000000000000000     
   5.9475020198156099E-002  0.12155877940716707        0.0000000000000000     
   6.0920638566456117E-002  0.12864881266699643        0.0000000000000000     
   6.2307915151695516E-002  0.13586380270923354        0.0000000000000000     
   5.0772375738571983E-002  0.10728467701373233        0.0000000000000000     
   5.2192474563599885E-002  0.11414432387515452        0.0000000000000000     
   5.3558535343742872E-002  0.12112731269402985        0.0000000000000000     
   5.4870558079000993E-002  0.12823364347035829        0.0000000000000000     
   5.6128542769374207E-002  0.13546331620413990        0.0000000000000000     
   4.5282807310997673E-002  0.10687204626309474        0.0000000000000000     
   4.6560319982475840E-002  0.11375059244548974        0.0000000000000000     
   4.7788572686275142E-002  0.12075323689463628        0.0000000000000000     
   4.8967565422395574E-002  0.12787997961053432        0.0000000000000000     
   5.0097298190837150E-002  0.13513082059318390        0.0000000000000000     
   3.9940052829651330E-002  0.10651569098281891        0.0000000000000000     
   4.1074596303423361E-002  0.11341250864075114        0.0000000000000000     
   4.2165132225752876E-002  0.12043655200898636        0.0000000000000000     
   4.3211660596639868E-002  0.12758782108752448        0.0000000000000000     
   4.4214181416084346E-002  0.13486631587636561        0.0000000000000000     
   6.8635415337801070E-002  0.13633228010846490        0.0000000000000000     
   7.0079084196385866E-002  0.14366172047244410        0.0000000000000000     
   7.1437045048266049E-002  0.15110751300673370        0.0000000000000000     
   7.2709297893441646E-002  0.15866965771133376        0.0000000000000000     
   7.3895842731912603E-002  0.16634815458624425        0.0000000000000000     
   6.2307915151695516E-002  0.13586380270923354        0.0000000000000000     
   6.3626723216916301E-002  0.14319759478502078        0.0000000000000000     
   6.4866936025160499E-002  0.15064403414550051        0.0000000000000000     
   6.6028553576428090E-002  0.15820312079067272        0.0000000000000000     
   6.7111575870719087E-002  0.16587485472053737        0.0000000000000000     
   5.6128542769374207E-002  0.13546331620413990        0.0000000000000000     
   5.7323408608680466E-002  0.14281092088753411        0.0000000000000000     
   5.8446074790737684E-002  0.15027104751270062        0.0000000000000000     
   5.9496541315545860E-002  0.15784369607963933        0.0000000000000000     
   6.0474808183105008E-002  0.16552886658835031        0.0000000000000000     
   5.0097298190837150E-002  0.13513082059318390        0.0000000000000000     
   5.1169140371678336E-002  0.14250169877998409        0.0000000000000000     
   5.2174461344997619E-002  0.14998855310833401        0.0000000000000000     
   5.3113261110794965E-002  0.15759138357823368        0.0000000000000000     
   5.3985539669070409E-002  0.16531019018968307        0.0000000000000000     
   4.4214181416084346E-002  0.13486631587636561        0.0000000000000000     
   4.5163918505909936E-002  0.14226992846237069        0.0000000000000000     
   4.6052095687940289E-002  0.14979655093240071        0.0000000000000000     
   4.6878712962175398E-002  0.15744618328645568        0.0000000000000000     
   4.7643770328615248E-002  0.16521882552453565        0.0000000000000000     
   0.0000000000000000        0.0000000000000000        0.0000000000000000     
   1.7983219250977873E-003   1.2768500370510716E-003   0.0000000000000000     
   3.6213747705462506E-003   2.9391968779394840E-003   0.0000000000000000     
   5.4691585363453900E-003   4.9870405226652374E-003   0.0000000000000000     
   7.3416732224952062E-003   7.4203809712283311E-003   0.0000000000000000     
   0.0000000000000000        0.0000000000000000        0.0000000000000000     
   1.5350192513045790E-003   1.2175872309068208E-003   0.0000000000000000     
   3.0994193912394948E-003   2.8209199686975743E-003   0.0000000000000000     
   4.6932004198047463E-003   4.8099982133722611E-003   0.0000000000000000     
   6.3163623370003346E-003   7.1848219649308792E-003   0.0000000000000000     
   0.0000000000000000        0.0000000000000000        0.0000000000000000     
   1.2878168871170760E-003   1.1700245335886320E-003   0.0000000000000000     
   2.6055760877364536E-003   2.7246508319488574E-003   0.0000000000000000     
   3.9532776018581317E-003   4.6638788950806752E-003   0.0000000000000000     
   5.3309214294821111E-003   6.9877087229840871E-003   0.0000000000000000     
   0.0000000000000000        0.0000000000000000        0.0000000000000000     
   1.0567148325352784E-003   1.1341619450965052E-003   0.0000000000000000     
   2.1398448600371267E-003   2.6503894676933328E-003   0.0000000000000000     
   3.2493900825055467E-003   4.5486825677904822E-003   0.0000000000000000     
   4.3853504999405357E-003   6.8290412453879522E-003   0.0000000000000000     
   0.0000000000000000        0.0000000000000000        0.0000000000000000     
   8.4171308755918539E-004   1.1099994654304407E-003   0.0000000000000000     
   1.7022257081415154E-003   2.5981358759310002E-003   0.0000000000000000     
   2.5815378617469898E-003   4.4644092315016797E-003   0.0000000000000000     
   3.4796495483756088E-003   6.7088195321424789E-003   0.0000000000000000     
   7.3416732224952062E-003   7.4203809712283311E-003   0.0000000000000000     
   9.2311794455456654E-003   1.0186759295669789E-002   0.0000000000000000     
   1.1129937822046732E-002   1.3233716568030641E-002   0.0000000000000000     
   1.3037948351998407E-002   1.6561252788310873E-002   0.0000000000000000     
   1.4955211035400687E-002   2.0169367956510503E-002   0.0000000000000000     
   6.3163623370003346E-003   7.1848219649308792E-003   0.0000000000000000     
   7.9561258844061747E-003   9.8958306002101398E-003   0.0000000000000000     
   9.5997118036021852E-003   1.2893463496046748E-002   0.0000000000000000     
   1.1247120094588363E-002   1.6177720652440712E-002   0.0000000000000000     
   1.2898350757364707E-002   1.9748602069392017E-002   0.0000000000000000     
   5.3309214294821111E-003   6.9877087229840871E-003   0.0000000000000000     
   6.7239590964092173E-003   9.6500737744485594E-003   0.0000000000000000     
   8.1178421284402794E-003   1.2604907508263560E-002   0.0000000000000000     
   9.5125705255752931E-003   1.5852209924429098E-002   0.0000000000000000     
   1.0908144287814260E-002   1.9391981022945162E-002   0.0000000000000000     
   4.3853504999405357E-003   6.8290412453879522E-003   0.0000000000000000     
   5.5346790815547931E-003   9.4494888183850514E-003   0.0000000000000000     
   6.6843287965610140E-003   1.2368048604681077E-002   0.0000000000000000     
   7.8342996449592018E-003   1.5584720604276037E-002   0.0000000000000000     
   8.9845916267493539E-003   1.9099504817169929E-002   0.0000000000000000     
   3.4796495483756088E-003   6.7088195321424789E-003   0.0000000000000000     
   4.3882858398429005E-003   9.2940757320196122E-003   0.0000000000000000     
   5.2991718079643934E-003   1.2182886785299296E-002   0.0000000000000000     
   6.2123074527400861E-003   1.5375252691981535E-002   0.0000000000000000     
   7.1276927741699804E-003   1.8871173452066323E-002   0.0000000000000000     
   1.4955211035400687E-002   2.0169367956510503E-002   0.0000000000000000     
   1.6856596424675952E-002   2.4029636077649331E-002   0.0000000000000000     
   1.8716975072246574E-002   2.8113631156747185E-002   0.0000000000000000     
   2.0536346978112557E-002   3.2421353193804070E-002   0.0000000000000000     
   2.2314712142273888E-002   3.6952802188819966E-002   0.0000000000000000     
   1.2898350757364707E-002   1.9748602069392017E-002   0.0000000000000000     
   1.4537275875999090E-002   2.3579988358814207E-002   0.0000000000000000     
   1.6147767534559369E-002   2.7645760132620798E-002   0.0000000000000000     
   1.7729825733045549E-002   3.1945917390811790E-002   0.0000000000000000     
   1.9283450471457634E-002   3.6480460133387196E-002   0.0000000000000000     
   1.0908144287814260E-002   1.9391981022945162E-002   0.0000000000000000     
   1.2294545211769058E-002   2.3199268231942283E-002   0.0000000000000000     
   1.3661755094051540E-002   2.7249118979550974E-002   0.0000000000000000     
   1.5009773934661725E-002   3.1541533265771242E-002   0.0000000000000000     
   1.6338601733599599E-002   3.6076511090603079E-002   0.0000000000000000     
   8.9845916267493539E-003   1.9099504817169929E-002   0.0000000000000000     
   1.0128404431985856E-002   2.2887475697033553E-002   0.0000000000000000     
   1.1258937750723093E-002   2.6923707697537713E-002   0.0000000000000000     
   1.2376191582961070E-002   3.1208200818682402E-002   0.0000000000000000     
   1.3480165928699777E-002   3.5740955060467629E-002   0.0000000000000000     
   7.1276927741699804E-003   1.8871173452066323E-002   0.0000000000000000     
   8.0388535366494891E-003   2.2644610754088027E-002   0.0000000000000000     
   8.9393155045740247E-003   2.6669526286581018E-002   0.0000000000000000     
   9.8290786779435882E-003   3.0945920049545290E-002   0.0000000000000000     
   1.0708143056758181E-002   3.5473792042980845E-002   0.0000000000000000     
   2.2314712142273888E-002   3.6952802188819966E-002   0.0000000000000000     
   2.4048649223342756E-002   4.1698904642119880E-002   0.0000000000000000     
   2.5734736879931313E-002   4.6650587054028775E-002   0.0000000000000000     
   2.7372975112039573E-002   5.1807849424546686E-002   0.0000000000000000     
   2.8963363919667529E-002   5.7170691753673591E-002   0.0000000000000000     
   1.9283450471457634E-002   3.6480460133387196E-002   0.0000000000000000     
   2.0801695922720433E-002   4.1235503567075511E-002   0.0000000000000000     
   2.2277616259758767E-002   4.6197162898605246E-002   0.0000000000000000     
   2.3711211482572637E-002   5.1365438127976400E-002   0.0000000000000000     
   2.5102481591162035E-002   5.6740329255188966E-002   0.0000000000000000     
   1.6338601733599599E-002   3.6076511090603079E-002   0.0000000000000000     
   1.7639697673423878E-002   4.0836826063803011E-002   0.0000000000000000     
   1.8904520936693283E-002   4.5805251795127559E-002   0.0000000000000000     
   2.0133071523407816E-002   5.0981788284576696E-002   0.0000000000000000     
   2.1325349433567467E-002   5.6366435532150441E-002   0.0000000000000000     
   1.3480165928699777E-002   3.5740955060467629E-002   0.0000000000000000     
   1.4562654475453091E-002   4.0502872132302407E-002   0.0000000000000000     
   1.5615450910734867E-002   4.5474853743595722E-002   0.0000000000000000     
   1.6638555234545108E-002   5.0656899894347601E-002   0.0000000000000000     
   1.7631967446883813E-002   5.6049010584558016E-002   0.0000000000000000     
   1.0708143056758181E-002   3.5473792042980845E-002   0.0000000000000000     
   1.1570566328808067E-002   4.0233641772573665E-002   0.0000000000000000     
   1.2410406181883512E-002   4.5205968744009756E-002   0.0000000000000000     
   1.3227662615984516E-002   5.0390772957289089E-002   0.0000000000000000     
   1.4022335631111084E-002   5.5788054412411685E-002   0.0000000000000000     
   2.8963363919667529E-002   5.7170691753673591E-002   0.0000000000000000     
   3.0506853322513783E-002   6.2726473930011101E-002   0.0000000000000000     
   3.2004393340276931E-002   6.8462555842160822E-002   0.0000000000000000     
   3.3455983972956987E-002   7.4378937490122768E-002   0.0000000000000000     
   3.4861625220553936E-002   8.0475618873896898E-002   0.0000000000000000     
   2.5102481591162035E-002   5.6740329255188966E-002   0.0000000000000000     
   2.6452793882885850E-002   6.2309165167613541E-002   0.0000000000000000     
   2.7763515655102947E-002   6.8059274752620691E-002   0.0000000000000000     
   2.9034646907813332E-002   7.3990658010210417E-002   0.0000000000000000     
   3.0266187641017010E-002   8.0103314940382739E-002   0.0000000000000000     
   2.1325349433567467E-002   5.6366435532150441E-002   0.0000000000000000     
   2.2482700801094681E-002   6.1946161713461886E-002   0.0000000000000000     
   2.3606471759911898E-002   6.7707935004124087E-002   0.0000000000000000     
   2.4696662310019123E-002   7.3651755404137043E-002   0.0000000000000000     
   2.5753272451416346E-002   7.9777622913500781E-002   0.0000000000000000     
   1.7631967446883813E-002   5.6049010584558016E-002   0.0000000000000000     
   1.8596574077140278E-002   6.1637463567556103E-002   0.0000000000000000     
   1.9533261654703784E-002   6.7408536596670982E-002   0.0000000000000000     
   2.0442030179574345E-002   7.3362229671902618E-002   0.0000000000000000     
   2.1322879651751954E-002   7.9498542793251026E-002   0.0000000000000000     
   1.4022335631111084E-002   5.5788054412411685E-002   0.0000000000000000     
   1.4794413711022638E-002   6.1383070729896218E-002   0.0000000000000000     
   1.5543885339478610E-002   6.7161079530261375E-002   0.0000000000000000     
   1.6270750516479009E-002   7.3122080813507129E-002   0.0000000000000000     
   1.6975009242023824E-002   7.9266074579633514E-002   0.0000000000000000     
   3.4861625220553936E-002   8.0475618873896898E-002   0.0000000000000000     
   3.6216026862414076E-002   8.6743246819464742E-002   0.0000000000000000     
   3.7513898677883684E-002   9.3172468152807691E-002   0.0000000000000000     
   3.8755240666962766E-002   9.9763282873925718E-002   0.0000000000000000     
   3.9940052829651330E-002  0.10651569098281891        0.0000000000000000     
   3.0266187641017010E-002   8.0103314940382739E-002   0.0000000000000000     
   3.1452831859715639E-002   8.6387203598788695E-002   0.0000000000000000     
   3.2589273568910886E-002   9.2832282041079434E-002   0.0000000000000000     
   3.3675512768602756E-002   9.9438550267254913E-002   0.0000000000000000     
   3.4711549458791256E-002  0.10620600827731516        0.0000000000000000     
   2.5753272451416346E-002   7.9777622913500781E-002   0.0000000000000000     
   2.6771353773651734E-002   8.6075026982623412E-002   0.0000000000000000     
   2.7745957866273433E-002   9.2533457061913113E-002   0.0000000000000000     
   2.8677084729281453E-002   9.9152913151369898E-002   0.0000000000000000     
   2.9564734362675781E-002  0.10593339525099374        0.0000000000000000     
   2.1322879651751954E-002   7.9498542793251026E-002   0.0000000000000000     
   2.2171592604222360E-002   8.5806716970968866E-002   0.0000000000000000     
   2.2983951569971319E-002   9.2275993215308744E-002   0.0000000000000000     
   2.3759956548998835E-002   9.8906371526270645E-002   0.0000000000000000     
   2.4499607541304900E-002  0.10569785190385461        0.0000000000000000     
   1.6975009242023824E-002   7.9266074579633514E-002   0.0000000000000000     
   1.7653548351427517E-002   8.5582273563825043E-002   0.0000000000000000     
   1.8303254680004547E-002   9.2059890501266298E-002   0.0000000000000000     
   1.8924128227754911E-002   9.8698925391957210E-002   0.0000000000000000     
   1.9516168994678618E-002  0.10549937823589783        0.0000000000000000     
   3.9940052829651330E-002  0.10651569098281891        0.0000000000000000     
   4.1074596303423361E-002  0.11341250864075114        0.0000000000000000     
   4.2165132225752876E-002  0.12043655200898636        0.0000000000000000     
   4.3211660596639868E-002  0.12758782108752448        0.0000000000000000     
   4.4214181416084346E-002  0.13486631587636561        0.0000000000000000     
   3.4711549458791256E-002  0.10620600827731516        0.0000000000000000     
   3.5703179983399003E-002  0.11311957874692433        0.0000000000000000     
   3.6656200686348644E-002  0.12016418435174663        0.0000000000000000     
   3.7570611567640168E-002  0.12733982509178204        0.0000000000000000     
   3.8446412627273593E-002  0.13464650096703057        0.0000000000000000     
   2.9564734362675781E-002  0.10593339525099374        0.0000000000000000     
   3.0413947479359330E-002  0.11286130904999490        0.0000000000000000     
   3.1229764792235000E-002  0.11992306023758374        0.0000000000000000     
   3.2012186301302793E-002  0.12711864881376023        0.0000000000000000     
   3.2761212006562714E-002  0.13444807477852433        0.0000000000000000     
   2.4499607541304900E-002  0.10569785190385461        0.0000000000000000     
   2.5206898791304330E-002  0.11263769954996286        0.0000000000000000     
   2.5885824543411942E-002  0.11971317966649767        0.0000000000000000     
   2.6536384797627731E-002  0.12692429225345903        0.0000000000000000     
   2.7158579553951692E-002  0.13427103731084689        0.0000000000000000     
   1.9516168994678618E-002  0.10549937823589783        0.0000000000000000     
   2.0082033919234014E-002  0.11244875024682820        0.0000000000000000     
   2.0624379939879468E-002  0.11953454263848841        0.0000000000000000     
   2.1143207056614981E-002  0.12675675541087841        0.0000000000000000     
   2.1638515269440547E-002  0.13411538856399827        0.0000000000000000     
   4.4214181416084346E-002  0.13486631587636561        0.0000000000000000     
   4.5163918505909936E-002  0.14226992846237069        0.0000000000000000     
   4.6052095687940289E-002  0.14979655093240071        0.0000000000000000     
   4.6878712962175398E-002  0.15744618328645568        0.0000000000000000     
   4.7643770328615248E-002  0.16521882552453565        0.0000000000000000     
   3.8446412627273593E-002  0.13464650096703057        0.0000000000000000     
   3.9274818946084901E-002  0.14208309176927489        0.0000000000000000     
   4.0047045604910105E-002  0.14964847729029762        0.0000000000000000     
   4.0763092603749197E-002  0.15734265753009880        0.0000000000000000     
   4.1422959942602179E-002  0.16516563248867844        0.0000000000000000     
   3.2761212006562714E-002  0.13444807477852433        0.0000000000000000     
   3.3468917626912884E-002  0.14190867053527764        0.0000000000000000     
   3.4127378881251468E-002  0.14949776848742163        0.0000000000000000     
   3.4736595769578445E-002  0.15721536863495639        0.0000000000000000     
   3.5296568291893822E-002  0.16506147097788182        0.0000000000000000     
   2.7158579553951692E-002  0.13427103731084689        0.0000000000000000     
   2.7746214548393891E-002  0.14174666476037900        0.0000000000000000     
   2.8293095516964371E-002  0.14934442452377281        0.0000000000000000     
   2.8799222459663133E-002  0.15706431660102840        0.0000000000000000     
   2.9264595376490180E-002  0.16490634099214582        0.0000000000000000     
   2.1638515269440547E-002  0.13411538856399827        0.0000000000000000     
   2.2106709710527913E-002  0.14159707444457886        0.0000000000000000     
   2.2544195512048820E-002  0.14918844539935108        0.0000000000000000     
   2.2950972674003266E-002  0.15688950142831490        0.0000000000000000     
   2.3327041196391250E-002  0.16470024253147039        0.0000000000000000     
   0.0000000000000000        0.0000000000000000        0.0000000000000000     
   8.4171308755918539E-004   1.1099994654304407E-003   0.0000000000000000     
   1.7022257081415154E-003   2.5981358759310002E-003   0.0000000000000000     
   2.5815378617469898E-003   4.4644092315016797E-003   0.0000000000000000     
   3.4796495483756088E-003   6.7088195321424789E-003   0.0000000000000000     
   0.0000000000000000        0.0000000000000000        0.0000000000000000     
   6.3389528724257607E-004   1.0939744198239850E-003   0.0000000000000000     
   1.2781693584220967E-003   2.5620408961334684E-003   0.0000000000000000     
   1.9328222135385625E-003   4.4041994289284493E-003   0.0000000000000000     
   2.5978538525919729E-003   6.6204500182089291E-003   0.0000000000000000     
   0.0000000000000000        0.0000000000000000        0.0000000000000000     
   4.2434506663922860E-004   1.0825241335106857E-003   0.0000000000000000     
   8.5312653725134980E-004   2.5362553677723424E-003   0.0000000000000000     
   1.2863444118363637E-003   4.3611937027849702E-003   0.0000000000000000     
   1.7239986903942700E-003   6.5573391385485699E-003   0.0000000000000000     
   0.0000000000000000        0.0000000000000000        0.0000000000000000     
   2.1306242574914311E-004   1.0756486064905427E-003   0.0000000000000000     
   4.2709724462927417E-004   2.5207792908476237E-003   0.0000000000000000     
   6.4210445664039336E-004   4.3353920530712440E-003   0.0000000000000000     
   8.5808406178250062E-004   6.5194868931614004E-003   0.0000000000000000     
   0.0000000000000000        0.0000000000000000        0.0000000000000000     
   4.7364572319444484E-008   1.0733478387635561E-003   0.0000000000000000     
   8.1480555869919633E-008   2.5156126653593119E-003   0.0000000000000000     
   1.0234795065156097E-007   4.3267944797872673E-003   0.0000000000000000     
   1.0996675666431429E-007   6.5068932820474216E-003   0.0000000000000000     
   3.4796495483756088E-003   6.7088195321424789E-003   0.0000000000000000     
   4.3882858398429005E-003   9.2940757320196122E-003   0.0000000000000000     
   5.2991718079643934E-003   1.2182886785299296E-002   0.0000000000000000     
   6.2123074527400861E-003   1.5375252691981535E-002   0.0000000000000000     
   7.1276927741699804E-003   1.8871173452066323E-002   0.0000000000000000     
   2.5978538525919729E-003   6.6204500182089291E-003   0.0000000000000000     
   3.2703132372694488E-003   9.1778592691998551E-003   0.0000000000000000     
   3.9472493292581120E-003   1.2043493787126169E-002   0.0000000000000000     
   4.6286621285579624E-003   1.5217353571987882E-002   0.0000000000000000     
   5.3145516351689997E-003   1.8699438623784981E-002   0.0000000000000000     
   1.7239986903942700E-003   6.5573391385485699E-003   0.0000000000000000     
   2.1662951398303465E-003   9.0948641837733796E-003   0.0000000000000000     
   2.6134395270498724E-003   1.1943941347169647E-002   0.0000000000000000     
   3.0654318520528454E-003   1.5104570628737367E-002   0.0000000000000000     
   3.5222721148392673E-003   1.8576752028476542E-002   0.0000000000000000     
   8.5808406178250062E-004   6.5194868931614004E-003   0.0000000000000000     
   1.0762315475255943E-003   9.0450904757401977E-003   0.0000000000000000     
   1.2977424013396726E-003   1.1884229465429729E-002   0.0000000000000000     
   1.5226166232247358E-003   1.5036903862230000E-002   0.0000000000000000     
   1.7508542131807840E-003   1.8503113666141005E-002   0.0000000000000000     
   1.0996675666431429E-007   6.5068932820474216E-003   0.0000000000000000     
   1.2246035519078609E-007   9.0285381451002972E-003   0.0000000000000000     
   1.5795212751399621E-007   1.1864358141906414E-002   0.0000000000000000     
   2.1644207363320096E-007   1.5014353272465773E-002   0.0000000000000000     
   2.9793019354915420E-007   1.8478523536778372E-002   0.0000000000000000     
   7.1276927741699804E-003   1.8871173452066323E-002   0.0000000000000000     
   8.0388535366494891E-003   2.2644610754088027E-002   0.0000000000000000     
   8.9393155045740247E-003   2.6669526286581018E-002   0.0000000000000000     
   9.8290786779435882E-003   3.0945920049545290E-002   0.0000000000000000     
   1.0708143056758181E-002   3.5473792042980845E-002   0.0000000000000000     
   5.3145516351689997E-003   1.8699438623784981E-002   0.0000000000000000     
   5.9980045532723875E-003   2.2462248292697960E-002   0.0000000000000000     
   6.6721075870492912E-003   2.6478281928907325E-002   0.0000000000000000     
   7.3368607364997090E-003   3.0747539532413062E-002   0.0000000000000000     
   7.9922640016236411E-003   3.5270021103215178E-002   0.0000000000000000     
   3.5222721148392673E-003   1.8576752028476542E-002   0.0000000000000000     
   3.9779695093669857E-003   2.2331963202455628E-002   0.0000000000000000     
   4.4265332295938464E-003   2.6341681806743081E-002   0.0000000000000000     
   4.8679632755198520E-003   3.0605907841338899E-002   0.0000000000000000     
   5.3022596471450009E-003   3.5124641306243091E-002   0.0000000000000000     
   1.7508542131807840E-003   1.8503113666141005E-002   0.0000000000000000     
   1.9787484049332820E-003   2.2253755483361008E-002   0.0000000000000000     
   2.2025924322076930E-003   2.6259725920088267E-002   0.0000000000000000     
   2.4223862950040181E-003   3.0521024976322791E-002   0.0000000000000000     
   2.6381299933222577E-003   3.5037652652064571E-002   0.0000000000000000     
   2.9793019354915420E-007   1.8478523536778372E-002   0.0000000000000000     
   3.4123997127641359E-007   2.2227625135414118E-002   0.0000000000000000     
   2.8519489082959098E-007   2.6232414268942909E-002   0.0000000000000000     
   1.2979495220916072E-007   3.0492890937364747E-002   0.0000000000000000     
  -1.2495984458619179E-007   3.5009055140679632E-002   0.0000000000000000     
   1.0708143056758181E-002   3.5473792042980845E-002   0.0000000000000000     
   1.1570566328808067E-002   4.0233641772573665E-002   0.0000000000000000     
   1.2410406181883512E-002   4.5205968744009756E-002   0.0000000000000000     
   1.3227662615984516E-002   5.0390772957289089E-002   0.0000000000000000     
   1.4022335631111084E-002   5.5788054412411685E-002   0.0000000000000000     
   7.9922640016236411E-003   3.5270021103215178E-002   0.0000000000000000     
   8.6351701784233952E-003   4.0026494219537280E-002   0.0000000000000000     
   9.2624320629012789E-003   4.4997726459602982E-002   0.0000000000000000     
   9.8740496550572907E-003   5.0183717823412306E-002   0.0000000000000000     
   1.0470022954891432E-002   5.5584468310965231E-002   0.0000000000000000     
   5.3022596471450009E-003   3.5124641306243091E-002   0.0000000000000000     
   5.7282029692336664E-003   3.9878788708113691E-002   0.0000000000000000     
   6.1445738665502278E-003   4.4849256553608795E-002   0.0000000000000000     
   6.5513723390946818E-003   5.0036044842728361E-002   0.0000000000000000     
   6.9485983868670300E-003   5.5439153575472418E-002   0.0000000000000000     
   2.6381299933222577E-003   3.5037652652064571E-002   0.0000000000000000     
   2.8496647012388808E-003   3.9790525238302919E-002   0.0000000000000000     
   3.0568315928303580E-003   4.4760559026027151E-002   0.0000000000000000     
   3.2596306680966890E-003   4.9947754015237253E-002   0.0000000000000000     
   3.4580619270378728E-003   5.5352110205933253E-002   0.0000000000000000     
  -1.2495984458619179E-007   3.5009055140679632E-002   0.0000000000000000     
  -4.4462556096310814E-007   3.9761703810104944E-002   0.0000000000000000     
  -7.9475825833023568E-007   4.4731633876858072E-002   0.0000000000000000     
  -1.1753579366889974E-006   4.9918845340938996E-002   0.0000000000000000     
  -1.5864245960367507E-006   5.5323338202347735E-002   0.0000000000000000     
   1.4022335631111084E-002   5.5788054412411685E-002   0.0000000000000000     
   1.4794413711022638E-002   6.1383070729896218E-002   0.0000000000000000     
   1.5543885339478610E-002   6.7161079530261375E-002   0.0000000000000000     
   1.6270750516479009E-002   7.3122080813507129E-002   0.0000000000000000     
   1.6975009242023824E-002   7.9266074579633514E-002   0.0000000000000000     
   1.0470022954891432E-002   5.5584468310965231E-002   0.0000000000000000     
   1.1049504556665436E-002   6.1184209020305087E-002   0.0000000000000000     
   1.1611647054641037E-002   6.6967171049475263E-002   0.0000000000000000     
   1.2156450448818235E-002   7.2933354398475758E-002   0.0000000000000000     
   1.2683914739197031E-002   7.9082759067306552E-002   0.0000000000000000     
   6.9485983868670300E-003   5.5439153575472418E-002   0.0000000000000000     
   7.3351314679923514E-003   6.1042104258605630E-002   0.0000000000000000     
   7.7098510405957266E-003   6.6828418398892711E-002   0.0000000000000000     
   8.0727571046771592E-003   7.2798095996333662E-002   0.0000000000000000     
   8.4238496602366420E-003   7.8951137050928447E-002   0.0000000000000000     
   3.4580619270378728E-003   5.5352110205933253E-002   0.0000000000000000     
   3.6512944450033807E-003   6.0956756444797824E-002   0.0000000000000000     
   3.8384972973426806E-003   6.6744821578513677E-002   0.0000000000000000     
   4.0196704840557741E-003   7.2716305607080811E-002   0.0000000000000000     
   4.1948140051426596E-003   7.8871208530499240E-002   0.0000000000000000     
  -1.5864245960367507E-006   5.5323338202347735E-002   0.0000000000000000     
  -2.0065123014749312E-006   6.0928165578881664E-002   0.0000000000000000     
  -2.4141751181005295E-006   6.6716380588338162E-002   0.0000000000000000     
  -2.8094130459144944E-006   7.2687983230717249E-002   0.0000000000000000     
  -3.1922260849172324E-006   7.8842973506018890E-002   0.0000000000000000     
   1.6975009242023824E-002   7.9266074579633514E-002   0.0000000000000000     
   1.7653548351427517E-002   8.5582273563825043E-002   0.0000000000000000     
   1.8303254680004547E-002   9.2059890501266298E-002   0.0000000000000000     
   1.8924128227754911E-002   9.8698925391957210E-002   0.0000000000000000     
   1.9516168994678618E-002  0.10549937823589783        0.0000000000000000     
   1.2683914739197031E-002   7.9082759067306552E-002   0.0000000000000000     
   1.3192101621444366E-002   8.5404728125414109E-002   0.0000000000000000     
   1.3679072791227180E-002   9.1888604642244950E-002   0.0000000000000000     
   1.4144828248545476E-002   9.8534388617799007E-002   0.0000000000000000     
   1.4589367993399249E-002  0.10534208005207635        0.0000000000000000     
   8.4238496602366420E-003   7.8951137050928447E-002   0.0000000000000000     
   8.7621330204500584E-003   8.5277112019958162E-002   0.0000000000000000     
   9.0866114984932776E-003   9.1765591360703849E-002   0.0000000000000000     
   9.3972850943663012E-003   9.8416575073165508E-002   0.0000000000000000     
   9.6941538080691312E-003  0.10523006315734314        0.0000000000000000     
   4.1948140051426596E-003   7.8871208530499240E-002   0.0000000000000000     
   4.3636425484445962E-003   8.5199425247457231E-002   0.0000000000000000     
   4.5258708018028407E-003   9.1690850656643050E-002   0.0000000000000000     
   4.6814987652173947E-003   9.8345484758056725E-002   0.0000000000000000     
   4.8305264386882566E-003  0.10516332755169823        0.0000000000000000     
  -3.1922260849172324E-006   7.8842973506018890E-002   0.0000000000000000     
  -3.3697945720184523E-006   8.5171667807911272E-002   0.0000000000000000     
  -3.1492988441275379E-006   9.1664382530062510E-002   0.0000000000000000     
  -2.5307389012469014E-006   9.8321117672472619E-002   0.0000000000000000     
  -1.5141147433729921E-006  0.10514187323514160        0.0000000000000000     
   1.9516168994678618E-002  0.10549937823589783        0.0000000000000000     
   2.0082033919234014E-002  0.11244875024682820        0.0000000000000000     
   2.0624379939879468E-002  0.11953454263848841        0.0000000000000000     
   2.1143207056614981E-002  0.12675675541087841        0.0000000000000000     
   2.1638515269440547E-002  0.13411538856399827        0.0000000000000000     
   1.4589367993399249E-002  0.10534208005207635        0.0000000000000000     
   1.5014033691706815E-002  0.11229885174223940        0.0000000000000000     
   1.5420167009386476E-002  0.11939187648545063        0.0000000000000000     
   1.5807767946438234E-002  0.12662115428171003        0.0000000000000000     
   1.6176836502862089E-002  0.13398668513101764        0.0000000000000000     
   9.6941538080691312E-003  0.10523006315734314        0.0000000000000000     
   9.9775789372811806E-003  0.11219239463784493        0.0000000000000000     
   1.0247921779681866E-002  0.11928990853927900        0.0000000000000000     
   1.0505182335271184E-002  0.12652260486164540        0.0000000000000000     
   1.0749360604049138E-002  0.13389048360494413        0.0000000000000000     
   4.8305264386882566E-003  0.10516332755169823        0.0000000000000000     
   4.9726696559571088E-003  0.11212937893364479        0.0000000000000000     
   5.1076442507656345E-003  0.11922863879997356        0.0000000000000000     
   5.2354502231138304E-003  0.12646110715068454        0.0000000000000000     
   5.3560875730017006E-003  0.13382678398577771        0.0000000000000000     
  -1.5141147433729921E-006  0.10514187323514160        0.0000000000000000     
  -6.9415226540002657E-007  0.11210980462963897        0.0000000000000000     
  -6.6557736221734259E-007  0.11920806726753425        0.0000000000000000     
  -1.4283900338263225E-006  0.12643666114882740        0.0000000000000000     
  -2.9825902802273728E-006  0.13379558627351851        0.0000000000000000     
   2.1638515269440547E-002  0.13411538856399827        0.0000000000000000     
   2.2106709710527913E-002  0.14159707444457886        0.0000000000000000     
   2.2544195512048820E-002  0.14918844539935108        0.0000000000000000     
   2.2950972674003266E-002  0.15688950142831490        0.0000000000000000     
   2.3327041196391250E-002  0.16470024253147039        0.0000000000000000     
   1.6176836502862089E-002  0.13398668513101764        0.0000000000000000     
   1.6526358194516651E-002  0.14146953483735106        0.0000000000000000     
   1.6855318537260550E-002  0.14905076920468804        0.0000000000000000     
   1.7163717531093772E-002  0.15673038823302854        0.0000000000000000     
   1.7451555176016327E-002  0.16450839192237260        0.0000000000000000     
   1.0749360604049138E-002  0.13389048360494413        0.0000000000000000     
   1.0981115081561812E-002  0.14137368118816934        0.0000000000000000     
   1.1201104263355301E-002  0.14895233403031530        0.0000000000000000     
   1.1409328149429600E-002  0.15662644213138202        0.0000000000000000     
   1.1605786739784709E-002  0.16439600549136946        0.0000000000000000     
   5.3560875730017006E-003  0.13382678398577771        0.0000000000000000     
   5.4709803716633974E-003  0.14130951349703366        0.0000000000000000     
   5.5815526903330789E-003  0.14889313987623287        0.0000000000000000     
   5.6878045290107418E-003  0.15657766312337529        0.0000000000000000     
   5.7897358876963919E-003  0.16436308323846094        0.0000000000000000     
  -2.9825902802273728E-006  0.13379558627351851        0.0000000000000000     
  -4.0459351785988862E-006  0.14127703176394407        0.0000000000000000     
  -3.3361818061232668E-006  0.14887318674244068        0.0000000000000000     
  -8.5333016279728912E-007  0.15658405120900834        0.0000000000000000     
   3.4026197513765261E-006  0.16440962516364707        0.0000000000000000     
   0.0000000000000000        0.0000000000000000        0.0000000000000000     
   4.7364572319444484E-008   1.0733478387635561E-003   0.0000000000000000     
   8.1480555869919633E-008   2.5156126653593119E-003   0.0000000000000000     
   1.0234795065156097E-007   4.3267944797872673E-003   0.0000000000000000     
   1.0996675666431429E-007   6.5068932820474216E-003   0.0000000000000000     
   0.0000000000000000        0.0000000000000000        0.0000000000000000     
  -2.1297073093224609E-004   1.0756264159108961E-003   0.0000000000000000     
  -4.2693759116894123E-004   2.5207587984550895E-003   0.0000000000000000     
  -6.4190058071008553E-004   4.3353971476325802E-003   0.0000000000000000     
  -8.5785969955567900E-004   6.5195414634433690E-003   0.0000000000000000     
   0.0000000000000000        0.0000000000000000        0.0000000000000000     
  -4.2426247480555713E-004   1.0824889235137333E-003   0.0000000000000000     
  -8.5297680674523786E-004   2.5362209972826406E-003   0.0000000000000000     
  -1.2861429958190423E-003   4.3611962213067207E-003   0.0000000000000000     
  -1.7237610420269699E-003   6.5574145955859748E-003   0.0000000000000000     
   0.0000000000000000        0.0000000000000000        0.0000000000000000     
  -6.3382786704761372E-004   1.0939353615720679E-003   0.0000000000000000     
  -1.2780361661730198E-003   2.5619992618419645E-003   0.0000000000000000     
  -1.9326248973762180E-003   4.4041917008096889E-003   0.0000000000000000     
  -2.5975940606572088E-003   6.6205126784752424E-003   0.0000000000000000     
   0.0000000000000000        0.0000000000000000        0.0000000000000000     
  -8.4166690765841590E-004   1.1099657300858996E-003   0.0000000000000000     
  -1.7021156694522871E-003   2.5980935921330610E-003   0.0000000000000000     
  -2.5813462853816133E-003   4.4643835861414849E-003   0.0000000000000000     
  -3.4793587554463952E-003   6.7088357121111702E-003   0.0000000000000000     
   1.0996675666431429E-007   6.5068932820474216E-003   0.0000000000000000     
   1.2246035519078609E-007   9.0285381451002972E-003   0.0000000000000000     
   1.5795212751399621E-007   1.1864358141906414E-002   0.0000000000000000     
   2.1644207363320096E-007   1.5014353272465773E-002   0.0000000000000000     
   2.9793019354915420E-007   1.8478523536778372E-002   0.0000000000000000     
  -8.5785969955567900E-004   6.5195414634433690E-003   0.0000000000000000     
  -1.0759775715902637E-003   9.0451811494784307E-003   0.0000000000000000     
  -1.2974168206983810E-003   1.1884305609328740E-002   0.0000000000000000     
  -1.5221774468800315E-003   1.5036914842994294E-002   0.0000000000000000     
  -1.7502594501352148E-003   1.8503008850475101E-002   0.0000000000000000     
  -1.7237610420269699E-003   6.5574145955859748E-003   0.0000000000000000     
  -2.1660139982201698E-003   9.0949934464993349E-003   0.0000000000000000     
  -2.6130849172497886E-003   1.1944050100425737E-002   0.0000000000000000     
  -3.0649737991158277E-003   1.5104584557365174E-002   0.0000000000000000     
  -3.5216806438182861E-003   1.8576596817317652E-002   0.0000000000000000     
  -2.5975940606572088E-003   6.6205126784752424E-003   0.0000000000000000     
  -3.2699868195345278E-003   9.1779750361630167E-003   0.0000000000000000     
  -3.9468463375267092E-003   1.2043591615197406E-002   0.0000000000000000     
  -4.6281726146337552E-003   1.5217362415578410E-002   0.0000000000000000     
  -5.3139656508556640E-003   1.8699287437306027E-002   0.0000000000000000     
  -3.4793587554463952E-003   6.7088357121111702E-003   0.0000000000000000     
  -4.3878960355333363E-003   9.2941259184694744E-003   0.0000000000000000     
  -5.2987010815291422E-003   1.2182930153643750E-002   0.0000000000000000     
  -6.2117738934338142E-003   1.5375248417634001E-002   0.0000000000000000     
  -7.1271144712473505E-003   1.8871080710440222E-002   0.0000000000000000     
   2.9793019354915420E-007   1.8478523536778372E-002   0.0000000000000000     
   3.4123997127641359E-007   2.2227625135414118E-002   0.0000000000000000     
   2.8519489082959098E-007   2.6232414268942909E-002   0.0000000000000000     
   1.2979495220916072E-007   3.0492890937364747E-002   0.0000000000000000     
  -1.2495984458619179E-007   3.5009055140679632E-002   0.0000000000000000     
  -1.7502594501352148E-003   1.8503008850475101E-002   0.0000000000000000     
  -1.9780669854094564E-003   2.2253611529379134E-002   0.0000000000000000     
  -2.2020042076482836E-003   2.6259746777314359E-002   0.0000000000000000     
  -2.4220711168516946E-003   3.0521414594280791E-002   0.0000000000000000     
  -2.6382677130196899E-003   3.5038614980278424E-002   0.0000000000000000     
  -3.5216806438182861E-003   1.8576596817317652E-002   0.0000000000000000     
  -3.9772912710993470E-003   2.2331754036020245E-002   0.0000000000000000     
  -4.4258915007011849E-003   2.6341723369210007E-002   0.0000000000000000     
  -4.8674813326238112E-003   3.0606504816886957E-002   0.0000000000000000     
  -5.3020607668672138E-003   3.5126098379051084E-002   0.0000000000000000     
  -5.3139656508556640E-003   1.8699287437306027E-002   0.0000000000000000     
  -5.9973316170983879E-003   2.2462052655337447E-002   0.0000000000000000     
  -6.6713766842678799E-003   2.6478344044629849E-002   0.0000000000000000     
  -7.3361008523641340E-003   3.0748161605183240E-002   0.0000000000000000     
  -7.9915041213871607E-003   3.5271505336997612E-002   0.0000000000000000     
  -7.1271144712473505E-003   1.8871080710440222E-002   0.0000000000000000     
  -8.0381880234065856E-003   2.2644507387330745E-002   0.0000000000000000     
  -8.9384597583483608E-003   2.6669608803573885E-002   0.0000000000000000     
  -9.8279296760726744E-003   3.0946384959169636E-002   0.0000000000000000     
  -1.0706597776579521E-002   3.5474835854118016E-002   0.0000000000000000     
  -1.2495984458619179E-007   3.5009055140679632E-002   0.0000000000000000     
  -4.4462556096310814E-007   3.9761703810104944E-002   0.0000000000000000     
  -7.9475825833023568E-007   4.4731633876858072E-002   0.0000000000000000     
  -1.1753579366889974E-006   4.9918845340938996E-002   0.0000000000000000     
  -1.5864245960367507E-006   5.5323338202347735E-002   0.0000000000000000     
  -2.6382677130196899E-003   3.5038614980278424E-002   0.0000000000000000     
  -2.8503676843904132E-003   3.9791958040708689E-002   0.0000000000000000     
  -3.0581447192020027E-003   4.4762053880973006E-002   0.0000000000000000     
  -3.2615988174544623E-003   4.9948902501071382E-002   0.0000000000000000     
  -3.4607299791477881E-003   5.5352503901003831E-002   0.0000000000000000     
  -5.3020607668672138E-003   3.5126098379051084E-002   0.0000000000000000     
  -5.7283471484740143E-003   3.9880921547303022E-002   0.0000000000000000     
  -6.1450578224868241E-003   4.4851391813243394E-002   0.0000000000000000     
  -6.5521927889056406E-003   5.0037509176872212E-002   0.0000000000000000     
  -6.9497520477304672E-003   5.5439273638189478E-002   0.0000000000000000     
  -7.9915041213871607E-003   3.5271505336997612E-002   0.0000000000000000     
  -8.6343830178117684E-003   4.0028594329887958E-002   0.0000000000000000     
  -9.2615340681127950E-003   4.4999647673669249E-002   0.0000000000000000     
  -9.8729572722902285E-003   5.0184665368341493E-002   0.0000000000000000     
  -1.0468652630344076E-002   5.5583647413904681E-002   0.0000000000000000     
  -1.0706597776579521E-002   3.5474835854118016E-002   0.0000000000000000     
  -1.1568475292403679E-002   4.0234976388463496E-002   0.0000000000000000     
  -1.2407573456079913E-002   4.5206821462250552E-002   0.0000000000000000     
  -1.3223892267608223E-002   5.0390371075479203E-002   0.0000000000000000     
  -1.4017431726988612E-002   5.5785625228149449E-002   0.0000000000000000     
  -1.5864245960367507E-006   5.5323338202347735E-002   0.0000000000000000     
  -2.0065123014749312E-006   6.0928165578881664E-002   0.0000000000000000     
  -2.4141751181005295E-006   6.6716380588338162E-002   0.0000000000000000     
  -2.8094130459144944E-006   7.2687983230717249E-002   0.0000000000000000     
  -3.1922260849172324E-006   7.8842973506018890E-002   0.0000000000000000     
  -3.4607299791477881E-003   5.5352503901003831E-002   0.0000000000000000     
  -3.6546782121036781E-003   6.0956135837521200E-002   0.0000000000000000     
  -3.8425835241438278E-003   6.6743076067374396E-002   0.0000000000000000     
  -4.0244459152682351E-003   7.2713324590563386E-002   0.0000000000000000     
  -4.2002653854769012E-003   7.8866881407088210E-002   0.0000000000000000     
  -6.9497520477304672E-003   5.5439273638189478E-002   0.0000000000000000     
  -7.3366274625846946E-003   6.1040471397380482E-002   0.0000000000000000     
  -7.7117108970917040E-003   6.6824888654630571E-002   0.0000000000000000     
  -8.0750023512515083E-003   7.2792525409939746E-002   0.0000000000000000     
  -8.4265018250640998E-003   7.8943381663307957E-002   0.0000000000000000     
  -1.0468652630344076E-002   5.5583647413904681E-002   0.0000000000000000     
  -1.1047854263744515E-002   6.1181172258459517E-002   0.0000000000000000     
  -1.1609796293961736E-002   6.6961818350106714E-002   0.0000000000000000     
  -1.2154478720995739E-002   7.2925585688846259E-002   0.0000000000000000     
  -1.2681901544846517E-002   7.9072474274678173E-002   0.0000000000000000     
  -1.4017431726988612E-002   5.5785625228149449E-002   0.0000000000000000     
  -1.4788358615583155E-002   6.1378238420758305E-002   0.0000000000000000     
  -1.5536839714753923E-002   6.7153865153802797E-002   0.0000000000000000     
  -1.6262875024500922E-002   7.3112505427282981E-002   0.0000000000000000     
  -1.6966464544824148E-002   7.9254159241198788E-002   0.0000000000000000     
  -3.1922260849172324E-006   7.8842973506018890E-002   0.0000000000000000     
  -3.3697945720184523E-006   8.5171667807911272E-002   0.0000000000000000     
  -3.1492988441275379E-006   9.1664382530062510E-002   0.0000000000000000     
  -2.5307389012469014E-006   9.8321117672472619E-002   0.0000000000000000     
  -1.5141147433729921E-006  0.10514187323514160        0.0000000000000000     
  -4.2002653854769012E-003   7.8866881407088210E-002   0.0000000000000000     
  -4.3693985722262785E-003   8.5194403832016499E-002   0.0000000000000000     
  -4.5312021129728184E-003   9.1686549180415924E-002   0.0000000000000000     
  -4.6856760077165199E-003   9.8343317452286444E-002   0.0000000000000000     
  -4.8328202564573838E-003  0.10516470864762810        0.0000000000000000     
  -8.4265018250640998E-003   7.8943381663307957E-002   0.0000000000000000     
  -8.7649383481446710E-003   8.5268197450469096E-002   0.0000000000000000     
  -9.0890409501084134E-003   9.1757712807156916E-002   0.0000000000000000     
  -9.3988096309553220E-003   9.8411927733371374E-002   0.0000000000000000     
  -9.6942443906853984E-003  0.10523084222911255        0.0000000000000000     
  -1.2681901544846517E-002   7.9072474274678173E-002   0.0000000000000000     
  -1.3189989122327200E-002   8.5393048663269022E-002   0.0000000000000000     
  -1.3676665810250914E-002   9.1877873410285443E-002   0.0000000000000000     
  -1.4141931608617649E-002   9.8526948515727436E-002   0.0000000000000000     
  -1.4585786517427420E-002  0.10534027397959500        0.0000000000000000     
  -1.6966464544824148E-002   7.9254159241198788E-002   0.0000000000000000     
  -1.7644550894773861E-002   8.5568957470416304E-002   0.0000000000000000     
  -1.8294076693400319E-002   9.2047030989801576E-002   0.0000000000000000     
  -1.8915041940703512E-002   9.8688379799354603E-002   0.0000000000000000     
  -1.9507446636683447E-002  0.10549300389907540        0.0000000000000000     
  -1.5141147433729921E-006  0.10514187323514160        0.0000000000000000     
  -6.9415226540002657E-007  0.11210980462963897        0.0000000000000000     
  -6.6557736221734259E-007  0.11920806726753425        0.0000000000000000     
  -1.4283900338263225E-006  0.12643666114882740        0.0000000000000000     
  -2.9825902802273728E-006  0.13379558627351851        0.0000000000000000     
  -4.8328202564573838E-003  0.10516470864762810        0.0000000000000000     
  -4.9734510495722363E-003  0.11213229749728092        0.0000000000000000     
  -5.1083845774379001E-003  0.11922765873208496        0.0000000000000000     
  -5.2376208400543795E-003  0.12645079235204018        0.0000000000000000     
  -5.3611598374216727E-003  0.13380169835714664        0.0000000000000000     
  -9.6942443906853984E-003  0.10523084222911255        0.0000000000000000     
  -9.9765395981492883E-003  0.11219548330802408        0.0000000000000000     
  -1.0246889622197625E-002  0.11928687798374953        0.0000000000000000     
  -1.0505294462830422E-002  0.12650502625628895        0.0000000000000000     
  -1.0751754120047667E-002  0.13384992812564228        0.0000000000000000     
  -1.4585786517427420E-002  0.10534027397959500        0.0000000000000000     
  -1.5009959797996558E-002  0.11229936206186841        0.0000000000000000     
  -1.5416180711641400E-002  0.11938572502252798        0.0000000000000000     
  -1.5804449258361955E-002  0.12659936286157367        0.0000000000000000     
  -1.6174765438158215E-002  0.13394027557900551        0.0000000000000000     
  -1.9507446636683447E-002  0.10549300389907540        0.0000000000000000     
  -2.0073711649114041E-002  0.11244393375881394        0.0000000000000000     
  -2.0616257845769217E-002  0.11952419984842026        0.0000000000000000     
  -2.1135085226648975E-002  0.12673380216789440        0.0000000000000000     
  -2.1630193791753308E-002  0.13407274071723629        0.0000000000000000     
  -2.9825902802273728E-006  0.13379558627351851        0.0000000000000000     
  -4.0459351785988862E-006  0.14127703176394407        0.0000000000000000     
  -3.3361818061232668E-006  0.14887318674244068        0.0000000000000000     
  -8.5333016279728912E-007  0.15658405120900834        0.0000000000000000     
   3.4026197513765261E-006  0.16440962516364707        0.0000000000000000     
  -5.3611598374216727E-003  0.13380169835714664        0.0000000000000000     
  -5.4780416564882330E-003  0.14128086776187687        0.0000000000000000     
  -5.5873063842025077E-003  0.14888879158070356        0.0000000000000000     
  -5.6889540205644984E-003  0.15662546981362663        0.0000000000000000     
  -5.7829845655742104E-003  0.16449090246064613        0.0000000000000000     
  -1.0751754120047667E-002  0.13384992812564228        0.0000000000000000     
  -1.0985084609789557E-002  0.14132565326380844        0.0000000000000000     
  -1.1204101947996287E-002  0.14893627134278614        0.0000000000000000     
  -1.1408806134667849E-002  0.15668178236257546        0.0000000000000000     
  -1.1599197169804242E-002  0.16456218632317640        0.0000000000000000     
  -1.6174765438158215E-002  0.13394027557900551        0.0000000000000000     
  -1.6525174795082587E-002  0.14141138826973876        0.0000000000000000     
  -1.6853722873187454E-002  0.14901562602868854        0.0000000000000000     
  -1.7160409672472836E-002  0.15675298885585492        0.0000000000000000     
  -1.7445235192938720E-002  0.16462347675123790        0.0000000000000000     
  -2.1630193791753308E-002  0.13407274071723629        0.0000000000000000     
  -2.2098312212367303E-002  0.14153807277966779        0.0000000000000000     
  -2.2536169159776024E-002  0.14912685563841069        0.0000000000000000     
  -2.2943764633979468E-002  0.15683908929346493        0.0000000000000000     
  -2.3321098634977645E-002  0.16467477374483058        0.0000000000000000     
   0.0000000000000000        0.0000000000000000        0.0000000000000000     
  -8.4166690765841590E-004   1.1099657300858996E-003   0.0000000000000000     
  -1.7021156694522871E-003   2.5980935921330610E-003   0.0000000000000000     
  -2.5813462853816133E-003   4.4643835861414849E-003   0.0000000000000000     
  -3.4793587554463952E-003   6.7088357121111702E-003   0.0000000000000000     
   0.0000000000000000        0.0000000000000000        0.0000000000000000     
  -1.0566896524480504E-003   1.1341362354581612E-003   0.0000000000000000     
  -2.1397602633251135E-003   2.6503484342615029E-003   0.0000000000000000     
  -3.2492118326311898E-003   4.5486365964100255E-003   0.0000000000000000     
  -4.3850443603662779E-003   6.8290007219037286E-003   0.0000000000000000     
   0.0000000000000000        0.0000000000000000        0.0000000000000000     
  -1.2878061572266033E-003   1.1700030840917856E-003   0.0000000000000000     
  -2.6055148945335715E-003   2.7246082343328612E-003   0.0000000000000000     
  -3.9531262119209066E-003   4.6638154507232269E-003   0.0000000000000000     
  -5.3306401093886069E-003   6.9876247332628831E-003   0.0000000000000000     
   0.0000000000000000        0.0000000000000000        0.0000000000000000     
  -1.5350164219940750E-003   1.2175662759867725E-003   0.0000000000000000     
  -3.0993795630776633E-003   2.8208729923471366E-003   0.0000000000000000     
  -4.6930894232507661E-003   4.8099201490810909E-003   0.0000000000000000     
  -6.3161460025133818E-003   7.1847077461886389E-003   0.0000000000000000     
   0.0000000000000000        0.0000000000000000        0.0000000000000000     
  -1.7983204467504651E-003   1.2768258111431224E-003   0.0000000000000000     
  -3.6213542689573870E-003   2.9391427083043280E-003   0.0000000000000000     
  -5.4691014666207660E-003   4.9869506914836164E-003   0.0000000000000000     
  -7.3415620397406008E-003   7.4202497606809890E-003   0.0000000000000000     
  -3.4793587554463952E-003   6.7088357121111702E-003   0.0000000000000000     
  -4.3878960355333363E-003   9.2941259184694744E-003   0.0000000000000000     
  -5.2987010815291422E-003   1.2182930153643750E-002   0.0000000000000000     
  -6.2117738934338142E-003   1.5375248417634001E-002   0.0000000000000000     
  -7.1271144712473505E-003   1.8871080710440222E-002   0.0000000000000000     
  -4.3850443603662779E-003   6.8290007219037286E-003   0.0000000000000000     
  -5.5342498260001491E-003   9.4494587993744338E-003   0.0000000000000000     
  -6.6838202090025705E-003   1.2368028817453964E-002   0.0000000000000000     
  -7.8337555093735429E-003   1.5584710776142315E-002   0.0000000000000000     
  -8.9840557271130654E-003   1.9099504675439492E-002   0.0000000000000000     
  -5.3306401093886069E-003   6.9876247332628831E-003   0.0000000000000000     
  -6.7235563707185152E-003   9.6499863848336209E-003   0.0000000000000000     
  -8.1173747796924704E-003   1.2604850708317232E-002   0.0000000000000000     
  -9.5120953363104811E-003   1.5852217703713721E-002   0.0000000000000000     
  -1.0907718040572537E-002   1.9392087371023076E-002   0.0000000000000000     
  -6.3161460025133818E-003   7.1847077461886389E-003   0.0000000000000000     
  -7.9558156696884347E-003   9.8957086748470407E-003   0.0000000000000000     
  -9.5993647935988472E-003   1.2893395826233563E-002   0.0000000000000000     
  -1.1246793374244626E-002   1.6177769200348208E-002   0.0000000000000000     
  -1.2898101411625763E-002   1.9748828797190979E-002   0.0000000000000000     
  -7.3415620397406008E-003   7.4202497606809890E-003   0.0000000000000000     
  -9.2310277229099083E-003   1.0186625669414686E-002   0.0000000000000000     
  -1.1129790250721701E-002   1.3233664171202954E-002   0.0000000000000000     
  -1.3037849623175978E-002   1.6561365266045795E-002   0.0000000000000000     
  -1.4955205840272743E-002   2.0169728953943197E-002   0.0000000000000000     
  -7.1271144712473505E-003   1.8871080710440222E-002   0.0000000000000000     
  -8.0381880234065856E-003   2.2644507387330745E-002   0.0000000000000000     
  -8.9384597583483608E-003   2.6669608803573885E-002   0.0000000000000000     
  -9.8279296760726744E-003   3.0946384959169636E-002   0.0000000000000000     
  -1.0706597776579521E-002   3.5474835854118016E-002   0.0000000000000000     
  -8.9840557271130654E-003   1.9099504675439492E-002   0.0000000000000000     
  -1.0127790750220505E-002   2.2887509070081320E-002   0.0000000000000000     
  -1.1258030466695216E-002   2.6923822514803616E-002   0.0000000000000000     
  -1.2374774876537206E-002   3.1208445009606383E-002   0.0000000000000000     
  -1.3478023979746467E-002   3.5741376554489626E-002   0.0000000000000000     
  -1.0907718040572537E-002   1.9392087371023076E-002   0.0000000000000000     
  -1.2294070057736700E-002   2.3199448541670338E-002   0.0000000000000000     
  -1.3660978553061026E-002   2.7249290047080540E-002   0.0000000000000000     
  -1.5008443526545510E-002   3.1541611887253698E-002   0.0000000000000000     
  -1.6336464978190152E-002   3.6076414062189775E-002   0.0000000000000000     
  -1.2898101411625763E-002   1.9748828797190979E-002   0.0000000000000000     
  -1.4537025945955179E-002   2.3580325802097818E-002   0.0000000000000000     
  -1.6147304017445789E-002   2.7646011400404680E-002   0.0000000000000000     
  -1.7728935626097592E-002   3.1945885592111561E-002   0.0000000000000000     
  -1.9281920771910582E-002   3.6479948377218477E-002   0.0000000000000000     
  -1.4955205840272743E-002   2.0169728953943197E-002   0.0000000000000000     
  -1.6856658414875939E-002   2.4030140851363749E-002   0.0000000000000000     
  -1.8717006859849509E-002   2.8113986574776012E-002   0.0000000000000000     
  -2.0536251175193445E-002   3.2421266124180011E-002   0.0000000000000000     
  -2.2314391360907754E-002   3.6951979499575724E-002   0.0000000000000000     
  -1.0706597776579521E-002   3.5474835854118016E-002   0.0000000000000000     
  -1.1568475292403679E-002   4.0234976388463496E-002   0.0000000000000000     
  -1.2407573456079913E-002   4.5206821462250552E-002   0.0000000000000000     
  -1.3223892267608223E-002   5.0390371075479203E-002   0.0000000000000000     
  -1.4017431726988612E-002   5.5785625228149449E-002   0.0000000000000000     
  -1.3478023979746467E-002   3.5741376554489626E-002   0.0000000000000000     
  -1.4559546582717560E-002   4.0503199470458773E-002   0.0000000000000000     
  -1.5611111491845030E-002   4.5474496078519284E-002   0.0000000000000000     
  -1.6632718707128884E-002   5.0655266378671147E-002   0.0000000000000000     
  -1.7624368228569116E-002   5.6045510370914361E-002   0.0000000000000000     
  -1.6336464978190152E-002   3.6076414062189775E-002   0.0000000000000000     
  -1.7636519499221227E-002   4.0836395323302951E-002   0.0000000000000000     
  -1.8900083680864998E-002   4.5804254422007383E-002   0.0000000000000000     
  -2.0127157523121466E-002   5.0979991358303070E-002   0.0000000000000000     
  -2.1317741025990624E-002   5.6363606132190006E-002   0.0000000000000000     
  -1.9281920771910582E-002   3.6479948377218477E-002   0.0000000000000000     
  -2.0799394041914689E-002   4.1234563946996032E-002   0.0000000000000000     
  -2.2274490023139817E-002   4.6196096492714882E-002   0.0000000000000000     
  -2.3707208715585966E-002   5.1364546014374991E-002   0.0000000000000000     
  -2.5097550119253145E-002   5.6739912511976388E-002   0.0000000000000000     
  -2.2314391360907754E-002   3.6951979499575724E-002   0.0000000000000000     
  -2.4048170210797939E-002   4.1697705341538015E-002   0.0000000000000000     
  -2.5734330518669482E-002   4.6650022290641746E-002   0.0000000000000000     
  -2.7372872284522395E-002   5.1808930346886904E-002   0.0000000000000000     
  -2.8963795508356670E-002   5.7174429510273503E-002   0.0000000000000000     
  -1.4017431726988612E-002   5.5785625228149449E-002   0.0000000000000000     
  -1.4788358615583155E-002   6.1378238420758305E-002   0.0000000000000000     
  -1.5536839714753923E-002   6.7153865153802797E-002   0.0000000000000000     
  -1.6262875024500922E-002   7.3112505427282981E-002   0.0000000000000000     
  -1.6966464544824148E-002   7.9254159241198788E-002   0.0000000000000000     
  -1.7624368228569116E-002   5.6045510370914361E-002   0.0000000000000000     
  -1.8587187047867614E-002   6.1631852095111440E-002   0.0000000000000000     
  -1.9522302156726283E-002   6.7400915591124946E-002   0.0000000000000000     
  -2.0429713555145102E-002   7.3352700858954845E-002   0.0000000000000000     
  -2.1309421243124085E-002   7.9487207898601128E-002   0.0000000000000000     
  -2.1317741025990624E-002   5.6363606132190006E-002   0.0000000000000000     
  -2.2473386090364929E-002   6.1942195492353580E-002   0.0000000000000000     
  -2.3595644617136834E-002   6.7702856187479191E-002   0.0000000000000000     
  -2.4684516606306325E-002   7.3645588217566837E-002   0.0000000000000000     
  -2.5740002057873409E-002   7.9770391582616493E-002   0.0000000000000000     
  -2.5097550119253145E-002   5.6739912511976388E-002   0.0000000000000000     
  -2.6446955743075096E-002   6.2309268612484696E-002   0.0000000000000000     
  -2.7756867095985575E-002   6.8059686942865530E-002   0.0000000000000000     
  -2.9027284177984579E-002   7.3991167503118932E-002   0.0000000000000000     
  -3.0258206989072115E-002   8.0103710293244867E-002   0.0000000000000000     
  -2.8963795508356670E-002   5.7174429510273503E-002   0.0000000000000000     
  -3.0507896005998108E-002   6.2733071455504788E-002   0.0000000000000000     
  -3.2005969593272510E-002   6.8471407857284006E-002   0.0000000000000000     
  -3.3458016270179886E-002   7.4389438715611156E-002   0.0000000000000000     
  -3.4864036036720204E-002   8.0487164030486252E-002   0.0000000000000000     
  -1.6966464544824148E-002   7.9254159241198788E-002   0.0000000000000000     
  -1.7644550894773861E-002   8.5568957470416304E-002   0.0000000000000000     
  -1.8294076693400319E-002   9.2047030989801576E-002   0.0000000000000000     
  -1.8915041940703512E-002   9.8688379799354603E-002   0.0000000000000000     
  -1.9507446636683447E-002  0.10549300389907540        0.0000000000000000     
  -2.1309421243124085E-002   7.9487207898601128E-002   0.0000000000000000     
  -2.2157423023722558E-002   8.5794183343203018E-002   0.0000000000000000     
  -2.2969716699999858E-002   9.2263373825899664E-002   0.0000000000000000     
  -2.3746302271955979E-002   9.8894779346691053E-002   0.0000000000000000     
  -2.4487179739590931E-002  0.10568839990557720        0.0000000000000000     
  -2.5740002057873409E-002   7.9770391582616493E-002   0.0000000000000000     
  -2.6757404867411187E-002   8.6066985752921224E-002   0.0000000000000000     
  -2.7732028930492772E-002   9.2525090198774043E-002   0.0000000000000000     
  -2.8663874247118144E-002   9.9144704920174950E-002   0.0000000000000000     
  -2.9552940817287331E-002  0.10592582991712392        0.0000000000000000     
  -3.0258206989072115E-002   8.0103710293244867E-002   0.0000000000000000     
  -3.1444496425839741E-002   8.6387364699570951E-002   0.0000000000000000     
  -3.2581013384879051E-002   9.2832180108424728E-002   0.0000000000000000     
  -3.3667757866190008E-002   9.9438156519806267E-002   0.0000000000000000     
  -3.4704729869772633E-002  0.10620529393371551        0.0000000000000000     
  -3.4864036036720204E-002   8.0487164030486252E-002   0.0000000000000000     
  -3.6218697699008234E-002   8.6755320183152157E-002   0.0000000000000000     
  -3.7516670063158682E-002   9.3184643554851759E-002   0.0000000000000000     
  -3.8757953129171560E-002   9.9775134145585045E-002   0.0000000000000000     
  -3.9942546897046870E-002  0.10652679195535203        0.0000000000000000     
  -1.9507446636683447E-002  0.10549300389907540        0.0000000000000000     
  -2.0073711649114041E-002  0.11244393375881394        0.0000000000000000     
  -2.0616257845769217E-002  0.11952419984842026        0.0000000000000000     
  -2.1135085226648975E-002  0.12673380216789440        0.0000000000000000     
  -2.1630193791753308E-002  0.13407274071723629        0.0000000000000000     
  -2.4487179739590931E-002  0.10568839990557720        0.0000000000000000     
  -2.5195582124946478E-002  0.11262893779798518        0.0000000000000000     
  -2.5874742450064405E-002  0.11970109531934202        0.0000000000000000     
  -2.6524660714944706E-002  0.12690487246964771        0.0000000000000000     
  -2.7145336919587374E-002  0.13424026924890231        0.0000000000000000     
  -2.9552940817287331E-002  0.10592582991712392        0.0000000000000000     
  -3.0403358198938610E-002  0.11285411357850665        0.0000000000000000     
  -3.1219255950010284E-002  0.11991520429320877        0.0000000000000000     
  -3.2000634070502354E-002  0.12710910206123027        0.0000000000000000     
  -3.2747492560414822E-002  0.13443580688257120        0.0000000000000000     
  -3.4704729869772633E-002  0.10620529393371551        0.0000000000000000     
  -3.5697039871090429E-002  0.11311946110037834        0.0000000000000000     
  -3.6649798345606867E-002  0.12016652677002052        0.0000000000000000     
  -3.7563005293321933E-002  0.12734649094264208        0.0000000000000000     
  -3.8436660714235647E-002  0.13465935361824299        0.0000000000000000     
  -3.9942546897046870E-002  0.10652679195535203        0.0000000000000000     
  -4.1076627141401936E-002  0.11342498036360024        0.0000000000000000     
  -4.2166369636854134E-002  0.12045506274977726        0.0000000000000000     
  -4.3211774383403435E-002  0.12761703911388309        0.0000000000000000     
  -4.4212841381049868E-002  0.13491090945591772        0.0000000000000000     
  -2.1630193791753308E-002  0.13407274071723629        0.0000000000000000     
  -2.2098312212367303E-002  0.14153807277966779        0.0000000000000000     
  -2.2536169159776024E-002  0.14912685563841069        0.0000000000000000     
  -2.2943764633979468E-002  0.15683908929346493        0.0000000000000000     
  -2.3321098634977645E-002  0.16467477374483058        0.0000000000000000     
  -2.7145336919587374E-002  0.13424026924890231        0.0000000000000000     
  -2.7732020664225844E-002  0.14169773269551542        0.0000000000000000     
  -2.8279961549093530E-002  0.14926770984789675        0.0000000000000000     
  -2.8789159574190426E-002  0.15695020070604629        0.0000000000000000     
  -2.9259614739516548E-002  0.16474520526996403        0.0000000000000000     
  -3.2747492560414822E-002  0.13443580688257120        0.0000000000000000     
  -3.3453823953240334E-002  0.14188239391920143        0.0000000000000000     
  -3.4113620782471515E-002  0.14943593833309096        0.0000000000000000     
  -3.4726883048108399E-002  0.15709644012423971        0.0000000000000000     
  -3.5293610750150965E-002  0.16486389929264772        0.0000000000000000     
  -3.8436660714235647E-002  0.13465935361824299        0.0000000000000000     
  -3.9263722079410764E-002  0.14209205645072590        0.0000000000000000     
  -4.0037146859910014E-002  0.14963154109399329        0.0000000000000000     
  -4.0756935055733391E-002  0.15727780754804521        0.0000000000000000     
  -4.1423086666880903E-002  0.16503085581288165        0.0000000000000000     
  -4.4212841381049868E-002  0.13491090945591772        0.0000000000000000     
  -4.5161715042737131E-002  0.14232672029008872        0.0000000000000000     
  -4.6050539781408967E-002  0.14985451813060374        0.0000000000000000     
  -4.6879315597065374E-002  0.15749430297746281        0.0000000000000000     
  -4.7648042489706346E-002  0.16524607483066583        0.0000000000000000     
   0.0000000000000000        0.0000000000000000        0.0000000000000000     
  -1.7983204467504651E-003   1.2768258111431224E-003   0.0000000000000000     
  -3.6213542689573870E-003   2.9391427083043280E-003   0.0000000000000000     
  -5.4691014666207660E-003   4.9869506914836164E-003   0.0000000000000000     
  -7.3415620397406008E-003   7.4202497606809890E-003   0.0000000000000000     
   0.0000000000000000        0.0000000000000000        0.0000000000000000     
  -2.0694446599019982E-003   1.3549076207253644E-003   0.0000000000000000     
  -4.1640862969648277E-003   3.0939414602134318E-003   0.0000000000000000     
  -6.2839249111884864E-003   5.2171015184642022E-003   0.0000000000000000     
  -8.4289605025729755E-003   7.7243877954776751E-003   0.0000000000000000     
   0.0000000000000000        0.0000000000000000        0.0000000000000000     
  -2.3401154898548986E-003   1.4589376358980274E-003   0.0000000000000000     
  -4.7202229318920666E-003   3.2997933260834411E-003   0.0000000000000000     
  -7.1403223261115051E-003   5.5225670705562431E-003   0.0000000000000000     
  -9.6004136725132104E-003   8.1272588693164314E-003   0.0000000000000000     
   0.0000000000000000        0.0000000000000000        0.0000000000000000     
  -2.6103329366091660E-003   1.5889158566611118E-003   0.0000000000000000     
  -5.2897641737391071E-003   3.5566983059143586E-003   0.0000000000000000     
  -8.0382937113898188E-003   5.9033473477597383E-003   0.0000000000000000     
  -1.0855921549561307E-002   8.6288629821972551E-003   0.0000000000000000     
   0.0000000000000000        0.0000000000000000        0.0000000000000000     
  -2.8800970001648003E-003   1.7448422830146177E-003   0.0000000000000000     
  -5.8727100225059448E-003   3.8646563997061819E-003   0.0000000000000000     
  -8.9778390670234350E-003   6.3594423500746931E-003   0.0000000000000000     
  -1.2195484133717268E-002   9.2292001341201507E-003   0.0000000000000000     
  -7.3415620397406008E-003   7.4202497606809890E-003   0.0000000000000000     
  -9.2310277229099083E-003   1.0186625669414686E-002   0.0000000000000000     
  -1.1129790250721701E-002   1.3233664171202954E-002   0.0000000000000000     
  -1.3037849623175978E-002   1.6561365266045795E-002   0.0000000000000000     
  -1.4955205840272743E-002   2.0169728953943197E-002   0.0000000000000000     
  -8.4289605025729755E-003   7.7243877954776751E-003   0.0000000000000000     
  -1.0590847592427146E-002   1.0558337410407851E-002   0.0000000000000000     
  -1.2761240702059846E-002   1.3661487482408729E-002   0.0000000000000000     
  -1.4940139831471081E-002   1.7033838011480309E-002   0.0000000000000000     
  -1.7127544980660853E-002   2.0675388997622588E-002   0.0000000000000000     
  -9.6004136725132104E-003   8.1272588693164314E-003   0.0000000000000000     
  -1.2076930340284358E-002   1.1046443939697817E-002   0.0000000000000000     
  -1.4546305698612113E-002   1.4212697499034208E-002   0.0000000000000000     
  -1.7008539747496481E-002   1.7626019547325605E-002   0.0000000000000000     
  -1.9463632486937457E-002   2.1286410084572008E-002   0.0000000000000000     
  -1.0855921549561307E-002   8.6288629821972551E-003   0.0000000000000000     
  -1.3689275966481541E-002   1.1650945257284580E-002   0.0000000000000000     
  -1.6484985240378499E-002   1.4887294221079391E-002   0.0000000000000000     
  -1.9243049371252170E-002   1.8337909873581686E-002   0.0000000000000000     
  -2.1963468359102553E-002   2.2002792214791466E-002   0.0000000000000000     
  -1.2195484133717268E-002   9.2292001341201507E-003   0.0000000000000000     
  -1.5427884471018704E-002   1.2371841363168148E-002   0.0000000000000000     
  -1.8577279327358996E-002   1.5685277648544278E-002   0.0000000000000000     
  -2.1643668702738143E-002   1.9169508990248548E-002   0.0000000000000000     
  -2.4627052597156154E-002   2.2824535388280952E-002   0.0000000000000000     
  -1.4955205840272743E-002   2.0169728953943197E-002   0.0000000000000000     
  -1.6856658414875939E-002   2.4030140851363749E-002   0.0000000000000000     
  -1.8717006859849509E-002   2.8113986574776012E-002   0.0000000000000000     
  -2.0536251175193445E-002   3.2421266124180011E-002   0.0000000000000000     
  -2.2314391360907754E-002   3.6951979499575724E-002   0.0000000000000000     
  -1.7127544980660853E-002   2.0675388997622588E-002   0.0000000000000000     
  -1.9292331478007411E-002   2.4558538404984235E-002   0.0000000000000000     
  -2.1403374651889042E-002   2.8655684197713915E-002   0.0000000000000000     
  -2.3460674502305729E-002   3.2966826375811643E-002   0.0000000000000000     
  -2.5464231029257475E-002   3.7491964939277395E-002   0.0000000000000000     
  -1.9463632486937457E-002   2.1286410084572008E-002   0.0000000000000000     
  -2.1883409148858047E-002   2.5175163178475402E-002   0.0000000000000000     
  -2.4239694965181260E-002   2.9273572896737762E-002   0.0000000000000000     
  -2.6532489935907098E-002   3.3581639239359092E-002   0.0000000000000000     
  -2.8761794061035552E-002   3.8099362206339374E-002   0.0000000000000000     
  -2.1963468359102553E-002   2.2002792214791466E-002   0.0000000000000000     
  -2.4629891427427823E-002   2.5880015171837245E-002   0.0000000000000000     
  -2.7225967799726161E-002   2.9967652671847537E-002   0.0000000000000000     
  -2.9751697475997541E-002   3.4265704714822355E-002   0.0000000000000000     
  -3.2207080456241981E-002   3.8774171300761676E-002   0.0000000000000000     
  -2.4627052597156154E-002   2.2824535388280952E-002   0.0000000000000000     
  -2.7531778313716768E-002   2.6673094385069762E-002   0.0000000000000000     
  -3.0362193155523742E-002   3.0737923523043251E-002   0.0000000000000000     
  -3.3118297122577071E-002   3.5019022802201420E-002   0.0000000000000000     
  -3.5800090214876762E-002   3.9516392222544272E-002   0.0000000000000000     
  -2.2314391360907754E-002   3.6951979499575724E-002   0.0000000000000000     
  -2.4048170210797939E-002   4.1697705341538015E-002   0.0000000000000000     
  -2.5734330518669482E-002   4.6650022290641746E-002   0.0000000000000000     
  -2.7372872284522395E-002   5.1808930346886904E-002   0.0000000000000000     
  -2.8963795508356670E-002   5.7174429510273503E-002   0.0000000000000000     
  -2.5464231029257475E-002   3.7491964939277395E-002   0.0000000000000000     
  -2.7414374103654087E-002   4.2227115253622848E-002   0.0000000000000000     
  -2.9311433596405357E-002   4.7168292684359681E-002   0.0000000000000000     
  -3.1155409507511285E-002   5.2315497231487866E-002   0.0000000000000000     
  -3.2946301836971878E-002   5.7668728895007432E-002   0.0000000000000000     
  -2.8761794061035552E-002   3.8099362206339374E-002   0.0000000000000000     
  -3.0929531818266246E-002   4.2824089429944520E-002   0.0000000000000000     
  -3.3037627685298797E-002   4.7753168542440376E-002   0.0000000000000000     
  -3.5086081662133187E-002   5.2886599543826948E-002   0.0000000000000000     
  -3.7074893748769447E-002   5.8224382434104258E-002   0.0000000000000000     
  -3.2207080456241981E-002   3.8774171300761676E-002   0.0000000000000000     
  -3.4593643354634412E-002   4.3488627870502998E-002   0.0000000000000000     
  -3.6912912785349784E-002   4.8404649864883825E-002   0.0000000000000000     
  -3.9164888748388110E-002   5.3522237283904144E-002   0.0000000000000000     
  -4.1349571243749376E-002   5.8841390127563981E-002   0.0000000000000000     
  -3.5800090214876762E-002   3.9516392222544272E-002   0.0000000000000000     
  -3.8406708712758586E-002   4.4220730575298309E-002   0.0000000000000000     
  -4.0937288896558358E-002   4.9122736651690049E-002   0.0000000000000000     
  -4.3391830766276035E-002   5.4222410451719466E-002   0.0000000000000000     
  -4.5770334321911653E-002   5.9519751975386580E-002   0.0000000000000000     
  -2.8963795508356670E-002   5.7174429510273503E-002   0.0000000000000000     
  -3.0507896005998108E-002   6.2733071455504788E-002   0.0000000000000000     
  -3.2005969593272510E-002   6.8471407857284006E-002   0.0000000000000000     
  -3.3458016270179886E-002   7.4389438715611156E-002   0.0000000000000000     
  -3.4864036036720204E-002   8.0487164030486252E-002   0.0000000000000000     
  -3.2946301836971878E-002   5.7668728895007432E-002   0.0000000000000000     
  -3.4684427134172524E-002   6.3214243044496646E-002   0.0000000000000000     
  -3.6370101948498594E-002   6.8938295049533804E-002   0.0000000000000000     
  -3.8003326279950102E-002   7.4840884910118907E-002   0.0000000000000000     
  -3.9584100128527061E-002   8.0922012626251955E-002   0.0000000000000000     
  -3.7074893748769447E-002   5.8224382434104258E-002   0.0000000000000000     
  -3.9004769382636861E-002   6.3753422402543058E-002   0.0000000000000000     
  -4.0876414001164769E-002   6.9460624638414167E-002   0.0000000000000000     
  -4.2689827604353150E-002   7.5345989141717598E-002   0.0000000000000000     
  -4.4445010192202018E-002   8.1409515912453281E-002   0.0000000000000000     
  -4.1349571243749376E-002   5.8841390127563981E-002   0.0000000000000000     
  -4.3468922751391151E-002   6.4350609529644040E-002   0.0000000000000000     
  -4.5524905751271036E-002   7.0038396623925123E-002   0.0000000000000000     
  -4.7517520243389018E-002   7.5904751410407159E-002   0.0000000000000000     
  -4.9446766227745104E-002   8.1949673889090260E-002   0.0000000000000000     
  -4.5770334321911653E-002   5.9519751975386580E-002   0.0000000000000000     
  -4.8076887240435379E-002   6.5005804425799577E-002   0.0000000000000000     
  -5.0315577198817393E-002   7.0671611006066601E-002   0.0000000000000000     
  -5.2486404197057711E-002   7.6517171716187701E-002   0.0000000000000000     
  -5.4589368235156296E-002   8.2542486556162836E-002   0.0000000000000000     
  -3.4864036036720204E-002   8.0487164030486252E-002   0.0000000000000000     
  -3.6218697699008234E-002   8.6755320183152157E-002   0.0000000000000000     
  -3.7516670063158682E-002   9.3184643554851759E-002   0.0000000000000000     
  -3.8757953129171560E-002   9.9775134145585045E-002   0.0000000000000000     
  -3.9942546897046870E-002  0.10652679195535203        0.0000000000000000     
  -3.9584100128527061E-002   8.0922012626251955E-002   0.0000000000000000     
  -4.1106888323054792E-002   8.7173016354404192E-002   0.0000000000000000     
  -4.2566155692358651E-002   9.3585234251046867E-002   0.0000000000000000     
  -4.3961902236438644E-002  0.10015866631618002        0.0000000000000000     
  -4.5294127955294750E-002  0.10689331254980360        0.0000000000000000     
  -4.4445010192202018E-002   8.1409515912453281E-002   0.0000000000000000     
  -4.6135947934117544E-002   8.7642617364066366E-002   0.0000000000000000     
  -4.7756626999505891E-002   9.4036705910001919E-002   0.0000000000000000     
  -4.9307047388367067E-002  0.10059178155025990        0.0000000000000000     
  -5.0787209100701058E-002  0.10730784428484039        0.0000000000000000     
  -4.9446766227745104E-002   8.1949673889090260E-002   0.0000000000000000     
  -5.1305876532196495E-002   8.8164123212138693E-002   0.0000000000000000     
  -5.3088083984600402E-002   9.4539058531716846E-002   0.0000000000000000     
  -5.4793388584956838E-002  0.10107447984782478        0.0000000000000000     
  -5.6421790333265789E-002  0.10777038716046244        0.0000000000000000     
  -5.4589368235156296E-002   8.2542486556162836E-002   0.0000000000000000     
  -5.6616674117291647E-002   8.8737533898621143E-002   0.0000000000000000     
  -5.8560526647642198E-002   9.5092292116191746E-002   0.0000000000000000     
  -6.0420925826207963E-002  0.10160676120887460        0.0000000000000000     
  -6.2197871652988936E-002  0.10828094117666974        0.0000000000000000     
  -3.9942546897046870E-002  0.10652679195535203        0.0000000000000000     
  -4.1076627141401936E-002  0.11342498036360024        0.0000000000000000     
  -4.2166369636854134E-002  0.12045506274977726        0.0000000000000000     
  -4.3211774383403435E-002  0.12761703911388309        0.0000000000000000     
  -4.4212841381049868E-002  0.13491090945591772        0.0000000000000000     
  -4.5294127955294750E-002  0.10689331254980360        0.0000000000000000     
  -4.6570115086117705E-002  0.11377392278183489        0.0000000000000000     
  -4.7797145866098206E-002  0.12078524684219119        0.0000000000000000     
  -4.8975220295236245E-002  0.12792728473087253        0.0000000000000000     
  -5.0104338373531850E-002  0.13520003644787881        0.0000000000000000     
  -5.0787209100701058E-002  0.10730784428484039        0.0000000000000000     
  -5.2205498781482298E-002  0.11416953976874476        0.0000000000000000     
  -5.3570303075685208E-002  0.12116151365697446        0.0000000000000000     
  -5.4881621983309772E-002  0.12828376594952948        0.0000000000000000     
  -5.6139455504355992E-002  0.13553629664640984        0.0000000000000000     
  -5.6421790333265789E-002  0.10777038716046244        0.0000000000000000     
  -5.7982778227495729E-002  0.11461183132432984        0.0000000000000000     
  -5.9485841265615118E-002  0.12158386319412706        0.0000000000000000     
  -6.0930979447623976E-002  0.12868648276985406        0.0000000000000000     
  -6.2318192773522296E-002  0.13591969005151081        0.0000000000000000     
  -6.2197871652988936E-002  0.10828094117666974        0.0000000000000000     
  -6.3901953424157984E-002  0.11510079744859020        0.0000000000000000     
  -6.5543760435887971E-002  0.12205229545364900        0.0000000000000000     
  -6.7123292688178890E-002  0.12913543519184614        0.0000000000000000     
  -6.8640550181030741E-002  0.13635021666318164        0.0000000000000000     
  -4.4212841381049868E-002  0.13491090945591772        0.0000000000000000     
  -4.5161715042737131E-002  0.14232672029008872        0.0000000000000000     
  -4.6050539781408967E-002  0.14985451813060374        0.0000000000000000     
  -4.6879315597065374E-002  0.15749430297746281        0.0000000000000000     
  -4.7648042489706346E-002  0.16524607483066583        0.0000000000000000     
  -5.0104338373531850E-002  0.13520003644787881        0.0000000000000000     
  -5.1175875933035811E-002  0.14259705198322797        0.0000000000000000     
  -5.2181208805798934E-002  0.15011188132693776        0.0000000000000000     
  -5.3120336991821254E-002  0.15774452447900822        0.0000000000000000     
  -5.3993260491102736E-002  0.16549498143943933        0.0000000000000000     
  -5.6139455504355992E-002  0.13553629664640984        0.0000000000000000     
  -5.7334277840123113E-002  0.14291371807608155        0.0000000000000000     
  -5.8456563191910414E-002  0.15041064256701070        0.0000000000000000     
  -5.9506311559717862E-002  0.15802707011919723        0.0000000000000000     
  -6.0483522943545476E-002  0.16576300073264119        0.0000000000000000     
  -6.2318192773522296E-002  0.13591969005151081        0.0000000000000000     
  -6.3636920763999086E-002  0.14327671856864954        0.0000000000000000     
  -6.4876602939743414E-002  0.15075080185082257        0.0000000000000000     
  -6.6037239300755224E-002  0.15834193989802989        0.0000000000000000     
  -6.7118829847034572E-002  0.16605013271027139        0.0000000000000000     
  -6.8640550181030741E-002  0.13635021666318164        0.0000000000000000     
  -7.0083804704663702E-002  0.14368605346093191        0.0000000000000000     
  -7.1441328049297884E-002  0.15113235917837339        0.0000000000000000     
  -7.2713120214933327E-002  0.15868913381550609        0.0000000000000000     
  -7.3899181201570019E-002  0.16635637737233000        0.0000000000000000     
   0.0000000000000000        0.0000000000000000        0.0000000000000000     
  -2.8800970001648003E-003   1.7448422830146177E-003   0.0000000000000000     
  -5.8727100225059448E-003   3.8646563997061819E-003   0.0000000000000000     
  -8.9778390670234350E-003   6.3594423500746931E-003   0.0000000000000000     
  -1.2195484133717268E-002   9.2292001341201507E-003   0.0000000000000000     
   0.0000000000000000        0.0000000000000000        0.0000000000000000     
  -3.2832391707443430E-003   1.9993705420035929E-003   0.0000000000000000     
  -6.6770267528586461E-003   4.3309748850861723E-003   0.0000000000000000     
  -1.0181362746342912E-002   6.9948130292477404E-003   0.0000000000000000     
  -1.3796247151197137E-002   9.9908849744882958E-003   0.0000000000000000     
   0.0000000000000000        0.0000000000000000        0.0000000000000000     
  -3.9535909385703342E-003   2.4251542606730848E-003   0.0000000000000000     
  -7.9106806394632721E-003   5.0629610396815917E-003   0.0000000000000000     
  -1.1871269102678815E-002   7.9134203370255195E-003   0.0000000000000000     
  -1.5835356328216966E-002   1.0976532152704868E-002   0.0000000000000000     
   0.0000000000000000        0.0000000000000000        0.0000000000000000     
  -4.8911523036427752E-003   3.0221934390230942E-003   0.0000000000000000     
  -9.5736716823198228E-003   6.0606148634924379E-003   0.0000000000000000     
  -1.4047558136031148E-002   9.1152642734080337E-003   0.0000000000000000     
  -1.8312811664776742E-002   1.2186141668769876E-002   0.0000000000000000     
   0.0000000000000000        0.0000000000000000        0.0000000000000000     
  -6.0959232659616629E-003   3.7904880770536207E-003   0.0000000000000000     
  -1.1665999881428298E-002   7.3239363565187135E-003   0.0000000000000000     
  -1.6710229846399909E-002   1.0600344838395278E-002   0.0000000000000000     
  -2.1228613160876490E-002   1.3619713522683315E-002   0.0000000000000000     
  -1.2195484133717268E-002   9.2292001341201507E-003   0.0000000000000000     
  -1.5427884471018704E-002   1.2371841363168148E-002   0.0000000000000000     
  -1.8577279327358996E-002   1.5685277648544278E-002   0.0000000000000000     
  -2.1643668702738143E-002   1.9169508990248548E-002   0.0000000000000000     
  -2.4627052597156154E-002   2.2824535388280952E-002   0.0000000000000000     
  -1.3796247151197137E-002   9.9908849744882958E-003   0.0000000000000000     
  -1.7404563722183065E-002   1.3221214754170641E-002   0.0000000000000000     
  -2.0889196214062444E-002   1.6587826401657589E-002   0.0000000000000000     
  -2.4250144626835259E-002   2.0090719916949131E-002   0.0000000000000000     
  -2.7487408960501523E-002   2.3729895300045278E-002   0.0000000000000000     
  -1.5835356328216966E-002   1.0976532152704868E-002   0.0000000000000000     
  -1.9731121588261860E-002   1.4211147927114191E-002   0.0000000000000000     
  -2.3486744154997657E-002   1.7576119100648026E-002   0.0000000000000000     
  -2.7102224028424351E-002   2.1071445673306381E-002   0.0000000000000000     
  -3.0577561208541940E-002   2.4697127645089245E-002   0.0000000000000000     
  -1.8312811664776742E-002   1.2186141668769876E-002   0.0000000000000000     
  -2.2407558069255096E-002   1.5341640881998790E-002   0.0000000000000000     
  -2.6369923150164648E-002   1.8650155745515592E-002   0.0000000000000000     
  -3.0199906907505420E-002   2.2111686259320286E-002   0.0000000000000000     
  -3.3897509341277395E-002   2.5726232423412865E-002   0.0000000000000000     
  -2.1228613160876490E-002   1.3619713522683315E-002   0.0000000000000000     
  -2.5433873165162754E-002   1.6612693618824444E-002   0.0000000000000000     
  -2.9538733199563415E-002   1.9809936336260294E-002   0.0000000000000000     
  -3.3543193264078466E-002   2.3211441674990854E-002   0.0000000000000000     
  -3.7447253358707903E-002   2.6817209635016132E-002   0.0000000000000000     
  -2.4627052597156154E-002   2.2824535388280952E-002   0.0000000000000000     
  -2.7531778313716768E-002   2.6673094385069762E-002   0.0000000000000000     
  -3.0362193155523742E-002   3.0737923523043251E-002   0.0000000000000000     
  -3.3118297122577071E-002   3.5019022802201420E-002   0.0000000000000000     
  -3.5800090214876762E-002   3.9516392222544272E-002   0.0000000000000000     
  -2.7487408960501523E-002   2.3729895300045278E-002   0.0000000000000000     
  -3.0624208979651263E-002   2.7547824608834846E-002   0.0000000000000000     
  -3.3683764448874491E-002   3.1586979901206673E-002   0.0000000000000000     
  -3.6666075368171229E-002   3.5847361177160759E-002   0.0000000000000000     
  -3.9571141737541456E-002   4.0328968436697095E-002   0.0000000000000000     
  -3.0577561208541940E-002   2.4697127645089245E-002   0.0000000000000000     
  -3.3942322597157695E-002   2.8497629633794395E-002   0.0000000000000000     
  -3.7226075096078892E-002   3.2517416257219579E-002   0.0000000000000000     
  -4.0428818705305528E-002   3.6756487515364797E-002   0.0000000000000000     
  -4.3550553424837615E-002   4.1214843408230062E-002   0.0000000000000000     
  -3.3897509341277395E-002   2.5726232423412865E-002   0.0000000000000000     
  -3.7486119166236086E-002   2.9522509459948408E-002   0.0000000000000000     
  -4.0989125097136953E-002   3.3529232591081953E-002   0.0000000000000000     
  -4.4406527133980002E-002   3.7746401816813553E-002   0.0000000000000000     
  -4.7738325276765248E-002   4.2174017137143159E-002   0.0000000000000000     
  -3.7447253358707903E-002   2.6817209635016132E-002   0.0000000000000000     
  -4.1255598686886413E-002   3.0622464087296873E-002   0.0000000000000000     
  -4.4972914452048651E-002   3.4622428902793836E-002   0.0000000000000000     
  -4.8599200654194624E-002   3.8817104081507001E-002   0.0000000000000000     
  -5.2134457293324346E-002   4.3206489623436387E-002   0.0000000000000000     
  -3.5800090214876762E-002   3.9516392222544272E-002   0.0000000000000000     
  -3.8406708712758586E-002   4.4220730575298309E-002   0.0000000000000000     
  -4.0937288896558358E-002   4.9122736651690049E-002   0.0000000000000000     
  -4.3391830766276035E-002   5.4222410451719466E-002   0.0000000000000000     
  -4.5770334321911653E-002   5.9519751975386580E-002   0.0000000000000000     
  -3.9571141737541456E-002   4.0328968436697095E-002   0.0000000000000000     
  -4.2395388800634475E-002   4.5018560137056046E-002   0.0000000000000000     
  -4.5135241801099561E-002   4.9902894735477987E-002   0.0000000000000000     
  -4.7790700738936751E-002   5.4981972231962883E-002   0.0000000000000000     
  -5.0361765614146001E-002   6.0255792626510762E-002   0.0000000000000000     
  -4.3550553424837615E-002   4.1214843408230062E-002   0.0000000000000000     
  -4.6586344526257747E-002   4.5880279148501839E-002   0.0000000000000000     
  -4.9531257281148551E-002   5.0740589948866620E-002   0.0000000000000000     
  -5.2385291689510012E-002   5.5795775809324412E-002   0.0000000000000000     
  -5.5148447751342124E-002   6.1045836729875201E-002   0.0000000000000000     
  -4.7738325276765248E-002   4.2174017137143159E-002   0.0000000000000000     
  -5.0979575889628419E-002   4.6805887609635666E-002   0.0000000000000000     
  -5.4125335336705278E-002   5.1635822291855961E-002   0.0000000000000000     
  -5.7175603617995813E-002   5.6663821183804024E-002   0.0000000000000000     
  -6.0130380733500022E-002   6.1889884285479882E-002   0.0000000000000000     
  -5.2134457293324346E-002   4.3206489623436387E-002   0.0000000000000000     
  -5.5575082890746495E-002   4.7795385520457534E-002   0.0000000000000000     
  -5.8917475967769764E-002   5.2588591764445983E-002   0.0000000000000000     
  -6.2161636524394166E-002   5.7586108355401747E-002   0.0000000000000000     
  -6.5307564560619688E-002   6.2787935293324812E-002   0.0000000000000000     
  -4.5770334321911653E-002   5.9519751975386580E-002   0.0000000000000000     
  -4.8076887240435379E-002   6.5005804425799577E-002   0.0000000000000000     
  -5.0315577198817393E-002   7.0671611006066601E-002   0.0000000000000000     
  -5.2486404197057711E-002   7.6517171716187701E-002   0.0000000000000000     
  -5.4589368235156296E-002   8.2542486556162836E-002   0.0000000000000000     
  -5.0361765614146001E-002   6.0255792626510762E-002   0.0000000000000000     
  -5.2854566893865487E-002   6.5717327172039375E-002   0.0000000000000000     
  -5.5275235045233351E-002   7.1359547121466471E-002   0.0000000000000000     
  -5.7623770068249619E-002   7.7182452474792079E-002   0.0000000000000000     
  -5.9900171962914250E-002   8.3186043232016144E-002   0.0000000000000000     
  -5.5148447751342124E-002   6.1045836729875201E-002   0.0000000000000000     
  -5.7827865755777419E-002   6.6483497849393169E-002   0.0000000000000000     
  -6.0430685991948445E-002   7.2101484306752506E-002   0.0000000000000000     
  -6.2956908459855160E-002   7.7899796101953203E-002   0.0000000000000000     
  -6.5406533159497571E-002   8.3878433234995289E-002   0.0000000000000000     
  -6.0130380733500022E-002   6.1889884285479882E-002   0.0000000000000000     
  -6.2996783826171202E-002   6.7304316457860960E-002   0.0000000000000000     
  -6.5781930038962641E-002   7.2897422561924705E-002   0.0000000000000000     
  -6.8485819371874354E-002   7.8669202597671115E-002   0.0000000000000000     
  -7.1108451824906327E-002   8.4619656565100190E-002   0.0000000000000000     
  -6.5307564560619688E-002   6.2787935293324812E-002   0.0000000000000000     
  -6.8361321105046793E-002   6.8179782997442734E-002   0.0000000000000000     
  -7.1328967186275960E-002   7.3747361886983054E-002   0.0000000000000000     
  -7.4210502804307160E-002   7.9490671961945800E-002   0.0000000000000000     
  -7.7005927959140422E-002   8.5409713222330930E-002   0.0000000000000000     
  -5.4589368235156296E-002   8.2542486556162836E-002   0.0000000000000000     
  -5.6616674117291647E-002   8.8737533898621143E-002   0.0000000000000000     
  -5.8560526647642198E-002   9.5092292116191746E-002   0.0000000000000000     
  -6.0420925826207963E-002  0.10160676120887460        0.0000000000000000     
  -6.2197871652988936E-002  0.10828094117666974        0.0000000000000000     
  -5.9900171962914250E-002   8.3186043232016144E-002   0.0000000000000000     
  -6.2095518837402684E-002   8.9359600045466156E-002   0.0000000000000000     
  -6.4200888799890388E-002   9.5692403567469470E-002   0.0000000000000000     
  -6.6216281850377312E-002  0.10218445379802611        0.0000000000000000     
  -6.8141697988863464E-002  0.10883575073713608        0.0000000000000000     
  -6.5406533159497571E-002   8.3878433234995289E-002   0.0000000000000000     
  -6.7769588840529332E-002   9.0027072274626085E-002   0.0000000000000000     
  -7.0036104252604064E-002   9.6335389789593009E-002   0.0000000000000000     
  -7.2206079395721753E-002  0.10280338577989608        0.0000000000000000     
  -7.4279514269882371E-002  0.10943106024553526        0.0000000000000000     
  -7.1108451824906327E-002   8.4619656565100190E-002   0.0000000000000000     
  -7.3638884126671592E-002   9.0739950586100973E-002   0.0000000000000000     
  -7.6066173005783264E-002   9.7021250782562379E-002   0.0000000000000000     
  -7.8390318462241260E-002  0.10346355715448448        0.0000000000000000     
  -8.0611320496045635E-002  0.11006686970186724        0.0000000000000000     
  -7.7005927959140422E-002   8.5409713222330930E-002   0.0000000000000000     
  -7.9703404695829427E-002   9.1498234979890763E-002   0.0000000000000000     
  -8.2291095059427916E-002   9.7749986546377551E-002   0.0000000000000000     
  -8.4768999049935845E-002  0.10416496792179132        0.0000000000000000     
  -8.7137116667353270E-002  0.11074317910613204        0.0000000000000000     
  -6.2197871652988936E-002  0.10828094117666974        0.0000000000000000     
  -6.3901953424157984E-002  0.11510079744859020        0.0000000000000000     
  -6.5543760435887971E-002  0.12205229545364900        0.0000000000000000     
  -6.7123292688178890E-002  0.12913543519184614        0.0000000000000000     
  -6.8640550181030741E-002  0.13635021666318164        0.0000000000000000     
  -6.8141697988863464E-002  0.10883575073713608        0.0000000000000000     
  -6.9988745618685053E-002  0.11563283831582676        0.0000000000000000     
  -7.1769033143178243E-002  0.12256226046512557        0.0000000000000000     
  -7.3482560562343022E-002  0.12962401718503250        0.0000000000000000     
  -7.5129327876179389E-002  0.13681810847554754        0.0000000000000000     
  -7.4279514269882371E-002  0.10943106024553526        0.0000000000000000     
  -7.6268876058292953E-002  0.11620435410034054        0.0000000000000000     
  -7.8186631944160465E-002  0.12310920825814202        0.0000000000000000     
  -8.0032781927484892E-002  0.13014562271893970        0.0000000000000000     
  -8.1807326008266221E-002  0.13731359748273353        0.0000000000000000     
  -8.0611320496045635E-002  0.11006686970186724        0.0000000000000000     
  -8.2742344742981672E-002  0.11681534480213157        0.0000000000000000     
  -8.4796556838834636E-002  0.12369313883269845        0.0000000000000000     
  -8.6773956783604514E-002  0.13070025179356778        0.0000000000000000     
  -8.8674544577291320E-002  0.13783668368473967        0.0000000000000000     
  -8.7137116667353270E-002  0.11074317910613204        0.0000000000000000     
  -8.9409151672751208E-002  0.11746581042119983        0.0000000000000000     
  -9.1598807827200743E-002  0.12431405218879474        0.0000000000000000     
  -9.3706085130701874E-002  0.13128790440891677        0.0000000000000000     
  -9.5730983583254603E-002  0.13838736708156593        0.0000000000000000     
  -6.8640550181030741E-002  0.13635021666318164        0.0000000000000000     
  -7.0083804704663702E-002  0.14368605346093191        0.0000000000000000     
  -7.1441328049297884E-002  0.15113235917837339        0.0000000000000000     
  -7.2713120214933327E-002  0.15868913381550609        0.0000000000000000     
  -7.3899181201570019E-002  0.16635637737233000        0.0000000000000000     
  -7.5129327876179389E-002  0.13681810847554754        0.0000000000000000     
  -7.6696654127149488E-002  0.14413094414036359        0.0000000000000000     
  -7.8171858357715451E-002  0.15154893398317359        0.0000000000000000     
  -7.9554940567877264E-002  0.15907207800397755        0.0000000000000000     
  -8.0845900757634925E-002  0.16670037620277539        0.0000000000000000     
  -8.1807326008266221E-002  0.13731359748273353        0.0000000000000000     
  -8.3497193496488986E-002  0.14460061199437949        0.0000000000000000     
  -8.5089313702137598E-002  0.15199414569873357        0.0000000000000000     
  -8.6583686625212070E-002  0.15949419859579572        0.0000000000000000     
  -8.7980312265712401E-002  0.16710077068556597        0.0000000000000000     
  -8.8674544577291320E-002  0.13783668368473967        0.0000000000000000     
  -9.0485422812682223E-002  0.14509505702297965        0.0000000000000000     
  -9.2193694082564365E-002  0.15246799432505331        0.0000000000000000     
  -9.3799358386937745E-002  0.15995549559096070        0.0000000000000000     
  -9.5302415725802420E-002  0.16755756082070178        0.0000000000000000     
  -9.5730983583254603E-002  0.13838736708156593        0.0000000000000000     
  -9.7661342075729143E-002  0.14561427922616402        0.0000000000000000     
  -9.9484999498995738E-002  0.15297047986213286        0.0000000000000000     
 -0.10120195585305433       0.16045596898947248        0.0000000000000000     
 -0.10281221113790499       0.16807074660818280        0.0000000000000000     
 </DataArray>
 <DataArray  type="Float64" Name="stress" NumberOfComponents="3" format="ascii">
   13415980997.380510        4024794299.2141533        2893904811.9011402     
   11766177177.872997        1890476683.3534076        1715855866.0577197     
   10313624560.790600        413663075.57636738        810820175.48104942     
   9058323146.1333103       -405646524.11696815        178797740.17112991     
   8000272933.9011316       -567452115.72660112       -180211439.87203985     
   10539576505.614443        3161872951.6843328        2225721033.4684749     
   9667355421.2779655        1589603820.1105511        1446747274.1201367     
   8943757665.2209034        512745782.80148506        863197328.64731407     
   8368783237.4432516       -68701160.242867947        475071197.05000693     
   7942432137.9450207       -154737009.02250528        282368879.32821369     
   8337771340.3618803        2501331402.1085639        1712354924.0832300     
   8021448872.9357643        1424605519.3435445        1275723831.3933284     
   7805121859.6433687        681197817.02425075        956927111.18770659     
   7688790300.4846878        271108295.15068150        755964763.46636450     
   7672454195.4597244        194336953.72283649        672836788.22930276     
   6810565501.6228237        2043169650.4868472        1353806483.7454059     
   6828457532.8463984        1395481781.0523882        1202785537.8772945     
   6897717144.0579948        919019178.24466467        1092009523.1022270     
   7018344335.2576094        613781842.06367612        1021478439.4202049     
   7190339106.4452448        479769772.50942326        991192286.83122671     
   5957958989.3972750        1787387696.8191824        1150075712.4550025     
   6088381401.0098658        1502232605.2370815        1227932393.5720346     
   6221543518.4647827        1226209866.4627273        1268444564.3908761     
   6357445341.7620201        959319480.49611807        1271612224.9115262     
   6496086870.9015827        701561447.33725476        1237435375.1339855     
   8000272933.9011316       -567452115.72660112       -180211439.87203985     
   7917340375.6859207       -200382533.92823172       -78470000.353591070     
   7792985105.5090570        28611341.331285954       -9190972.1859132890     
   7627207123.3705416        119529510.05196667        27625644.631000053     
   7420006429.2703705        72371972.233793259        31979850.097143676     
   7942432137.9450207       -154737009.02250528        282368879.32821369     
   7739483629.0228701        16246252.753297806        281006184.41868585     
   7513185418.2274294        109397174.95145512        265036628.01364291     
   7263537505.5586920        124715757.57196331        234460210.11308333     
   6990539891.0166607        62202000.614824772        189276930.71700716     
   7672454195.4597244        194336953.72283649        672836788.22930276     
   7400505592.5599298        184538652.49486446        589455137.32821953     
   7123280297.8751965        157151378.65043974        509322174.78687203     
   6840778311.4055300        112175132.18956900        432437900.60525984     
   6552999633.1509295        49609913.112248659        358802314.78338355     
   7190339106.4452448        479769772.50942326        991192286.83122671     
   6900406266.2970924        304494665.29645967        846876858.37500811     
   6623269744.4523602        171873952.42824507        723665668.13377655     
   6358929540.9110575        81907633.904781580        621558716.10753250     
   6107385655.6731768        34595709.726068020        540556002.29627550     
   6496086870.9015827        701561447.33725476        1237435375.1339855     
   6239185650.2343616        376114291.15808725        1053271347.5590501     
   6013153757.9589214        153564896.28486896        908067108.05435467     
   5817991194.0752697        33913262.717597723        801822656.61989748     
   5653697958.5833998        17159390.456279039        734537993.25567877     
   7420006429.2703705        72371972.233793259        31979850.097143676     
   7219289866.5164261       -17519744.556986809        15244670.423517924     
   7030537058.5528412       -67532278.713249207        2509416.2481174958     
   6853748005.3796043       -77665630.235014439       -6225912.4290609723     
   6688922706.9967203       -47919799.122267246       -10961315.608013159     
   6990539891.0166607        62202000.614824772        189276930.71700716     
   6808833662.2076197        3309896.0921225548        180909650.44462159     
   6634807401.2375031       -29982315.634160042        176012021.80053416     
   6468461108.1063166       -37674634.564014673        174584044.78473890     
   6309794782.8140554       -19767060.697455883        176625719.39724723     
   6552999633.1509295        49609913.112248659        358802314.78338355     
   6388788670.0869923        21262900.397684097        353805182.46891093     
   6227973887.9105616        4236490.6414580345        351747427.91280377     
   6070555286.6216249       -1469316.1564393044        352629051.11506480     
   5916532866.2201881        4145480.0039970875        356450052.07569814     
   6107385655.6731768        34595709.726068020        540556002.29627550     
   5959154890.1545515        36339268.359700441        533931266.49637973     
   5810036518.5720043        35124140.113588572        529715634.58492494     
   5660030540.9255285        30950324.987716436        527909106.56191212     
   5509136957.2151260        23817822.982089996        528511682.42733908     
   5653697958.5833998        17159390.456279039        734537993.25567877     
   5519932322.4102945        48538999.978175640        721287902.52703261     
   5380995293.2218399        62680632.782233238        709916641.81689954     
   5236886871.0180292        59584288.868446112        700424211.12528265     
   5087607055.7988710        39249968.236825466        692810610.45217478     
   6688922706.9967203       -47919799.122267246       -10961315.608013159     
   6510668475.6871710       -10436061.733948231       -5500179.9287259281     
   6328208678.2599564        13029121.928833008        1857664.7182567001     
   6141543314.7150764        22475751.866064072        11112218.332937287     
   5950672385.0525379        17903828.077752829        22263480.915304303     
   6309794782.8140554       -19767060.697455883        176625719.39724723     
   6132724417.1475086        241370.81421160698        173713300.30180684     
   5952999624.1414108        11401711.194051027        173847601.01251245     
   5770620403.7957630        13713960.442057848        177028621.52937147     
   5585586756.1105690        7178118.5582382679        183256361.85238546     
   5916532866.2201881        4145480.0039970875        356450052.07569814     
   5743932111.4493780        7664329.2148213387        346973740.11332625     
   5570228068.1171360        7505549.8875434399        341694158.79556322     
   5395420736.2234602        3669142.0221555233        340611308.12241048     
   5219510115.7683535       -3844894.3813412189        343725188.09386963     
   5509136957.2151260        23817822.982089996        528511682.42733908     
   5344291558.5927906        11832813.467902184        514281139.50584096     
   5179894010.1871376        1340638.0093200207        505397338.06741071     
   5015944311.9981661       -7658703.3936498165        501860278.11204517     
   4852442464.0258827       -15165210.741001844        503669959.63974506     
   5087607055.7988710        39249968.236825466        692810610.45217478     
   4933802758.5777426        12746823.573440075        675635498.47935236     
   4781997450.3514156       -7093024.4406120777        664957138.82805252     
   4632191131.1198845       -20269575.805344582        660775531.49827564     
   4484383800.8831558       -26782830.520737886        663090676.49002695     
   5950672385.0525379        17903828.077752829        22263480.915304303     
   5785704741.9724092        17084141.552452326        15253497.084275993     
   5622292940.5846643        21450594.001750946        11771780.141610878     
   5460436980.8892879        31003185.425626040        11818330.087297110     
   5300136862.8862867        45741915.824072123        15393146.921342056     
   5585586756.1105690        7178118.5582382679        183256361.85238546     
   5429869823.8805599        6993915.4473218918        177372128.16619986     
   5275196301.9371300        10287746.625001192        174928908.99612328     
   5121566190.2802858        17059612.091307163        175926704.34214947     
   4968979488.9100256        27309511.846231699        180365514.20428884     
   5219510115.7683535       -3844894.3813412189        343725188.09386963     
   5072794601.8963022       -3468401.8255534172        338368867.91244233     
   4926610066.9050417       -1321979.6671135426        336366309.87486827     
   4780956510.7945824        2594372.0939915180        337717513.98114878     
   4635833933.5649242        8280653.4577560425        342422480.23128563     
   4852442464.0258827       -15165210.741001844        503669959.63974506     
   4714479076.0196371       -14302810.266143322        498243716.32299668     
   4576534235.4884071       -13378584.874586105        496083982.77784228     
   4438607942.4321814       -12392534.566339970        497190759.00428724     
   4300700196.8509684       -11344659.341381311        501564045.00233746     
   4484383800.8831558       -26782830.520737886        663090676.49002695     
   4354923246.2505741       -25509309.874454737        656996673.39785993     
   4224968807.6872120       -25882068.997438431        654081927.70504045     
   4094520485.1930747       -27901107.889673710        654346439.41157448     
   3963578278.7681589       -31566426.551177979        657790208.51745117     
   5300136862.8862867        45741915.824072123        15393146.921342056     
   5088040428.1490259        45772262.976946831        11596715.615451980     
   4874935741.9005327        42441771.759031296        12310053.001622314     
   4660822804.1407909        35750442.170296192        17533159.079852413     
   4445701614.8698139        25698274.210777283        27266033.850128833     
   4968979488.9100256        27309511.846231699        180365514.20428884     
   4767824553.7664385        23718208.903574228        175073287.26444486     
   4566107044.0073242        18251657.242496967        174523595.18818521     
   4363826959.6326637        10909856.862923622        178716437.97550920     
   4160984300.6424789        1692807.7649471760        187651815.62641236     
   4635833933.5649242        8280653.4577560425        342422480.23128563     
   4446285544.2193642        1267214.2808759212        336154414.03581339     
   4256620257.1539788       -6135883.9620916843        334861648.87544733     
   4066838072.3687592       -13928641.271168470        338544184.75019258     
   3876938989.8637166       -22111057.646328211        347202021.66004241     
   4300700196.8509684       -11344659.341381311        501564045.00233746     
   4123423399.5077958       -21580720.891181231        494840095.92956054     
   3946475381.3404994       -30720851.854717255        493324214.06341398     
   3769856142.3490820       -38765052.231992245        497016399.40390253     
   3593565682.5335407       -45713322.023019075        505916651.95102262     
   3963578278.7681589       -31566426.551177979        657790208.51745117     
   3799238119.6317320       -44825596.612579823        651130332.94568551     
   3635672416.5668931       -55503246.435371161        649911290.75208294     
   3472881169.5736341       -63599376.019553423        654133081.93663585     
   3310864378.6519556       -69113985.365135908        663795706.49935257     
   4445701614.8698139        25698274.210777283        27266033.850128833     
   4291986896.5233717        35573654.094063759        20860942.403889436     
   4140273137.3137112        52118897.766643524        18977870.322193310     
   3990560337.2408614        75334005.228587389        21616817.605061587     
   3842848496.3048091        105218976.47984457        28777784.252482101     
   4160984300.6424789        1692807.7649471760        187651815.62641236     
   4018146528.5471072        10658911.266394854        182813537.51787084     
   3875991124.3844137        21899574.543449879        182029954.78756163     
   3734518088.1543999        35414797.596080303        185301067.43549618     
   3593727419.8570676        51204580.424336910        192626875.46164507     
   3876938989.8637166       -22111057.646328211        347202021.66004241     
   3743642952.6299343       -14454793.943539858        342392200.48440337     
   3609710692.1247082       -8919274.4788975716        341169750.70066851     
   3475142208.3480382       -5504499.2523901463        343534672.30884570     
   3339937501.2999301       -4210468.2640256882        349486965.30893230     
   3593565682.5335407       -45713322.023019075        505916651.95102262     
   3468476168.7718515       -39767461.535750866        499596931.30346930     
   3341431840.5346022       -40337649.300349474        496397258.06151056     
   3212432697.8217854       -47423885.316830873        496317632.22513139     
   3081478740.6334147       -61026169.585177064        499358053.79434514     
   3310864378.6519556       -69113985.365135908        663795706.49935257     
   3192646176.9728622       -65279091.510235548        654427729.97508311     
   3071154569.6140938       -72355549.920924425        647712476.87008286     
   2946389556.5756369       -90343360.597238064        643649947.18434370     
   2818351137.8574948       -119242523.53916955        642240140.91787040     
   3842848496.3048091        105218976.47984457        28777784.252482101     
   3648480972.5242248        143625504.89474750        5289082.3005097713     
   3466959695.3323469        224852855.27199399       -15768807.636885766     
   3298284664.7291584        348901027.61155951       -34395885.559712194     
   3142455880.7146692        515770021.91342264       -50592151.467961833     
   3593727419.8570676        51204580.424336910        192626875.46164507     
   3399376289.8727398        65255037.266976118        180496565.63505125     
   3213790360.6505618        108522829.98346925        171568686.30765444     
   3036969632.1905422        181007958.57379019        165843237.47949177     
   2868914104.4926777        282710423.03800523        163320219.15055680     
   3339937501.2999301       -4210468.2640256882        349486965.30893230     
   3147807389.3536997       -13854695.721091747        343953827.47673398     
   2960361432.3430791       -7885073.3927855492        342394738.62839675     
   2777599630.2680707        13698398.720910549        344809698.76392454     
   2599521983.1286821        50895720.619986534        351198707.88332075     
   3081478740.6334147       -61026169.585177064        499358053.79434514     
   2893774270.9671159       -93703694.069420815        495660867.82558256     
   2706672910.4098988       -124370854.85673213        496709349.32533157     
   2520174658.9617524       -153027651.94713283        502503498.29359335     
   2334279516.6226850       -179674085.34061944        513043314.73036653     
   2818351137.8574948       -119242523.53916955        642240140.91787040     
   2637276934.7129898       -174291957.77800941        635617686.68158197     
   2452724794.8510194       -240934514.40838718        634512518.39845359     
   2264694718.2715778       -319170193.43035281        638924636.06848645     
   2073186704.9746764       -408998994.84384191        648854039.69166660     
   5957958989.3972750        1787387696.8191824        1150075712.4550025     
   6088381401.0098658        1502232605.2370815        1227932393.5720346     
   6221543518.4647827        1226209866.4627273        1268444564.3908761     
   6357445341.7620201        959319480.49611807        1271612224.9115262     
   6496086870.9015827        701561447.33725476        1237435375.1339855     
   5434617158.4604836        1630385147.5381451        1033489987.9345788     
   5489866757.8503819        1372494492.9882109        1113892182.2572362     
   5547320663.3144999        1121951525.3523364        1167521853.5455136     
   5606978874.8528337        878756244.63052106        1194379001.7994108     
   5668841392.4653873        642908650.82276583        1194463627.0189266     
   4895205363.5877047        1468561609.0763113        936376687.90669429     
   4905487828.6515121        1246997094.9275246        1018699762.3721867     
   4917439200.0214319        1030995601.7991104        1084822301.0671091     
   4931059477.6974649        820557129.69106948        1134744303.9914629     
   4946348661.6796093        615681678.60340190        1168465771.1452467     
   4339723604.7789354        1301917081.4336808        858735812.37134886     
   4335244613.4132547        1125740411.0550213        942355133.91688585     
   4331899128.5855808        953342095.80304921        1020345906.9556642     
   4329687150.2959118        784722135.67776251        1092708131.4876838     
   4328608678.5442514        619880530.67916405        1159441807.5129440     
   3768171882.0341783        1130451564.6102536        800567361.32854235     
   3779137112.1356115        1008724441.3707026        884858296.89133358     
   3790700449.0069442        888991007.36415219        974092671.21117735     
   3802861892.6481781        771251262.59060168        1068270484.2880727     
   3815621443.0593119        655505207.05005181        1167391736.1220195     
   6496086870.9015827        701561447.33725476        1237435375.1339855     
   6239185650.2343616        376114291.15808725        1053271347.5590501     
   6013153757.9589214        153564896.28486896        908067108.05435467     
   5817991194.0752697        33913262.717597723        801822656.61989748     
   5653697958.5833998        17159390.456279039        734537993.25567877     
   5668841392.4653873        642908650.82276583        1194463627.0189266     
   5518760811.0162239        383410167.82253122        1073558412.1432185     
   5392804741.4221001        204326724.33908892        980644207.09294844     
   5290973183.6830101        105658320.37243390        915721011.86811543     
   5213266137.7989578        87404955.922568560        878788826.46872365     
   4946348661.6796093        615681678.60340190        1168465771.1452467     
   4871749353.0347929        412730058.85798717        1102950416.3425581     
   4814529739.7082653        267710756.84020400        1054457293.1205083     
   4774689821.7000256        180623772.55005002        1022986401.4790969     
   4752229599.0100775        151469105.98752832        1008537741.4183240     
   4328608678.5442514        619880530.67916405        1159441807.5129440     
   4298151276.2900658        464073964.26445496        1141447360.1570702     
   4278328752.8174224        343716993.78821802        1129506366.1370351     
   4269141108.1263180        258809619.25045085        1123618825.4528389     
   4270588342.2167592        209351840.65115690        1123784738.1044796     
   3815621443.0593119        655505207.05005181        1167391736.1220195     
   3797966580.7820435        537441884.04193258        1189049243.5867546     
   3784201780.7495689        432345435.18312788        1205791426.1425285     
   3774327042.9618883        340215860.47363365        1217618283.7893405     
   3768342367.4190006        261053159.91345263        1224529816.5271916     
   5653697958.5833998        17159390.456279039        734537993.25567877     
   5519932322.4102945        48538999.978175640        721287902.52703261     
   5380995293.2218399        62680632.782233238        709916641.81689954     
   5236886871.0180292        59584288.868446112        700424211.12528265     
   5087607055.7988710        39249968.236825466        692810610.45217478     
   5213266137.7989578        87404955.922568560        878788826.46872365     
   5077110490.7276907        85179097.547593117        855225790.38739312     
   4938959179.9976835        76301026.976821184        835700562.34208775     
   4798812205.6089401        60770744.210257769        820213142.33280420     
   4656669567.5614586        38588249.247902632        808763530.35954750     
   4752229599.0100775        151469105.98752832        1008537741.4183240     
   4619852449.6621065        117488332.30211663        978366777.56702578     
   4488655366.0120068        87441110.942955494        954392599.76926243     
   4358638348.0597878        61327441.910049915        936615208.02503395     
   4229801395.8054399        39147325.203396320        925034602.33434021     
   4270588342.2167592        209351840.65115690        1123784738.1044796     
   4148158199.2135401        145466704.24174523        1090710864.0659308     
   4030083851.2648115        96100884.680635452        1065992754.0984266     
   3916365298.3705711        61254381.967821360        1049630408.2019671     
   3807002540.5308247        40927196.103312731        1041623826.3765546     
   3768342367.4190006        261053159.91345263        1224529816.5271916     
   3662027739.3819952        169114213.36648118        1192258049.8841074     
   3563244635.7560935        102280348.18985426        1170501025.3295782     
   3471993056.5412951        60551564.383575916        1159258742.8636043     
   3388273001.7376022        43927861.947644711        1158531202.4861882     
   5087607055.7988710        39249968.236825466        692810610.45217478     
   4933802758.5777426        12746823.573440075        675635498.47935236     
   4781997450.3514156       -7093024.4406120777        664957138.82805252     
   4632191131.1198845       -20269575.805344582        660775531.49827564     
   4484383800.8831558       -26782830.520737886        663090676.49002695     
   4656669567.5614586        38588249.247902632        808763530.35954750     
   4520581106.3673153        17662655.663734913        794801225.12212563     
   4386119505.5278549        2159929.9285213947        786682606.56565714     
   4253284765.0430808       -7919927.9577386379        784407674.69013715     
   4122076884.9129963       -12576917.995044708        787976429.49557114     
   4229801395.8054399        39147325.203396320        925034602.33434021     
   4109562868.8080735        23239512.149384737        913850953.75218797     
   3990579073.5252752        11514138.143949986        907857926.21041775     
   3872850009.9570513        3971203.1870932579        907055519.70902061     
   3756375678.1034017        610707.27881669998        911443734.24800718     
   3807002540.5308247        40927196.103312731        1041623826.3765546     
   3700748045.9000173        29477393.030390739        1032784684.3695433     
   3595376154.3436737        20969600.205674648        1028483097.7623358     
   3490886865.8617897        15403817.629157066        1028719066.5549334     
   3387280180.4543676        12780045.300846815        1033492590.7473382     
   3388273001.7376022        43927861.947644711        1158531202.4861882     
   3294136637.6431527        36376298.306753039        1151602416.9741843     
   3200510747.9830537        30526316.113692880        1148558121.2214124     
   3107395332.7573009        26377915.368455768        1149398315.2278726     
   3014790391.9658966        23931096.071045756        1154122998.9935648     
   4484383800.8831558       -26782830.520737886        663090676.49002695     
   4354923246.2505741       -25509309.874454737        656996673.39785993     
   4224968807.6872120       -25882068.997438431        654081927.70504045     
   4094520485.1930747       -27901107.889673710        654346439.41157448     
   3963578278.7681589       -31566426.551177979        657790208.51745117     
   4122076884.9129963       -12576917.995044708        787976429.49557114     
   4001218440.1734490       -11965660.690026283        780495068.53882086     
   3880159563.6892090       -12022509.200640440        776604287.79458070     
   3758900255.4602814       -12747463.526887417        776304087.26285052     
   3637440515.4866629       -14140523.668757677        779594466.94362187     
   3756375678.1034017        610707.27881669998        911443734.24800718     
   3645294551.2944798        912263.65384984016        902917376.31045175     
   3534306444.9269581        1523888.1668815613        898392921.39855754     
   3423411359.0008349        2445580.8179128170        897870369.51233029     
   3312609293.5161123        3677341.6069445610        901349720.65176785     
   3387280180.4543676        12780045.300846815        1033492590.7473382     
   3287151579.6136680        13124463.157174468        1024263596.7127426     
   3187409451.4004569        14757123.105132461        1019447828.5169692     
   3088053795.8147335        17678025.144711733        1019045286.1600190     
   2989084612.8565011        21887169.275929213        1023055969.6418914     
   3014790391.9658966        23931096.071045756        1154122998.9935648     
   2926789525.1310134        24670937.819941282        1144533729.7456996     
   2839468583.1097078        27677195.614104390        1139769009.1498153     
   2752827565.9019771        32949869.453511834        1139828837.2059140     
   2666866473.5078292        40488959.338195920        1144713213.9139922     
   3963578278.7681589       -31566426.551177979        657790208.51745117     
   3799238119.6317320       -44825596.612579823        651130332.94568551     
   3635672416.5668931       -55503246.435371161        649911290.75208294     
   3472881169.5736341       -63599376.019553423        654133081.93663585     
   3310864378.6519556       -69113985.365135908        663795706.49935257     
   3637440515.4866629       -14140523.668757677        779594466.94362187     
   3488138471.7385898       -23434963.862066269        774019734.90003276     
   3339334427.4808559       -31069405.754237890        773657012.88437259     
   3191028382.7134595       -37043849.345285892        778506300.89665282     
   3043220337.4364104       -41358294.635180831        788567598.93686724     
   3312609293.5161123        3677341.6069445610        901349720.65176785     
   3177691584.1557460       -1848503.0184648037        896537599.45823622     
   3042995417.7044811       -6635871.2802058458        896708664.94241071     
   2908520794.1623125       -10684763.178293467        901862917.10429466     
   2774267713.5292406       -13995178.712718368        912000355.94389451     
   2989084612.8565011        21887169.275929213        1023055969.6418914     
   2867897456.8832049        19933785.918233395        1018683926.6202977     
   2746655387.2377639        17797356.986716628        1019066246.9261898     
   2625358403.9201851        15477882.481404066        1024202930.5595691     
   2504006506.9304585        12975362.402273059        1034093977.5204359     
   2666866473.5078292        40488959.338195920        1144713213.9139922     
   2558756089.9209599        41911902.948008418        1140458716.3862226     
   2450314336.0807114        42230279.046550274        1140729758.8357186     
   2341541211.9870725        41444087.633792281        1145526341.2624755     
   2232436717.6400490        39553328.709759593        1154848463.6664965     
   3310864378.6519556       -69113985.365135908        663795706.49935257     
   3192646176.9728622       -65279091.510235548        654427729.97508311     
   3071154569.6140938       -72355549.920924425        647712476.87008286     
   2946389556.5756369       -90343360.597238064        643649947.18434370     
   2818351137.8574948       -119242523.53916955        642240140.91787040     
   3043220337.4364104       -41358294.635180831        788567598.93686724     
   2932684341.6785092       -36424202.240255833        775973281.46680832     
   2820375790.0538473       -37398629.401210666        766381968.54608893     
   2706294682.5624194       -44281576.118055463        759793660.17471087     
   2590441019.2042246       -57073042.390773177        756208356.35267138     
   2774267713.5292406       -13995178.712718368        912000355.94389451     
   2672414726.9213247       -7661646.8091311455        897930688.97645080     
   2570290034.2595606       -2233801.7517029047        887214307.68841934     
   2467893635.5439491        2288356.4595679045        879851212.07980502     
   2365225530.7744875        5904827.8246798515        875841402.15060663     
   2504006506.9304585        12975362.402273059        1034093977.5204359     
   2411837332.7013068        21008574.783147931        1020299952.5040102     
   2320897302.2312293        33138933.027598381        1010209494.2970715     
   2231186415.5202179        49366437.135604501        1003822602.8996278     
   2142704672.5682788        69691087.107186198        1001139278.3116767     
   2232436717.6400490        39553328.709759593        1154848463.6664965     
   2150952159.0184579        49586462.536575913        1143081072.0494857     
   2072197593.9688492        68719574.936670184        1135367528.3720508     
   1996173022.4912333        96952665.910069942        1131707832.6341763     
   1922878444.5856059        134285735.45676345        1132101984.8358712     
   2818351137.8574948       -119242523.53916955        642240140.91787040     
   2637276934.7129898       -174291957.77800941        635617686.68158197     
   2452724794.8510194       -240934514.40838718        634512518.39845359     
   2264694718.2715778       -319170193.43035281        638924636.06848645     
   2073186704.9746764       -408998994.84384191        648854039.69166660     
   2590441019.2042246       -57073042.390773177        756208356.35267138     
   2430362371.5080395       -87658890.061153173        747528313.31503892     
   2269071519.6151428       -122285418.38723218        743835968.53792179     
   2106568463.5255449       -160952627.36898851        745131322.02132833     
   1942853203.2392390       -203660517.00642014        751414373.76525021     
   2365225530.7744875        5904827.8246798515        875841402.15060663     
   2224629330.8333654       -671365.58522880077        867747124.91917682     
   2085086659.2163024       -3735797.9149467945        864110958.25563192     
   1946597515.9232943       -3288469.1644861698        864932902.15996778     
   1809161900.9543321        670620.66616070271        870212956.63218379     
   2142704672.5682788        69691087.107186198        1001139278.3116767     
   2020077812.6889787        86670615.649788976        996274121.49400246     
   1900770213.6544924        114714347.00843763        995337487.55157733     
   1784781875.4648252        153822281.18314874        998329376.48439658     
   1672112798.1199694        203994418.17390156        1005249788.2924589     
   1922878444.5856059        134285735.45676345        1132101984.8358712     
   1816707817.0748732        174367053.64389127        1133109303.0395131     
   1716122182.9297152        233065016.38293821        1137515556.4257586     
   1621121542.1501305        310379623.67390424        1145320744.9946132     
   1531705894.7361369        406310875.51680821        1156524868.7460859     
   3768171882.0341783        1130451564.6102536        800567361.32854235     
   3779137112.1356115        1008724441.3707026        884858296.89133358     
   3790700449.0069442        888991007.36415219        974092671.21117735     
   3802861892.6481781        771251262.59060168        1068270484.2880727     
   3815621443.0593119        655505207.05005181        1167391736.1220195     
   3207726713.6479878        962318014.09439635        756712229.51250792     
   3235908649.0030026        868220111.37695909        853076282.11084175     
   3263807319.2470989        773177991.62312806        951364541.41131401     
   3291422724.3802776        677191654.83290362        1051577007.4139248     
   3318754864.4025378        580261101.00628614        1153713680.1186736     
   2685564617.9149199        805669385.37447596        722011311.65747869     
   2722336881.2237630        736612789.98922622        829420214.09706712     
   2757944507.5408697        663674071.29818904        935734091.18388021     
   2792387496.8662405        586853229.30136442        1040952942.9179182     
   2825665849.1998754        506150263.99875301        1145076769.2991812     
   2201685594.8349743        660505678.45049226        696464607.76345444     
   2238421808.7978930        613902477.20750403        813890092.85000920     
   2273112013.8882575        560479246.38933480        927201320.52887571     
   2305756210.1060681        500235985.99598461        1036398290.8000534     
   2336354397.4513235        433172696.02745336        1141481003.6635425     
   1756089644.4081507        526826893.32244521        680072117.83043516     
   1784163431.7253926        500089173.03179294        806485918.36966896     
   1809309838.2892621        463593516.89656579        925766229.44630086     
   1831528864.0997591        417339924.91676402        1037913051.0603303     
   1850820509.1568837        361328397.09238762        1142926383.2117579     
   3815621443.0593119        655505207.05005181        1167391736.1220195     
   3797966580.7820435        537441884.04193258        1189049243.5867546     
   3784201780.7495689        432345435.18312788        1205791426.1425285     
   3774327042.9618883        340215860.47363365        1217618283.7893405     
   3768342367.4190006        261053159.91345263        1224529816.5271916     
   3318754864.4025378        580261101.00628614        1153713680.1186736     
   3293901162.4462204        472952248.36148369        1182063205.6539404     
   3272810365.4527254        378186412.25942326        1207308686.2612126     
   3255482473.4220538        295963592.70010757        1229450121.9404883     
   3241917486.3542051        226283789.68353450        1248487512.6917694     
   2825665849.1998754        506150263.99875301        1145076769.2991812     
   2798788393.2244124        411148407.41523820        1179969962.7426808     
   2775546684.9298010        328265709.76789665        1213570391.2391515     
   2755940724.3160429        257502171.05672967        1245878054.7885923     
   2739970511.3831358        198857791.28173566        1276892953.3910058     
   2336354397.4513235        433172696.02745336        1141481003.6635425     
   2312628273.1166191        352030361.20319730        1182769514.8529751     
   2292410739.1807957        282583327.70854473        1224576541.0763447     
   2275701795.6438541        224831595.54349715        1266902082.3336527     
   2262501442.5057921        178775164.70805335        1309746138.6248975     
   1850820509.1568837        361328397.09238762        1142926383.2117579     
   1835420802.1228411        295598109.72536153        1190461861.9848247     
   1823402528.2057092        241139266.08136845        1240327135.7727947     
   1814765687.4054875        197951866.16041243        1292522204.5756691     
   1809510279.7221766        166035909.96249038        1347047068.3934460     
   3768342367.4190006        261053159.91345263        1224529816.5271916     
   3662027739.3819952        169114213.36648118        1192258049.8841074     
   3563244635.7560935        102280348.18985426        1170501025.3295782     
   3471993056.5412951        60551564.383575916        1159258742.8636043     
   3388273001.7376022        43927861.947644711        1158531202.4861882     
   3241917486.3542051        226283789.68353450        1248487512.6917694     
   3165158424.7727957        152394395.55306709        1231424067.8111560     
   3094360830.4748302        98376559.034082770        1222415650.6347895     
   3029524703.4603090        64230280.126581788        1221462261.1626704     
   2970650043.7292342        49955558.830564380        1228563899.3947990     
   2739970511.3831358        198857791.28173566        1276892953.3910058     
   2685739260.8735833        140909622.95264995        1273206096.9572594     
   2635899420.5198154        97599488.476183295        1275114553.8434534     
   2590450990.3218360        68927387.852340221        1282618324.0495868     
   2549393970.2796412        54893321.081115246        1295717407.5756583     
   2262501442.5057921        178775164.70805335        1309746138.6248975     
   2223770247.6843591        134659895.56522799        1317604137.3224177     
   2187860405.8910522        99949136.516159654        1328597734.9555700     
   2154771917.1258731        74642887.560851455        1342726931.5243535     
   2124504781.3888226        58741148.699300051        1359991727.0287662     
   1809510279.7221766        166035909.96249038        1347047068.3934460     
   1779251385.2051241        133645213.39080489        1364618188.9066322     
   1750243786.5885401        105425503.15401214        1382865193.9711394     
   1722487483.8724251        81376779.252119124        1401788083.5869703     
   1695982477.0567782        61499041.685115576        1421386857.7541227     
   3388273001.7376022        43927861.947644711        1158531202.4861882     
   3294136637.6431527        36376298.306753039        1151602416.9741843     
   3200510747.9830537        30526316.113692880        1148558121.2214124     
   3107395332.7573009        26377915.368455768        1149398315.2278726     
   3014790391.9658966        23931096.071045756        1154122998.9935648     
   2970650043.7292342        49955558.830564380        1228563899.3947990     
   2885846732.1031146        38158584.446748614        1221323525.6489258     
   2801844376.8072085        29031464.496984243        1218357643.4447491     
   2718642977.8415174        22574198.981262684        1219666252.7822673     
   2636242535.2060394        18786787.899590969        1225249353.6614788     
   2549393970.2796412        54893321.081115246        1295717407.5756583     
   2475038001.9288878        39185223.196488023        1288504341.1410940     
   2401773471.8042169        27115252.732129812        1285955768.0306885     
   2329600379.9056239        18683409.688039660        1288071688.2444410     
   2258518726.2331128        13889694.064218521        1294852101.7823546     
   2124504781.3888226        58741148.699300051        1359991727.0287662     
   2061710447.1204758        39456214.555970550        1353144863.4506872     
   2000298032.9740770        24777680.819133878        1351352494.9792309     
   1940267538.9496236        14705547.488783002        1354614621.6143978     
   1881618965.0471201        9239814.5649273396        1362931243.3561878     
   1695982477.0567782        61499041.685115576        1421386857.7541227     
   1645864067.6778784        38971558.525200903        1415245092.5777059     
   1597418060.3167906        22018748.757993162        1414547824.2903771     
   1550644454.9735150        10640612.383494616        1419295052.8921340     
   1505543251.6480551        4837149.4017110467        1429486778.3829770     
   3014790391.9658966        23931096.071045756        1154122998.9935648     
   2926789525.1310134        24670937.819941282        1144533729.7456996     
   2839468583.1097078        27677195.614104390        1139769009.1498153     
   2752827565.9019771        32949869.453511834        1139828837.2059140     
   2666866473.5078292        40488959.338195920        1144713213.9139922     
   2636242535.2060394        18786787.899590969        1225249353.6614788     
   2560288772.5462637        18986903.876627564        1216538944.9892764     
   2484888024.8085766        21030402.927301407        1212395542.9779122     
   2410040291.9929800        24917285.051607728        1212819147.6273892     
   2335745574.0994749        30647550.249545336        1217809758.9376984     
   2258518726.2331128        13889694.064218521        1294852101.7823546     
   2193876233.4880352        13329333.991265893        1286872492.1457453     
   2129659845.7735620        14189324.020331860        1283202347.1788313     
   2065869563.0896924        16469664.151406407        1283841666.8816142     
   2002505385.4364254        20170354.384496570        1288790451.2540951     
   1881618965.0471201        9239814.5649273396        1362931243.3561878     
   1827551907.9563322        7698228.1638591290        1355534371.2151029     
   1773784046.0046649        7153958.8931964636        1352189421.7525744     
   1720315379.1921136        7607006.7529196739        1352896394.9685981     
   1667145907.5186818        9057371.7430392504        1357655290.8631732     
   1505543251.6480551        4837149.4017110467        1429486778.3829770     
   1461315795.9511545        2093586.3944189548        1422524582.1973503     
   1417260625.5018861       -75692.454098641872        1419356766.6991384     
   1373377740.3002472       -1670687.1438500285        1419983331.8883359     
   1329667140.3462391       -2691397.6748344898        1424404277.7649448     
   2666866473.5078292        40488959.338195920        1144713213.9139922     
   2558756089.9209599        41911902.948008418        1140458716.3862226     
   2450314336.0807114        42230279.046550274        1140729758.8357186     
   2341541211.9870725        41444087.633792281        1145526341.2624755     
   2232436717.6400490        39553328.709759593        1154848463.6664965     
   2335745574.0994749        30647550.249545336        1217809758.9376984     
   2239247448.0965137        30283191.061293960        1212662404.4065297     
   2142569756.4329753        29320279.671127677        1212334470.2237391     
   2045712499.1088674        27758816.079052091        1216825956.3893192     
   1948675676.1241817        25598800.285058141        1226136862.9032724     
   2002505385.4364254        20170354.384496570        1288790451.2540951     
   1918459175.2205362        18270589.859114289        1282927345.0778120     
   1834385203.9368896        16278288.441203594        1282177539.6210113     
   1750283471.5854800        14193450.130753756        1286541034.8836946     
   1666153978.1663108        12016074.927766979        1296017830.8658597     
   1667145907.5186818        9057371.7430392504        1357655290.8631732     
   1596391271.2930379        5874099.3414845467        1351253538.4000576     
   1525760678.5924454        3104305.3567688465        1350258967.0275345     
   1455254129.4169087        747989.78890198469        1354671576.7456024     
   1384871623.7664189       -1194847.3621361256        1364491367.5542629     
   1329667140.3462391       -2691397.6748344898        1424404277.7649448     
   1273043736.3140121       -6906280.4916100502        1417640984.3732746     
   1216696180.3996501       -10201669.582165539        1416578752.4433076     
   1160624472.6031525       -12577564.946509600        1421217581.9750402     
   1104828612.9245174       -14033966.584645510        1431557472.9684725     
   2232436717.6400490        39553328.709759593        1154848463.6664965     
   2150952159.0184579        49586462.536575913        1143081072.0494857     
   2072197593.9688492        68719574.936670184        1135367528.3720508     
   1996173022.4912333        96952665.910069942        1131707832.6341763     
   1922878444.5856059        134285735.45676345        1132101984.8358712     
   1948675676.1241817        25598800.285058141        1226136862.9032724     
   1877054611.3376906        33964776.275320411        1217548523.2125926     
   1807526033.7445874        49305709.576880813        1212878367.2639401     
   1740089943.3448801        71621600.189756274        1212126395.0573030     
   1674746340.1385651        100912448.11394745        1215292606.5926921     
   1666153978.1663108        12016074.927766979        1296017830.8658597     
   1604008795.2219210        18598609.483563542        1289864785.6598179     
   1543318593.0923357        30031080.088691950        1287494259.9982531     
   1484083371.7775495        46313486.743156195        1288906253.8811622     
   1426303131.2775612        67445829.446950734        1294100767.3085477     
   1384871623.7664189       -1194847.3621361256        1364491367.5542629     
   1331814710.6711509        3487962.1613035202        1360029859.3911657     
   1279575272.0120928        10895686.472103715        1359215206.5749948     
   1228153307.7892370        21028325.570244849        1362047409.1057551     
   1177548818.0025909        33885879.455756605        1368526466.9834447     
   1104828612.9245174       -14033966.584645510        1431557472.9684725     
   1060472357.6853846       -11367165.691448689        1428043744.4066250     
   1016296070.5038642       -8100471.2728753090        1428041206.9941635     
   972299751.37995481       -4233883.3289345503        1431549860.7310834     
   928483400.31365871        232598.14038395882        1438569705.6173904     
   1922878444.5856059        134285735.45676345        1132101984.8358712     
   1816707817.0748732        174367053.64389127        1133109303.0395131     
   1716122182.9297152        233065016.38293821        1137515556.4257586     
   1621121542.1501305        310379623.67390424        1145320744.9946132     
   1531705894.7361369        406310875.51680821        1156524868.7460859     
   1674746340.1385651        100912448.11394745        1215292606.5926921     
   1574247665.4156606        125466689.61536676        1221037087.1150773     
   1475487216.7074163        155815017.83231342        1231328844.6037300     
   1378464994.0138323        191957432.76479608        1246167879.0586550     
   1283180997.3348994        233893934.41279137        1265554190.4798520     
   1426303131.2775612        67445829.446950734        1294100767.3085477     
   1334757385.8672340        77457287.220094621        1300094514.9069388     
   1241103099.1206417        80440273.872359812        1311783881.2552590     
   1145340271.0377920        76394789.403761923        1329168866.3535128     
   1047468901.6186757        65320833.814285278        1352249470.2016902     
   1177548818.0025909        33885879.455756605        1368526466.9834447     
   1098236978.4295824        30338846.458046734        1370281586.4151068     
   1012969830.1693900        6940784.5030561090        1378880666.3803596     
   921747373.22201598       -36308306.409201086        1394323706.8791940     
   824569607.58746541       -99408426.278723419        1416610707.9116297     
   928483400.31365871        232598.14038395882        1438569705.6173904     
   864686443.10271204       -15888632.670763493        1431598301.6395729     
   791087409.85365975       -64683450.275596917        1432619199.9790096     
   707686300.56651485       -146151854.67406657        1441632400.6356995     
   614483115.24126780       -260293845.86622170        1458637903.6096430     
   1756089644.4081507        526826893.32244521        680072117.83043516     
   1784163431.7253926        500089173.03179294        806485918.36966896     
   1809309838.2892621        463593516.89656579        925766229.44630086     
   1831528864.0997591        417339924.91676402        1037913051.0603303     
   1850820509.1568837        361328397.09238762        1142926383.2117579     
   1326500350.4684386        397950105.14053154        669731735.32152796     
   1339702954.3871686        375534567.67318577        791879215.46345031     
   1350712376.8070917        345808425.20981592        908723386.41758728     
   1359528617.7282071        308771677.75042111        1020264248.1839387     
   1366151677.1505153        264424325.29500192        1126501800.7625051     
   890641296.84982634        267192389.05494791        662341353.69983995     
   894201803.86952138        250667760.36075178        781079079.24144363     
   896303328.64497399        229279857.51908153        896343675.87007833     
   896945871.17618454        203028680.52993709        1008135143.5857445     
   896129431.46315277        171914229.39331865        1116453482.3884423     
   448512483.55231446        134553745.06569433        657900972.96537113     
   447659980.17245036        125488751.09449057        774085509.70364845     
   446082693.80290926        114007813.82436308        888627097.80377376     
   443780624.44369078        100110933.25531185        1001525737.2657471     
   440753772.09479517        83798109.387336463        1112781428.0895689     
   113910.57590273838        34173.172770821511        656410593.11812139     
   77483.295955814028       -2460.1255976960783        770898506.85006523     
   50472.280897028708       -7705.8743394738412        885573652.21867323     
   32877.530726143668        18435.926545104354        1000436029.2239465     
   24699.045443086005        75965.277056120700        1115485637.8658845     
   1850820509.1568837        361328397.09238762        1142926383.2117579     
   1835420802.1228411        295598109.72536153        1190461861.9848247     
   1823402528.2057092        241139266.08136845        1240327135.7727947     
   1814765687.4054875        197951866.16041243        1292522204.5756691     
   1809510279.7221766        166035909.96249038        1347047068.3934460     
   1366151677.1505153        264424325.29500192        1126501800.7625051     
   1360490913.9610763        216904187.87194112        1181927286.9801924     
   1357361153.2479486        177820725.36991969        1238312131.1532938     
   1356762395.0111344        147173937.78894091        1295656333.2818100     
   1358694639.2506309        124963825.12899965        1353959893.3657401     
   896129431.46315277        171914229.39331865        1116453482.3884423     
   896292077.66263378        141429581.57751915        1178776806.9700515     
   898135295.69782817        116546839.88076457        1240689052.4475863     
   901659085.56873655        97266004.303055525        1302190218.8210461     
   906863447.27535772        83587074.844390601        1363280306.0904319     
   440753772.09479517        83798109.387336463        1112781428.0895689     
   442824293.22751325        69174290.842093393        1181010421.9544020     
   445724955.55534613        57317609.613900155        1247457899.6556718     
   449455759.07829428        48228065.702757061        1312123861.1933775     
   454016703.79635710        41905659.108663812        1375008306.5675194     
   24699.045443086005        75965.277056120700        1115485637.8658845     
   87560.655714577835        138315.66566383300        1188628131.9332438     
   130132.82050289336        133034.56932706057        1258618672.7775500     
   152415.53980775669        60121.988045642560        1325457260.3988035     
   154408.81362877175       -80422.078181762830        1389143894.7970037     
   1809510279.7221766        166035909.96249038        1347047068.3934460     
   1779251385.2051241        133645213.39080489        1364618188.9066322     
   1750243786.5885401        105425503.15401214        1382865193.9711394     
   1722487483.8724251        81376779.252119124        1401788083.5869703     
   1695982477.0567782        61499041.685115576        1421386857.7541227     
   1358694639.2506309        124963825.12899965        1353959893.3657401     
   1333199141.6867554        99818092.938920319        1372784964.1254809     
   1308662335.9394526        77868000.137415528        1392926386.9790475     
   1285084222.0087204        59113546.724480748        1414384161.9264412     
   1262464799.8945606        43554732.700118065        1437158288.9676630     
   906863447.27535772        83587074.844390601        1363280306.0904319     
   887961253.92895901        66235279.215209872        1383017955.6655128     
   869725148.31523561        51103776.028278470        1404712424.8769262     
   852155130.43418574        38192565.283595085        1428363713.7246706     
   835251200.28581214        27501646.981162965        1453971822.2087481     
   454016703.79635710        41905659.108663812        1375008306.5675194     
   443537721.93173355        32896772.219669074        1395317163.5267293     
   433432223.71588868        25132830.826604038        1418223307.6647754     
   423700209.14882082        18613834.929462746        1443726738.9816580     
   414341678.23053092        13339784.528247178        1471827457.4773769     
   154408.81362877175       -80422.078181762830        1389143894.7970037     
  -71454.304920739087       -197428.04769951440        1409682587.7091286     
  -216437.85858860196       -44835.467612293069        1433459035.3425949     
  -280541.84737534577        377355.66207831132        1460473237.6974027     
  -263766.27128151117        1069145.3413720585        1490725194.7735517     
   1695982477.0567782        61499041.685115576        1421386857.7541227     
   1645864067.6778784        38971558.525200903        1415245092.5777059     
   1597418060.3167906        22018748.757993162        1414547824.2903771     
   1550644454.9735150        10640612.383494616        1419295052.8921340     
   1505543251.6480551        4837149.4017110467        1429486778.3829770     
   1262464799.8945606        43554732.700118065        1437158288.9676630     
   1227652369.5187461        27636768.974047303        1434587814.2080295     
   1194056249.1572115        15773171.962239683        1436821398.8461800     
   1161676438.8099515        7963941.6646813154        1443859042.8821166     
   1130512938.4769721        4209078.0813919306        1455700746.3158374     
   835251200.28581214        27501646.981162965        1453971822.2087481     
   813914927.50936604        17644256.267824382        1454440530.5284386     
   793338872.74366140        10320925.590291739        1459072860.7546127     
   773523035.98869920        5531654.9485663474        1467868812.8872695     
   754467417.24447954        3276444.3426490426        1480828386.9264095     
   414341678.23053092        13339784.528247178        1471827457.4773769     
   404651741.64973307        8994020.4065238982        1474803241.5389349     
   395265931.07614243        5662009.6421571672        1481302210.0156724     
   386184246.50975627        3343752.2351400405        1491324362.9075925     
   377406687.95057851        2039248.1854823828        1504869700.2146928     
  -263766.27128151117        1069145.3413720585        1490725194.7735517     
  -137188.06015025196        1686061.3901483286        1495675947.2395165     
  -162575.84534868144        1796424.1178259831        1503509446.6293614     
  -339929.62687541574        1400233.5244087684        1514225692.9430859     
  -669249.40473085502        497489.60989656392        1527824686.1806905     
   1505543251.6480551        4837149.4017110467        1429486778.3829770     
   1461315795.9511545        2093586.3944189548        1422524582.1973503     
   1417260625.5018861       -75692.454098641872        1419356766.6991384     
   1373377740.3002472       -1670687.1438500285        1419983331.8883359     
   1329667140.3462391       -2691397.6748344898        1424404277.7649448     
   1130512938.4769721        4209078.0813919306        1455700746.3158374     
   1096440430.7999275        1604316.8010212183        1448647567.5617592     
   1062485330.3654021       -609087.00428253412        1445579475.4293323     
   1028647637.1733983       -2431133.3345171809        1446496469.9185531     
   994927351.22391200       -3861822.1896907687        1451398551.0294259     
   754467417.24447954        3276444.3426490426        1480828386.9264095     
   731094731.68511403        973947.01854810119        1473620201.2645829     
   707784575.36315799       -1120119.5141877234        1470587808.1586449     
   684536948.27861023       -3005755.2555609047        1471731207.6085937     
   661351850.43147063       -4682960.2055763900        1477050399.6144314     
   377406687.95057851        2039248.1854823828        1504869700.2146928     
   365278698.60671544        202477.04699833691        1497442483.3058217     
   353158360.49514955       -1608789.9838272631        1494381764.8870764     
   341045673.61588216       -3394552.9069909602        1495687544.9584575     
   328940637.96891075       -5154811.7225017101        1501359823.5199625     
  -669249.40473085502        497489.60989656392        1527824686.1806905     
  -1007668.4352687045       -710093.11362457566        1520114413.6854768     
  -1393314.2386194800       -2075098.4131891490        1516961345.6146274     
  -1826186.8147829757       -3597526.2887964696        1518365481.9681406     
  -2306286.1637641094       -5277376.7404615432        1524326822.7460210     
   1329667140.3462391       -2691397.6748344898        1424404277.7649448     
   1273043736.3140121       -6906280.4916100502        1417640984.3732746     
   1216696180.3996501       -10201669.582165539        1416578752.4433076     
   1160624472.6031525       -12577564.946509600        1421217581.9750402     
   1104828612.9245174       -14033966.584645510        1431557472.9684725     
   994927351.22391200       -3861822.1896907687        1451398551.0294259     
   953258467.37942755       -6977541.8983826637        1445328090.0778813     
   911933417.07152164       -8947149.8184806705        1444806391.7071865     
   870952200.30019808       -9770645.9499711990        1449833455.9173393     
   830314817.06545544       -9448030.2928555012        1460409282.7083471     
   661351850.43147063       -4682960.2055763900        1477050399.6144314     
   634202347.11514854       -6830058.7040686011        1471752087.4248483     
   607464662.75412142       -7604427.3515769243        1471850238.9352658     
   581138797.34839606       -7006066.1480802894        1477344854.1456802     
   555224750.89796591       -5034975.0935987234        1488235933.0560908     
   328940637.96891075       -5154811.7225017101        1501359823.5199625     
   315875375.52117634       -6463830.9086582810        1496912976.4141781     
   303289917.44745201       -6173502.1814474314        1497710294.1275418     
   291184263.74774581       -4283825.5408439040        1503751776.6600511     
   279558414.42205232       -794800.98686330020        1515037424.0117028     
  -2306286.1637641094       -5277376.7404615432        1524326822.7460210     
  -1722447.4024911867       -5878858.5121632712        1520810757.0458727     
  -590818.84849190456       -4654374.3081111601        1522386557.2840176     
   1088599.4982437566       -1603924.1282707728        1529054223.4604564     
   3315807.6377084311        3272492.0273329918        1540813755.5751903     
   1104828612.9245174       -14033966.584645510        1431557472.9684725     
   1060472357.6853846       -11367165.691448689        1428043744.4066250     
   1016296070.5038642       -8100471.2728753090        1428041206.9941635     
   972299751.37995481       -4233883.3289345503        1431549860.7310834     
   928483400.31365871        232598.14038395882        1438569705.6173904     
   830314817.06545544       -9448030.2928555012        1460409282.7083471     
   795314988.96763825       -7506887.9336608946        1456741458.9863796     
   759923366.99984074       -6871725.1410683393        1456927155.4238906     
   724139951.16206002       -7542541.9150849283        1460966372.0208712     
   687964741.45429492       -9519338.2557155490        1468859108.7773325     
   555224750.89796591       -5034975.0935987234        1488235933.0560908     
   530559432.82744396       -3526066.4026007950        1483746958.5918112     
   504930558.95934558       -5229010.3701919913        1483453833.2970951     
   478338129.29366499       -10143806.996388495        1487356557.1719494     
   450782143.83041090       -18270456.281166196        1495455130.2163668     
   279558414.42205232       -794800.98686330020        1515037424.0117028     
   266205689.26480031        575298.90172785521        1509060243.2229142     
   251317646.38237241       -3172326.9602678567        1507621240.6137857     
   234894285.77477446       -12037678.572829187        1510720416.1843119     
   216935607.44199988       -26020755.935980722        1518357769.9344988     
   3315807.6377084311        3272492.0273329918        1540813755.5751903     
   2253758.2797021549        4797207.9793101447        1532681312.8796990     
  -915370.73107354622       -701674.91127883876        1529429377.3739552     
  -6191579.3946179170       -13224156.644430401        1531057949.0579612     
  -13574867.710930660       -32770237.220141124        1537567027.9317200     
   928483400.31365871        232598.14038395882        1438569705.6173904     
   864686443.10271204       -15888632.670763493        1431598301.6395729     
   791087409.85365975       -64683450.275596917        1432619199.9790096     
   707686300.56651485       -146151854.67406657        1441632400.6356995     
   614483115.24126780       -260293845.86622170        1458637903.6096430     
   687964741.45429492       -9519338.2557155490        1468859108.7773325     
   645060983.71052897       -20939231.039979696        1454211487.2754438     
   597653723.99091828       -47370797.077059180        1446558331.1940851     
   545742962.29546523       -88814036.366945952        1445899640.5332522     
   489328698.62416732       -145268948.90964770        1452235415.2929590     
   450782143.83041090       -18270456.281166196        1495455130.2163668     
   425920622.99176931       -25844299.807160646        1479312960.9297020     
   401854174.23953825       -30767903.045120060        1469167420.1668453     
   378582797.57372200       -33041265.995033517        1465018507.9278016     
   356106492.99431831       -32664388.656898275        1466866224.2125680     
   216935607.44199988       -26020755.935980722        1518357769.9344988     
   207265360.94642821       -30603838.972316802        1506902722.6023548     
   203688760.59952050       -14874768.179772064        1500446466.8973017     
   206205806.40128309        21166456.441673569        1498989002.8193316     
   214816498.35171586        77519834.892021775        1502530330.3684614     
  -13574867.710930660       -32770237.220141124        1537567027.9317200     
  -10904802.425492149       -35217848.535443433        1536980772.2933977     
   3157483.0708639114        308607.51898013242        1540395471.3854406     
   28611988.778150424        73809130.943171516        1547811125.2078547     
   65458714.696364835        185283721.73712394        1559227733.7606452     
   113910.57590273838        34173.172770821511        656410593.11812139     
   77483.295955814028       -2460.1255976960783        770898506.85006523     
   50472.280897028708       -7705.8743394738412        885573652.21867323     
   32877.530726143668        18435.926545104354        1000436029.2239465     
   24699.045443086005        75965.277056120700        1115485637.8658845     
  -448293977.20619911       -134488193.16185972        657875765.60805953     
  -447502697.92761815       -125475368.01811518        774073461.81312478     
  -445975226.58550245       -114008569.32925525        888632287.17067456     
  -443711563.17985231       -100087797.09527986        1001552241.6807083     
  -440711707.71066743       -83713051.316188842        1112833325.3432269     
  -890450734.92078137       -267135220.47623441        662302041.88515437     
  -894049184.75275910       -250638167.59110290        781057425.66176224     
  -896184666.72255564       -229264555.16536701        896347836.10667408     
  -896857180.83017087       -203014383.19902664        1008173273.2198901     
  -896066727.07560492       -171887651.69208214        1116533737.0014100     
  -1326356362.5678439       -397906908.77035314        669689421.94940567     
  -1339561977.1794672       -375490858.84456062        791850398.39597738     
  -1350577848.1302629       -345775663.38267493        908720299.02667284     
  -1359403975.4202302       -308761322.38469583        1020299123.8414918     
  -1366040359.0493698       -264447835.85062373        1126586872.8404348     
  -1756010860.1473866       -526803258.04421598        680037905.80081367     
  -1784041075.2077422       -500033441.77848846        806452380.01577020     
  -1809154770.8086233       -463541893.98117912        925749675.93067014     
  -1831351946.9500299       -417328614.65228689        1037929793.5455136     
  -1850632603.6319616       -361393603.79181302        1142992732.8603003     
   24699.045443086005        75965.277056120700        1115485637.8658845     
   87560.655714577835        138315.66566383300        1188628131.9332438     
   130132.82050289336        133034.56932706057        1258618672.7775500     
   152415.53980775669        60121.988045642560        1325457260.3988035     
   154408.81362877175       -80422.078181762830        1389143894.7970037     
  -440711707.71066743       -83713051.316188842        1112833325.3432269     
  -442676603.83963811       -69005891.808813930        1181031761.4683111     
  -445495160.68638742       -57144268.027367458        1247442765.8357770     
  -449167378.25091469       -48128179.971847624        1312066338.4456251     
  -453693256.53322071       -41957627.642256647        1374902479.2978544     
  -896066727.07560492       -171887651.69208214        1116533737.0014100     
  -896160748.18543351       -141366093.23842523        1178815848.6998756     
  -897941801.28533554       -116467974.75167894        1240675050.1061575     
  -901409886.37531042       -97193296.231843054        1302111341.2202559     
  -906565003.45535874       -83542057.678918362        1363124722.0421708     
  -1366040359.0493698       -264447835.85062373        1126586872.8404348     
  -1360364872.3816714       -216942288.62316886        1181980393.6279368     
  -1357209788.9763410       -177838085.60360822        1238315525.5886908     
  -1356575108.8333795       -147135226.79194117        1295592268.7226954     
  -1358460831.9527843       -124833712.18816620        1353810623.0299513     
  -1850632603.6319616       -361393603.79181302        1142992732.8603003     
  -1835288976.4283512       -295734477.96304488        1190525396.2524960     
  -1823299123.7594044       -241254600.58315367        1240364192.2833774     
  -1814663045.6251206       -197953971.65213913        1292509120.9529443     
  -1809380742.0254996       -165832591.17000127        1346960182.2611973     
   154408.81362877175       -80422.078181762830        1389143894.7970037     
  -71454.304920739087       -197428.04769951440        1409682587.7091286     
  -216437.85858860196       -44835.467612293069        1433459035.3425949     
  -280541.84737534577        377355.66207831132        1460473237.6974027     
  -263766.27128151117        1069145.3413720585        1490725194.7735517     
  -453693256.53322071       -41957627.642256647        1374902479.2978544     
  -443610817.40437615       -33119500.639433637        1395361999.6684201     
  -433805434.40398175       -25204894.064778209        1418446659.4374073     
  -424277107.53203821       -18213807.918292284        1444156458.6048164     
  -415025836.78854519       -12146242.199974880        1472491397.1706469     
  -906565003.45535874       -83542057.678918362        1363124722.0421708     
  -887924591.57317555       -66273896.551970989        1383087478.2289565     
  -869919171.51277483       -51122374.830964208        1405062758.4912441     
  -852548743.27415669       -38087492.515899569        1429050562.8290341     
  -835813306.85732067       -27169249.606775314        1455050891.2423255     
  -1358460831.9527843       -124833712.18816620        1353810623.0299513     
  -1333012776.8113194       -99660615.785310745        1372859023.3907363     
  -1308557649.1849687       -77797277.766172111        1393307332.5041049     
  -1285095449.0737312       -59243698.130741894        1415155550.3700554     
  -1262626176.4776080       -43999876.879028559        1438403676.9885890     
  -1809380742.0254996       -165832591.17000127        1346960182.2611973     
  -1778875373.1188071       -133279658.33945483        1364676635.1537623     
  -1749720867.4205623       -105229602.87039840        1383180381.4759903     
  -1721917224.9307613       -81682424.762823224        1402471421.2278810     
  -1695464445.6494071       -62638124.016737819        1422549754.4094353     
  -263766.27128151117        1069145.3413720585        1490725194.7735517     
  -137188.06015025196        1686061.3901483286        1495675947.2395165     
  -162575.84534868144        1796424.1178259831        1503509446.6293614     
  -339929.62687541574        1400233.5244087684        1514225692.9430859     
  -669249.40473085502        497489.60989656392        1527824686.1806905     
  -415025836.78854519       -12146242.199974880        1472491397.1706469     
  -405216722.66151178       -7115989.0883063525        1475274970.2577960     
  -395924837.43133307       -3809832.2994878888        1481605438.5726309     
  -387150181.09800911       -2227771.8335178047        1491482802.1151505     
  -378892753.66153949       -2369807.6903959811        1504907060.8853564     
  -835813306.85732067       -27169249.606775314        1455050891.2423255     
  -814424090.23208201       -17156389.457525343        1455241144.9000447     
  -793917365.40422416       -10085168.632877141        1459642442.0892565     
  -774293132.37374520       -5955587.1328251064        1468254782.8099594     
  -755551391.14064646       -4767644.9573730528        1481078167.0621536     
  -1262626176.4776080       -43999876.879028559        1438403676.9885890     
  -1227759290.7718613       -28435139.717506230        1435574471.1662667     
  -1194140159.7640209       -17029584.882336378        1437620457.1792414     
  -1161768783.4540846       -9783212.3735133410        1444541635.0275145     
  -1130645161.8420529       -6696022.1910416484        1456338004.7110848     
  -1695464445.6494071       -62638124.016737819        1422549754.4094353     
  -1645222324.2808506       -40952239.868252575        1416274949.0564570     
  -1596593220.5107231       -24643081.047868311        1415539483.8425837     
  -1549577134.3390255       -13710647.555582404        1420343358.7678132     
  -1504174065.7657599       -8154939.3914020061        1430686573.8321462     
  -669249.40473085502        497489.60989656392        1527824686.1806905     
  -1007668.4352687045       -710093.11362457566        1520114413.6854768     
  -1393314.2386194800       -2075098.4131891490        1516961345.6146274     
  -1826186.8147829757       -3597526.2887964696        1518365481.9681406     
  -2306286.1637641094       -5277376.7404615432        1524326822.7460210     
  -378892753.66153949       -2369807.6903959811        1504907060.8853564     
  -367291568.64674246       -2373884.8351489007        1497581987.4784057     
  -355743595.54479176       -2555335.0227245986        1494606288.3945568     
  -344248834.35568267       -2914158.2531059384        1495979963.6338084     
  -332807285.07942271       -3450354.5263158977        1501703013.1961613     
  -755551391.14064646       -4767644.9573730528        1481078167.0621536     
  -732604402.36983836       -3746356.6101635993        1474131310.0800955     
  -709716610.65190709       -2922391.7725425959        1471325997.3198781     
  -686888015.98684943       -2295750.4445020854        1472662228.7814984     
  -664118618.37466955       -1866432.6260517240        1478140004.4649570     
  -1130645161.8420529       -6696022.1910416484        1456338004.7110848     
  -1096946169.6045551       -4827508.4386627078        1449762381.4905522     
  -1063312359.5599651       -3176268.6626435518        1447120472.3905923     
  -1029743731.7082800       -1742302.8629724979        1448412277.4112124     
  -996240286.04950285       -525611.03966265917        1453637796.5524065     
  -1504174065.7657599       -8154939.3914020061        1430686573.8321462     
  -1460316870.3508940       -5617340.3206483722        1424475201.7097671     
  -1416530842.2689667       -3316965.6930267811        1421989713.6067009     
  -1372815981.5199745       -1253815.5085200071        1423230109.5229480     
  -1329172288.1039228        572110.23285043240        1428196389.4585080     
  -2306286.1637641094       -5277376.7404615432        1524326822.7460210     
  -1722447.4024911867       -5878858.5121632712        1520810757.0458727     
  -590818.84849190456       -4654374.3081111601        1522386557.2840176     
   1088599.4982437566       -1603924.1282707728        1529054223.4604564     
   3315807.6377084311        3272492.0273329918        1540813755.5751903     
  -332807285.07942271       -3450354.5263158977        1501703013.1961613     
  -318570023.44992405       -2902550.1794808060        1498375096.5249383     
  -304117822.27192599       -1638280.6709817648        1500192727.0174739     
  -289450681.54543120        342453.99917292595        1507155904.6737659     
  -274568601.27043921        3039653.8309859335        1519264629.4938107     
  -664118618.37466955       -1866432.6260517240        1478140004.4649570     
  -636074558.94704843       -123329.68170079589        1474611911.5377216     
  -608148410.21516275        1226737.6102005839        1476283046.9997048     
  -580340172.17901254        2183769.2496481836        1483153410.8509071     
  -552649844.83860123        2747765.2366361618        1495223003.0913303     
  -996240286.04950285       -525611.03966265917        1453637796.5524065     
  -954236053.89386725        2458802.9811700583        1449521202.0842178     
  -912682582.67820144        3940680.5354388356        1450657517.2307119     
  -871579872.40250504        3920021.6231416464        1457046741.9918859     
  -830927923.06677866        2396826.2442777157        1468688876.3677428     
  -1329172288.1039228        572110.23285043240        1428196389.4585080     
  -1273054508.2903802        4843847.8091325760        1423102968.1644285     
  -1217720339.6610372        6503548.1047487259        1423316137.7104917     
  -1163169782.2159019        5551211.1196715236        1428835898.0966995     
  -1109402835.9549701        1986836.8539183140        1439662249.3230507     
   3315807.6377084311        3272492.0273329918        1540813755.5751903     
   2253758.2797021549        4797207.9793101447        1532681312.8796990     
  -915370.73107354622       -701674.91127883876        1529429377.3739552     
  -6191579.3946179170       -13224156.644430401        1531057949.0579612     
  -13574867.710930660       -32770237.220141124        1537567027.9317200     
  -274568601.27043921        3039653.8309859335        1519264629.4938107     
  -263589328.31471562        3174732.7552716285        1509084789.6269388     
  -253742321.53061476       -464408.89251883328        1503607683.6641920     
  -245027580.91813871       -7877771.1123902649        1502833311.6055715     
  -237445106.47728613       -19065353.904343076        1506761673.4510732     
  -552649844.83860123        2747765.2366361618        1495223003.0913303     
  -530137173.24235773        1340830.0312775075        1484133048.4477434     
  -507781954.33659500       -590947.47568386793        1477568054.4226587     
  -485584188.12131202       -3047567.2842425406        1475528021.0160770     
  -463543874.59651268       -6029029.3944146633        1478012948.2279909     
  -830927923.06677866        2396826.2442777157        1468688876.3677428     
  -797389776.50322711       -704500.19268405437        1457826089.3421106     
  -763034269.14901650       -1081290.6607812941        1451310489.6493592     
  -727861401.00414419        1266454.8399925828        1449142077.2894797     
  -691871172.06860578        6338736.3096545935        1451320852.2624817     
  -1109402835.9549701        1986836.8539183140        1439662249.3230507     
  -1065347138.0973296       -2961257.9166305065        1430163912.3100431     
  -1019499265.9678801       -1935438.4478163719        1424834989.3442869     
  -971859219.56662607        5064295.2603480816        1423675480.4257836     
  -922426998.89356506        18037943.207867384        1426685385.5545309     
  -13574867.710930660       -32770237.220141124        1537567027.9317200     
  -10904802.425492149       -35217848.535443433        1536980772.2933977     
   3157483.0708639114        308607.51898013242        1540395471.3854406     
   28611988.778150424        73809130.943171516        1547811125.2078547     
   65458714.696364835        185283721.73712394        1559227733.7606452     
  -237445106.47728613       -19065353.904343076        1506761673.4510732     
  -223184277.96556428       -20278643.519878298        1516081679.6108177     
  -202535719.35573238       -199499.47504927218        1530031859.2835400     
  -175499430.64780200        41172078.230109744        1548612212.4692433     
  -142075411.84176373        103836089.59562737        1571822739.1679196     
  -463543874.59651268       -6029029.3944146633        1478012948.2279909     
  -435894514.90819210       -5468666.9250682294        1491400644.3875146     
  -406861915.23459077       -297504.50478684902        1510047732.8426197     
  -376446075.57570314        9484457.8664501160        1533954213.5933166     
  -344646995.93153226        23877220.188632160        1563120086.6395953     
  -691871172.06860578        6338736.3096545935        1451320852.2624817     
  -649035513.25337970        9212081.2489747405        1462937666.6234875     
  -609821104.56569898        14592.429812014103        1480443092.0626872     
  -574227946.00554919       -21253730.147789657        1503837128.5800855     
  -542256037.57293844       -54592886.483850986        1533119776.1756713     
  -922426998.89356506        18037943.207867384        1426685385.5545309     
  -862607273.00112975        23763601.002245665        1430692746.3187335     
  -811413287.34905863        736791.32873636484        1441217936.9437363     
  -768845041.93733978       -51042485.812612653        1458260957.4295416     
  -734902536.76598179       -131574230.42182532        1481821807.7761505     
  -1756010860.1473866       -526803258.04421598        680037905.80081367     
  -1784041075.2077422       -500033441.77848846        806452380.01577020     
  -1809154770.8086233       -463541893.98117912        925749675.93067014     
  -1831351946.9500299       -417328614.65228689        1037929793.5455136     
  -1850632603.6319616       -361393603.79181302        1142992732.8603003     
  -2201668585.2839608       -660500575.58518815        696441787.41088319     
  -2238328675.6466084       -613862742.84833193        813861852.80983961     
  -2272950632.9915066       -560431133.38564372        927175804.01375222     
  -2305534457.3186555       -500205747.19712430        1036383641.0226209     
  -2336080148.6280541       -433186584.28277183        1141485363.8364463     
  -2685583895.6021185       -805675168.68063545        721995360.75111902     
  -2722270820.9670205       -736588407.38263917        829396233.15206265     
  -2757797999.7558994       -663635824.16456175        935702055.46297526     
  -2792165431.9687538       -586817419.02640283        1040912827.6838567     
  -2825373117.6055837       -506133191.96816224        1145028549.8147073     
  -3207756791.1018581       -962327037.33055747        756698625.82152152     
  -3235867511.1689796       -868210435.38141048        853055521.04243982     
  -3263696871.1018033       -773155966.31793284        951328430.27833998     
  -3291244870.9003263       -677163630.14012372        1051517353.5292215     
  -3318511510.5645509       -580233426.84798408        1153622290.7950850     
  -3768187271.7831807       -1130456181.5349543        800551582.62209046     
  -3779118746.2524853       -1008728826.8446457        884839716.48097062     
  -3790647247.0292153       -888991559.84575617        974054928.45984542     
  -3802772774.1133709       -771244380.53828645        1068197218.5587145     
  -3815495327.5049529       -655487288.92223561        1167266586.7775784     
  -1850632603.6319616       -361393603.79181302        1142992732.8603003     
  -1835288976.4283512       -295734477.96304488        1190525396.2524960     
  -1823299123.7594044       -241254600.58315367        1240364192.2833774     
  -1814663045.6251206       -197953971.65213913        1292509120.9529443     
  -1809380742.0254996       -165832591.17000127        1346960182.2611973     
  -2336080148.6280541       -433186584.28277183        1141485363.8364463     
  -2312458242.1735897       -352111424.94249564        1182781942.2886360     
  -2292321248.6730719       -282652642.11537951        1224582749.0232196     
  -2275669168.1265035       -224810235.80142349        1266887784.0401962     
  -2262502000.5338821       -178584206.00062811        1309697047.3395660     
  -2825373117.6055837       -506133191.96816224        1145028549.8147073     
  -2798621230.0610991       -411186488.56462759        1179936048.5043929     
  -2775485393.8898478       -328293289.73853636        1213545871.1201785     
  -2755965609.0918288       -257453595.48988914        1245858017.6620657     
  -2740061875.6670451       -198667405.81868780        1276872488.1300528     
  -3318511510.5645509       -580233426.84798408        1153622290.7950850     
  -3293777940.0908823       -472959668.82944143        1181987714.8997660     
  -3272791559.4097314       -378176543.45262694        1207253558.5742552     
  -3255552368.5211000       -295884050.71754003        1229419821.8185530     
  -3242060367.4249859       -226082190.62418103        1248486504.6326585     
  -3815495327.5049529       -655487288.92223561        1167266586.7775784     
  -3797928372.2629366       -537430965.73693681        1188936941.4747560     
  -3784239745.2327228       -432302403.25764871        1205705811.3854492     
  -3774429446.4143128       -340101601.48437107        1217573196.5096586     
  -3768497475.8077068       -260828560.41710913        1224539096.8473830     
  -1809380742.0254996       -165832591.17000127        1346960182.2611973     
  -1778875373.1188071       -133279658.33945483        1364676635.1537623     
  -1749720867.4205623       -105229602.87039840        1383180381.4759903     
  -1721917224.9307613       -81682424.762823224        1402471421.2278810     
  -1695464445.6494071       -62638124.016737819        1422549754.4094353     
  -2262502000.5338821       -178584206.00062811        1309697047.3395660     
  -2223288678.6253386       -134243095.42158651        1317576297.2433262     
  -2186985234.2133107       -99601576.497594714        1328646330.3922718     
  -2153591667.2977953       -74659649.228648067        1342907146.7864020     
  -2123107977.8787940       -59417313.614745617        1360358746.4257176     
  -2740061875.6670451       -198667405.81868780        1276872488.1300528     
  -2685273486.9980173       -140477983.36356401        1273095685.0422626     
  -2634953990.1135702       -97184866.857047915        1274913155.0151794     
  -2589103385.0137043       -68788056.299132705        1282324898.0488040     
  -2547721671.6984210       -55287551.689826608        1295330914.1431355     
  -3242060367.4249859       -226082190.62418103        1248486504.6326585     
  -3164829798.2368364       -151984322.16538262        1231234798.5505717     
  -3093627135.1213393       -97979473.948750615        1221980855.3447146     
  -3028452378.0784883       -64067645.974280357        1220724675.0150859     
  -2969305527.1082892       -50248838.241977930        1227466257.5616879     
  -3768497475.8077068       -260828560.41710913        1224539096.8473830     
  -3661957612.3418045       -168762111.82704628        1191993637.7682540     
  -3563004669.2366190       -101985397.77270889        1169849431.3808765     
  -3471638646.4921494       -60498418.254093170        1158106477.6852508     
  -3387859544.1083984       -44301173.271204948        1156764776.6813755     
  -1695464445.6494071       -62638124.016737819        1422549754.4094353     
  -1645222324.2808506       -40952239.868252575        1416274949.0564570     
  -1596593220.5107231       -24643081.047868311        1415539483.8425837     
  -1549577134.3390255       -13710647.555582404        1420343358.7678132     
  -1504174065.7657599       -8154939.3914020061        1430686573.8321462     
  -2123107977.8787940       -59417313.614745617        1360358746.4257176     
  -2059950943.2756648       -40623105.536812067        1353258578.6629324     
  -1998004996.7306619       -25865857.652636170        1351220929.2654576     
  -1937270138.2437899       -15145569.962228894        1354245798.2332938     
  -1877746367.8150451       -8462242.4655760527        1362333185.5664358     
  -2547721671.6984210       -55287551.689826608        1295330914.1431355     
  -2473012071.7858448       -39793724.059982419        1287874301.7675633     
  -2399111630.3910937       -26997091.489558578        1285003385.9835069     
  -2326020347.5141692       -16897653.978555799        1286718166.7909656     
  -2253738223.1550727       -9495411.5269761086        1293018644.1899424     
  -2969305527.1082892       -50248838.241977930        1227466257.5616879     
  -2884405709.8113909       -38464095.437765479        1220122118.3703473     
  -2799913121.4920163       -28036782.558624148        1216886853.9967268     
  -2715827762.1501670       -18966899.604572654        1217760464.4408319     
  -2632149631.7858410       -11254446.575594902        1222742949.7026553     
  -3387859544.1083984       -44301173.271204948        1156764776.6813755     
  -3294131857.3523035       -36634219.670150876        1150002028.4712851     
  -3200409470.0334291       -28984930.859839320        1146871333.3051226     
  -3106692382.1517797       -21353306.840270162        1147372691.1828878     
  -3012980593.7073512       -13739347.611439824        1151506102.1045816     
  -1504174065.7657599       -8154939.3914020061        1430686573.8321462     
  -1460316870.3508940       -5617340.3206483722        1424475201.7097671     
  -1416530842.2689667       -3316965.6930267811        1421989713.6067009     
  -1372815981.5199745       -1253815.5085200071        1423230109.5229480     
  -1329172288.1039228        572110.23285043240        1428196389.4585080     
  -1877746367.8150451       -8462242.4655760527        1362333185.5664358     
  -1823732894.9576271       -5721079.7558246851        1355216398.3121743     
  -1770017614.6017456       -3973892.0511999130        1352139271.9238694     
  -1716600526.7474093       -3220679.3517225981        1353101806.4015248     
  -1663481631.3946121       -3461441.6573802233        1358104001.7451336     
  -2253738223.1550727       -9495411.5269761086        1293018644.1899424     
  -2188671967.5789704       -6281733.5953774452        1284731579.1070914     
  -2124130929.6730130       -4818781.2309300900        1280797951.7368443     
  -2060115109.4372010       -5106554.4336304665        1281217762.0791986     
  -1996624506.8715346       -7145053.2034789324        1285991010.1341593     
  -2632149631.7858410       -11254446.575594902        1222742949.7026553     
  -2555134088.2149339       -7299301.8393270969        1213020744.0945156     
  -2478870787.4827676       -5851633.2322058678        1207965753.0456231     
  -2403359729.5893531       -6911440.7542490959        1207577976.5559783     
  -2328600914.5346804       -10478724.405440807        1211857414.6255803     
  -3012980593.7073512       -13739347.611439824        1151506102.1045816     
  -2923119256.8655024       -8773784.4876424074        1140083893.2744491     
  -2834237188.0310059       -7072448.0550204515        1133642675.8502059     
  -2746334387.2038603       -8635338.3135665655        1132182449.8318577     
  -2659410854.3840656       -13462455.263280988        1135703215.2193995     
  -1329172288.1039228        572110.23285043240        1428196389.4585080     
  -1273054508.2903802        4843847.8091325760        1423102968.1644285     
  -1217720339.6610372        6503548.1047487259        1423316137.7104917     
  -1163169782.2159019        5551211.1196715236        1428835898.0966995     
  -1109402835.9549701        1986836.8539183140        1439662249.3230507     
  -1663481631.3946121       -3461441.6573802233        1358104001.7451336     
  -1593902739.8234332       -63670.742303609848        1352607490.9518237     
  -1524882446.2857313        1472106.7278491259        1352360775.2845235     
  -1456420750.7815094        1145890.7530713677        1357363854.7432313     
  -1388517653.3107648       -1042318.6666353345        1367616729.3279457     
  -1996624506.8715346       -7145053.2034789324        1285991010.1341593     
  -1913746777.0116735       -4669930.9902909994        1280353925.1841331     
  -1831202632.0345685       -3306758.3862838745        1279909839.6459794     
  -1748992071.9402161       -3055535.3914552927        1284658753.5196996     
  -1667115096.7286155       -3916262.0057972670        1294600666.8052938     
  -2328600914.5346804       -10478724.405440807        1211857414.6255803     
  -2232586619.8551025       -8974932.9348374605        1206342270.8613484     
  -2136680896.9075518       -7833047.2376636267        1205963330.7948577     
  -2040883745.6920276       -7053067.3139117956        1210720594.4261060     
  -1945195166.2085326       -6634993.1635867357        1220614061.7550907     
  -2659410854.3840656       -13462455.263280988        1135703215.2193995     
  -2550422268.3537188       -12978676.575938702        1130572527.9834785     
  -2441317240.9046822       -12106759.826291919        1130521248.7311623     
  -2332095772.0369415       -10846705.014302254        1135549377.4624486     
  -2222757861.7505021       -9198512.1399819851        1145656914.1773376     
  -1109402835.9549701        1986836.8539183140        1439662249.3230507     
  -1065347138.0973296       -2961257.9166305065        1430163912.3100431     
  -1019499265.9678801       -1935438.4478163719        1424834989.3442869     
  -971859219.56662607        5064295.2603480816        1423675480.4257836     
  -922426998.89356506        18037943.207867384        1426685385.5545309     
  -1388517653.3107648       -1042318.6666353345        1367616729.3279457     
  -1333987268.1132243       -6423553.5289710164        1359894965.1471643     
  -1278358424.5046237       -8143260.3544356823        1356161194.1248569     
  -1221631122.4849632       -6201439.1430374384        1356415416.2610121     
  -1163805362.0542412       -598089.89476430416        1360657631.5556374     
  -1667115096.7286155       -3916262.0057972670        1294600666.8052938     
  -1602628369.5877011       -9886140.5788820386        1287846140.2858696     
  -1537736899.8964725       -14506877.317587316        1284898186.0361290     
  -1472440687.6549280       -17778472.221908212        1285756804.0560756     
  -1406739732.8630705       -19700925.291846931        1290421994.3457074     
  -1945195166.2085326       -6634993.1635867357        1220614061.7550907     
  -1871270442.5207608       -13349019.066373467        1214017437.7261517     
  -1797634692.1434236       -21026289.337260962        1211045965.0781162     
  -1724287915.0765195       -29666803.976265192        1211699643.8109834     
  -1651230111.3200450       -39270562.983370721        1215978473.9247503     
  -2222757861.7505021       -9198512.1399819851        1145656914.1773376     
  -2139913486.9124038       -16812188.991433024        1138408857.4680147     
  -2058051801.2454865       -27701496.413486481        1134604531.2508090     
  -1977172804.7497404       -41866434.406114817        1134243935.5257242     
  -1897276497.4251757       -59307002.969344735        1137327070.2927566     
  -922426998.89356506        18037943.207867384        1426685385.5545309     
  -862607273.00112975        23763601.002245665        1430692746.3187335     
  -811413287.34905863        736791.32873636484        1441217936.9437363     
  -768845041.93733978       -51042485.812612653        1458260957.4295416     
  -734902536.76598179       -131574230.42182532        1481821807.7761505     
  -1163805362.0542412       -598089.89476430416        1360657631.5556374     
  -1087994677.0771549        4149890.8291726708        1355789116.8448310     
  -1017403887.3605314       -8501779.3150890470        1356929127.8161364     
  -952032992.90435576       -38553100.327522218        1364077664.4695482     
  -891881993.70864153       -86004072.208147436        1377234726.8050647     
  -1406739732.8630705       -19700925.291846931        1290421994.3457074     
  -1316393243.5976014       -16367168.077228546        1280651089.9697826     
  -1227860804.6126878       -19080245.131129980        1276379407.0972731     
  -1141142415.9083259       -27840156.453528225        1277606945.7281799     
  -1056238077.4845154       -42646902.044440389        1284333705.8624961     
  -1651230111.3200450       -39270562.983370721        1215978473.9247503     
  -1547802972.5624609       -37787575.716949344        1205278665.6935909     
  -1442784039.1055317       -30998606.119371951        1199568774.7871544     
  -1336173310.9492464       -18903654.190614104        1198848801.2054405     
  -1227970788.0936141       -1502719.9306975007        1203118744.9484394     
  -1897276497.4251757       -59307002.969344735        1137327070.2927566     
  -1782223863.9717419       -60111332.089993298        1129671844.0162530     
  -1662173590.8390574       -44256862.279815912        1126497230.8857729     
  -1537125678.0271153       -11743593.538785756        1127803230.9013216     
  -1407080125.5359287        37428474.133080661        1133589844.0628979     
  -3768187271.7831807       -1130456181.5349543        800551582.62209046     
  -3779118746.2524853       -1008728826.8446457        884839716.48097062     
  -3790647247.0292153       -888991559.84575617        974054928.45984542     
  -3802772774.1133709       -771244380.53828645        1068197218.5587145     
  -3815495327.5049529       -655487288.92223561        1167266586.7775784     
  -4339719394.4367466       -1301915818.3310239        858715946.83865559     
  -4335246856.6558485       -1125746705.2320457        942330984.77870703     
  -4331905124.5215864       -953346944.28852677        1020304702.0815353     
  -4329694198.0339632       -784716535.50046825        1092637098.7471404     
  -4328614077.1929760       -619855478.86786914        1159328174.7755225     
  -4895197215.8532162       -1468559164.7559650        936353434.15704679     
  -4905516090.8427343       -1247006920.7545028        1018672633.6158549     
  -4917499550.8181028       -1031003293.3725412        1084782113.6802227     
  -4931147595.7793236       -820548282.61008096        1134681874.3501492     
  -4946460225.7263908       -615641888.46712017        1168371915.6256354     
  -5434620736.0325890       -1630386220.8097765        1033464044.5772638     
  -5489926448.8131485       -1372509473.4120178        1113864662.9924150     
  -5547430525.9187679       -1121960607.0977998        1167487163.2559073     
  -5607132967.3494520       -878739621.86712337        1194331545.3677418     
  -5669033773.1051979       -642846517.71998954        1194397809.3279173     
  -5957989954.9748640       -1787396986.4924593        1150047778.0993066     
  -6088477930.5670843       -1502254363.2045896        1227907072.9083862     
  -6221698049.8235798       -1226218885.4643021        1268419850.8085895     
  -6357650312.7443476       -959290553.27159703        1271586111.7999170     
  -6496334719.3293924       -701469366.62647343        1237405855.8823681     
  -3815495327.5049529       -655487288.92223561        1167266586.7775784     
  -3797928372.2629366       -537430965.73693681        1188936941.4747560     
  -3784239745.2327228       -432302403.25764871        1205705811.3854492     
  -3774429446.4143128       -340101601.48437107        1217573196.5096586     
  -3768497475.8077068       -260828560.41710913        1224539096.8473830     
  -4328614077.1929760       -619855478.86786914        1159328174.7755225     
  -4298199263.3690739       -464034239.53891850        1141365071.8362844     
  -4278416429.7437153       -343652934.20511281        1129471441.1749084     
  -4269265576.3168979       -258711562.86644626        1123647282.7913947     
  -4270746703.0886216       -209210125.52292275        1123892596.6857421     
  -4946460225.7263908       -615641888.46712017        1168371915.6256354     
  -4871851961.7081852       -412652055.51079488        1102896094.3987858     
  -4814629329.8752604       -267614329.83874154        1054460702.5141453     
  -4774792330.2276163       -180528711.45096111        1023065739.9717124     
  -4752340962.7652550       -151395200.34745383        1008711206.7714876     
  -5669033773.1051979       -642846517.71998954        1194397809.3279173     
  -5518886467.2802677       -383284413.65256143        1073530009.1622609     
  -5392878445.6273594       -204186590.15853715        980673595.40315914     
  -5291009708.1464739       -105553047.23791814        915828568.05061162     
  -5213280254.8376074       -87383784.890700340        878994927.10461962     
  -6496334719.3293924       -701469366.62647343        1237405855.8823681     
  -6239302780.0853243       -375931313.96421981        1053266816.1267085     
  -6013163777.0000153       -153369715.16450047        908110119.84195149     
  -5817917710.0734682       -33784570.227314234        801935767.02809346     
  -5653564579.3056793       -17175879.152661562        734743757.68513680     
  -3768497475.8077068       -260828560.41710913        1224539096.8473830     
  -3661957612.3418045       -168762111.82704628        1191993637.7682540     
  -3563004669.2366190       -101985397.77270889        1169849431.3808765     
  -3471638646.4921494       -60498418.254093170        1158106477.6852508     
  -3387859544.1083984       -44301173.271204948        1156764776.6813755     
  -4270746703.0886216       -209210125.52292275        1123892596.6857421     
  -4148384674.9130826       -145293968.44673395        1090539495.1787910     
  -4030382903.9575796       -95912002.103996754        1065452258.0291620     
  -3916741390.2221150       -61064226.494719744        1048630885.2368584     
  -3807460133.7066841       -40750641.618893862        1040075376.8018763     
  -4752340962.7652550       -151395200.34745383        1008711206.7714876     
  -4620257879.4070177       -117459667.64321780        978314903.16750813     
  -4489308390.1281366       -87302781.870167255        954049075.58642364     
  -4359492494.9286098       -60924543.028304577        935913724.02823472     
  -4230810193.8084412       -38324951.117627859        923908848.49294055     
  -5213280254.8376074       -87383784.890700340        878994927.10461962     
  -5077577225.8236084       -85259209.416500092        855319861.73440611     
  -4939781127.7482891       -76157737.071215391        835639884.05265832     
  -4799891960.6116409       -60079367.854851007        819954994.05937922     
  -4657909724.4136696       -37024101.767403126        808265191.75456548     
  -5653564579.3056793       -17175879.152661562        734743757.68513680     
  -5520342714.1628618       -48692593.766581297        721554370.87948406     
  -5381801116.8180342       -62476867.707140446        710224683.42786872     
  -5237939787.2712049       -58528700.974355936        700754695.33029425     
  -5088758725.5223675       -36848093.568216324        693144406.58675671     
  -3387859544.1083984       -44301173.271204948        1156764776.6813755     
  -3294131857.3523035       -36634219.670150876        1150002028.4712851     
  -3200409470.0334291       -28984930.859839320        1146871333.3051226     
  -3106692382.1517797       -21353306.840270162        1147372691.1828878     
  -3012980593.7073512       -13739347.611439824        1151506102.1045816     
  -3807460133.7066841       -40750641.618893862        1040075376.8018763     
  -3702105326.3746057       -29302873.042142391        1031987496.9651591     
  -3597459194.7086873       -20217356.685918093        1028339007.2254924     
  -3493521738.7089295       -13494092.550234556        1029129907.5828762     
  -3390292958.3753309       -9133080.6350781918        1034360198.0373112     
  -4230810193.8084412       -38324951.117627859        923908848.49294055     
  -4111521588.6057453       -22404364.376778603        913675231.42916942     
  -3993645035.2981453       -11190617.286258459        908688341.51557064     
  -3877180533.8856459       -4683709.8460645676        908948178.75214541     
  -3762128084.3682418       -2883642.0561938286        914454743.13889229     
  -4657909724.4136696       -37024101.767403126        808265191.75456548     
  -4522380644.0457163       -15938693.674067736        795065231.86331320     
  -4388966991.8018055       -1904712.6608603001        787919336.17535698     
  -4257668767.6819234        5077841.2722365856        786827504.69069457     
  -4128485971.6860809        5008968.1252105236        791789737.40932810     
  -5088758725.5223675       -36848093.568216324        693144406.58675671     
  -4934682492.6945286       -9905860.9340081215        676157498.26759422     
  -4783425064.2196636        7640357.1902801991        666031991.20485103     
  -4634986440.0977726        15790560.804663420        662767885.39852488     
  -4489366620.3288527        14544749.909134150        666365180.84861612     
  -3012980593.7073512       -13739347.611439824        1151506102.1045816     
  -2923119256.8655024       -8773784.4876424074        1140083893.2744491     
  -2834237188.0310059       -7072448.0550204515        1133642675.8502059     
  -2746334387.2038603       -8635338.3135665655        1132182449.8318577     
  -2659410854.3840656       -13462455.263280988        1135703215.2193995     
  -3390292958.3753309       -9133080.6350781918        1034360198.0373112     
  -3288996741.0094733       -7162113.1460914612        1023763487.2200459     
  -3188185436.2428532       -6807520.9878882170        1017672907.4695421     
  -3087859044.0754700       -8069304.1604773998        1016088458.7857983     
  -2988017564.5073185       -10947462.663844466        1019010141.1688210     
  -3762128084.3682418       -2883642.0561938286        914454743.13889229     
  -3650753730.3044615       -4314293.3498411179        905260278.31062913     
  -3539369933.4318056       -5713468.6138908863        900097084.20999670     
  -3427976693.7502675       -7081167.8483395576        898965160.83699679     
  -3316574011.2598457       -8417391.0531883240        901864508.19162786     
  -4128485971.6860809        5008968.1252105236        791789737.40932810     
  -4008390224.7504635       -230325.09889078140        784574266.54619992     
  -3887790679.5978570       -3790290.9330148697        780915206.07157469     
  -3766687336.2282519       -5670929.3771572113        780812555.98544776     
  -3645080194.6416550       -5872240.4313230515        784266316.28782654     
  -4489366620.3288527        14544749.909134150        666365180.84861612     
  -4361906224.3474855        5089791.6067488194        661705451.92675781     
  -4233447674.7410145       -1037987.9452815056        660127273.05427122     
  -4103990971.5094309       -3838588.7469403744        661630644.23115480     
  -3973536114.6527362       -3312010.7982325554        666215565.45741248     
  -2659410854.3840656       -13462455.263280988        1135703215.2193995     
  -2550422268.3537188       -12978676.575938702        1130572527.9834785     
  -2441317240.9046822       -12106759.826291919        1130521248.7311623     
  -2332095772.0369415       -10846705.014302254        1135549377.4624486     
  -2222757861.7505021       -9198512.1399819851        1145656914.1773376     
  -2988017564.5073185       -10947462.663844466        1019010141.1688210     
  -2865089838.6538882       -7721657.9185246229        1013897128.4993056     
  -2742219119.3024688       -4685874.8465813398        1013794347.8505634     
  -2619405406.4530702       -1840113.4480367899        1018701799.2225982     
  -2496648700.1056848        815626.27713119984        1028619482.6154077     
  -3316574011.2598457       -8417391.0531883240        901864508.19162786     
  -3179904791.1914077       -2508853.9323047400        896566814.18101692     
  -3043466025.5456939        2631501.7794848680        896210176.22835529     
  -2907257714.3227115        7003676.0821752548        900794594.33364141     
  -2771279857.5224586        10607668.975768447        910320068.49687386     
  -3645080194.6416550       -5872240.4313230515        784266316.28782654     
  -3494867125.9662838        2659735.3827042580        778581585.02862132     
  -3345057959.6343532        9845370.0519220829        777768733.86453700     
  -3195652695.6458683        15684663.576332688        781827762.79556882     
  -3046651334.0008268        20177615.955926776        790758671.82172704     
  -3973536114.6527362       -3312010.7982325554        666215565.45741248     
  -3809976842.9785142        7784110.0265052319        659941441.04211175     
  -3646994921.5684423        16955729.970745325        658470020.75910902     
  -3484590350.4225349        24202849.034434557        661801304.60839713     
  -3322763129.5407829        29525467.217611790        669935292.58997416     
  -2222757861.7505021       -9198512.1399819851        1145656914.1773376     
  -2139913486.9124038       -16812188.991433024        1138408857.4680147     
  -2058051801.2454865       -27701496.413486481        1134604531.2508090     
  -1977172804.7497404       -41866434.406114817        1134243935.5257242     
  -1897276497.4251757       -59307002.969344735        1137327070.2927566     
  -2496648700.1056848        815626.27713119984        1028619482.6154077     
  -2404905588.6699944       -6694647.6622649431        1020207748.5442134     
  -2313673779.6494675       -15909262.985536456        1015173603.7685680     
  -2222953273.0441046       -26828219.692693114        1013517048.2884753     
  -2132744068.8539093       -39451517.783724070        1015238082.1039402     
  -2771279857.5224586        10607668.975768447        910320068.49687386     
  -2670826984.3365078        3144105.4942263365        901294608.27915227     
  -2570414026.8097105       -4452510.1844842434        895580596.16042066     
  -2470040984.9420595       -12182178.060348749        893178032.14067447     
  -2369707858.7335539       -20044898.133375287        894086916.21991706     
  -3046651334.0008268        20177615.955926776        790758671.82172704     
  -2937677673.9119477        12704070.478043079        781669436.67283654     
  -2828272542.7262115        6668761.9896968603        775825508.42636561     
  -2718435940.4436040        2071690.4909123182        773226887.08231521     
  -2608167867.0641313       -1087144.0183070898        773873572.64068639     
  -3322763129.5407829        29525467.217611790        669935292.58997416     
  -3205457657.3963170        21985247.289174318        661332233.72526217     
  -3087249327.3989668        17454553.536999345        655908340.56640410     
  -2968138139.5487356        15933385.961108208        653663613.11340010     
  -2848124093.8456235        17421744.561486721        654598051.36625338     
  -1897276497.4251757       -59307002.969344735        1137327070.2927566     
  -1782223863.9717419       -60111332.089993298        1129671844.0162530     
  -1662173590.8390574       -44256862.279815912        1126497230.8857729     
  -1537125678.0271153       -11743593.538785756        1127803230.9013216     
  -1407080125.5359287        37428474.133080661        1133589844.0628979     
  -2132744068.8539093       -39451517.783724070        1015238082.1039402     
  -2005209068.8027155       -38044846.087692618        1011427230.1561695     
  -1875295361.2624431       -28709149.428063869        1012227354.5644830     
  -1743002946.2331007       -11444427.804858446        1017638455.3288916     
  -1608331823.7146778        13749318.781925976        1027660532.4493831     
  -2369707858.7335539       -20044898.133375287        894086916.21991706     
  -2229318025.7701392       -16315485.726311803        891065017.71233654     
  -2089168417.5078287       -13386822.322921395        892784458.77090800     
  -1949259033.9466116       -11258907.923195601        899245239.39563549     
  -1809589875.0865068       -9931742.5271527767        910447359.58650815     
  -2608167867.0641313       -1087144.0183070898        773873572.64068639     
  -2454550734.8740253        5076748.9941395521        768585206.68475902     
  -2303792759.5752082        1710119.0356242657        768168543.50504744     
  -2155893941.1676593       -11187033.893787026        772623583.10154927     
  -2010854279.6514013       -33614709.794144273        781950325.47426164     
  -2848124093.8456235        17421744.561486721        654598051.36625338     
  -2680907196.1143751        26131858.073628068        643987797.07343769     
  -2519168387.4645820        16581674.647575021        638379608.76690352     
  -2362907667.8962402       -11228805.716644287        637773486.44663751     
  -2212125037.4093637       -57299583.019069552        642169430.11265159     
  -5957989954.9748640       -1787396986.4924593        1150047778.0993066     
  -6088477930.5670843       -1502254363.2045896        1227907072.9083862     
  -6221698049.8235798       -1226218885.4643021        1268419850.8085895     
  -6357650312.7443476       -959290553.27159703        1271586111.7999170     
  -6496334719.3293924       -701469366.62647343        1237405855.8823681     
  -6810651354.8505220       -2043195406.4551566        1353787304.4657962     
  -6828588827.6688595       -1395477149.7485292        1202762195.6974666     
  -6897897688.1996784       -918996852.08351016        1091989613.6443641     
  -7018577936.4429808       -613754513.46009994        1021469558.3064886     
  -7190629572.3987656       -479750133.87829804        991202029.68384016     
  -8337951417.8300457       -2501385425.3490138        1712365293.4193532     
  -8021626834.6627750       -1424578069.2601106        1275709996.3507054     
  -7805312883.2561970       -681139485.70684385        956906269.62138772     
  -7689009563.6103058       -271069674.68921089        755954113.23140001     
  -7672716875.7251072       -194368636.20721245        672853527.18074214     
  -10539890143.913431       -3161967043.1740289        2225781744.9599771     
  -9667591951.5488300       -1589557121.7393348        1446750474.8681021     
  -8943943634.9931259       -512646786.33430052        863169818.73966014     
  -8368945194.2463274        68763963.041069031        475039776.57465035     
  -7942596629.3084211        154675126.38677979        282360348.37307531     
  -13416467533.100679       -4024940259.9302034        2894036659.0876684     
  -11766484178.327026       -1890414307.1862009        1715883631.2496567     
  -10313789943.410480       -413518753.96588469        810780260.99918079     
  -9058384828.3510437        405746399.73074102        178726548.33624211     
  -8000268833.1487083        567381153.90368271       -180277506.73916212     
  -6496334719.3293924       -701469366.62647343        1237405855.8823681     
  -6239302780.0853243       -375931313.96421981        1053266816.1267085     
  -6013163777.0000153       -153369715.16450047        908110119.84195149     
  -5817917710.0734682       -33784570.227314234        801935767.02809346     
  -5653564579.3056793       -17175879.152661562        734743757.68513680     
  -7190629572.3987656       -479750133.87829804        991202029.68384016     
  -6900561329.5980558       -304434097.49121737        846906206.74195719     
  -6623291571.7145348       -171779677.49476409        723707200.66701388     
  -6358820298.7482023       -81786873.888943434        621605011.45900929     
  -6107147510.6990614       -34455686.673753738        540599639.11794519     
  -7672716875.7251072       -194368636.20721245        672853527.18074214     
  -7400713833.9505043       -184605067.47012854        589511114.16780114     
  -7123414825.8515186       -157188277.65176964        509379991.41783738     
  -6840819851.4281511       -112118266.75213957        432460158.93085456     
  -6552928910.6803999       -49395034.771231413        358751616.70684803     
  -7942596629.3084211        154675126.38677979        282360348.37307531     
  -7739760293.1426697       -16444223.900954723        281081538.40424269     
  -7513533539.4109640       -109595515.63551235        265128492.09442642     
  -7263916368.1133080       -124778748.81689262        234501209.44362828     
  -6990908779.2496977       -61993923.445099354        189199690.45184839     
  -8000268833.1487083        567381153.90368271       -180277506.73916212     
  -7917700707.1745558        200048433.21630049       -78382520.548721105     
  -7793647712.3928747       -29001391.445993900       -9047297.3032237403     
  -7628109848.8036747       -119768320.08321524        27728162.997332618     
  -7421087116.4069462       -72252352.695351601        31943860.352942824     
  -5653564579.3056793       -17175879.152661562        734743757.68513680     
  -5520342714.1628618       -48692593.766581297        721554370.87948406     
  -5381801116.8180342       -62476867.707140446        710224683.42786872     
  -5237939787.2712049       -58528700.974355936        700754695.33029425     
  -5088758725.5223675       -36848093.568216324        693144406.58675671     
  -6107147510.6990614       -34455686.673753738        540599639.11794519     
  -5959379249.6762161       -36259936.127217770        534107194.23525125     
  -5810656951.1388836       -34884060.532392263        530087862.56151050     
  -5660980615.0870667       -30328059.889278650        528541644.09672600     
  -5510350241.5207586       -22591934.197871923        529468538.84089243     
  -6552928910.6803999       -49395034.771231413        358751616.70684803     
  -6388861642.7634859       -20961035.760031700        353862803.27834421     
  -6228206032.0196037       -3899227.3255989552        352060516.91370606     
  -6070962078.4487572        1790390.5320503712        353344757.61293757     
  -5917129782.0509386       -3892182.1870670319        357715525.37603641     
  -6990908779.2496977       -61993923.445099354        189199690.45184839     
  -6808789893.4246731       -2795892.6650228500        180821198.00875780     
  -6634448359.4601974        30477631.913231850        176142646.48445180     
  -6467884177.3562775        37826650.289630651        175164035.87892830     
  -6309097347.1129036        19251162.464208841        177885366.19218886     
  -7421087116.4069462       -72252352.695351601        31943860.352942824     
  -7219164001.6597691        18235493.157818794        14982378.426497325     
  -7029383933.4606638        68246517.184093475        2334251.2737514754     
  -6851746911.8096294        77780719.383460999       -6000521.1053008931     
  -6686252936.7066603        46838099.755937099       -10021938.710653454     
  -5088758725.5223675       -36848093.568216324        693144406.58675671     
  -4934682492.6945286       -9905860.9340081215        676157498.26759422     
  -4783425064.2196636        7640357.1902801991        666031991.20485103     
  -4634986440.0977726        15790560.804663420        662767885.39852488     
  -4489366620.3288527        14544749.909134150        666365180.84861612     
  -5510350241.5207586       -22591934.197871923        529468538.84089243     
  -5344600079.0474453       -10213393.438844442        514814948.41171503     
  -5179733748.5531101       -780959.27641725540        505640754.57844973     
  -5015751250.0377474        5705368.2894244194        501945957.34110034     
  -4852652583.5013723        9245589.2586581707        503730556.69966507     
  -5917129782.0509386       -3892182.1870670319        357715525.37603641     
  -5743654274.6764431       -7261908.7265076637        347652720.60650438     
  -5569127626.9069328       -7127833.9492294788        341687307.77237940     
  -5393549838.7424068       -3489957.8552272320        339819286.87366652     
  -5216920910.1828604        3651719.5554924011        342048657.91036355     
  -6309097347.1129036        19251162.464208841        177885366.19218886     
  -6131845079.5815277       -1051406.7969896793        174670814.85196072     
  -5951606699.2811403       -11400266.828157425        174171650.78663829     
  -5768382206.2117386       -11795417.629281759        176387873.99622333     
  -5582171600.3733311       -2236859.2003715038        181319484.48071057     
  -6686252936.7066603        46838099.755937099       -10021938.710653454     
  -6509172493.7626963        8418112.3496944904       -4130768.8519161600     
  -6327170965.6757240       -13598257.913192511        3093783.6212248062     
  -6140248352.4457474       -19211011.032730341        11651718.708766641     
  -5948404654.0727663       -8420147.0089221001        21543036.410709426     
  -4489366620.3288527        14544749.909134150        666365180.84861612     
  -4361906224.3474855        5089791.6067488194        661705451.92675781     
  -4233447674.7410145       -1037987.9452815056        660127273.05427122     
  -4103990971.5094309       -3838588.7469403744        661630644.23115480     
  -3973536114.6527362       -3312010.7982325554        666215565.45741248     
  -4852652583.5013723        9245589.2586581707        503730556.69966507     
  -4715774667.9658318        3853286.2601099014        499486515.54965770     
  -4578715974.5178242       -936423.69688463211        498467634.32183850     
  -4441476503.1573448       -5123540.6123123169        500673913.01620346     
  -4304056253.8844004       -8708064.4861834049        506105351.63275439     
  -5216920910.1828604        3651719.5554924011        342048657.91036355     
  -5070215161.1708241        2445166.0374710560        337266699.53413111     
  -4924146009.9589596       -883380.14779758453        335853510.95289522     
  -4778713456.5472660       -6333919.0002930164        337809092.16666090     
  -4633917500.9357452       -13906450.520040512        343133443.17542261     
  -5582171600.3733311       -2236859.2003715038        181319484.48071057     
  -5425227703.9624672        865430.93884134293        175046003.88017192     
  -5269737781.0644159       -878857.29799222946        172284902.94743702     
  -5115701831.6791811       -7469723.9108686447        173036181.68251786     
  -4963119855.8067608       -18907168.899804115        177299840.08541536     
  -5948404654.0727663       -8420147.0089221001        21543036.410709426     
  -5780812296.3407574       -885919.03578925133        12824428.587776549     
  -5615491287.8342037       -922855.14750528336        7761810.3054722259     
  -5452441628.5530987       -8530955.3440494537        6355181.5637857299     
  -5291663318.4974537       -23710219.625464916        8604542.3627351560     
  -3973536114.6527362       -3312010.7982325554        666215565.45741248     
  -3809976842.9785142        7784110.0265052319        659941441.04211175     
  -3646994921.5684423        16955729.970745325        658470020.75910902     
  -3484590350.4225349        24202849.034434557        661801304.60839713     
  -3322763129.5407829        29525467.217611790        669935292.58997416     
  -4304056253.8844004       -8708064.4861834049        506105351.63275439     
  -4128902320.0084238       -713855.03779006004        499733764.51038188     
  -3953758640.1275353        7246174.4269728661        498194269.88237554     
  -3778625214.2417469        15172023.908082247        501486867.74873894     
  -3603502042.3510418        23063693.405565739        509611558.10947269     
  -4633917500.9357452       -13906450.520040512        343133443.17542261     
  -4447084938.1092224       -8988962.4233546257        337326005.65988004     
  -4259695533.0087266       -2215333.4134287834        336380049.00078440     
  -4071749285.6342602        6414436.5097460747        340295573.19813132     
  -3883246195.9858174        16900347.346162558        349072578.25192481     
  -4963119855.8067608       -18907168.899804115        177299840.08541536     
  -4764524697.2809105       -17041212.130198479        172718164.49061295     
  -4564805600.2120075       -11428793.550430536        173027358.11433619     
  -4363962564.6000834       -2069913.1605997086        178227420.95657647     
  -4161995590.4451180        11035429.039393187        188318353.01733997     
  -5291663318.4974537       -23710219.625464916        8604542.3627351560     
  -5081221597.5234690       -24870604.158273220        5910241.0025841249     
  -4869088841.7373981       -20394205.984114170        8136197.2230321765     
  -4655265051.1392136       -10281025.102909803        15282411.024078190     
  -4439750225.7289286        5468938.4852838516        27348882.405719124     
  -3322763129.5407829        29525467.217611790        669935292.58997416     
  -3205457657.3963170        21985247.289174318        661332233.72526217     
  -3087249327.3989668        17454553.536999345        655908340.56640410     
  -2968138139.5487356        15933385.961108208        653663613.11340010     
  -2848124093.8456235        17421744.561486721        654598051.36625338     
  -3603502042.3510418        23063693.405565739        509611558.10947269     
  -3477381793.8879905        16199847.513950586        502001388.50012928     
  -3351287316.7226825        9250097.2965154648        497836564.03688407     
  -3225218610.8551130        2214442.7532843351        497117084.71973807     
  -3099175676.2852936       -4907116.1157722473        499842950.54868710     
  -3883246195.9858174        16900347.346162558        349072578.25192481     
  -3747550658.5177703        10941029.297291994        341371897.22222722     
  -3612809521.4980993        1800376.4205172062        337382740.77886498     
  -3479022784.9267926       -10521611.284143686        337105108.92184186     
  -3346190448.8038535       -26024933.816691637        340539001.65116102     
  -4161995590.4451180        11035429.039393187        188318353.01733997     
  -4015964251.2856679        6208792.6392064095        179443759.89155355     
  -3871815941.7252192       -4894609.0909864902        174546870.79234308     
  -3729550661.7637568       -22274776.151133299        173627685.71971694     
  -3589168411.4012976       -45931708.541289330        176686204.67367858     
  -4439750225.7289286        5468938.4852838516        27348882.405719124     
  -4282622572.1916742        2003137.5396745205        16216976.508110363     
  -4128306577.4040413       -10834859.237995863        9328954.0773232430     
  -3976802241.3660293       -33045051.847746134        6684815.1133742500     
  -3828109564.0776348       -64627440.289541960        8284559.6162408097     
  -2848124093.8456235        17421744.561486721        654598051.36625338     
  -2680907196.1143751        26131858.073628068        643987797.07343769     
  -2519168387.4645820        16581674.647575021        638379608.76690352     
  -2362907667.8962402       -11228805.716644287        637773486.44663751     
  -2212125037.4093637       -57299583.019069552        642169430.11265159     
  -3099175676.2852936       -4907116.1157722473        499842950.54868710     
  -2920259785.3205557        1898256.5135123730        486438171.98797637     
  -2742593917.8405895        4536884.1935702562        477470108.59356016     
  -2566178073.8453870        3008766.9244278669        472938760.36544293     
  -2391012253.3349447       -2686095.2939410210        472844127.30361509     
  -3346190448.8038535       -26024933.816691637        340539001.65116102     
  -3157190852.6627197       -21608888.487400413        329272442.01869667     
  -2965213214.4096680       -7266036.1183592081        321877246.73254180     
  -2770257534.0446649        17003623.290468574        318353415.79270631     
  -2572323811.5677676        51200089.739015102        318700949.19918799     
  -3589168411.4012976       -45931708.541289330        176686204.67367858     
  -3391700398.1408496       -44389576.929095030        172490607.16559565     
  -3187026277.1717796       -18827086.288173556        171601023.18385395     
  -2975146048.4941092        30755763.381445527        174017452.72843909     
  -2756059712.1077967        104358972.07982266        179739895.79936835     
  -3828109564.0776348       -64627440.289541960        8284559.6162408097     
  -3623788421.7549620       -66443808.811618090        16092667.428684143     
  -3408033106.1269779       -30146266.315968990        26641437.947482876     
  -3180843617.1936674        44265187.197409630        39930871.172638610     
  -2942219954.9550743        156790551.72842896        55960967.104143970     
 </DataArray>
 <DataArray  type="Float64" Name="VM" NumberOfComponents="1" format="ascii">
   12935030213.241596     
   11340442139.691135     
   10210185656.283785     
   9272979592.1554146     
   8304430697.6738834     
   10129995753.279213     
   9321832924.0399265     
   8826276920.1566238     
   8443534554.3062038     
   8035817105.5128040     
   7982232681.9119101     
   7734866285.2892818     
   7669045196.4884253     
   7669481686.0854225     
   7666251162.5872478     
   6491654636.7848549     
   6586827214.2010155     
   6757323294.2900267     
   6961063686.6903534     
   7171390004.1307087     
   5657814943.5462351     
   5890872577.1514397     
   6116300448.8490601     
   6331633038.0276041     
   6536640414.9540434     
   8304430697.6738834     
   8020561148.3043194     
   7778735188.2298059     
   7568301593.1429472     
   7384294194.1624737     
   8035817105.5128040     
   7746678423.9743080     
   7473201111.5370512     
   7213429718.4186401     
   6967364549.0731783     
   7666251162.5872478     
   7380936951.8179464     
   7101028986.8281040     
   6826600440.0694380     
   6557849410.9282312     
   7171390004.1307087     
   6910773327.5252075     
   6658074136.8679886     
   6409434811.7917290     
   6161709944.7946024     
   6536640414.9540434     
   6328538081.1549749     
   6142633684.2783604     
   5965033386.1495829     
   5786727851.8508177     
   7384294194.1624737     
   7228113891.7776661     
   7064546625.2269001     
   6892917424.1123190     
   6713037730.4993219     
   6967364549.0731783     
   6814387365.5645151     
   6656833765.0791187     
   6494424082.2180042     
   6327101782.6991091     
   6557849410.9282312     
   6407555144.2213049     
   6255595151.7331419     
   6101934525.6116810     
   5946597463.4451704     
   6161709944.7946024     
   6012615405.1755848     
   5864766105.8380461     
   5718197962.3407164     
   5572962896.7543497     
   5786727851.8508177     
   5636031014.6970739     
   5489417084.9380693     
   5346800953.2633877     
   5208220168.6127710     
   6713037730.4993219     
   6515899738.7751846     
   6321705006.0816135     
   6130366554.0093126     
   5941865831.0083952     
   6327101782.6991091     
   6139980252.9288692     
   5954924777.5875893     
   5771925783.9990425     
   5591018298.4809895     
   5946597463.4451704     
   5771478474.8083897     
   5597852635.9608517     
   5425756169.2528515     
   5255264989.6773939     
   5572962896.7543497     
   5412190826.7303448     
   5252679202.0135241     
   5094483569.7810612     
   4937718749.3420935     
   5208220168.6127710     
   5064497192.1373539     
   4922191863.4271669     
   4781356605.5343132     
   4642153338.7757626     
   5941865831.0083952     
   5777242026.9452066     
   5611635433.5369015     
   5445040063.9779100     
   5277481929.9423065     
   5591018298.4809895     
   5435065941.1137247     
   5278762387.9426546     
   5122129435.6139383     
   4965218799.0633688     
   5255264989.6773939     
   5108261158.6737032     
   4961595334.2199411     
   4815320100.1044884     
   4669517808.0210171     
   4937718749.3420935     
   4799863355.4407091     
   4663085898.9233532     
   4527471214.3100176     
   4393135592.8163128     
   4642153338.7757626     
   4513538764.5127792     
   4386781479.1791372     
   4261997879.1187673     
   4139339209.2324166     
   5277481929.9423065     
   5065349230.3553543     
   4853900853.3102903     
   4643150122.9866266     
   4433159900.1616240     
   4965218799.0633688     
   4765666924.7746058     
   4567023439.3374701     
   4369360905.9789772     
   4172815486.0934153     
   4669517808.0210171     
   4483617035.4140320     
   4298996250.5586042     
   4115804652.5094185     
   3934274492.5877213     
   4393135592.8163128     
   4222164476.9291358     
   4053018274.3663545     
   3885940380.0593967     
   3721281072.9523849     
   4139339209.2324166     
   3984775385.2138467     
   3832771870.4074116     
   3683679117.4905438     
   3537979780.7382216     
   4433159900.1616240     
   4274463812.4932919     
   4114592572.4647627     
   3953608982.2595119     
   3791661838.2464886     
   4172815486.0934153     
   4025301036.9984493     
   3877925855.9742494     
   3730768260.4536667     
   3583964105.8534751     
   3934274492.5877213     
   3797483685.5712533     
   3662168378.3147674     
   3528430359.0515914     
   3396422582.4016976     
   3721281072.9523849     
   3594249874.2113204     
   3469987044.6540575     
   3348628447.4326677     
   3230381040.0967836     
   3537979780.7382216     
   3419135998.2245913     
   3304245019.9587212     
   3193495864.9735022     
   3087200416.7852240     
   3791661838.2464886     
   3578842088.4309297     
   3360291433.0244327     
   3138978811.4300485     
   2920264001.1915164     
   3583964105.8534751     
   3381704893.1235394     
   3174864328.4856596     
   2964581706.2098732     
   2753096780.7290545     
   3396422582.4016976     
   3210515213.0053926     
   3023052616.6064653     
   2834409968.5922961     
   2645339669.6463413     
   3230381040.0967836     
   3064458572.1244483     
   2901437249.0700893     
   2741875905.6315656     
   2586540837.5114269     
   3087200416.7852240     
   2942327821.2898860     
   2805828366.9797173     
   2679217964.6976709     
   2564439366.4888773     
   5657814943.5462351     
   5890872577.1514397     
   6116300448.8490601     
   6331633038.0276041     
   6536640414.9540434     
   5151408055.6794558     
   5311293029.0962391     
   5467818461.0108700     
   5618085131.1236658     
   5760622983.9911518     
   4643404138.2165546     
   4755515864.5352545     
   4868759626.8636541     
   4980499921.7593279     
   5088810228.3639097     
   4134067047.0359898     
   4224378874.2656121     
   4320618789.8657551     
   4421132375.7744856     
   4524466889.5408983     
   3624917733.2445083     
   3719706568.4499006     
   3825752983.5078654     
   3942997658.0317554     
   4071351709.9170508     
   6536640414.9540434     
   6328538081.1549749     
   6142633684.2783604     
   5965033386.1495829     
   5786727851.8508177     
   5760622983.9911518     
   5652022490.2351923     
   5559423301.4120817     
   5473770225.9159002     
   5389520160.2214069     
   5088810228.3639097     
   5054015168.7337761     
   5029722140.6814718     
   5010725385.1251621     
   4993822004.2931185     
   4524466889.5408983     
   4539109512.2737923     
   4558405190.9718666     
   4579870219.7907305     
   4601779423.7169743     
   4071351709.9170508     
   4112629563.1601310     
   4151243454.3290105     
   4186285751.2806458     
   4217017320.6222095     
   5786727851.8508177     
   5636031014.6970739     
   5489417084.9380693     
   5346800953.2633877     
   5208220168.6127710     
   5389520160.2214069     
   5248435593.7362719     
   5110526221.4831982     
   4975832902.6967382     
   4844446628.1107664     
   4993822004.2931185     
   4866792173.4366369     
   4742971182.1125555     
   4622329424.4268618     
   4504912207.4451580     
   4601779423.7169743     
   4493763308.4984417     
   4390049915.4553099     
   4290331769.8222647     
   4194529058.9615569     
   4217017320.6222095     
   4133301781.0503888     
   4056222584.2195139     
   3984947950.0032229     
   3919192218.3149233     
   5208220168.6127710     
   5064497192.1373539     
   4922191863.4271669     
   4781356605.5343132     
   4642153338.7757626     
   4844446628.1107664     
   4717122746.2867002     
   4591860607.8253250     
   4468787970.6994019     
   4348130587.6517639     
   4504912207.4451580     
   4393052868.8389368     
   4283867864.5888877     
   4177541411.3184099     
   4074340879.7180238     
   4194529058.9615569     
   4097224575.7441845     
   4003137302.4115372     
   3912485674.9743004     
   3825553758.8292928     
   3919192218.3149233     
   3835543678.0057240     
   3755537028.7860694     
   3679400005.2322731     
   3607407137.6492209     
   4642153338.7757626     
   4513538764.5127792     
   4386781479.1791372     
   4261997879.1187673     
   4139339209.2324166     
   4348130587.6517639     
   4229100029.7063022     
   4112392818.5344243     
   3998168853.3548017     
   3886632394.5652199     
   4074340879.7180238     
   3966185458.7910438     
   3860993137.1053910     
   3758974951.4987073     
   3660397002.3899145     
   3825553758.8292928     
   3729576840.0374699     
   3637386618.8655849     
   3549247519.0528812     
   3465488972.8799424     
   3607407137.6492209     
   3524822167.5397730     
   3447024734.0082054     
   3374325017.9763160     
   3307104854.9252295     
   4139339209.2324166     
   3984775385.2138467     
   3832771870.4074116     
   3683679117.4905438     
   3537979780.7382216     
   3886632394.5652199     
   3747895842.2866116     
   3612686864.8645468     
   3481444892.9044290     
   3354739857.0315924     
   3660397002.3899145     
   3537646137.6443143     
   3419403071.0351572     
   3306169141.7510862     
   3198564917.5108356     
   3465488972.8799424     
   3358752142.1118407     
   3257458733.8267961     
   3162133180.9292021     
   3073398382.5606766     
   3307104854.9252295     
   3216160016.1919589     
   3131475599.7750878     
   3053552294.6601939     
   2982962082.0354967     
   3537979780.7382216     
   3419135998.2245913     
   3304245019.9587212     
   3193495864.9735022     
   3087200416.7852240     
   3354739857.0315924     
   3242713132.3406296     
   3134233623.8201928     
   3029470247.2475204     
   2928658326.0763330     
   3198564917.5108356     
   3095346965.6696272     
   2995594273.5568042     
   2899529492.6567135     
   2807428523.4101253     
   3073398382.5606766     
   2981571296.1283326     
   2893496169.5546904     
   2809530849.8527617     
   2730119467.5732527     
   2982962082.0354967     
   2905563441.1995420     
   2832578857.5134869     
   2764572320.3304348     
   2702266407.5701241     
   3087200416.7852240     
   2942327821.2898860     
   2805828366.9797173     
   2679217964.6976709     
   2564439366.4888773     
   2928658326.0763330     
   2793525361.1529293     
   2664768186.7430139     
   2543276671.9109035     
   2430166526.5299511     
   2807428523.4101253     
   2685037219.1694031     
   2568161412.2858877     
   2457637240.2475429     
   2354499042.6647320     
   2730119467.5732527     
   2625039266.8920417     
   2525892181.9883194     
   2434040478.2034669     
   2351181546.6899157     
   2702266407.5701241     
   2620279994.6811609     
   2545830223.5728922     
   2481226772.7432737     
   2429302786.4991679     
   3624917733.2445083     
   3719706568.4499006     
   3825752983.5078654     
   3942997658.0317554     
   4071351709.9170508     
   3137921863.8690796     
   3255556389.9507213     
   3382605786.6274118     
   3518603514.7526054     
   3663094076.1639290     
   2694732692.2927442     
   2830586866.0997682     
   2973741715.0898299     
   3123115770.1097260     
   3277799031.1032848     
   2298836710.5602207     
   2449589149.6096654     
   2605043180.2918596     
   2763275187.6024065     
   2922855139.5901284     
   1955437654.1626635     
   2119515540.5305099     
   2284921456.7464743     
   2448691687.2113352     
   2608866211.9982805     
   4071351709.9170508     
   4112629563.1601310     
   4151243454.3290105     
   4186285751.2806458     
   4217017320.6222095     
   3663094076.1639290     
   3702354791.6181550     
   3740235692.0763383     
   3775830915.3316636     
   3808385901.5586910     
   3277799031.1032848     
   3320922978.8307638     
   3364306801.9116292     
   3407123758.6032805     
   3448693257.3933988     
   2922855139.5901284     
   2975716840.4117126     
   3030835923.2926607     
   3087529903.0162482     
   3145266143.2300906     
   2608866211.9982805     
   2676788967.8122683     
   2749269937.5095620     
   2825803272.5224071     
   2906038386.4187479     
   4217017320.6222095     
   4133301781.0503888     
   4056222584.2195139     
   3984947950.0032229     
   3919192218.3149233     
   3808385901.5586910     
   3756103726.6144509     
   3709883339.7268620     
   3669259925.8899102     
   3634138759.2977929     
   3448693257.3933988     
   3423122213.5102081     
   3402643142.6760402     
   3387028726.4055572     
   3376259615.5373540     
   3145266143.2300906     
   3141986110.8402462     
   3142222788.2752991     
   3145873807.9412599     
   3152920508.0652771     
   2906038386.4187479     
   2921019771.9716744     
   2937157801.5922637     
   2954394070.2652168     
   2972685519.1470404     
   3919192218.3149233     
   3835543678.0057240     
   3755537028.7860694     
   3679400005.2322731     
   3607407137.6492209     
   3634138759.2977929     
   3562911881.5149555     
   3496143465.9130321     
   3434081442.3093762     
   3377026658.8245893     
   3376259615.5373540     
   3318296850.4342799     
   3265757655.4444618     
   3218889271.7391605     
   3177995519.6116462     
   3152920508.0652771     
   3108675366.6679096     
   3070945148.4913144     
   3039944736.1207342     
   3015946653.3459501     
   2972685519.1470404     
   2941938381.4085670     
   2918885537.2222886     
   2903671293.9439740     
   2896497659.5318699     
   3607407137.6492209     
   3524822167.5397730     
   3447024734.0082054     
   3374325017.9763160     
   3307104854.9252295     
   3377026658.8245893     
   3308584011.1067748     
   3245390798.5312839     
   3187734975.4547324     
   3135959758.3994761     
   3177995519.6116462     
   3122843275.4592156     
   3073313969.2240105     
   3029655492.0513721     
   2992154056.9208612     
   3015946653.3459501     
   2972937372.7106199     
   2935799744.4881496     
   2904727592.4408240     
   2879937710.9811244     
   2896497659.5318699     
   2864108484.0835257     
   2837684946.5340729     
   2817360765.2915549     
   2803280801.1922464     
   3307104854.9252295     
   3216160016.1919589     
   3131475599.7750878     
   3053552294.6601939     
   2982962082.0354967     
   3135959758.3994761     
   3059245816.9206443     
   2989633539.1793022     
   2927613336.5414429     
   2873733329.5821748     
   2992154056.9208612     
   2929756945.3684998     
   2875293226.2572751     
   2829207420.3002734     
   2791984865.2419295     
   2879937710.9811244     
   2831391991.6366663     
   2791561694.1270919     
   2760811813.2121711     
   2739532009.0428801     
   2803280801.1922464     
   2767417194.8089290     
   2740976484.3021173     
   2724221620.4216838     
   2717428699.9341846     
   2982962082.0354967     
   2905563441.1995420     
   2832578857.5134869     
   2764572320.3304348     
   2702266407.5701241     
   2873733329.5821748     
   2812117902.7865057     
   2755663597.6329513     
   2704841184.0829225     
   2660218831.5541248     
   2791984865.2419295     
   2744924641.2404857     
   2703573751.5129166     
   2668286587.2612491     
   2639466186.9999170     
   2739532009.0428801     
   2705206263.0102892     
   2676917569.7248011     
   2654900405.7136812     
   2639405476.0131593     
   2717428699.9341846     
   2693457296.2436862     
   2675642140.5524940     
   2664114552.2081466     
   2659006188.2229486     
   2702266407.5701241     
   2620279994.6811609     
   2545830223.5728922     
   2481226772.7432737     
   2429302786.4991679     
   2660218831.5541248     
   2601783362.1165872     
   2553419266.4202123     
   2516189568.1169991     
   2491187230.9341650     
   2639466186.9999170     
   2599024329.8856773     
   2570856612.1963625     
   2555427967.5541306     
   2553188645.2282405     
   2639405476.0131593     
   2608973081.7960396     
   2592886600.3696055     
   2591682734.8097262     
   2606170357.6952443     
   2659006188.2229486     
   2628705930.7909551     
   2615027116.1792836     
   2619259793.4678731     
   2643513222.9551358     
   1955437654.1626635     
   2119515540.5305099     
   2284921456.7464743     
   2448691687.2113352     
   2608866211.9982805     
   1653997673.4949596     
   1820423995.4949913     
   1988530676.3883808     
   2155618585.8180346     
   2319927976.1818519     
   1393825427.7310836     
   1571157921.0019751     
   1749491516.5085208     
   1926820232.2489779     
   2101892051.1214533     
   1207236594.2635832     
   1399141065.6799049     
   1590630376.7599785     
   1780926038.9842956     
   1969568277.0721564     
   1136936502.4150605     
   1335235383.6651094     
   1533858560.4636183     
   1732806032.5734150     
   1932077801.0628026     
   2608866211.9982805     
   2676788967.8122683     
   2749269937.5095620     
   2825803272.5224071     
   2906038386.4187479     
   2319927976.1818519     
   2407019549.5700116     
   2496584340.3222775     
   2588234978.1429629     
   2681697518.2792611     
   2101892051.1214533     
   2205702582.7301493     
   2309433549.4565172     
   2412850410.5444512     
   2515787277.8051419     
   1969568277.0721564     
   2086768609.8437059     
   2201104674.8437462     
   2312502351.3825493     
   2420909934.6653819     
   1932077801.0628026     
   2058764319.3810260     
   2179991492.5782509     
   2295759322.1227112     
   2406067813.6916752     
   2906038386.4187479     
   2921019771.9716744     
   2937157801.5922637     
   2954394070.2652168     
   2972685519.1470404     
   2681697518.2792611     
   2703316829.4575243     
   2727176080.6051102     
   2753255828.1759043     
   2781546316.6116896     
   2515787277.8051419     
   2544064452.0501394     
   2575701492.8289895     
   2610699091.0431228     
   2649062533.0191426     
   2420909934.6653819     
   2454373017.5925741     
   2492322977.5047326     
   2534762779.2128196     
   2581696717.5124278     
   2406067813.6916752     
   2441641870.5959687     
   2482823887.6665096     
   2529613915.4139867     
   2582012066.9057336     
   2972685519.1470404     
   2941938381.4085670     
   2918885537.2222886     
   2903671293.9439740     
   2896497659.5318699     
   2781546316.6116896     
   2765518464.3191228     
   2756909911.6767445     
   2755810381.1036196     
   2762338283.3471932     
   2649062533.0191426     
   2644730548.8408790     
   2647260080.9156809     
   2656690832.4874825     
   2673072760.4858341     
   2581696717.5124278     
   2585598244.5388827     
   2595534227.7268577     
   2611513586.9259968     
   2633546806.9909396     
   2582012066.9057336     
   2590587329.2331877     
   2604155431.9849787     
   2622716320.8577933     
   2646270175.8219395     
   2896497659.5318699     
   2864108484.0835257     
   2837684946.5340729     
   2817360765.2915549     
   2803280801.1922464     
   2762338283.3471932     
   2737912430.9094477     
   2720040928.6595769     
   2708815011.0135646     
   2704331866.1357174     
   2673072760.4858341     
   2654893199.4454188     
   2643792459.2560172     
   2639817353.7198200     
   2643017013.4878674     
   2633546806.9909396     
   2619228241.3962822     
   2612436056.8455915     
   2613182938.1992974     
   2621482042.9458556     
   2646270175.8219395     
   2632915550.5204701     
   2627454762.3813906     
   2629888004.8199081     
   2640215481.0070167     
   2803280801.1922464     
   2767417194.8089290     
   2740976484.3021173     
   2724221620.4216838     
   2717428699.9341846     
   2704331866.1357174     
   2679985383.6396527     
   2665006255.5503421     
   2659551487.7531819     
   2663783515.8513207     
   2643017013.4878674     
   2627689769.8487000     
   2621587294.4207454     
   2624783103.0037537     
   2637353596.9023991     
   2621482042.9458556     
   2612299021.1416645     
   2612145406.0844822     
   2621042202.3741808     
   2639013247.5140204     
   2640215481.0070167     
   2634126701.2080507     
   2636854518.5072865     
   2648400641.6135864     
   2668769742.9601278     
   2717428699.9341846     
   2693457296.2436862     
   2675642140.5524940     
   2664114552.2081466     
   2659006188.2229486     
   2663783515.8513207     
   2646665762.9036732     
   2636410995.5505300     
   2633090510.2690711     
   2636773846.3283935     
   2637353596.9023991     
   2624479309.1370487     
   2619070126.1365666     
   2621154519.8454618     
   2630766520.5585232     
   2639013247.5140204     
   2627261141.4081221     
   2623496388.4549713     
   2627732166.8568349     
   2640002636.0918989     
   2668769742.9601278     
   2654685160.5106564     
   2649049518.0502067     
   2651894919.8034372     
   2663296906.0910316     
   2659006188.2229486     
   2628705930.7909551     
   2615027116.1792836     
   2619259793.4678731     
   2643513222.9551358     
   2636773846.3283935     
   2602737473.1706052     
   2581731650.6830258     
   2574115432.6746302     
   2580424967.4866219     
   2630766520.5585232     
   2599650829.3077898     
   2578789711.6519456     
   2568221797.3738337     
   2567995396.5566916     
   2640002636.0918989     
   2619638541.2301078     
   2607442999.0110044     
   2603748893.2254143     
   2609270989.0528703     
   2663296906.0910316     
   2662311937.2248816     
   2668044923.7801914     
   2681662254.2068515     
   2705560911.1192565     
   1136936502.4150605     
   1335235383.6651094     
   1533858560.4636183     
   1732806032.5734150     
   1932077801.0628026     
   1207131262.9630051     
   1399078746.8081546     
   1590612738.6877494     
   1780957069.6593099     
   1969653622.4560103     
   1393673192.6815886     
   1571054643.5283165     
   1749446810.8636436     
   1926845292.6255367     
   2101999261.7236505     
   1653855046.2561424     
   1820304248.9687698     
   1988452193.9061270     
   2155600208.7164626     
   2319988459.0169334     
   1955346064.3407254     
   2119399001.0175564     
   2284804243.4105306     
   2448598032.3916245     
   2608819032.9496679     
   1932077801.0628026     
   2058764319.3810260     
   2179991492.5782509     
   2295759322.1227112     
   2406067813.6916752     
   1969653622.4560103     
   2086788240.2513435     
   2201048448.5363460     
   2312359028.4427261     
   2420667801.1569085     
   2101999261.7236505     
   2205724853.7519808     
   2309351975.0062966     
   2412645261.2802434     
   2515438351.1846442     
   2319988459.0169334     
   2407024891.1443710     
   2496509008.2137332     
   2588053862.4404578     
   2681385311.4052582     
   2608819032.9496679     
   2676758942.9133544     
   2749227921.3725705     
   2825722468.7145224     
   2905892293.0547628     
   2406067813.6916752     
   2441641870.5959687     
   2482823887.6665096     
   2529613915.4139867     
   2582012066.9057336     
   2420667801.1569085     
   2454445073.7887893     
   2492761761.2984571     
   2535621962.3248129     
   2583030335.9220200     
   2515438351.1846442     
   2544159783.5941639     
   2576335497.1960049     
   2611967669.4460702     
   2651062602.0523453     
   2681385311.4052582     
   2703374210.4285760     
   2727726027.8830676     
   2754422265.6255212     
   2783454843.9494143     
   2905892293.0547628     
   2920975883.8548627     
   2937352184.2459936     
   2954961731.7214160     
   2973762922.6520505     
   2582012066.9057336     
   2590587329.2331877     
   2604155431.9849787     
   2622716320.8577933     
   2646270175.8219395     
   2583030335.9220200     
   2586634188.5654812     
   2596290933.4871078     
   2612008918.5220170     
   2633800147.6027098     
   2651062602.0523453     
   2646278279.5851121     
   2648408555.9918680     
   2657493231.4826326     
   2673584867.7679119     
   2783454843.9494143     
   2766931895.2709575     
   2757930882.6384959     
   2756544611.0482545     
   2762895880.3244338     
   2973762922.6520505     
   2942543497.8902807     
   2919182815.1115847     
   2903834937.0377660     
   2896710529.6264987     
   2646270175.8219395     
   2632915550.5204701     
   2627454762.3813906     
   2629888004.8199081     
   2640215481.0070167     
   2633800147.6027098     
   2619597727.0379934     
   2612890136.1069636     
   2613691013.0069394     
   2622014513.7571454     
   2673584867.7679119     
   2655780112.5638099     
   2645001457.2761769     
   2641296199.5481501     
   2644713804.6648288     
   2762895880.3244338     
   2739242883.5926137     
   2722083555.2541804     
   2711507964.0721107     
   2707611471.3192630     
   2896710529.6264987     
   2865613829.5948405     
   2840428890.4958558     
   2821286207.9484448     
   2808325927.0297914     
   2640215481.0070167     
   2634126701.2080507     
   2636854518.5072865     
   2648400641.6135864     
   2668769742.9601278     
   2622014513.7571454     
   2614565816.5014787     
   2616051749.8752623     
   2626487711.9157262     
   2645888658.4836926     
   2644713804.6648288     
   2632100545.5384488     
   2628464749.0190902     
   2633875269.1939077     
   2648400166.1693754     
   2707611471.3192630     
   2686308604.1242766     
   2673915352.6373544     
   2670587777.5389285     
   2676486427.1391802     
   2808325927.0297914     
   2775342123.0951271     
   2751052727.2610736     
   2735720714.9677382     
   2729627260.0418630     
   2668769742.9601278     
   2654685160.5106564     
   2649049518.0502067     
   2651894919.8034372     
   2663296906.0910316     
   2645888658.4836926     
   2627229899.6193991     
   2616634430.0155549     
   2614133544.9635515     
   2619772683.4717736     
   2648400166.1693754     
   2624825853.3863778     
   2609054398.8686361     
   2601128651.8250465     
   2601092343.3462787     
   2676486427.1391802     
   2647836836.1817031     
   2626842936.9406476     
   2613569189.2671080     
   2608085147.3587422     
   2729627260.0418630     
   2695908932.8602839     
   2669807776.1766596     
   2651417242.2459788     
   2640857661.7392778     
   2663296906.0910316     
   2662311937.2248816     
   2668044923.7801914     
   2681662254.2068515     
   2705560911.1192565     
   2619772683.4717736     
   2634617154.0959392     
   2657813541.7882934     
   2689669165.5848894     
   2730860685.1031199     
   2601092343.3462787     
   2619251385.1799273     
   2646912943.3576179     
   2684104800.0967150     
   2730863252.0553460     
   2608085147.3587422     
   2616843666.9132333     
   2635721139.4733558     
   2665063469.6192913     
   2705325750.3556504     
   2640857661.7392778     
   2627888862.6293526     
   2624941396.1700721     
   2633260209.6288066     
   2654823325.7505245     
   1955346064.3407254     
   2119399001.0175564     
   2284804243.4105306     
   2448598032.3916245     
   2608819032.9496679     
   2298803099.8114986     
   2449495763.0965338     
   2604903117.3064775     
   2763100883.3625278     
   2922657866.5625820     
   2694735048.6623359     
   2830516226.9096980     
   2973601146.0715003     
   3122907253.6631355     
   3277523468.5441599     
   3137936312.1867223     
   3255506893.7384377     
   3382486962.7708459     
   3518408488.5175881     
   3662814674.4040604     
   3624919917.5080996     
   3719676101.0277262     
   3825677475.5455251     
   3942862846.5571284     
   4071141528.5950456     
   2608819032.9496679     
   2676758942.9133544     
   2749227921.3725705     
   2825722468.7145224     
   2905892293.0547628     
   2922657866.5625820     
   2975587669.6229396     
   3030760184.0650477     
   3087495757.8336768     
   3145263035.9228225     
   3277523468.5441599     
   3320744964.1603084     
   3364224006.9799714     
   3407136941.4420300     
   3448805139.2949948     
   3662814674.4040604     
   3702178374.6528745     
   3740170123.6779938     
   3775886898.2495155     
   3808576128.9084935     
   4071141528.5950456     
   4112502985.1998644     
   4151216615.8513184     
   4186376800.1044359     
   4217245664.0171318     
   2905892293.0547628     
   2920975883.8548627     
   2937352184.2459936     
   2954961731.7214160     
   2973762922.6520505     
   3145263035.9228225     
   3141750228.7912450     
   3141798995.0660110     
   3145305000.9315844     
   3152252573.5196142     
   3448805139.2949948     
   3422794739.5908713     
   3401846621.1970944     
   3385728899.0753326     
   3374423160.7199187     
   3808576128.9084935     
   3755803477.5296292     
   3709006403.5626268     
   3667711664.1460924     
   3631819977.1320324     
   4217245664.0171318     
   4133153880.7956896     
   4055572946.2320333     
   3983658889.0787511     
   3917114113.4245319     
   2973762922.6520505     
   2942543497.8902807     
   2919182815.1115847     
   2903834937.0377660     
   2896710529.6264987     
   3152252573.5196142     
   3107296713.0627990     
   3068942308.9678841     
   3037408264.0474391     
   3012966679.5076933     
   3374423160.7199187     
   3315844166.8979702     
   3262728540.3193760     
   3215320018.7586694     
   3173912035.9763765     
   3631819977.1320324     
   3560396562.2015491     
   3493456717.9227009     
   3431237530.4988189     
   3374020735.3261490     
   3917114113.4245319     
   3833990454.6117096     
   3754549083.4926796     
   3679000902.7934861     
   3607595230.8371134     
   2896710529.6264987     
   2865613829.5948405     
   2840428890.4958558     
   2821286207.9484448     
   2808325927.0297914     
   3012966679.5076933     
   2970763393.5272245     
   2934414101.8141551     
   2904109608.2611146     
   2880063282.9191217     
   3173912035.9763765     
   3119003282.8902192     
   3069698663.4375091     
   3026241416.7883959     
   2988915040.5011411     
   3374020735.3261490     
   3305203589.8604345     
   3241584945.9117651     
   3183442914.1782951     
   3131115845.1504531     
   3607595230.8371134     
   3523979313.4852858     
   3445046097.1920075     
   3371086309.7779484     
   3302470364.6880345     
   2808325927.0297914     
   2775342123.0951271     
   2751052727.2610736     
   2735720714.9677382     
   2729627260.0418630     
   2880063282.9191217     
   2833560575.8192234     
   2795380552.1576848     
   2765888920.0280094     
   2745480219.7662692     
   2988915040.5011411     
   2927700461.2152071     
   2874328836.8641262     
   2829254819.8802161     
   2792979033.7226100     
   3131115845.1504531     
   3054549274.9002342     
   2985259210.7063131     
   2923763805.7908731     
   2870647655.9146833     
   3302470364.6880345     
   3210343254.2798309     
   3124876779.0705800     
   3046622712.4512682     
   2976219137.5015922     
   2729627260.0418630     
   2695908932.8602839     
   2669807776.1766596     
   2651417242.2459788     
   2640857661.7392778     
   2745480219.7662692     
   2705353452.6198702     
   2672335331.1410208     
   2646589036.9722285     
   2628291229.8988099     
   2792979033.7226100     
   2743777443.7029443     
   2701004907.0070200     
   2664907425.1091466     
   2635746099.0323534     
   2870647655.9146833     
   2810403290.9630318     
   2755727125.9464583     
   2706943461.2117171     
   2664407864.5555568     
   2976219137.5015922     
   2903697630.8641176     
   2835721390.0393972     
   2772673049.3267465     
   2714993966.8218050     
   2640857661.7392778     
   2627888862.6293526     
   2624941396.1700721     
   2633260209.6288066     
   2654823325.7505245     
   2628291229.8988099     
   2588968343.9817042     
   2559356008.9777999     
   2540329301.8321123     
   2533075440.2313967     
   2635746099.0323534     
   2575231071.0359502     
   2524284353.7734461     
   2483555923.9969749     
   2453762734.4141407     
   2664407864.5555568     
   2587802969.0568600     
   2520864561.8653398     
   2464178007.2229123     
   2418378250.3445945     
   2714993966.8218050     
   2627028520.6863146     
   2549157735.7681680     
   2482068142.8504581     
   2426729905.8864307     
   3624919917.5080996     
   3719676101.0277262     
   3825677475.5455251     
   3942862846.5571284     
   4071141528.5950456     
   4134051176.0016799     
   4224363164.0590916     
   4320593587.2168379     
   4421087733.5102539     
   4524392881.1264935     
   4643383284.7213659     
   4755521387.4197569     
   4868785073.6781769     
   4980540158.6953707     
   5088861796.5713120     
   5151395423.0353117     
   5311325829.8698130     
   5467893685.1573782     
   5618202297.3430214     
   5760784263.1760101     
   5657823669.5360832     
   5890938506.3329039     
   6116423994.7598152     
   6331817724.6255169     
   6536892534.9461126     
   4071141528.5950456     
   4112502985.1998644     
   4151216615.8513184     
   4186376800.1044359     
   4217245664.0171318     
   4524392881.1264935     
   4539105169.3202972     
   4558483446.8214455     
   4580043833.0563869     
   4602061117.7372389     
   5088861796.5713120     
   5054105550.4109020     
   5029857983.2370510     
   5010911676.5862370     
   4994064318.4571371     
   5760784263.1760101     
   5652177603.2399635     
   5559571812.1203804     
   5473908007.8125248     
   5389644424.8767281     
   6536892534.9461126     
   6328727139.0005684     
   6142753098.7430086     
   5965069568.0969267     
   5786668099.1379118     
   4217245664.0171318     
   4133153880.7956896     
   4055572946.2320333     
   3983658889.0787511     
   3917114113.4245319     
   4602061117.7372389     
   4493918073.1176462     
   4390010126.8123693     
   4290023237.0793295     
   4193867810.2033525     
   4994064318.4571371     
   4867153771.9783764     
   4743438773.9432039     
   4622887628.0595903     
   4505541120.1116085     
   5389644424.8767281     
   5248891844.4372654     
   5111351786.5742893     
   4977065045.3926878     
   4846123886.3492937     
   5786668099.1379118     
   5636459613.5935841     
   5490419459.9712868     
   5348461502.2890406     
   5210629481.7481546     
   3917114113.4245319     
   3833990454.6117096     
   3754549083.4926796     
   3679000902.7934861     
   3607595230.8371134     
   4193867810.2033525     
   4097920785.6240458     
   4005225789.4839730     
   3916000437.1478100     
   3830523331.8251982     
   4505541120.1116085     
   4395156764.7675056     
   4287397584.8676009     
   4182457604.7831855     
   4080618805.9614863     
   4846123886.3492937     
   4719797247.8260117     
   4595337398.1695595     
   4472882901.7057323     
   4352688126.6187906     
   5210629481.7481546     
   5066939316.6537027     
   4924282347.3143129     
   4782710683.9802465     
   4642418397.6628113     
   3607595230.8371134     
   3523979313.4852858     
   3445046097.1920075     
   3371086309.7779484     
   3302470364.6880345     
   3830523331.8251982     
   3733399218.5050702     
   3640033450.2219982     
   3550680073.4718528     
   3465660486.1745143     
   4080618805.9614863     
   3971241557.0422812     
   3864902893.1380758     
   3761810117.3079605     
   3662225538.8812323     
   4352688126.6187906     
   4232368055.0289264     
   4114569303.6006103     
   3999451184.0034113     
   3887217550.6232181     
   4642418397.6628113     
   4512428982.8205414     
   4384631121.8192482     
   4259139399.4081607     
   4136105579.9289522     
   3302470364.6880345     
   3210343254.2798309     
   3124876779.0705800     
   3046622712.4512682     
   2976219137.5015922     
   3465660486.1745143     
   3357177136.4430952     
   3254270256.0324302     
   3157487629.9800253     
   3067485264.7271457     
   3662225538.8812323     
   3537699678.5513721     
   3417642359.8206291     
   3302552143.9983702     
   3193047020.0175676     
   3887217550.6232181     
   3747261210.2363458     
   3610708466.2451034     
   3477977695.3471088     
   3349606466.2744412     
   4136105579.9289522     
   3981483333.1510797     
   3829287821.5844712     
   3679841790.4444590     
   3533577873.8943996     
   2976219137.5015922     
   2903697630.8641176     
   2835721390.0393972     
   2772673049.3267465     
   2714993966.8218050     
   3067485264.7271457     
   2981608167.3679552     
   2899700494.1939082     
   2822100910.7131000     
   2749206937.4619122     
   3193047020.0175676     
   3094950716.9249392     
   3000299503.7315035     
   2909374741.2385664     
   2822514981.7702465     
   3349606466.2744412     
   3240440293.8649964     
   3134285689.4881148     
   3031364291.6690145     
   2931952637.7258444     
   3533577873.8943996     
   3414380748.2212677     
   3297870052.5195684     
   3184213990.3154635     
   3073634572.9652705     
   2714993966.8218050     
   2627028520.6863146     
   2549157735.7681680     
   2482068142.8504581     
   2426729905.8864307     
   2749206937.4619122     
   2648580388.6668019     
   2556859680.2466335     
   2474875077.9414597     
   2403599857.6622872     
   2822514981.7702465     
   2704763066.5256715     
   2593844410.6740141     
   2490726202.9728560     
   2396556896.5789771     
   2931952637.7258444     
   2794543948.7024112     
   2661137444.2374353     
   2532731209.6220436     
   2410686527.5655432     
   3073634572.9652705     
   2915847081.5322514     
   2758775438.7747054     
   2603303893.5157752     
   2450953143.5814028     
   5657823669.5360832     
   5890938506.3329039     
   6116423994.7598152     
   6331817724.6255169     
   6536892534.9461126     
   6491713793.7748632     
   6586938050.1862345     
   6757494019.1228991     
   6961296369.3405600     
   7171684092.9681530     
   7982387953.0335884     
   7735036785.0396900     
   7669247826.7398672     
   7669712470.5344200     
   7666500082.4207821     
   10130293563.502708     
   9322075796.6164856     
   8826496299.1998005     
   8443722067.4845743     
   8035948596.5940475     
   12935517360.939152     
   11340769640.708542     
   10210406901.073502     
   9273090229.6976700     
   8304391878.8106041     
   6536892534.9461126     
   6328727139.0005684     
   6142753098.7430086     
   5965069568.0969267     
   5786668099.1379118     
   7171684092.9681530     
   6910963101.6056328     
   6658153568.9929790     
   6409398959.4555111     
   6161554662.5933790     
   7666500082.4207821     
   7381124918.8386288     
   7101157198.3225498     
   6826673512.6058817     
   6557876424.1150455     
   8035948596.5940475     
   7746864265.6433926     
   7473461526.9207878     
   7213781310.4410505     
   6967829253.8826866     
   8304391878.8106041     
   8020745535.4071255     
   7779203344.7043076     
   7569088780.4926262     
   7385433272.2391005     
   5786668099.1379118     
   5636459613.5935841     
   5490419459.9712868     
   5348461502.2890406     
   5210629481.7481546     
   6161554662.5933790     
   6012922799.9609175     
   5865597260.1932411     
   5719615683.3405504     
   5575032870.8019247     
   6557876424.1150455     
   6407786821.4124327     
   6256046692.0267019     
   6102623264.6038733     
   5947544926.3427401     
   6967829253.8826866     
   6814593157.4118948     
   6656734551.6529160     
   6493971227.1040058     
   6326252208.9425955     
   7385433272.2391005     
   7228345581.5849304     
   7063755615.0179920     
   6890974343.7626562     
   6709817049.7426109     
   5210629481.7481546     
   5066939316.6537027     
   4924282347.3143129     
   4782710683.9802465     
   4642418397.6628113     
   5575032870.8019247     
   5413443553.6267834     
   5252867300.1275349     
   5093354404.8971663     
   4935019922.0412645     
   5947544926.3427401     
   5771524453.0074835     
   5596944538.1124163     
   5423836301.3987408     
   5252268053.2700243     
   6326252208.9425955     
   6138779015.6131897     
   5953562770.0056267     
   5770586623.3796711     
   5589882692.3298082     
   6709817049.7426109     
   6513389559.4599876     
   6320385079.5143251     
   6130698638.9368114     
   5944316166.9840317     
   4642418397.6628113     
   4512428982.8205414     
   4384631121.8192482     
   4259139399.4081607     
   4136105579.9289522     
   4935019922.0412645     
   4796371246.4971800     
   4658944427.8133907     
   4522831723.0524416     
   4388157238.3440714     
   5252268053.2700243     
   5104971278.7793570     
   4957948926.4597445     
   4811259646.1433916     
   4664993583.0481262     
   5589882692.3298082     
   5434125031.6073046     
   5277741180.6009674     
   5120749233.0363007     
   4963202931.4383631     
   5944316166.9840317     
   5780412066.3346481     
   5615046011.1614733     
   5448192279.9151239     
   5279869171.2795677     
   4136105579.9289522     
   3981483333.1510797     
   3829287821.5844712     
   3679841790.4444590     
   3533577873.8943996     
   4388157238.3440714     
   4218304036.7206149     
   4050370613.6360388     
   3884589467.0706754     
   3721287517.7751374     
   4664993583.0481262     
   4480852270.6160011     
   4298258822.8128653     
   4117366221.1114869     
   3938409557.7509336     
   4963202931.4383631     
   4765426256.9973431     
   4568941448.9807520     
   4373835338.3465519     
   4180269116.7948508     
   5279869171.2795677     
   5068842393.6776533     
   4858944274.7053366     
   4650208399.1197653     
   4442739760.6802597     
   3533577873.8943996     
   3414380748.2212677     
   3297870052.5195684     
   3184213990.3154635     
   3073634572.9652705     
   3721287517.7751374     
   3592324569.4814496     
   3464929394.7713747     
   3339245160.4073954     
   3215468062.8175926     
   3938409557.7509336     
   3799323890.1765528     
   3660653171.0042243     
   3522502644.4753351     
   3385038237.1274390     
   4180269116.7948508     
   4031072052.8024855     
   3881163671.9673266     
   3730604390.4339566     
   3579530278.4916224     
   4442739760.6802597     
   4283716582.7619181     
   4122931488.4808893     
   3960400038.6817770     
   3796235572.2650948     
   3073634572.9652705     
   2915847081.5322514     
   2758775438.7747054     
   2603303893.5157752     
   2450953143.5814028     
   3215468062.8175926     
   3040284609.1768932     
   2866743435.7281871     
   2695183334.0687623     
   2526117382.4905467     
   3385038237.1274390     
   3197711472.6549439     
   3013604443.4809980     
   2832978474.2746215     
   2656291651.1180162     
   3579530278.4916224     
   3382943231.5996814     
   3191524598.8887134     
   3005792580.3864608     
   2826887825.9898028     
   3796235572.2650948     
   3591135742.6503363     
   3393374172.5378704     
   3203952182.1366024     
   3025218788.7834883     
 </DataArray>
 <DataArray  type="Float64" Name="strain" NumberOfComponents="3" format="ascii">
  0.20347571179360441        0.0000000000000000       0.12540254184904942     
  0.18665056954778292       -2.7322941166808189E-002   7.4353754195834523E-002
  0.16982542730196148       -4.4673738211013538E-002   3.5135540937512144E-002
  0.15300028505614002       -5.2052391132616019E-002   7.7479020740822968E-003
  0.13617514281031853       -4.9458899931615674E-002  -7.8091623944550603E-003
  0.15985024366848571        0.0000000000000000        9.6447911450300586E-002
  0.15317457125407999       -2.1843380104547304E-002   6.2692381878539261E-002
  0.14649889883967429       -3.6173025279413101E-002   3.7405217574716945E-002
  0.13982322642526854       -4.2988935524597392E-002   2.0586418538833633E-002
  0.13314755401086287       -4.2291110840100191E-002   1.2235984770889261E-002
  0.12645619866215518        0.0000000000000000        7.4202046710273306E-002
  0.12656778695221169       -1.6363819042286412E-002   5.5281366027044233E-002
  0.12667937524226822       -2.7672312347812662E-002   4.1466841484800621E-002
  0.12679096353232472       -3.3925479916578745E-002   3.2758473083542461E-002
  0.12690255182238122       -3.5123321748584679E-002   2.9156260823269789E-002
  0.10329357677461283        0.0000000000000000        5.8664947628967595E-002
  0.10683021664217804       -1.0884257980025524E-002   5.2120706641349428E-002
  0.11036685650974325       -1.9171599416212229E-002   4.7320412667763170E-002
  0.11390349637730846       -2.4862024308560111E-002   4.4264065708208879E-002
  0.11744013624487364       -2.7955532657069172E-002   4.2951665762686490E-002
   9.0362378005858668E-002   0.0000000000000000        4.9836614206383439E-002
   9.3961860323979018E-002  -5.4046969177646339E-003   5.3210403721454830E-002
   9.7561342642099397E-002  -1.0670886484611789E-002   5.4965931123604629E-002
  0.10116082496021975       -1.5798568700541468E-002   5.5103196412832803E-002
  0.10476030727834011       -2.0787743565553671E-002   5.3622199589139372E-002
  0.13617514281031853       -4.9458899931615674E-002  -7.8091623944550603E-003
  0.13295758559773985       -4.2926410777233470E-002  -3.4003666819889464E-003
  0.12974002838516119       -3.8488069838690520E-002  -3.9827546138957587E-004
  0.12652247117258253       -3.6143877115986600E-002   1.1971112673433357E-003
  0.12330491396000387       -3.5893832609121962E-002   1.3857935042095593E-003
  0.13314755401086287       -4.2291110840100191E-002   1.2235984770889261E-002
  0.12891016255328136       -3.8426647265892726E-002   1.2176934658143054E-002
  0.12467277109569988       -3.5742640841946227E-002   1.1484920547257860E-002
  0.12043537963811839       -3.4239091568260736E-002   1.0159942438233611E-002
  0.11619798818053689       -3.3915999444836226E-002   8.2020003310703110E-003
  0.12690255182238122       -3.5123321748584679E-002   2.9156260823269789E-002
  0.12241906661352452       -3.3926883754551912E-002   2.5543055950889515E-002
  0.11793558140466774       -3.2997211845201990E-002   2.2070627574097789E-002
  0.11345209619581098       -3.2334306020534831E-002   1.8738975692894594E-002
  0.10896861098695425       -3.1938166280550503E-002   1.5548100307279954E-002
  0.11744013624487364       -2.7955532657069172E-002   4.2951665762686490E-002
  0.11348429777846925       -2.9427120243211133E-002   3.6697997196250352E-002
  0.10952845931206477       -3.0251782848457712E-002   3.1358845619130320E-002
  0.10557262084566038       -3.0429520472808926E-002   2.6934211031326406E-002
  0.10161678237925593       -2.9960333116264747E-002   2.3424093432838605E-002
  0.10476030727834011       -2.0787743565553671E-002   5.3622199589139372E-002
  0.10210585604811559       -2.4927356731870354E-002   4.5641758394225504E-002
   9.9451404817891026E-002  -2.7506353851713464E-002   3.9349574682355372E-002
   9.6796953587666504E-002  -2.8524734925083055E-002   3.4745648453528892E-002
   9.4142502357441940E-002  -2.7982499951979017E-002   3.1829979707746078E-002
  0.12330491396000387       -3.5893832609121962E-002   1.3857935042095593E-003
  0.12040909649805870       -3.6388445075198575E-002   6.6060238501911006E-004
  0.11751327903611361       -3.6278223271318362E-002   1.0874137075175816E-004
  0.11461746157416848       -3.5563167197481593E-002  -2.6978953859264215E-004
  0.11172164411222335       -3.4243276853688054E-002  -4.7499034301390353E-004
  0.11619798818053689       -3.3915999444836226E-002   8.2020003310703110E-003
  0.11346401155633305       -3.3989003376169391E-002   7.8394181859336026E-003
  0.11073003493212918       -3.3673742266756852E-002   7.6271876113564799E-003
  0.10799605830792534       -3.2970216116598491E-002   7.5653086073386860E-003
  0.10526208168372153       -3.1878424925694537E-002   7.6537811738807138E-003
  0.10896861098695425       -3.1938166280550503E-002   1.5548100307279954E-002
  0.10637349666612812       -3.1589561677140228E-002   1.5331557906986142E-002
  0.10377838234530207       -3.1069261262195173E-002   1.5242388542888164E-002
  0.10118326802447594       -3.0377265035715445E-002   1.5280592214986141E-002
   9.8588153703649831E-002  -2.9513572997700993E-002   1.5446168923280254E-002
  0.10161678237925593       -2.9960333116264747E-002   2.3424093432838605E-002
   9.9137551827444020E-002  -2.9190119978111082E-002   2.3137021548176456E-002
   9.6658321275632134E-002  -2.8464780257633548E-002   2.2954344165346748E-002
   9.4179090723820233E-002  -2.7784313954832371E-002   2.2876061284349526E-002
   9.1699860172008318E-002  -2.7148721069707463E-002   2.2902172905184693E-002
   9.4142502357441940E-002  -2.7982499951979017E-002   3.1829979707746078E-002
   9.1756177040280704E-002  -2.6790678279081881E-002   3.1255809109504748E-002
   8.9369851723119509E-002  -2.5860299253071983E-002   3.0763054478732316E-002
   8.6983526405958259E-002  -2.5191362873949380E-002   3.0351715815428913E-002
   8.4597201088797064E-002  -2.4783869141713932E-002   3.0021793119594242E-002
  0.11172164411222335       -3.4243276853688054E-002  -4.7499034301390353E-004
  0.10856332157012261       -3.2727276740668332E-002  -2.3834113024479020E-004
  0.10540499902802178       -3.1423891359152564E-002   8.0498804457790341E-005
  0.10224667648592096       -3.0333120709140984E-002   4.8152946109394912E-004
   9.9088353943820207E-002  -2.9454964790633476E-002   9.6475083966318653E-004
  0.10526208168372153       -3.1878424925694537E-002   7.6537811738807138E-003
  0.10221086676505409       -3.0659599238834018E-002   7.5275763464116296E-003
   9.9159651846386587E-002  -2.9574969600806203E-002   7.5333960438755398E-003
   9.6108436927719088E-002  -2.8624536011611180E-002   7.6712402662727636E-003
   9.3057222009051643E-002  -2.7808298471248882E-002   7.9411090136033702E-003
   9.8588153703649831E-002  -2.9513572997700993E-002   1.5446168923280254E-002
   9.5693880211415533E-002  -2.8591921736999870E-002   1.5035528738244139E-002
   9.2799606719181221E-002  -2.7726047842459960E-002   1.4806746881141072E-002
   8.9905333226946896E-002  -2.6915951314081379E-002   1.4759823351971121E-002
   8.7011059734712598E-002  -2.6161632151864123E-002   1.4894758150734350E-002
   9.1699860172008318E-002  -2.7148721069707463E-002   2.2902172905184693E-002
   8.9012361909207000E-002  -2.6524244235165584E-002   2.2285516045253109E-002
   8.6324863646405695E-002  -2.5877126084113685E-002   2.1900551316254464E-002
   8.3637365383604348E-002  -2.5207366616551659E-002   2.1747278718188625E-002
   8.0949867120803057E-002  -2.4514965832479446E-002   2.1825698251055618E-002
   8.4597201088797064E-002  -2.4783869141713932E-002   3.0021793119594242E-002
   8.2166311858428515E-002  -2.4456566733331381E-002   2.9277538267438605E-002
   7.9735422628059979E-002  -2.4028204325767279E-002   2.8814809349215612E-002
   7.7304533397691472E-002  -2.3498781919021834E-002   2.8633606364925276E-002
   7.4873644167322950E-002  -2.2868299513094742E-002   2.8733929314567835E-002
   9.9088353943820207E-002  -2.9454964790633476E-002   9.6475083966318653E-004
   9.6342991658444566E-002  -2.8643788017321176E-002   6.6098487365195968E-004
   9.3597629373068980E-002  -2.7753954802894137E-002   5.1011047280313804E-004
   9.0852267087693339E-002  -2.6785465147352673E-002   5.1212763711620812E-004
   8.8106904802317754E-002  -2.5738319050696901E-002   6.6703636659148913E-004
   9.3057222009051643E-002  -2.7808298471248882E-002   7.9411090136033702E-003
   9.0462860820772734E-002  -2.7032783861947435E-002   7.6861255538686613E-003
   8.7868499632493824E-002  -2.6204519065935628E-002   7.5802527231653427E-003
   8.5274138444214886E-002  -2.5323504083212975E-002   7.6234905214931439E-003
   8.2679777255935949E-002  -2.4389738913779602E-002   7.8158389488525160E-003
   8.7011059734712598E-002  -2.6161632151864123E-002   1.4894758150734350E-002
   8.4563918707399474E-002  -2.5421779706574069E-002   1.4662650942872502E-002
   8.2116777680086267E-002  -2.4655083328977104E-002   1.4575873427910960E-002
   7.9669636652773074E-002  -2.3861543019073051E-002   1.4634425605849780E-002
   7.7222495625459964E-002  -2.3041158776862025E-002   1.4838307476689044E-002
   8.0949867120803057E-002  -2.4514965832479446E-002   2.1825698251055618E-002
   7.8646165318324662E-002  -2.3810775551200571E-002   2.1590561040663189E-002
   7.6342463515846393E-002  -2.3105647592018476E-002   2.1496972587039833E-002
   7.4038761713368054E-002  -2.2399581954933238E-002   2.1544932890185782E-002
   7.1735059910889715E-002  -2.1692578639944532E-002   2.1734441950101289E-002
   7.4873644167322950E-002  -2.2868299513094742E-002   2.8733929314567835E-002
   7.2709600653548506E-002  -2.2199771395827114E-002   2.8469855847240599E-002
   7.0545557139774062E-002  -2.1556211855060035E-002   2.8343550200551751E-002
   6.8381513625999618E-002  -2.0937620890793270E-002   2.8355012374501561E-002
   6.6217470112225202E-002  -2.0343998503027094E-002   2.8504242369089550E-002
   8.8106904802317754E-002  -2.5738319050696901E-002   6.6703636659148913E-004
   8.4571812487599041E-002  -2.4677331091129351E-002   5.0252434333625251E-004
   8.1036720172880383E-002  -2.3667315846852138E-002   5.3343563007030026E-004
   7.7501627858161698E-002  -2.2708273317865686E-002   7.5977022679360462E-004
   7.3966535543443013E-002  -2.1800203504169446E-002   1.1815281335055827E-003
   8.2679777255935949E-002  -2.4389738913779602E-002   7.8158389488525160E-003
   7.9345151518256107E-002  -2.3443819287105955E-002   7.5865091147926111E-003
   7.6010525780576266E-002  -2.2526340932661676E-002   7.5626891248213590E-003
   7.2675900042896438E-002  -2.1637303850447924E-002   7.7443789789387318E-003
   6.9341274305216583E-002  -2.0776708040463276E-002   8.1315786771445353E-003
   7.7222495625459964E-002  -2.3041158776862025E-002   1.4838307476689044E-002
   7.4098422998918362E-002  -2.2210307483082226E-002   1.4566691274885246E-002
   7.0974350372376774E-002  -2.1385366018471422E-002   1.4510671451269386E-002
   6.7850277745835158E-002  -2.0566334383029936E-002   1.4670248005841678E-002
   6.4726205119293584E-002  -1.9753212576757384E-002   1.5045420938601839E-002
   7.1735059910889715E-002  -2.1692578639944532E-002   2.1734441950101289E-002
   6.8831626929585832E-002  -2.0976795679058663E-002   2.1443070823614289E-002
   6.5928193948281907E-002  -2.0244391104281119E-002   2.1377382609414606E-002
   6.3024760966977997E-002  -1.9495364915611949E-002   2.1537377307502444E-002
   6.0121327985674107E-002  -1.8729717113051353E-002   2.1923054917877646E-002
   6.6217470112225202E-002  -2.0343998503027094E-002   2.8504242369089550E-002
   6.3544763310258434E-002  -1.9743283875034989E-002   2.8215647760979706E-002
   6.0872056508291736E-002  -1.9103416190090650E-002   2.8162822599256926E-002
   5.8199349706325003E-002  -1.8424395448194061E-002   2.8345766883920889E-002
   5.5526642904358270E-002  -1.7706221649345377E-002   2.8764480614971943E-002
   7.3966535543443013E-002  -2.1800203504169446E-002   1.1815281335055827E-003
   7.1355246671585881E-002  -2.0867040247715796E-002   9.0397417083520892E-004
   6.8743957799728639E-002  -1.9832717390457832E-002   8.2237438062837676E-004
   6.6132668927871424E-002  -1.8697234932394516E-002   9.3672876288600215E-004
   6.3521380056014265E-002  -1.7460592873526637E-002   1.2470373176075578E-003
   6.9341274305216583E-002  -2.0776708040463276E-002   8.1315786771445353E-003
   6.6915814252786476E-002  -1.9913084121628954E-002   7.9219199591077372E-003
   6.4490354200356315E-002  -1.9014962712864569E-002   7.8879647074610038E-003
   6.2064894147926264E-002  -1.8082343814170662E-002   8.0297129222048347E-003
   5.9639434095496102E-002  -1.7115227425546387E-002   8.3471646033379532E-003
   6.4726205119293584E-002  -1.9753212576757384E-002   1.5045420938601839E-002
   6.2466323180216610E-002  -1.8959127995542002E-002   1.4836995354324145E-002
   6.0206441241139622E-002  -1.8197208035271834E-002   1.4784022530362304E-002
   5.7946559302062585E-002  -1.7467452695946691E-002   1.4886502466716647E-002
   5.5686677362985632E-002  -1.6769861977566747E-002   1.5144435163387066E-002
   6.0121327985674107E-002  -1.8729717113051353E-002   2.1923054917877646E-002
   5.8006773453876281E-002  -1.8005171869455106E-002   2.1649200356483669E-002
   5.5892218922078449E-002  -1.7379453357678834E-002   2.1510547849332123E-002
   5.3777664390280581E-002  -1.6852561577722778E-002   2.1507097396422360E-002
   5.1663109858482797E-002  -1.6424496529586691E-002   2.1638848997754957E-002
   5.5526642904358270E-002  -1.7706221649345377E-002   2.8764480614971943E-002
   5.3537165073765547E-002  -1.7051215743368237E-002   2.8358534965586935E-002
   5.1547687243172852E-002  -1.6561698680085876E-002   2.8067540664370255E-002
   4.9558209412580143E-002  -1.6237670459498820E-002   2.7891497711321558E-002
   4.7568731581987433E-002  -1.6079131081606968E-002   2.7830406106441052E-002
   6.3521380056014265E-002  -1.7460592873526637E-002   1.2470373176075578E-003
   6.0089888684263348E-002  -1.5848646447708670E-002   2.2919356635542343E-004
   5.6658397312512487E-002  -1.3587250888795172E-002  -6.8331499759838321E-004
   5.3226905940761515E-002  -1.0676406196786468E-002  -1.4904883742541952E-003
   4.9795414569010710E-002  -7.1161123716829700E-003  -2.1923265636116795E-003
   5.9639434095496102E-002  -1.7115227425546387E-002   8.3471646033379532E-003
   5.6329996311544117E-002  -1.5909297494914099E-002   7.8215178441855548E-003
   5.3020558527592021E-002  -1.4260237970194989E-002   7.4346430733316926E-003
   4.9711120743640091E-002  -1.2168048851389543E-002   7.1865402907779763E-003
   4.6401682959687940E-002  -9.6327301384966368E-003   7.0772094965241283E-003
   5.5686677362985632E-002  -1.6769861977566747E-002   1.5144435163387066E-002
   5.2532729967833786E-002  -1.5969948542120027E-002   1.4904665857325139E-002
   4.9378782572681912E-002  -1.4933225051595153E-002   1.4837105340563858E-002
   4.6224835177529955E-002  -1.3659691505991844E-002   1.4941753613103397E-002
   4.3070887782378109E-002  -1.2149347905310304E-002   1.5218610674943900E-002
   5.1663109858482797E-002  -1.6424496529586691E-002   2.1638848997754957E-002
   4.8698089653132375E-002  -1.6030599589325928E-002   2.1478637605775244E-002
   4.5733069447781979E-002  -1.5606212132995033E-002   2.1524071804097700E-002
   4.2768049242431536E-002  -1.5151334160594309E-002   2.1775151592722378E-002
   3.9803029037081175E-002  -1.4665965672123749E-002   2.2231876971649217E-002
   4.7568731581987433E-002  -1.6079131081606968E-002   2.7830406106441052E-002
   4.4826075367439877E-002  -1.6091250636531773E-002   2.7543433089535219E-002
   4.2083419152892265E-002  -1.6279199214394885E-002   2.7495542463932987E-002
   3.9340762938344723E-002  -1.6642976815197101E-002   2.7686734229634413E-002
   3.6598106723797152E-002  -1.7182583438937415E-002   2.8117008386638886E-002
   9.0362378005858668E-002   0.0000000000000000        4.9836614206383439E-002
   9.3961860323979018E-002  -5.4046969177646339E-003   5.3210403721454830E-002
   9.7561342642099397E-002  -1.0670886484611789E-002   5.4965931123604629E-002
  0.10116082496021975       -1.5798568700541468E-002   5.5103196412832803E-002
  0.10476030727834011       -2.0787743565553671E-002   5.3622199589139372E-002
   8.2425026903317336E-002   0.0000000000000000        4.4784566143831750E-002
   8.4635306832565316E-002  -4.5744255727817283E-003   4.8268661231146905E-002
   8.6845586761813309E-002  -9.0374112273668896E-003   5.0592613653638922E-002
   8.9055866691061289E-002  -1.3388956963755482E-002   5.1756423411307803E-002
   9.1266146620309296E-002  -1.7629062781947508E-002   5.1760090504153485E-002
   7.4243948014413516E-002   0.0000000000000000        4.0576323142623417E-002
   7.5523145002887593E-002  -3.7441542277988236E-003   4.4143656369461423E-002
   7.6802341991361656E-002  -7.4039359701219883E-003   4.7008966379574732E-002
   7.8081538979835732E-002  -1.0979345226969498E-002   4.9172253172963393E-002
   7.9360735968309809E-002  -1.4470381998341348E-002   5.0633516749627357E-002
   6.5819141339147194E-002   0.0000000000000000        3.7211885202758449E-002
   6.6625374834945808E-002  -2.9138828828159180E-003   4.0835389136398385E-002
   6.7431608330744450E-002  -5.7704607128770870E-003   4.4214989301412114E-002
   6.8237841826543050E-002  -8.5697334901835148E-003   4.7350685697799634E-002
   6.9044075322341691E-002  -1.1311701214735187E-002   5.0242478325560912E-002
   5.7150606877518370E-002   0.0000000000000000        3.4691252324236838E-002
   5.7941996328740010E-002  -2.0836115378330133E-003   3.8343859531957791E-002
   5.8733385779961650E-002  -4.1369854556321875E-003   4.2210682419151019E-002
   5.9524775231183297E-002  -6.1601217533975312E-003   4.6291720985816485E-002
   6.0316164682404937E-002  -8.1530204311290287E-003   5.0586975231954184E-002
  0.10476030727834011       -2.0787743565553671E-002   5.3622199589139372E-002
  0.10210585604811559       -2.4927356731870354E-002   4.5641758394225504E-002
   9.9451404817891026E-002  -2.7506353851713464E-002   3.9349574682355372E-002
   9.6796953587666504E-002  -2.8524734925083055E-002   3.4745648453528892E-002
   9.4142502357441940E-002  -2.7982499951979017E-002   3.1829979707746078E-002
   9.1266146620309296E-002  -1.7629062781947508E-002   5.1760090504153485E-002
   9.0062296011157755E-002  -2.1203634591372270E-002   4.6520864526206136E-002
   8.8858445402006214E-002  -2.3558578301459018E-002   4.2494582307361098E-002
   8.7654594792854673E-002  -2.4693893912207821E-002   3.9681243847618335E-002
   8.6450744183703118E-002  -2.4609581423618646E-002   3.8080849146978027E-002
   7.9360735968309809E-002  -1.4470381998341348E-002   5.0633516749627357E-002
   7.9132172256289948E-002  -1.7479912450874178E-002   4.7794518041510851E-002
   7.8903608544270074E-002  -1.9610802751204595E-002   4.5693149368555362E-002
   7.8675044832250171E-002  -2.0863052899332626E-002   4.4329410730760868E-002
   7.8446481120230310E-002  -2.1236662895258246E-002   4.3703302128127376E-002
   6.9044075322341691E-002  -1.1311701214735187E-002   5.0242478325560912E-002
   6.9315484783512155E-002  -1.3756190310376079E-002   4.9462718940139705E-002
   6.9586894244682618E-002  -1.5663027200950145E-002   4.8945275865938193E-002
   6.9858303705853053E-002  -1.7032211886457409E-002   4.8690149102956354E-002
   7.0129713167023530E-002  -1.7863744366897846E-002   4.8697338651194119E-002
   6.0316164682404937E-002  -8.1530204311290287E-003   5.0586975231954184E-002
   6.0612233592824395E-002  -1.0032468169878008E-002   5.1525467222092697E-002
   6.0908302503243847E-002  -1.1715251650695716E-002   5.2250961799509568E-002
   6.1204371413663305E-002  -1.3201370873582214E-002   5.2763458964204757E-002
   6.1500440324082750E-002  -1.4490825838537461E-002   5.3062958716178305E-002
   9.4142502357441940E-002  -2.7982499951979017E-002   3.1829979707746078E-002
   9.1756177040280704E-002  -2.6790678279081881E-002   3.1255809109504748E-002
   8.9369851723119509E-002  -2.5860299253071983E-002   3.0763054478732316E-002
   8.6983526405958259E-002  -2.5191362873949380E-002   3.0351715815428913E-002
   8.4597201088797064E-002  -2.4783869141713932E-002   3.0021793119594242E-002
   8.6450744183703118E-002  -2.4609581423618646E-002   3.8080849146978027E-002
   8.4192612691056878E-002  -2.3965900827845235E-002   3.7059784250120367E-002
   8.1934481198410625E-002  -2.3423112117041400E-002   3.6213691034823803E-002
   7.9676349705764385E-002  -2.2981215291207072E-002   3.5542569501088181E-002
   7.7418218213118131E-002  -2.2640210350342249E-002   3.5046419648913724E-002
   7.8446481120230310E-002  -2.1236662895258246E-002   4.3703302128127376E-002
   7.6410099166191195E-002  -2.1141123376608589E-002   4.2395893694571120E-002
   7.4373717212152010E-002  -2.0985924981010776E-002   4.1357012656668038E-002
   7.2337335258112895E-002  -2.0771067708464777E-002   4.0586659014418137E-002
   7.0300953304073682E-002  -2.0496551558970594E-002   4.0084832767821411E-002
   7.0129713167023530E-002  -1.7863744366897846E-002   4.8697338651194119E-002
   6.8408636465683612E-002  -1.8316345925371950E-002   4.7264137442856999E-002
   6.6687559764343679E-002  -1.8548737844980130E-002   4.6193019344265153E-002
   6.4966483063003747E-002  -1.8560920125722500E-002   4.5483984355418575E-002
   6.3245406361663842E-002  -1.8352892767598911E-002   4.5137032476317368E-002
   6.1500440324082750E-002  -1.4490825838537461E-002   5.3062958716178305E-002
   6.0188224589534184E-002  -1.5491568474135291E-002   5.1664515494977990E-002
   5.8876008854985618E-002  -1.6111550708949561E-002   5.0721711097615058E-002
   5.7563793120437037E-002  -1.6350772542980209E-002   5.0234545524089520E-002
   5.6251577385888485E-002  -1.6209233976227269E-002   5.0203018774401489E-002
   8.4597201088797064E-002  -2.4783869141713932E-002   3.0021793119594242E-002
   8.2166311858428515E-002  -2.4456566733331381E-002   2.9277538267438605E-002
   7.9735422628059979E-002  -2.4028204325767279E-002   2.8814809349215612E-002
   7.7304533397691472E-002  -2.3498781919021834E-002   2.8633606364925276E-002
   7.4873644167322950E-002  -2.2868299513094742E-002   2.8733929314567835E-002
   7.7418218213118131E-002  -2.2640210350342249E-002   3.5046419648913724E-002
   7.5254705161136581E-002  -2.2308527937440994E-002   3.4441386421958778E-002
   7.3091192109154990E-002  -2.1894598695497258E-002   3.4089579617845145E-002
   7.0927679057173371E-002  -2.1398422624511047E-002   3.3990999236572610E-002
   6.8764166005191835E-002  -2.0819999724482396E-002   3.4145645278141415E-002
   7.0300953304073682E-002  -2.0496551558970594E-002   4.0084832767821411E-002
   6.8376516919387634E-002  -2.0160489141550622E-002   3.9600207995928144E-002
   6.6452080534701502E-002  -1.9760993065227207E-002   3.9340510135784768E-002
   6.4527644150015384E-002  -1.9298063330000368E-002   3.9305739187390894E-002
   6.2603207765329280E-002  -1.8771699935870065E-002   3.9495895150746980E-002
   6.3245406361663842E-002  -1.8352892767598911E-002   4.5137032476317368E-002
   6.1531747133181672E-002  -1.8012450345660243E-002   4.4754002989346876E-002
   5.9818087904699530E-002  -1.7627387434957127E-002   4.4567600903034549E-002
   5.8104428676217373E-002  -1.7197704035489664E-002   4.4577826217380448E-002
   5.6390769447735231E-002  -1.6723400147257726E-002   4.4784678932384657E-002
   5.6251577385888485E-002  -1.6209233976227269E-002   5.0203018774401489E-002
   5.4720395802518779E-002  -1.5864411549769877E-002   4.9902771402214649E-002
   5.3189214219149100E-002  -1.5493781804687055E-002   4.9770851919594537E-002
   5.1658032635779401E-002  -1.5097344740978909E-002   4.9807260326541147E-002
   5.0126851052409716E-002  -1.4675100358645388E-002   5.0011996623054472E-002
   7.4873644167322950E-002  -2.2868299513094742E-002   2.8733929314567835E-002
   7.2709600653548506E-002  -2.2199771395827114E-002   2.8469855847240599E-002
   7.0545557139774062E-002  -2.1556211855060035E-002   2.8343550200551751E-002
   6.8381513625999618E-002  -2.0937620890793270E-002   2.8355012374501561E-002
   6.6217470112225202E-002  -2.0343998503027094E-002   2.8504242369089550E-002
   6.8764166005191835E-002  -2.0819999724482396E-002   3.4145645278141415E-002
   6.6746802306340947E-002  -2.0205519879034350E-002   3.3821452970015570E-002
   6.4729438607490017E-002  -1.9601172971790051E-002   3.3652852471098497E-002
   6.2712074908639129E-002  -1.9006959002749530E-002   3.3639843781390191E-002
   6.0694711209788171E-002  -1.8422877971912610E-002   3.3782426900890283E-002
   6.2603207765329280E-002  -1.8771699935870065E-002   3.9495895150746980E-002
   6.0750347869972077E-002  -1.8211268362241566E-002   3.9126419640119578E-002
   5.8897487974614894E-002  -1.7646134088520098E-002   3.8930359927270827E-002
   5.7044628079257684E-002  -1.7076297114705628E-002   3.8907716012200978E-002
   5.5191768183900487E-002  -1.6501757440798154E-002   3.9058487894909941E-002
   5.6390769447735231E-002  -1.6723400147257726E-002   4.4784678932384657E-002
   5.4720237344441924E-002  -1.6217016845448764E-002   4.4384755857552180E-002
   5.3049705241148618E-002  -1.5691095205250076E-002   4.4176072569068664E-002
   5.1379173137855338E-002  -1.5145635226661807E-002   4.4158629066934157E-002
   4.9708641034562039E-002  -1.4580636909683684E-002   4.4332425351148626E-002
   5.0126851052409716E-002  -1.4675100358645388E-002   5.0011996623054472E-002
   4.8656470729750517E-002  -1.4222765328656045E-002   4.9596461622313653E-002
   4.7186090407091277E-002  -1.3736056321980133E-002   4.9389990396492001E-002
   4.5715710084432058E-002  -1.3214973338618020E-002   4.9392582945589611E-002
   4.4245329761772839E-002  -1.2659516378569213E-002   4.9604239269606332E-002
   6.6217470112225202E-002  -2.0343998503027094E-002   2.8504242369089550E-002
   6.3544763310258434E-002  -1.9743283875034989E-002   2.8215647760979706E-002
   6.0872056508291736E-002  -1.9103416190090650E-002   2.8162822599256926E-002
   5.8199349706325003E-002  -1.8424395448194061E-002   2.8345766883920889E-002
   5.5526642904358270E-002  -1.7706221649345377E-002   2.8764480614971943E-002
   6.0694711209788171E-002  -1.8422877971912610E-002   3.3782426900890283E-002
   5.8252816014953496E-002  -1.7831275089727386E-002   3.3540855179001419E-002
   5.5810920820118792E-002  -1.7214495566641577E-002   3.3525137224989482E-002
   5.3369025625284082E-002  -1.6572539402655396E-002   3.3735273038854957E-002
   5.0927130430449413E-002  -1.5905406597768401E-002   3.4171262620597581E-002
   5.5191768183900487E-002  -1.6501757440798154E-002   3.9058487894909941E-002
   5.2970768917688094E-002  -1.5919266304419810E-002   3.8849962643190239E-002
   5.0749769651475721E-002  -1.5325574943192505E-002   3.8857375480837800E-002
   4.8528770385263341E-002  -1.4720683357116453E-002   3.9080726407852769E-002
   4.6307771119050933E-002  -1.4104591546191508E-002   3.9520015424235430E-002
   4.9708641034562039E-002  -1.4580636909683684E-002   4.4332425351148626E-002
   4.7698622018462256E-002  -1.4007257519112137E-002   4.4142970153546235E-002
   4.5688603002362486E-002  -1.3436654319743543E-002   4.4159537366801560E-002
   4.3678583986262731E-002  -1.2868827311577524E-002   4.4382126990914664E-002
   4.1668564970162941E-002  -1.2303776494614407E-002   4.4810739025885560E-002
   4.4245329761772839E-002  -1.2659516378569213E-002   4.9604239269606332E-002
   4.2436375317275954E-002  -1.2095248733804659E-002   4.9419877710069643E-002
   4.0627420872779110E-002  -1.1547733696294388E-002   4.9431622882881138E-002
   3.8818466428282246E-002  -1.1016971266038823E-002   4.9639474788040608E-002
   3.7009511983785354E-002  -1.0502961443037584E-002   5.0043433425548178E-002
   5.5526642904358270E-002  -1.7706221649345377E-002   2.8764480614971943E-002
   5.3537165073765547E-002  -1.7051215743368237E-002   2.8358534965586935E-002
   5.1547687243172852E-002  -1.6561698680085876E-002   2.8067540664370255E-002
   4.9558209412580143E-002  -1.6237670459498820E-002   2.7891497711321558E-002
   4.7568731581987433E-002  -1.6079131081606968E-002   2.7830406106441052E-002
   5.0927130430449413E-002  -1.5905406597768401E-002   3.4171262620597581E-002
   4.9060193372509761E-002  -1.5270491745730141E-002   3.3625508863561693E-002
   4.7193256314570178E-002  -1.4725189440289416E-002   3.3209885303663852E-002
   4.5326319256630603E-002  -1.4269499681446356E-002   3.2924391940904137E-002
   4.3459382198690943E-002  -1.3903422469200677E-002   3.2769028775282427E-002
   4.6307771119050933E-002  -1.4104591546191508E-002   3.9520015424235430E-002
   4.4578553682734404E-002  -1.3489767748092144E-002   3.8910329855646200E-002
   4.2849336246417853E-002  -1.2888680200492851E-002   3.8445953333164841E-002
   4.1120118810101317E-002  -1.2301328903393615E-002   3.8126885856791554E-002
   3.9390901373784731E-002  -1.1727713856794442E-002   3.7953127426526290E-002
   4.1668564970162941E-002  -1.2303776494614407E-002   4.4810739025885560E-002
   4.0092246004439377E-002  -1.1709043750454069E-002   4.4212997941840443E-002
   3.8515927038715828E-002  -1.1052170960696172E-002   4.3775744752873096E-002
   3.6939608072992278E-002  -1.0333158125341014E-002   4.3498979458983872E-002
   3.5363289107268714E-002  -9.5520052443882897E-003   4.3382702060172661E-002
   3.7009511983785354E-002  -1.0502961443037584E-002   5.0043433425548178E-002
   3.5601270337624752E-002  -9.9283197528160227E-003   4.9533513122144379E-002
   3.4193028691464136E-002  -9.2156617208997427E-003   4.9199259562788866E-002
   3.2784787045303541E-002  -8.3649873472883343E-003   4.9040672747480973E-002
   3.1376545399142947E-002  -7.3762966319819712E-003   4.9057752676221089E-002
   4.7568731581987433E-002  -1.6079131081606968E-002   2.7830406106441052E-002
   4.4826075367439877E-002  -1.6091250636531773E-002   2.7543433089535219E-002
   4.2083419152892265E-002  -1.6279199214394885E-002   2.7495542463932987E-002
   3.9340762938344723E-002  -1.6642976815197101E-002   2.7686734229634413E-002
   3.6598106723797152E-002  -1.7182583438937415E-002   2.8117008386638886E-002
   4.3459382198690943E-002  -1.3903422469200677E-002   3.2769028775282427E-002
   4.0944333975439756E-002  -1.3612793358559416E-002   3.2392893576985021E-002
   3.8429285752188541E-002  -1.3383447904529583E-002   3.2232891969976613E-002
   3.5914237528937354E-002  -1.3215386107110864E-002   3.2289023954257562E-002
   3.3399189305686083E-002  -1.3108607966303198E-002   3.2561289529827508E-002
   3.9390901373784731E-002  -1.1727713856794442E-002   3.7953127426526290E-002
   3.7080512341815572E-002  -1.1134336080587309E-002   3.7602375413164330E-002
   3.4770123309846447E-002  -1.0487696594663962E-002   3.7444808191077386E-002
   3.2459734277877336E-002  -9.7877953990245757E-003   3.7480425760265272E-002
   3.0149345245908066E-002  -9.0346324936689815E-003   3.7709228120727967E-002
   3.5363289107268714E-002  -9.5520052443882897E-003   4.3382702060172661E-002
   3.3234610466567366E-002  -8.6558788026150774E-003   4.3171878598073442E-002
   3.1105931825866018E-002  -7.5919452847985000E-003   4.3131291127235016E-002
   2.8977253185164677E-002  -6.3602046909383130E-003   4.3260939647657183E-002
   2.6848574544463315E-002  -4.9606570210348200E-003   4.3560824159339886E-002
   3.1376545399142947E-002  -7.3762966319819712E-003   4.9057752676221089E-002
   2.9406628349695096E-002  -6.1774215246428454E-003   4.9101403131712240E-002
   2.7436711300247232E-002  -4.6961939749329412E-003   4.9292340778449545E-002
   2.5466794250799320E-002  -2.9326139828522481E-003   4.9630565616433239E-002
   2.3496877201351574E-002  -8.8668154840054747E-004   5.0116077645663726E-002
   5.7150606877518370E-002   0.0000000000000000        3.4691252324236838E-002
   5.7941996328740010E-002  -2.0836115378330133E-003   3.8343859531957791E-002
   5.8733385779961650E-002  -4.1369854556321875E-003   4.2210682419151019E-002
   5.9524775231183297E-002  -6.1601217533975312E-003   4.6291720985816485E-002
   6.0316164682404937E-002  -8.1530204311290287E-003   5.0586975231954184E-002
   4.8650521823661148E-002   0.0000000000000000        3.2790863278875343E-002
   4.9590710259831916E-002  -1.7092080553990285E-003   3.6966638891469811E-002
   5.0530898696002677E-002  -3.4327367358500272E-003   4.1225796794490274E-002
   5.1471087132173445E-002  -5.1705860413529935E-003   4.5568336987936740E-002
   5.2411275568344198E-002  -6.9227559719079205E-003   4.9994259471809188E-002
   4.0731063371709619E-002   0.0000000000000000        3.1287156838490746E-002
   4.1689217403783257E-002  -1.3348045729650471E-003   3.5941542610872908E-002
   4.2647371435856889E-002  -2.7284880160678669E-003   4.0548477284634808E-002
   4.3605525467930520E-002  -4.1810503293084620E-003   4.5107960859776454E-002
   4.4563679500004158E-002  -5.6924915126868262E-003   4.9619993336297852E-002
   3.3392231521663776E-002   0.0000000000000000        3.0180133003083025E-002
   3.4237517760594027E-002  -9.6040109053106447E-004   3.5268570690167068E-002
   3.5082803999524285E-002  -2.0242392962857075E-003   4.0178723889584614E-002
   3.5928090238454544E-002  -3.1915146172639291E-003   4.4910592601335647E-002
   3.6773376477384795E-002  -4.4622270534657284E-003   4.9464176825420175E-002
   2.6634026273523619E-002   0.0000000000000000        2.9469791772652191E-002
   2.7235611330264246E-002  -5.8599760809708093E-004   3.4947723129352321E-002
   2.7837196387004871E-002  -1.3199905765035463E-003   4.0116536609339705E-002
   2.8438781443745498E-002  -2.2019789052193962E-003   4.4976232212614313E-002
   2.9040366500486123E-002  -3.2319625942446254E-003   4.9526809939176179E-002
   6.0316164682404937E-002  -8.1530204311290287E-003   5.0586975231954184E-002
   6.0612233592824395E-002  -1.0032468169878008E-002   5.1525467222092697E-002
   6.0908302503243847E-002  -1.1715251650695716E-002   5.2250961799509568E-002
   6.1204371413663305E-002  -1.3201370873582214E-002   5.2763458964204757E-002
   6.1500440324082750E-002  -1.4490825838537461E-002   5.3062958716178305E-002
   5.2411275568344198E-002  -6.9227559719079205E-003   4.9994259471809188E-002
   5.2533591465629588E-002  -8.5869683395397058E-003   5.1222738911670757E-002
   5.2655907362914978E-002  -1.0060944956273240E-002   5.2316709737985877E-002
   5.2778223260200360E-002  -1.1344685822108475E-002   5.3276171950754500E-002
   5.2900539157485743E-002  -1.2438190937045450E-002   5.4101125549976668E-002
   4.4563679500004158E-002  -5.6924915126868262E-003   4.9619993336297852E-002
   4.4590731183330679E-002  -7.1414685092014247E-003   5.1132031718849502E-002
   4.4617782866657206E-002  -8.4066382618507296E-003   5.2588050287029897E-002
   4.4644834549983733E-002  -9.4880007706347209E-003   5.3988049040839002E-002
   4.4671886233310254E-002  -1.0385556035553418E-002   5.5332027980276914E-002
   3.6773376477384795E-002  -4.4622270534657284E-003   4.9464176825420175E-002
   3.6783652745927667E-002  -5.6959686788631420E-003   5.1253345643628927E-002
   3.6793929014470539E-002  -6.7523315674282332E-003   5.3064983446641602E-002
   3.6804205283013418E-002  -7.6313157191609847E-003   5.4899090234458284E-002
   3.6814481551556269E-002  -8.3329211340614044E-003   5.6755666007078896E-002
   2.9040366500486123E-002  -3.2319625942446254E-003   4.9526809939176179E-002
   2.9112356153420546E-002  -4.2504688485248479E-003   5.1586680686009072E-002
   2.9184345806354976E-002  -5.0980248730057385E-003   5.3747509216821102E-002
   2.9256335459289396E-002  -5.7746306676872304E-003   5.6009295531612331E-002
   2.9328325112223823E-002  -6.2802862325693765E-003   5.8372039630382663E-002
   6.1500440324082750E-002  -1.4490825838537461E-002   5.3062958716178305E-002
   6.0188224589534184E-002  -1.5491568474135291E-002   5.1664515494977990E-002
   5.8876008854985618E-002  -1.6111550708949561E-002   5.0721711097615058E-002
   5.7563793120437037E-002  -1.6350772542980209E-002   5.0234545524089520E-002
   5.6251577385888485E-002  -1.6209233976227269E-002   5.0203018774401489E-002
   5.2900539157485743E-002  -1.2438190937045450E-002   5.4101125549976668E-002
   5.1990668435114587E-002  -1.3285885531312859E-002   5.3361709605150097E-002
   5.1080797712743417E-002  -1.3832194835139438E-002   5.2971344860840874E-002
   5.0170926990372247E-002  -1.4077118848525184E-002   5.2930031317049049E-002
   4.9261056268001084E-002  -1.4020657571470099E-002   5.3237768973774621E-002
   4.4671886233310254E-002  -1.0385556035553418E-002   5.5332027980276914E-002
   4.4057772899796468E-002  -1.1080202588490417E-002   5.5172264201481247E-002
   4.3443659566282676E-002  -1.1552838961329356E-002   5.5254963999882986E-002
   4.2829546232768897E-002  -1.1803465154070176E-002   5.5580127375482090E-002
   4.2215432899255105E-002  -1.1832081166712950E-002   5.6147754328278524E-002
   3.6814481551556269E-002  -8.3329211340614044E-003   5.6755666007078896E-002
   3.6389537983579842E-002  -8.8745196456679939E-003   5.7096179283971434E-002
   3.5964594415603408E-002  -9.2734830875192669E-003   5.7572568514741365E-002
   3.5539650847626961E-002  -9.5298114596151732E-003   5.8184833699388649E-002
   3.5114707279650541E-002  -9.6435047619557769E-003   5.8932974837913203E-002
   2.9328325112223823E-002  -6.2802862325693765E-003   5.8372039630382663E-002
   2.8985963686464711E-002  -6.6688367028455396E-003   5.9133454852620726E-002
   2.8643602260705607E-002  -6.9941272137091642E-003   5.9924158405416039E-002
   2.8301240834946489E-002  -7.2561577651601393E-003   6.0744150288768714E-002
   2.7958879409187391E-002  -7.4549283571986313E-003   6.1593430502678653E-002
   5.6251577385888485E-002  -1.6209233976227269E-002   5.0203018774401489E-002
   5.4720395802518779E-002  -1.5864411549769877E-002   4.9902771402214649E-002
   5.3189214219149100E-002  -1.5493781804687055E-002   4.9770851919594537E-002
   5.1658032635779401E-002  -1.5097344740978909E-002   4.9807260326541147E-002
   5.0126851052409716E-002  -1.4675100358645388E-002   5.0011996623054472E-002
   4.9261056268001084E-002  -1.4020657571470099E-002   5.3237768973774621E-002
   4.7906652612818165E-002  -1.3793257253069763E-002   5.2924019444786780E-002
   4.6552248957635226E-002  -1.3525364142419640E-002   5.2795497882605798E-002
   4.5197845302452307E-002  -1.3216978239519873E-002   5.2852204287231586E-002
   4.3843441647269374E-002  -1.2868099544370348E-002   5.3094138658664081E-002
   4.2215432899255105E-002  -1.1832081166712950E-002   5.6147754328278524E-002
   4.1054707249499028E-002  -1.1722102956369641E-002   5.5835188116114071E-002
   3.9893981599742959E-002  -1.1556946480152252E-002   5.5724749947996505E-002
   3.8733255949986868E-002  -1.1336611738060793E-002   5.5816439823925777E-002
   3.7572530300230784E-002  -1.1061098730095253E-002   5.6110257743902034E-002
   3.5114707279650541E-002  -9.6435047619557769E-003   5.8932974837913203E-002
   3.4164559712561410E-002  -9.6509486596695372E-003   5.8636277416196446E-002
   3.3214412145472286E-002  -9.5885288178848213E-003   5.8558608115766672E-002
   3.2264264578383148E-002  -9.4562452366017350E-003   5.8699966936623903E-002
   3.1314117011294031E-002  -9.2540979158201447E-003   5.9060353878768145E-002
   2.7958879409187391E-002  -7.4549283571986313E-003   6.1593430502678653E-002
   2.7236210002005302E-002  -7.5797943629693776E-003   6.1327287345033926E-002
   2.6513540594823210E-002  -7.6201111556173998E-003   6.1297072385916349E-002
   2.5790871187641111E-002  -7.5758787351426649E-003   6.1502785625325802E-002
   2.5068201780459029E-002  -7.4470971015450915E-003   6.1944427063262336E-002
   5.0126851052409716E-002  -1.4675100358645388E-002   5.0011996623054472E-002
   4.8656470729750517E-002  -1.4222765328656045E-002   4.9596461622313653E-002
   4.7186090407091277E-002  -1.3736056321980133E-002   4.9389990396492001E-002
   4.5715710084432058E-002  -1.3214973338618020E-002   4.9392582945589611E-002
   4.4245329761772839E-002  -1.2659516378569213E-002   4.9604239269606332E-002
   4.3843441647269374E-002  -1.2868099544370348E-002   5.3094138658664081E-002
   4.2576545023054593E-002  -1.2484995464787527E-002   5.2716687616201977E-002
   4.1309648398839771E-002  -1.2073933408587860E-002   5.2537140195709528E-002
   4.0042751774624963E-002  -1.1634913375771437E-002   5.2555496397186867E-002
   3.8775855150410182E-002  -1.1167935366338283E-002   5.2771756220633598E-002
   3.7572530300230784E-002  -1.1061098730095253E-002   5.6110257743902034E-002
   3.6497957221510925E-002  -1.0747225600919078E-002   5.5764474659648962E-002
   3.5423384142791045E-002  -1.0411810495195614E-002   5.5605435044416021E-002
   3.4348811064071172E-002  -1.0054853412925020E-002   5.5633138898203281E-002
   3.3274237985351278E-002  -9.6763543541071861E-003   5.5847586221010784E-002
   3.1314117011294031E-002  -9.2540979158201447E-003   5.9060353878768145E-002
   3.0420707325119575E-002  -9.0094557370506770E-003   5.8739822752654464E-002
   2.9527297638945099E-002  -8.7496875818033823E-003   5.8594874942611563E-002
   2.8633887952770630E-002  -8.4747934500785747E-003   5.8625510448639249E-002
   2.7740478266596168E-002  -8.1847733418760893E-003   5.8831729270737508E-002
   2.5068201780459029E-002  -7.4470971015450915E-003   6.1944427063262336E-002
   2.4344795333880481E-002  -7.2716858731821238E-003   6.1642731895218517E-002
   2.3621388887301926E-002  -7.0875646684110741E-003   6.1505459890296002E-002
   2.2897982440723368E-002  -6.8947334872320690E-003   6.1532611048494563E-002
   2.2174575994144824E-002  -6.6931923296451035E-003   6.1724185369814277E-002
   4.4245329761772839E-002  -1.2659516378569213E-002   4.9604239269606332E-002
   4.2436375317275954E-002  -1.2095248733804659E-002   4.9419877710069643E-002
   4.0627420872779110E-002  -1.1547733696294388E-002   4.9431622882881138E-002
   3.8818466428282246E-002  -1.1016971266038823E-002   4.9639474788040608E-002
   3.7009511983785354E-002  -1.0502961443037584E-002   5.0043433425548178E-002
   3.8775855150410182E-002  -1.1167935366338283E-002   5.2771756220633598E-002
   3.7169374846302089E-002  -1.0691517389461003E-002   5.2548704190949619E-002
   3.5562894542193954E-002  -1.0224177454312748E-002   5.2534493709695360E-002
   3.3956414238085861E-002  -9.7659155608934688E-003   5.2729124776870494E-002
   3.2349933933977740E-002  -9.3167317092032742E-003   5.3132597392475139E-002
   3.3274237985351278E-002  -9.6763543541071861E-003   5.5847586221010784E-002
   3.1882966637713367E-002  -9.2877860451174438E-003   5.5593518286705189E-002
   3.0491695290075473E-002  -8.9006212123310530E-003   5.5561026716910489E-002
   2.9100423942437566E-002  -8.5148598557481699E-003   5.5750111511626767E-002
   2.7709152594799676E-002  -8.1305019753687702E-003   5.6160772670853926E-002
   2.7740478266596168E-002  -8.1847733418760893E-003   5.8831729270737508E-002
   2.6577150691509878E-002  -7.8840547007737807E-003   5.8554319997335832E-002
   2.5413823116423581E-002  -7.5770649703494133E-003   5.8511221904526498E-002
   2.4250495541337302E-002  -7.2638041506028431E-003   5.8702434992309434E-002
   2.3087167966250995E-002  -6.9442722415343633E-003   5.9127959260684725E-002
   2.2174575994144824E-002  -6.6931923296451035E-003   6.1724185369814277E-002
   2.1251927007691587E-002  -6.4803233564302287E-003   6.1431109322841904E-002
   2.0329278021238330E-002  -6.2535087283676766E-003   6.1385079272543330E-002
   1.9406629034785090E-002  -6.0127484454575893E-003   6.1586095218918405E-002
   1.8483980048331849E-002  -5.7580425077000119E-003   6.2034157161967141E-002
   3.7009511983785354E-002  -1.0502961443037584E-002   5.0043433425548178E-002
   3.5601270337624752E-002  -9.9283197528160227E-003   4.9533513122144379E-002
   3.4193028691464136E-002  -9.2156617208997427E-003   4.9199259562788866E-002
   3.2784787045303541E-002  -8.3649873472883343E-003   4.9040672747480973E-002
   3.1376545399142947E-002  -7.3762966319819712E-003   4.9057752676221089E-002
   3.2349933933977740E-002  -9.3167317092032742E-003   5.3132597392475139E-002
   3.1114419640918239E-002  -8.8191934520997772E-003   5.2760436005879013E-002
   2.9878905347858718E-002  -8.2158683424415901E-003   5.2558062581437401E-002
   2.8643391054799221E-002  -7.5067563802284631E-003   5.2525477119149795E-002
   2.7407876761739683E-002  -6.6918575654603685E-003   5.2662679619016661E-002
   2.7709152594799676E-002  -8.1305019753687702E-003   5.6160772670853926E-002
   2.6640486872947532E-002  -7.7100671513835456E-003   5.5894140711925444E-002
   2.5571821151095468E-002  -7.2160749639834793E-003   5.5791417933257634E-002
   2.4503155429243376E-002  -6.6485254131684775E-003   5.5852604334850363E-002
   2.3434489707391266E-002  -6.0074184989386270E-003   5.6077699916703735E-002
   2.3087167966250995E-002  -6.9442722415343633E-003   5.9127959260684725E-002
   2.2179472033712663E-002  -6.6009408506673625E-003   5.8934627240283852E-002
   2.1271776101174363E-002  -6.2162815855254031E-003   5.8899325618249773E-002
   2.0364080168636060E-002  -5.7902944461087711E-003   5.9022054394582725E-002
   1.9456384236097732E-002  -5.3229794324170104E-003   5.9302813569282603E-002
   1.8483980048331849E-002  -5.7580425077000119E-003   6.2034157161967141E-002
   1.7731375123213655E-002  -5.4918145499510684E-003   6.1881895590953750E-002
   1.6978770198095447E-002  -5.2164882070672436E-003   6.1881785636413750E-002
   1.6226165272977253E-002  -4.9320634790486831E-003   6.2033827298346944E-002
   1.5473560347859058E-002  -4.6385403658952273E-003   6.2338020576753583E-002
   3.1376545399142947E-002  -7.3762966319819712E-003   4.9057752676221089E-002
   2.9406628349695096E-002  -6.1774215246428454E-003   4.9101403131712240E-002
   2.7436711300247232E-002  -4.6961939749329412E-003   4.9292340778449545E-002
   2.5466794250799320E-002  -2.9326139828522481E-003   4.9630565616433239E-002
   2.3496877201351574E-002  -8.8668154840054747E-004   5.0116077645663726E-002
   2.7407876761739683E-002  -6.6918575654603685E-003   5.2662679619016661E-002
   2.5610127642184177E-002  -5.7801268334888578E-003   5.2911607108320019E-002
   2.3812378522628706E-002  -4.7805191196651914E-003   5.3357583266161634E-002
   2.2014629403073225E-002  -3.6930344239892270E-003   5.4000608092541716E-002
   2.0216880283517702E-002  -2.5176727464613080E-003   5.4840681587460249E-002
   2.3434489707391266E-002  -6.0074184989386270E-003   5.6077699916703735E-002
   2.1858669995020091E-002  -5.3828321423345926E-003   5.6337428979300677E-002
   2.0282850282648899E-002  -4.8648442643972126E-003   5.6843968187727890E-002
   1.8707030570277720E-002  -4.4534548651262596E-003   5.7597317541985549E-002
   1.7131210857906504E-002  -4.1486639445219575E-003   5.8597477042073243E-002
   1.9456384236097732E-002  -5.3229794324170104E-003   5.9302813569282603E-002
   1.8152255408202807E-002  -4.9855374511804662E-003   5.9378868744654631E-002
   1.6848126580307887E-002  -4.9491694091293482E-003   5.9751495543148916E-002
   1.5543997752412940E-002  -5.2138753062634319E-003   6.0420693964765078E-002
   1.4239868924518041E-002  -5.7796551425827181E-003   6.1386464009503955E-002
   1.5473560347859058E-002  -4.6385403658952273E-003   6.2338020576753583E-002
   1.4490883881732350E-002  -4.5882427600262843E-003   6.2035926404381492E-002
   1.3508207415605648E-002  -5.0334945538615811E-003   6.2080165332423748E-002
   1.2525530949478916E-002  -5.9742957474003509E-003   6.2470737360880310E-002
   1.1542854483352238E-002  -7.4106463406433676E-003   6.3207642489751192E-002
   2.6634026273523619E-002   0.0000000000000000        2.9469791772652191E-002
   2.7235611330264246E-002  -5.8599760809708093E-004   3.4947723129352321E-002
   2.7837196387004871E-002  -1.3199905765035463E-003   4.0116536609339705E-002
   2.8438781443745498E-002  -2.2019789052193962E-003   4.4976232212614313E-002
   2.9040366500486123E-002  -3.2319625942446254E-003   4.9526809939176179E-002
   2.0118588648771318E-002   0.0000000000000000        2.9021708530599547E-002
   2.0450709734753547E-002  -4.3960531071607963E-004   3.4314766003416181E-002
   2.0782830820735784E-002  -9.9008813053852712E-004   3.9378013411428783E-002
   2.1114951906718013E-002  -1.6514484594673503E-003   4.4211450754637345E-002
   2.1447072992700246E-002  -2.4236862975025447E-003   4.8815078033041887E-002
   1.3508059668889034E-002   0.0000000000000000        2.8701458660326400E-002
   1.3650024596021597E-002  -2.9321301333507747E-004   3.3846760100462558E-002
   1.3791989523154160E-002  -6.6018568457351136E-004   3.8841559287703394E-002
   1.3933954450286723E-002  -1.1009180137153043E-003   4.3685856222048930E-002
   1.4075919377419286E-002  -1.6154100007604527E-003   4.8379650903499168E-002
   6.8024393338767695E-003   0.0000000000000000        2.8509042161832750E-002
   6.8335559140683868E-003  -1.4682071595407574E-004   3.3543705420491433E-002
   6.8646724942600049E-003  -3.3028323860849473E-004   3.8507174238163529E-002
   6.8957890744516213E-003  -5.5038756796325656E-004   4.3399448614849040E-002
   6.9269056546432378E-003  -8.0713370401836815E-004   4.8220528550547981E-002
   1.7276437345248655E-006   0.0000000000000000        2.8444459035118594E-002
   1.3036888939187141E-006  -4.2841857307400477E-007   3.3405601963502826E-002
   8.7973405331451433E-007  -3.8079264347637420E-007   3.8374858262809175E-002
   4.5577921271020613E-007   1.4287778878768753E-007   4.3352227933037682E-002
   3.1824372104163196E-008   1.1425927237199152E-006   4.8337710974188333E-002
   2.9040366500486123E-002  -3.2319625942446254E-003   4.9526809939176179E-002
   2.9112356153420546E-002  -4.2504688485248479E-003   5.1586680686009072E-002
   2.9184345806354976E-002  -5.0980248730057385E-003   5.3747509216821102E-002
   2.9256335459289396E-002  -5.7746306676872304E-003   5.6009295531612331E-002
   2.9328325112223823E-002  -6.2802862325693765E-003   5.8372039630382663E-002
   2.1447072992700246E-002  -2.4236862975025447E-003   4.8815078033041887E-002
   2.1590327626658232E-002  -3.1873847719396955E-003   5.1216849102475009E-002
   2.1733582260616214E-002  -3.8231270100744161E-003   5.3660192349976071E-002
   2.1876836894574203E-002  -4.3309130119066567E-003   5.6145107775545100E-002
   2.2020091528532185E-002  -4.7107427774364941E-003   5.8671595379182068E-002
   1.4075919377419286E-002  -1.6154100007604527E-003   4.8379650903499168E-002
   1.4231053386489634E-002  -2.1243006953545161E-003   5.1080328302035564E-002
   1.4386187395559981E-002  -2.5482291471430650E-003   5.3763192272728737E-002
   1.4541321404630330E-002  -2.8871953561260904E-003   5.6428242815578664E-002
   1.4696455413700675E-002  -3.1411993223036117E-003   5.9075479930585387E-002
   6.9269056546432378E-003  -8.0713370401836815E-004   4.8220528550547981E-002
   7.0345334329147543E-003  -1.0612166187693433E-003   5.1177118284690758E-002
   7.1421612111862683E-003  -1.2733312842117283E-003   5.4056508985079119E-002
   7.2497889894577866E-003  -1.4434777003455204E-003   5.6858700651713022E-002
   7.3574167677292997E-003  -1.5716558671707223E-003   5.9583693284592509E-002
   3.1824372104163196E-008   1.1425927237199152E-006   4.8337710974188333E-002
   7.6776593359046547E-007   1.8674578158243277E-006   5.1507219050440561E-002
   1.5037074950795867E-006   1.5665787196032094E-006   5.4540142487027168E-002
   2.2396490565677321E-006   2.3995543505525921E-007   5.7436481283948154E-002
   2.9755906180550101E-006  -2.1124120378399058E-006   6.0196235441203498E-002
   2.9328325112223823E-002  -6.2802862325693765E-003   5.8372039630382663E-002
   2.8985963686464711E-002  -6.6688367028455396E-003   5.9133454852620726E-002
   2.8643602260705607E-002  -6.9941272137091642E-003   5.9924158405416039E-002
   2.8301240834946489E-002  -7.2561577651601393E-003   6.0744150288768714E-002
   2.7958879409187391E-002  -7.4549283571986313E-003   6.1593430502678653E-002
   2.2020091528532185E-002  -4.7107427774364941E-003   5.8671595379182068E-002
   2.1720895230084657E-002  -5.0023608261184384E-003   5.9487348445437502E-002
   2.1421698931637131E-002  -5.2455116774070033E-003   6.0360143435758726E-002
   2.1122502633189603E-002  -5.4401953313022557E-003   6.1289980350145788E-002
   2.0823306334742085E-002  -5.5864117878041686E-003   6.2276859188598738E-002
   1.4696455413700675E-002  -3.1411993223036117E-003   5.9075479930585387E-002
   1.4468177836073268E-002  -3.3358849493912972E-003   5.9930778078838884E-002
   1.4239900258445867E-002  -3.4968961411048702E-003   6.0870871744666800E-002
   1.4011622680818455E-002  -3.6242328974443443E-003   6.1895760928069060E-002
   1.3783345103191054E-002  -3.7178952184096781E-003   6.3005445629045753E-002
   7.3574167677292997E-003  -1.5716558671707223E-003   5.9583693284592509E-002
   7.2278115044305466E-003  -1.6694090726641830E-003   6.0463743752824942E-002
   7.0982062411317909E-003  -1.7482806048027093E-003   6.1456343332140270E-002
   6.9686009778330326E-003  -1.8082704635863913E-003   6.2561492022538509E-002
   6.8389957145342795E-003  -1.8493786490152014E-003   6.3779189824019672E-002
   2.9755906180550101E-006  -2.1124120378399058E-006   6.0196235441203498E-002
  -2.0376484351474627E-007  -2.9331959370548777E-006   6.1086245467395578E-002
  -3.3831203050819006E-006   3.3493149940479194E-007   6.2116558198179114E-002
  -6.5624757666473202E-006   7.6919702715152506E-006   6.3287173633554114E-002
  -9.7418312282188113E-006   1.9137920379275197E-005   6.4598091773520577E-002
   2.7958879409187391E-002  -7.4549283571986313E-003   6.1593430502678653E-002
   2.7236210002005302E-002  -7.5797943629693776E-003   6.1327287345033926E-002
   2.6513540594823210E-002  -7.6201111556173998E-003   6.1297072385916349E-002
   2.5790871187641111E-002  -7.5758787351426649E-003   6.1502785625325802E-002
   2.5068201780459029E-002  -7.4470971015450915E-003   6.1944427063262336E-002
   2.0823306334742085E-002  -5.5864117878041686E-003   6.2276859188598738E-002
   2.0322688980442202E-002  -5.6776490313596092E-003   6.2165471949014610E-002
   1.9822071626142329E-002  -5.7073950464153964E-003   6.2262260616667800E-002
   1.9321454271842453E-002  -5.6756498329717363E-003   6.2567225191558384E-002
   1.8820836917542577E-002  -5.5824133910283291E-003   6.3080365673686287E-002
   1.3783345103191054E-002  -3.7178952184096781E-003   6.3005445629045753E-002
   1.3477027510483646E-002  -3.7755036997497576E-003   6.3025756322899001E-002
   1.3170709917776233E-002  -3.7946789372134450E-003   6.3226490632699889E-002
   1.2864392325068821E-002  -3.7754209308007236E-003   6.3607648558448346E-002
   1.2558074732361414E-002  -3.7177296805115806E-003   6.4169230100144414E-002
   6.8389957145342795E-003  -1.8493786490152014E-003   6.3779189824019672E-002
   6.6992255921295984E-003  -1.8733583681399338E-003   6.3908140466687177E-002
   6.5594554697249209E-003  -1.8819628280114260E-003   6.4189762434012476E-002
   6.4196853473202382E-003  -1.8751920286297808E-003   6.4624055725995680E-002
   6.2799152249155632E-003  -1.8530459699948529E-003   6.5211020342636691E-002
  -9.7418312282188113E-006   1.9137920379275197E-005   6.4598091773520577E-002
  -1.0716774619912509E-005   2.8786963469890070E-005   6.4812624380379047E-002
  -1.1691718011607941E-005   3.0753281190509796E-005   6.5152076020605659E-002
  -1.2666661403300770E-005   2.5036873541189886E-005   6.5616446694200387E-002
  -1.3641604794997070E-005   1.1637740521930340E-005   6.6205736401163257E-002
   2.5068201780459029E-002  -7.4470971015450915E-003   6.1944427063262336E-002
   2.4344795333880481E-002  -7.2716858731821238E-003   6.1642731895218517E-002
   2.3621388887301926E-002  -7.0875646684110741E-003   6.1505459890296002E-002
   2.2897982440723368E-002  -6.8947334872320690E-003   6.1532611048494563E-002
   2.2174575994144824E-002  -6.6931923296451035E-003   6.1724185369814277E-002
   1.8820836917542577E-002  -5.5824133910283291E-003   6.3080365673686287E-002
   1.8265985595993683E-002  -5.4554635406492830E-003   6.2774727927676230E-002
   1.7711134274444783E-002  -5.3225781018983870E-003   6.2641777268604398E-002
   1.7156282952895889E-002  -5.1837570747756100E-003   6.2681513696470639E-002
   1.6601431631346988E-002  -5.0390004592810733E-003   6.2893937211275119E-002
   1.2558074732361414E-002  -3.7177296805115806E-003   6.4169230100144414E-002
   1.2180042459659160E-002  -3.6392412081164352E-003   6.3856875388131923E-002
   1.1802010186956905E-002  -3.5575915353855854E-003   6.3725471686874618E-002
   1.1423977914254643E-002  -3.4727806623190667E-003   6.3775018996372390E-002
   1.1045945641552393E-002  -3.3848085889169599E-003   6.4005517316625363E-002
   6.2799152249155632E-003  -1.8530459699948529E-003   6.5211020342636691E-002
   6.0869659248769317E-003  -1.8230188755836048E-003   6.4889174276585609E-002
   5.8940166248382959E-003  -1.7926049688728688E-003   6.4756543145106649E-002
   5.7010673247996574E-003  -1.7618042498625934E-003   6.4813126948199823E-002
   5.5081180247610216E-003  -1.7306167185529159E-003   6.5058925685865049E-002
  -1.3641604794997070E-005   1.1637740521930340E-005   6.6205736401163257E-002
  -1.3244008353022196E-005  -6.7965430507327396E-006   6.5871624593037331E-002
  -1.2846411911045588E-005  -2.7618402360055083E-005   6.5734991643300517E-002
  -1.2448815469067245E-005  -5.0827837406026283E-005   6.5795837551952757E-002
  -1.2051219027094107E-005  -7.6424848188871852E-005   6.6054162318994247E-002
   2.2174575994144824E-002  -6.6931923296451035E-003   6.1724185369814277E-002
   2.1251927007691587E-002  -6.4803233564302287E-003   6.1431109322841904E-002
   2.0329278021238330E-002  -6.2535087283676766E-003   6.1385079272543330E-002
   1.9406629034785090E-002  -6.0127484454575893E-003   6.1586095218918405E-002
   1.8483980048331849E-002  -5.7580425077000119E-003   6.2034157161967141E-002
   1.6601431631346988E-002  -5.0390004592810733E-003   6.2893937211275119E-002
   1.5922528832482373E-002  -4.8825847018701823E-003   6.2630883903374859E-002
   1.5243626033617765E-002  -4.7087862489989529E-003   6.2608276973978083E-002
   1.4564723234753156E-002  -4.5176051006671769E-003   6.2826116423084707E-002
   1.3885820435888534E-002  -4.3090412568748682E-003   6.3284402250695038E-002
   1.1045945641552393E-002  -3.3848085889169599E-003   6.4005517316625363E-002
   1.0604189412106151E-002  -3.2848460473102192E-003   6.3775923788410099E-002
   1.0162433182659908E-002  -3.1640637696302223E-003   6.3780177020528184E-002
   9.7206769532136687E-003  -3.0224617558766518E-003   6.4018277012979477E-002
   9.2789207237674240E-003  -2.8600400060498077E-003   6.4490223765763938E-002
   5.5081180247610216E-003  -1.7306167185529159E-003   6.5058925685865049E-002
   5.2969087465628978E-003  -1.6871073927501867E-003   6.4866228977947721E-002
   5.0856994683647714E-003  -1.6193412902613842E-003   6.4900779412193479E-002
   4.8744901901666502E-003  -1.5273184110861275E-003   6.5162576988602214E-002
   4.6632809119685221E-003  -1.4110387552246501E-003   6.5651621707173785E-002
  -1.2051219027094107E-005  -7.6424848188871852E-005   6.6054162318994247E-002
   6.8683585262990787E-007  -8.9368738190265251E-005   6.5901799471987821E-002
   1.3424890732357392E-005  -7.4618810892726484E-005   6.5970084148974095E-002
   2.6162945612083141E-005  -3.2175066295731664E-005   6.6259016349953112E-002
   3.8901000491808890E-005   3.7962495600341040E-005   6.6768596074924913E-002
   1.8483980048331849E-002  -5.7580425077000119E-003   6.2034157161967141E-002
   1.7731375123213655E-002  -5.4918145499510684E-003   6.1881895590953750E-002
   1.6978770198095447E-002  -5.2164882070672436E-003   6.1881785636413750E-002
   1.6226165272977253E-002  -4.9320634790486831E-003   6.2033827298346944E-002
   1.5473560347859058E-002  -4.6385403658952273E-003   6.2338020576753583E-002
   1.3885820435888534E-002  -4.3090412568748682E-003   6.3284402250695038E-002
   1.3292784255795609E-002  -4.1016897437325395E-003   6.3125463222743122E-002
   1.2699748075702687E-002  -3.9141455873503428E-003   6.3133510068368592E-002
   1.2106711895609757E-002  -3.7464087877283822E-003   6.3308542787571087E-002
   1.1513675715516827E-002  -3.5984793448667340E-003   6.3650561380351078E-002
   9.2789207237674240E-003  -2.8600400060498077E-003   6.4490223765763938E-002
   8.8602875458037370E-003  -2.7115649375138995E-003   6.4295701538978484E-002
   8.4416543678400534E-003  -2.6118029676332616E-003   6.4282999442874120E-002
   8.0230211898763594E-003  -2.5607540964081334E-003   6.4452117477451137E-002
   7.6043880119126793E-003  -2.5584183238381575E-003   6.4803055642709231E-002
   4.6632809119685221E-003  -1.4110387552246501E-003   6.5651621707173785E-002
   4.4338849932380325E-003  -1.3214401312952040E-003   6.5392610539659612E-002
   4.2044890745075456E-003  -1.3094603479163261E-003   6.5330253759930720E-002
   3.9750931557770534E-003  -1.3750994050876920E-003   6.5464551367986845E-002
   3.7456972370465682E-003  -1.5183573028096781E-003   6.5795503363828278E-002
   3.8901000491808890E-005   3.7962495600341040E-005   6.6768596074924913E-002
   1.3576598098485188E-005   6.8684674923324973E-005   6.6416190224786953E-002
  -1.1747804294831576E-005  -7.1177281992795827E-006   6.6275273019538061E-002
  -3.7072206688146606E-005  -1.8944471376741712E-004   6.6345844459178321E-002
  -6.2396609081472043E-005  -4.7829628178103212E-004   6.6627904543707872E-002
   1.5473560347859058E-002  -4.6385403658952273E-003   6.2338020576753583E-002
   1.4490883881732350E-002  -4.5882427600262843E-003   6.2035926404381492E-002
   1.3508207415605648E-002  -5.0334945538615811E-003   6.2080165332423748E-002
   1.2525530949478916E-002  -5.9742957474003509E-003   6.2470737360880310E-002
   1.1542854483352238E-002  -7.4106463406433676E-003   6.3207642489751192E-002
   1.1513675715516827E-002  -3.5984793448667340E-003   6.3650561380351078E-002
   1.0855712550375381E-002  -3.5742921025523067E-003   6.3015831115269233E-002
   1.0197749385233934E-002  -3.7777819045722444E-003   6.2684194351743688E-002
   9.5397862200924839E-003  -4.2089487509264258E-003   6.2655651089774264E-002
   8.8818230549510269E-003  -4.8677926416149653E-003   6.2930201329361557E-002
   7.6043880119126793E-003  -2.5584183238381575E-003   6.4803055642709231E-002
   7.2278985488986244E-003  -2.5603414450781903E-003   6.4103561640287091E-002
   6.8514090858845713E-003  -2.5220692552830257E-003   6.3663921540563301E-002
   6.4749196228705347E-003  -2.4436017544525023E-003   6.3484135343538070E-002
   6.0984301598564633E-003  -2.3249389425865630E-003   6.3564203049211287E-002
   3.7456972370465682E-003  -1.5183573028096781E-003   6.5795503363828278E-002
   3.6074418773020542E-003  -1.5463907876040878E-003   6.5299117979435370E-002
   3.4691865175575354E-003  -1.2663566059938035E-003   6.5019346898883071E-002
   3.3309311578130166E-003  -6.7825475797852249E-004   6.4956190122171034E-002
   3.1926757980684888E-003   2.1791475644178382E-004   6.5109647649299995E-002
  -6.2396609081472043E-005  -4.7829628178103212E-004   6.6627904543707872E-002
  -5.6574644143186914E-006  -5.3244013012992975E-004   6.6602500132713904E-002
   5.1081680252831191E-005  -1.0643956704650681E-005   6.6750470426702430E-002
   1.0782082491998281E-004   1.0870922384954400E-003   6.7071815425673711E-002
   1.6455996958712749E-004   2.7607684554702416E-003   6.7566535129627958E-002
   1.7276437345248655E-006   0.0000000000000000        2.8444459035118594E-002
   1.3036888939187141E-006  -4.2841857307400477E-007   3.3405601963502826E-002
   8.7973405331451433E-007  -3.8079264347637420E-007   3.8374858262809175E-002
   4.5577921271020613E-007   1.4287778878768753E-007   4.3352227933037682E-002
   3.1824372104163196E-008   1.1425927237199152E-006   4.8337710974188333E-002
  -6.7991253209606865E-003   0.0000000000000000        2.8507949843015915E-002
  -6.8310014587030597E-003   1.4625735600283778E-004   3.3543183345235407E-002
  -6.8628775964454320E-003   3.2973331077325828E-004   3.8507399110729229E-002
  -6.8947537341878060E-003   5.5042786431126409E-004   4.3400597139497357E-002
  -6.9266298719301792E-003   8.0834101661685608E-004   4.8222777431539833E-002
  -1.3505169479631851E-002   0.0000000000000000        2.8699755148356688E-002
  -1.3647628907923806E-002   2.9294313057874784E-004   3.3845821778676365E-002
  -1.3790088336215759E-002   6.5984741418999467E-004   3.8841739564622543E-002
  -1.3932547764507716E-002   1.1007128508337440E-003   4.3687508506195238E-002
  -1.4075007192799671E-002   1.6155394405099888E-003   4.8383128603394436E-002
  -2.0116404832278965E-002   0.0000000000000000        2.9019874951140914E-002
  -2.0448578658768316E-002   4.3962890515465876E-004   3.4313517263825685E-002
  -2.0780752485257670E-002   9.8996151760673105E-004   3.9377879624489159E-002
  -2.1112926311747025E-002   1.6509978373562204E-003   4.4212962033131312E-002
  -2.1445100138236375E-002   2.4227378644031197E-003   4.8818764489752170E-002
  -2.6632831378902030E-002   0.0000000000000000        2.9468309251368591E-002
  -2.7233850711236594E-002   5.8631467973056881E-004   3.4946269800683376E-002
  -2.7834870043571162E-002   1.3200756210234657E-003   4.0115819290329043E-002
  -2.8435889375905729E-002   2.2012828238787002E-003   4.4976957720305591E-002
  -2.9036908708240293E-002   3.2299362882962568E-003   4.9529685090613014E-002
   3.1824372104163196E-008   1.1425927237199152E-006   4.8337710974188333E-002
   7.6776593359046547E-007   1.8674578158243277E-006   5.1507219050440561E-002
   1.5037074950795867E-006   1.5665787196032094E-006   5.4540142487027168E-002
   2.2396490565677321E-006   2.3995543505525921E-007   5.7436481283948154E-002
   2.9755906180550101E-006  -2.1124120378399058E-006   6.0196235441203498E-002
  -6.9266298719301792E-003   8.0834101661685608E-004   4.8222777431539833E-002
  -7.0329139382832324E-003   1.0632848223846251E-003   5.1178042996960146E-002
  -7.1391980046362864E-003   1.2750713363091459E-003   5.4055853186217008E-002
  -7.2454820709893404E-003   1.4437005583904467E-003   5.6856207999310418E-002
  -7.3517661373423953E-003   1.5691724886284925E-003   5.9579107436240356E-002
  -1.4075007192799671E-002   1.6155394405099888E-003   4.8383128603394436E-002
  -1.4229182003565100E-002   2.1247021869534146E-003   5.1082020110327947E-002
  -1.4383356814330530E-002   2.5485760938986956E-003   5.3762585504600162E-002
  -1.4537531625095957E-002   2.8871611613458343E-003   5.6424824786211088E-002
  -1.4691706435861387E-002   3.1404573892948213E-003   5.9068737955160731E-002
  -2.1445100138236375E-002   2.4227378644031197E-003   4.8818764489752170E-002
  -2.1588036429912014E-002   3.1861195515222097E-003   5.1219150390543935E-002
  -2.1730972721587645E-002   3.8220808514882348E-003   5.3660339442176602E-002
  -2.1873909013263283E-002   4.3306217643012106E-003   5.6142331644650129E-002
  -2.2016845304938908E-002   4.7117422899611520E-003   5.8665126997964556E-002
  -2.9036908708240293E-002   3.2299362882962568E-003   4.9529685090613014E-002
  -2.9109477217323963E-002   4.2475369160910091E-003   5.1589433837608160E-002
  -2.9182045726407639E-002   5.0955856090777948E-003   5.3749114998946357E-002
  -2.9254614235491319E-002   5.7740823672566190E-003   5.6008728574627582E-002
  -2.9327182744574985E-002   6.2830271906274757E-003   5.8368274564651886E-002
   2.9755906180550101E-006  -2.1124120378399058E-006   6.0196235441203498E-002
  -2.0376484351474627E-007  -2.9331959370548777E-006   6.1086245467395578E-002
  -3.3831203050819006E-006   3.3493149940479194E-007   6.2116558198179114E-002
  -6.5624757666473202E-006   7.6919702715152506E-006   6.3287173633554114E-002
  -9.7418312282188113E-006   1.9137920379275197E-005   6.4598091773520577E-002
  -7.3517661373423953E-003   1.5691724886284925E-003   5.9579107436240356E-002
  -7.2279161202091005E-003   1.6660624096979867E-003   6.0465686652298199E-002
  -7.1040661030758049E-003   1.7489456042736051E-003   6.1466021908954310E-002
  -6.9802160859425092E-003   1.8178220723553198E-003   6.2580113206208710E-002
  -6.8563660688092127E-003   1.8726918139431448E-003   6.3807960544061362E-002
  -1.4691706435861387E-002   3.1404573892948213E-003   5.9068737955160731E-002
  -1.4467373710126406E-002   3.3350580153330284E-003   5.9933790723254776E-002
  -1.4243040984391428E-002   3.4975562770478046E-003   6.0886052867953906E-002
  -1.4018708258656448E-002   3.6279521744391240E-003   6.1925524389258142E-002
  -1.3794375532921468E-002   3.7262457075070143E-003   6.3052205287167443E-002
  -2.2016845304938908E-002   4.7117422899611520E-003   5.8665126997964556E-002
  -2.1718576534595434E-002   5.0040536209680839E-003   5.9490557680265239E-002
  -2.1420307764251953E-002   5.2461669498219763E-003   6.0376651075177874E-002
  -2.1122038993908476E-002   5.4380822765229568E-003   6.1323407182702405E-002
  -2.0823770223564991E-002   5.5797996010708978E-003   6.2330826002838860E-002
  -2.9327182744574985E-002   6.2830271906274757E-003   5.8368274564651886E-002
  -2.8981524593616179E-002   6.6730492266031220E-003   5.9135987523329700E-002
  -2.8635866442657379E-002   6.9947776225961714E-003   5.9937816530626242E-002
  -2.8290208291698572E-002   7.2482123786067523E-003   6.0773761586541512E-002
  -2.7944550140739766E-002   7.4333534946347396E-003   6.1643822691075531E-002
  -9.7418312282188113E-006   1.9137920379275197E-005   6.4598091773520577E-002
  -1.0716774619912509E-005   2.8786963469890070E-005   6.4812624380379047E-002
  -1.1691718011607941E-005   3.0753281190509796E-005   6.5152076020605659E-002
  -1.2666661403300770E-005   2.5036873541189886E-005   6.5616446694200387E-002
  -1.3641604794997070E-005   1.1637740521930340E-005   6.6205736401163257E-002
  -6.8563660688092127E-003   1.8726918139431448E-003   6.3807960544061362E-002
  -6.7180320989169975E-003   1.9074837951691195E-003   6.3928582044504495E-002
  -6.5796981290247789E-003   1.9161269821652005E-003   6.4202902338147336E-002
  -6.4413641591325628E-003   1.8986213749314154E-003   6.4630921424989857E-002
  -6.3030301892403450E-003   1.8549669734677643E-003   6.5212639305032113E-002
  -1.3794375532921468E-002   3.7262457075070143E-003   6.3052205287167443E-002
  -1.3487952889913741E-002   3.7861806268683212E-003   6.3060449612335270E-002
  -1.3181530246906019E-002   3.8015006831398357E-003   6.3251172490534455E-002
  -1.2875107603898294E-002   3.7722058763216409E-003   6.3624373921764912E-002
  -1.2568684960890576E-002   3.6982962064136815E-003   6.4180053906026657E-002
  -2.0823770223564991E-002   5.5797996010708978E-003   6.2330826002838860E-002
  -2.0320479147610159E-002   5.6648774585675368E-003   6.2208227083871560E-002
  -1.9817188071655334E-002   5.6868743841144986E-003   6.2296886477767127E-002
  -1.9313896995700509E-002   5.6457903777118665E-003   6.2596804184525623E-002
  -1.8810605919745677E-002   5.5416254393595710E-003   6.3107980204147013E-002
  -2.7944550140739766E-002   7.4333534946347396E-003   6.1643822691075531E-002
  -2.7215610872006246E-002   7.5435742902667108E-003   6.1371914459113136E-002
  -2.6486671603272713E-002   7.5722480850891442E-003   6.1340044299845291E-002
  -2.5757732334539180E-002   7.5193748791020877E-003   6.1548212213271905E-002
  -2.5028793065805657E-002   7.3849546723054327E-003   6.1996418199393000E-002
  -1.3641604794997070E-005   1.1637740521930340E-005   6.6205736401163257E-002
  -1.3244008353022196E-005  -6.7965430507327396E-006   6.5871624593037331E-002
  -1.2846411911045588E-005  -2.7618402360055083E-005   6.5734991643300517E-002
  -1.2448815469067245E-005  -5.0827837406026283E-005   6.5795837551952757E-002
  -1.2051219027094107E-005  -7.6424848188871852E-005   6.6054162318994247E-002
  -6.3030301892403450E-003   1.8549669734677643E-003   6.5212639305032113E-002
  -6.1096567199366300E-003   1.7968930959812307E-003   6.4895219457397582E-002
  -5.9162832506329055E-003   1.7361290606785484E-003   6.4766272497097460E-002
  -5.7229097813291819E-003   1.6726748675599812E-003   6.4825798424131692E-002
  -5.5295363120254661E-003   1.6065305166251820E-003   6.5073797238500319E-002
  -1.2568684960890576E-002   3.6982962064136815E-003   6.4180053906026657E-002
  -1.2191341589779820E-002   3.6005827350131317E-003   6.3879023436804142E-002
  -1.1813998218669072E-002   3.4998765237171589E-003   6.3757459883861389E-002
  -1.1436654847558314E-002   3.3961775725258794E-003   6.3815363247198262E-002
  -1.1059311476447568E-002   3.2894858814391525E-003   6.4052733526814801E-002
  -1.8810605919745677E-002   5.5416254393595710E-003   6.3107980204147013E-002
  -1.8258298617882605E-002   5.4042723740450639E-003   6.2823036531257259E-002
  -1.7705991316019534E-002   5.2636239867557659E-003   6.2708553803592332E-002
  -1.7153684014156474E-002   5.1196802774918599E-003   6.2764532021152536E-002
  -1.6601376712293402E-002   4.9724412462531370E-003   6.2990971183937622E-002
  -2.5028793065805657E-002   7.3849546723054327E-003   6.1996418199393000E-002
  -2.4310527804244988E-002   7.2079620130769961E-003   6.1727258740756574E-002
  -2.3592262542684310E-002   7.0273714497943868E-003   6.1619554256290371E-002
  -2.2873997281123638E-002   6.8431829824578717E-003   6.1673304745994417E-002
  -2.2155732019562967E-002   6.6553966110671214E-003   6.1888510209868686E-002
  -1.2051219027094107E-005  -7.6424848188871852E-005   6.6054162318994247E-002
   6.8683585262990787E-007  -8.9368738190265251E-005   6.5901799471987821E-002
   1.3424890732357392E-005  -7.4618810892726484E-005   6.5970084148974095E-002
   2.6162945612083141E-005  -3.2175066295731664E-005   6.6259016349953112E-002
   3.8901000491808890E-005   3.7962495600341040E-005   6.6768596074924913E-002
  -5.5295363120254661E-003   1.6065305166251820E-003   6.5073797238500319E-002
  -5.2949876399346636E-003   1.5444742809249401E-003   6.4929587516080661E-002
  -5.0604389678438576E-003   1.4932844335099338E-003   6.5008351504090539E-002
  -4.8258902957530516E-003   1.4529609743800381E-003   6.5310089202529856E-002
  -4.5913416236622491E-003   1.4235039035352948E-003   6.5834800611398459E-002
  -1.1059311476447568E-002   3.2894858814391525E-003   6.4052733526814801E-002
  -1.0600626000708969E-002   3.1783173000402287E-003   6.3899849499967937E-002
  -1.0141940524970382E-002   3.0611876779124900E-003   6.3972265369987208E-002
  -9.6832550492317818E-003   2.9380970150558652E-003   6.4269981136872642E-002
  -9.2245695734932028E-003   2.8090453114702763E-003   6.4792996800624308E-002
  -1.6601376712293402E-002   4.9724412462531370E-003   6.2990971183937622E-002
  -1.5916228246470304E-002   4.8121603191555035E-003   6.2812585423649439E-002
  -1.5231079780647219E-002   4.6290909223149872E-003   6.2861825746664185E-002
  -1.4545931314824127E-002   4.4232330557315526E-003   6.3138692152981721E-002
  -1.3860782849001033E-002   4.1945867194051883E-003   6.3643184642602185E-002
  -2.2155732019562967E-002   6.6553966110671214E-003   6.1888510209868686E-002
  -2.1241794377218667E-002   6.4460033382707782E-003   6.1667795287125238E-002
  -2.0327856734874365E-002   6.1969941667176648E-003   6.1677032634121304E-002
  -1.9413919092530055E-002   5.9083690964073683E-003   6.1916222250856981E-002
  -1.8499981450185762E-002   5.5801281273401560E-003   6.2385364137332200E-002
   3.8901000491808890E-005   3.7962495600341040E-005   6.6768596074924913E-002
   1.3576598098485188E-005   6.8684674923324973E-005   6.6416190224786953E-002
  -1.1747804294831576E-005  -7.1177281992795827E-006   6.6275273019538061E-002
  -3.7072206688146606E-005  -1.8944471376741712E-004   6.6345844459178321E-002
  -6.2396609081472043E-005  -4.7829628178103212E-004   6.6627904543707872E-002
  -4.5913416236622491E-003   1.4235039035352948E-003   6.5834800611398459E-002
  -4.4090291356882853E-003   1.3708588541614386E-003   6.5393674217167352E-002
  -4.2267166477143181E-003   1.2609714594444266E-003   6.5156332958781649E-002
  -4.0444041597403604E-003   1.0938417193841893E-003   6.5122776836241431E-002
  -3.8620916717663871E-003   8.6946963398071286E-004   6.5293005849546504E-002
  -9.2245695734932028E-003   2.8090453114702763E-003   6.4792996800624308E-002
  -8.8423237041956818E-003   2.6730330333997465E-003   6.4312432099402211E-002
  -8.4600778348981644E-003   2.5290606470882437E-003   6.4027949024981878E-002
  -8.0778319656006538E-003   2.3771281525358512E-003   6.3939547577363337E-002
  -7.6955860963031381E-003   2.2172355497423191E-003   6.4047227756546268E-002
  -1.3860782849001033E-002   4.1945867194051883E-003   6.3643184642602185E-002
  -1.3286307107423699E-002   3.9752072126380683E-003   6.3172463871491460E-002
  -1.2711831365846369E-002   3.7971498347320609E-003   6.2890121218138903E-002
  -1.2137355624269031E-002   3.6604145856872633E-003   6.2796156682544124E-002
  -1.1562879882691704E-002   3.5650014655039391E-003   6.2890570264707540E-002
  -1.8499981450185762E-002   5.5801281273401560E-003   6.2385364137332200E-002
  -1.7740979345372342E-002   5.2773813918761403E-003   6.1973769533435197E-002
  -1.6981977240558922E-002   5.0652390223757948E-003   6.1742849538252431E-002
  -1.6222975135745509E-002   4.9437010188389321E-003   6.1692604151783959E-002
  -1.5463973030932089E-002   4.9127673812656147E-003   6.1823033374029668E-002
  -6.2396609081472043E-005  -4.7829628178103212E-004   6.6627904543707872E-002
  -5.6574644143186914E-006  -5.3244013012992975E-004   6.6602500132713904E-002
   5.1081680252831191E-005  -1.0643956704650681E-005   6.6750470426702430E-002
   1.0782082491998281E-004   1.0870922384954400E-003   6.7071815425673711E-002
   1.6455996958712749E-004   2.7607684554702416E-003   6.7566535129627958E-002
  -3.8620916717663871E-003   8.6946963398071286E-004   6.5293005849546504E-002
  -3.6183447484933462E-003   7.7794399782984969E-004   6.5696872783135435E-002
  -3.3745978252202932E-003   1.0093536055278407E-003   6.6301380568953405E-002
  -3.1308509019472488E-003   1.5636984570741724E-003   6.7106529207000540E-002
  -2.8871039786741992E-003   2.4409785524692751E-003   6.8112318697276519E-002
  -7.6955860963031381E-003   2.2172355497423191E-003   6.4047227756546268E-002
  -7.2375652471778611E-003   2.0883281257898234E-003   6.4627361256792304E-002
  -6.7795443980525781E-003   2.0293511677598394E-003   6.5435401756513523E-002
  -6.3215235489273037E-003   2.0403046756526846E-003   6.6471349255710382E-002
  -5.8635026998020319E-003   2.1211886494681975E-003   6.7735203754382467E-002
  -1.1562879882691704E-002   3.5650014655039391E-003   6.2890570264707540E-002
  -1.0863318960467869E-002   3.3987122537498110E-003   6.3393965553684456E-002
  -1.0163758038244044E-002   3.0493487299920290E-003   6.4152533989383115E-002
  -9.4641971160202044E-003   2.5169108942312514E-003   6.5166275571803711E-002
  -8.7646361937963845E-003   1.8013987464671755E-003   6.6435190300945760E-002
  -1.5463973030932089E-002   4.9127673812656147E-003   6.1823033374029668E-002
  -1.4495605888363391E-002   4.7090963817097431E-003   6.1996685673811780E-002
  -1.3527238745794659E-002   4.0693462922242324E-003   6.2452777267561904E-002
  -1.2558871603225934E-002   2.9935171128098216E-003   6.3191308155280138E-002
  -1.1590504460657236E-002   1.4816088434661534E-003   6.4212278336966522E-002
  -2.6632831378902030E-002   0.0000000000000000        2.9468309251368591E-002
  -2.7233850711236594E-002   5.8631467973056881E-004   3.4946269800683376E-002
  -2.7834870043571162E-002   1.3200756210234657E-003   4.0115819290329043E-002
  -2.8435889375905729E-002   2.2012828238787002E-003   4.4976957720305591E-002
  -2.9036908708240293E-002   3.2299362882962568E-003   4.9529685090613014E-002
  -3.3391973543473404E-002   0.0000000000000000        3.0179144121138271E-002
  -3.4236164213201817E-002   9.6059766409417689E-004   3.5267346955093051E-002
  -3.5080354882930223E-002   2.0242342751968035E-003   4.0177618173929265E-002
  -3.5924545552658643E-002   3.1909098333078745E-003   4.4909957777646906E-002
  -3.6768736222387043E-002   4.4606243384274066E-003   4.9464365766246007E-002
  -4.0731355749965462E-002   0.0000000000000000        3.1286465632548492E-002
  -4.1688238312537144E-002   1.3348806484577837E-003   3.5940503436589381E-002
  -4.2645120875108855E-002   2.7283929293701360E-003   4.0547089070062263E-002
  -4.3602003437680552E-002   4.1805368427370558E-003   4.5106222532967123E-002
  -4.4558886000252249E-002   5.6913123885585469E-003   4.9617903825303983E-002
  -4.8650977998378184E-002   0.0000000000000000        3.2790273785599268E-002
  -4.9590073009242612E-002   1.7091636328213902E-003   3.6965739245172394E-002
  -5.0529168020107054E-002   3.4325515835434690E-003   4.1224231978728064E-002
  -5.1468263030971489E-002   5.1701638521662371E-003   4.5565751986266265E-002
  -5.2407358041835932E-002   6.9220004386896881E-003   4.9990299267787017E-002
  -5.7150840288711577E-002   0.0000000000000000        3.4690568580290584E-002
  -5.7941668303318192E-002   2.0834466171849985E-003   3.8343054380842061E-002
  -5.8732496317924807E-002   4.1367102377168046E-003   4.2209046899926633E-002
  -5.9523324332531422E-002   6.1597908615954131E-003   4.6288546137544295E-002
  -6.0314152347138036E-002   8.1526884888208362E-003   5.0581552093695061E-002
  -2.9036908708240293E-002   3.2299362882962568E-003   4.9529685090613014E-002
  -2.9109477217323963E-002   4.2475369160910091E-003   5.1589433837608160E-002
  -2.9182045726407639E-002   5.0955856090777948E-003   5.3749114998946357E-002
  -2.9254614235491319E-002   5.7740823672566190E-003   5.6008728574627582E-002
  -2.9327182744574985E-002   6.2830271906274757E-003   5.8368274564651886E-002
  -3.6768736222387043E-002   4.4606243384274066E-003   4.9464365766246007E-002
  -3.6780413578180682E-002   5.6937674618263538E-003   5.1253884165840896E-002
  -3.6792090933974307E-002   6.7507288747757025E-003   5.3065252457672844E-002
  -3.6803768289767939E-002   7.6315085772754587E-003   5.4898470641741831E-002
  -3.6815445645561565E-002   8.3361065693256103E-003   5.6753538718047863E-002
  -4.4558886000252249E-002   5.6913123885585469E-003   4.9617903825303983E-002
  -4.4587754724861851E-002   7.1399980075617046E-003   5.1130562101857020E-002
  -4.4616623449471440E-002   8.4058721404736310E-003   5.2586987748541071E-002
  -4.4645492174081036E-002   9.4889347872943262E-003   5.3987180765356184E-002
  -4.4674360898690646E-002   1.0389185948023762E-002   5.5331141152302289E-002
  -5.2407358041835932E-002   6.9220004386896881E-003   4.9990299267787017E-002
  -5.2531500657367496E-002   8.5862285532970536E-003   5.1219467645656526E-002
  -5.2655643272899059E-002   1.0061015406171542E-002   5.2314320871551065E-002
  -5.2779785888430637E-002   1.1346360997313168E-002   5.3274858945470627E-002
  -5.2903928503962194E-002   1.2442265326721913E-002   5.4101081867415197E-002
  -6.0314152347138036E-002   8.1526884888208362E-003   5.0581552093695061E-002
  -6.0611651375697594E-002   1.0032459099032403E-002   5.1520600797239427E-002
  -6.0909150404257144E-002   1.1716158671869471E-002   5.2247251826702798E-002
  -6.1206649432816687E-002   1.3203787207332044E-002   5.2761505182085201E-002
  -6.1504148461376237E-002   1.4495344705420049E-002   5.3063360863386602E-002
  -2.9327182744574985E-002   6.2830271906274757E-003   5.8368274564651886E-002
  -2.8981524593616179E-002   6.6730492266031220E-003   5.9135987523329700E-002
  -2.8635866442657379E-002   6.9947776225961714E-003   5.9937816530626242E-002
  -2.8290208291698572E-002   7.2482123786067523E-003   6.0773761586541512E-002
  -2.7944550140739766E-002   7.4333534946347396E-003   6.1643822691075531E-002
  -3.6815445645561565E-002   8.3361065693256103E-003   5.6753538718047863E-002
  -3.6383595833314381E-002   8.8790584694335845E-003   5.7094972880544131E-002
  -3.5951746021067203E-002   9.2748998961066399E-003   5.7574674316998441E-002
  -3.5519896208820019E-002   9.5236308493448427E-003   5.8192643027410750E-002
  -3.5088046396572842E-002   9.6252513291482100E-003   5.8948879011781100E-002
  -4.4674360898690646E-002   1.0389185948023762E-002   5.5331141152302289E-002
  -4.4052168199815805E-002   1.1085067712264021E-002   5.5167479685164708E-002
  -4.3429975500940930E-002   1.1555022169617051E-002   5.5246236717324440E-002
  -4.2807782802066076E-002   1.1799049320082976E-002   5.5567412248781506E-002
  -4.2185590103191214E-002   1.1817149163661660E-002   5.6131006279535878E-002
  -5.2903928503962194E-002   1.2442265326721913E-002   5.4101081867415197E-002
  -5.1987241693120363E-002   1.3291076955094471E-002   5.3353507937191444E-002
  -5.1070554882278567E-002   1.3835144443127520E-002   5.2952503731604303E-002
  -5.0153868071436736E-002   1.4074467790821102E-002   5.2898069250653726E-002
  -4.9237181260594932E-002   1.4009046998175147E-002   5.3190204494339810E-002
  -6.1504148461376237E-002   1.4495344705420049E-002   5.3063360863386602E-002
  -6.0188816313228172E-002   1.5497086197924916E-002   5.1653057636624339E-002
  -5.8873484165080099E-002   1.6115266716637947E-002   5.0693475359837981E-002
  -5.7558152016932027E-002   1.6349886261559195E-002   5.0184614033027534E-002
  -5.6242819868783954E-002   1.6200944832688580E-002   5.0126473656192938E-002
  -2.7944550140739766E-002   7.4333534946347396E-003   6.1643822691075531E-002
  -2.7215610872006246E-002   7.5435742902667108E-003   6.1371914459113136E-002
  -2.6486671603272713E-002   7.5722480850891442E-003   6.1340044299845291E-002
  -2.5757732334539180E-002   7.5193748791020877E-003   6.1548212213271905E-002
  -2.5028793065805657E-002   7.3849546723054327E-003   6.1996418199393000E-002
  -3.5088046396572842E-002   9.6252513291482100E-003   5.8948879011781100E-002
  -3.4129400193577020E-002   9.6227029574314574E-003   5.8641205075393742E-002
  -3.3170753990581184E-002   9.5589273561093729E-003   5.8552906934836495E-002
  -3.2212107787585355E-002   9.4339245251818006E-003   5.8683984590109400E-002
  -3.1253461584589540E-002   9.2476944646489589E-003   5.9034438041212223E-002
  -4.2185590103191214E-002   1.1817149163661660E-002   5.6131006279535878E-002
  -4.1017899242797501E-002   1.1701831624596183E-002   5.5807886409927746E-002
  -3.9850208382403773E-002   1.1545606627129492E-002   5.5683480059285299E-002
  -3.8682517522010046E-002   1.1348474171261584E-002   5.5757787227608505E-002
  -3.7514826661616332E-002   1.1110434256992430E-002   5.6030807914897507E-002
  -4.9237181260594932E-002   1.4009046998175147E-002   5.3190204494339810E-002
  -4.7881108019667690E-002   1.3780960291760864E-002   5.2871958462715044E-002
  -4.6525034778740489E-002   1.3532285898149681E-002   5.2731763673191497E-002
  -4.5168961537813253E-002   1.3263023817341289E-002   5.2769620125769384E-002
  -4.3812888296886038E-002   1.2973174049335956E-002   5.2985527820448394E-002
  -5.6242819868783954E-002   1.6200944832688580E-002   5.0126473656192938E-002
  -5.4719026524187635E-002   1.5860088958925669E-002   4.9833421233755684E-002
  -5.3195233179591295E-002   1.5518965169169827E-002   4.9697757776555315E-002
  -5.1671439834994976E-002   1.5177573463421062E-002   4.9719483284591803E-002
  -5.0147646490398656E-002   1.4835913841679427E-002   4.9898597757865204E-002
  -2.5028793065805657E-002   7.3849546723054327E-003   6.1996418199393000E-002
  -2.4310527804244988E-002   7.2079620130769961E-003   6.1727258740756574E-002
  -2.3592262542684310E-002   7.0273714497943868E-003   6.1619554256290371E-002
  -2.2873997281123638E-002   6.8431829824578717E-003   6.1673304745994417E-002
  -2.2155732019562967E-002   6.6553966110671214E-003   6.1888510209868686E-002
  -3.1253461584589540E-002   9.2476944646489589E-003   5.9034438041212223E-002
  -3.0366942850514660E-002   9.0233131455243892E-003   5.8726043926860885E-002
  -2.9480424116439759E-002   8.7838565388220630E-003   5.8592701783367673E-002
  -2.8593905382364875E-002   8.5293246445416714E-003   5.8634411610732740E-002
  -2.7707386648289967E-002   8.2597174626833914E-003   5.8851173408955793E-002
  -3.7514826661616332E-002   1.1110434256992430E-002   5.6030807914897507E-002
  -3.6446457458339285E-002   1.0838664277971893E-002   5.5671701761307299E-002
  -3.5378088255062237E-002   1.0540341627849566E-002   5.5501244575263252E-002
  -3.4309719051785197E-002   1.0215466306625497E-002   5.5519436356765275E-002
  -3.3241349848508177E-002   9.8640383142996890E-003   5.5726277105813571E-002
  -4.3812888296886038E-002   1.2973174049335956E-002   5.2985527820448394E-002
  -4.2549071627718926E-002   1.2654015410419217E-002   5.2564232244095677E-002
  -4.1285254958551759E-002   1.2296826716877072E-002   5.2345182631977002E-002
  -4.0021438289384641E-002   1.1901607968709281E-002   5.2328378984092393E-002
  -3.8757621620217474E-002   1.1468359165916056E-002   5.2513821300441813E-002
  -5.0147646490398656E-002   1.4835913841679427E-002   4.9898597757865204E-002
  -4.8674785358653494E-002   1.4469366542866804E-002   4.9403635375226129E-002
  -4.7201924226908332E-002   1.4053311805904689E-002   4.9124515953508918E-002
  -4.5729063095163169E-002   1.3587749630793192E-002   4.9061239492713835E-002
  -4.4256201963418021E-002   1.3072680017532312E-002   4.9213805992840642E-002
  -2.2155732019562967E-002   6.6553966110671214E-003   6.1888510209868686E-002
  -2.1241794377218667E-002   6.4460033382707782E-003   6.1667795287125238E-002
  -2.0327856734874365E-002   6.1969941667176648E-003   6.1677032634121304E-002
  -1.9413919092530055E-002   5.9083690964073683E-003   6.1916222250856981E-002
  -1.8499981450185762E-002   5.5801281273401560E-003   6.2385364137332200E-002
  -2.7707386648289967E-002   8.2597174626833914E-003   5.8851173408955793E-002
  -2.6564727310012370E-002   7.9684525200787726E-003   5.8612991274579029E-002
  -2.5422067971734769E-002   7.6489473435594757E-003   5.8602300262329349E-002
  -2.4279408633457181E-002   7.3012019331254036E-003   5.8819100372206695E-002
  -2.3136749295179573E-002   6.9252162887765700E-003   5.9263391604210985E-002
  -3.3241349848508177E-002   9.8640383142996890E-003   5.5726277105813571E-002
  -3.1872429961909768E-002   9.4909017018868502E-003   5.5482003424645765E-002
  -3.0503510075311390E-002   9.1009005204014462E-003   5.5462759717992437E-002
  -2.9134590188712992E-002   8.6940347698434926E-003   5.5668545985853649E-002
  -2.7765670302114607E-002   8.2703044502131229E-003   5.6099362228229394E-002
  -3.8757621620217474E-002   1.1468359165916056E-002   5.2513821300441813E-002
  -3.7164902332910851E-002   1.1013350883694886E-002   5.2274831737325098E-002
  -3.5572183045604208E-002   1.0552853697243365E-002   5.2258411001110505E-002
  -3.3979463758297572E-002   1.0086867606561609E-002   5.2464559091797931E-002
  -3.2386744470990943E-002   9.6153926116495508E-003   5.2893276009387265E-002
  -4.4256201963418021E-002   1.3072680017532312E-002   4.9213805992840642E-002
  -4.2442144423015624E-002   1.2535800065502950E-002   4.8991476212617402E-002
  -4.0628086882613247E-002   1.2004806874085214E-002   4.8989254111683700E-002
  -3.8814029342210843E-002   1.1479700443279669E-002   4.9207139690039439E-002
  -3.6999971801808459E-002   1.0960480773086145E-002   4.9645132947684634E-002
  -1.8499981450185762E-002   5.5801281273401560E-003   6.2385364137332200E-002
  -1.7740979345372342E-002   5.2773813918761403E-003   6.1973769533435197E-002
  -1.6981977240558922E-002   5.0652390223757948E-003   6.1742849538252431E-002
  -1.6222975135745509E-002   4.9437010188389321E-003   6.1692604151783959E-002
  -1.5463973030932089E-002   4.9127673812656147E-003   6.1823033374029668E-002
  -2.3136749295179573E-002   6.9252162887765700E-003   5.9263391604210985E-002
  -2.2201003367575550E-002   6.5628771150832710E-003   5.8928781823043785E-002
  -2.1265257439971551E-002   6.2560711166158578E-003   5.8766985078743797E-002
  -2.0329511512367532E-002   6.0047982933741917E-003   5.8778001371310527E-002
  -1.9393765584763530E-002   5.8090586453584669E-003   5.8961830700744289E-002
  -2.7765670302114607E-002   8.2703044502131229E-003   5.6099362228229394E-002
  -2.6661042123567274E-002   7.8483728382904711E-003   5.5806666079054351E-002
  -2.5556413945019937E-002   7.4469032108559069E-003   5.5678921394898925E-002
  -2.4451785766472594E-002   7.0658955679095033E-003   5.5716128175763276E-002
  -2.3347157587925271E-002   6.7053499094512359E-003   5.5918286421647326E-002
  -3.2386744470990943E-002   9.6153926116495508E-003   5.2893276009387265E-002
  -3.1121095613347482E-002   9.1338685614975809E-003   5.2607422301466575E-002
  -2.9855446755704087E-002   8.6377353050961017E-003   5.2478658486718371E-002
  -2.8589797898060668E-002   8.1269928424448443E-003   5.2506984565142613E-002
  -2.7324149040417231E-002   7.6016411735440464E-003   5.2692400536739181E-002
  -3.6999971801808459E-002   1.0960480773086145E-002   4.9645132947684634E-002
  -3.5581163836916230E-002   1.0419364284704802E-002   4.9331050490280637E-002
  -3.4162355872024007E-002   9.8285673993359912E-003   4.9166196354201719E-002
  -3.2743547907131770E-002   9.1880901169801230E-003   4.9150570539448046E-002
  -3.1324739942239541E-002   8.4979324376368015E-003   4.9284173046019453E-002
  -1.5463973030932089E-002   4.9127673812656147E-003   6.1823033374029668E-002
  -1.4495605888363391E-002   4.7090963817097431E-003   6.1996685673811780E-002
  -1.3527238745794659E-002   4.0693462922242324E-003   6.2452777267561904E-002
  -1.2558871603225934E-002   2.9935171128098216E-003   6.3191308155280138E-002
  -1.1590504460657236E-002   1.4816088434661534E-003   6.4212278336966522E-002
  -1.9393765584763530E-002   5.8090586453584669E-003   5.8961830700744289E-002
  -1.8153994072098445E-002   5.5091382325386518E-003   5.8750861729942677E-002
  -1.6914222559433412E-002   4.9453231148845062E-003   5.8800262205365911E-002
  -1.5674451046768317E-002   4.1176132923964083E-003   5.9110032127013754E-002
  -1.4434679534103288E-002   3.0260087650740841E-003   5.9680171494886136E-002
  -2.3347157587925271E-002   6.7053499094512359E-003   5.5918286421647326E-002
  -2.1858051552907216E-002   6.3091800833675327E-003   5.5494880565357244E-002
  -2.0368945517889148E-002   5.8212999375446065E-003   5.5309774307548500E-002
  -1.8879839482871127E-002   5.2417094719828267E-003   5.5362967648221129E-002
  -1.7390733447853055E-002   4.5704086866819038E-003   5.5654460587374832E-002
  -2.7324149040417231E-002   7.6016411735440464E-003   5.2692400536739181E-002
  -2.5607778330789605E-002   7.1092219341964830E-003   5.2228742180055604E-002
  -2.3891407621162004E-002   6.6972767602047935E-003   5.1981313574110025E-002
  -2.2175036911534367E-002   6.3658056515693293E-003   5.1950114718902422E-002
  -2.0458666201906749E-002   6.1148086082897790E-003   5.2135145614432374E-002
  -3.1324739942239541E-002   8.4979324376368015E-003   4.9284173046019453E-002
  -2.9403174405745733E-002   7.9092637850254888E-003   4.8952446574037634E-002
  -2.7481608869251876E-002   7.5732535828650221E-003   4.8814880005050160E-002
  -2.5560043332757996E-002   7.4899018311558145E-003   4.8871473339057267E-002
  -2.3638477796264212E-002   7.6592085298976542E-003   4.9122226576058914E-002
  -5.7150840288711577E-002   0.0000000000000000        3.4690568580290584E-002
  -5.7941668303318192E-002   2.0834466171849985E-003   3.8343054380842061E-002
  -5.8732496317924807E-002   4.1367102377168046E-003   4.2209046899926633E-002
  -5.9523324332531422E-002   6.1597908615954131E-003   4.6288546137544295E-002
  -6.0314152347138036E-002   8.1526884888208362E-003   5.0581552093695061E-002
  -6.5819077482290655E-002   0.0000000000000000        3.7211024363008410E-002
  -6.6625380751437244E-002   2.9137891960784807E-003   4.0834342673743973E-002
  -6.7431684020583804E-002   5.7704098844658172E-003   4.4213203756866534E-002
  -6.8237987289730379E-002   8.5698620651620122E-003   4.7347607612376080E-002
  -6.9044290558876925E-002   1.1312145738167061E-002   5.0237554240272646E-002
  -7.4243824440440448E-002   0.0000000000000000        4.0575315480138693E-002
  -7.5523566910273066E-002   3.7441317749719620E-003   4.4142480790020380E-002
  -7.6803309380105683E-002   7.4041095312148307E-003   4.7007224926142982E-002
  -7.8083051849938329E-002   1.0979933268728606E-002   4.9169547888506464E-002
  -7.9362794319770918E-002   1.4471602987513286E-002   5.0629449677110867E-002
  -8.2425081163160926E-002   0.0000000000000000        4.4783441931681434E-002
  -8.4636226779825713E-002   4.5744743538654441E-003   4.8267468729671310E-002
  -8.6847372396490458E-002   9.0378091779638441E-003   5.0591110407755983E-002
  -8.9058518013155244E-002   1.3390004472295203E-002   5.1754366965935480E-002
  -9.1269663629820016E-002   1.7631060236859498E-002   5.1757238404209753E-002
  -9.0362847650452105E-002   0.0000000000000000        4.9835403717636624E-002
  -9.3963360360095116E-002   5.4048169327589254E-003   5.3209306492696735E-002
  -9.7563873069738141E-002   1.0671508824712857E-002   5.4964860201705545E-002
 -0.10116438577938115        1.5800075675861790E-002   5.5102064844663068E-002
 -0.10476489848902418        2.0790517486205737E-002   5.3620920421569289E-002
  -6.0314152347138036E-002   8.1526884888208362E-003   5.0581552093695061E-002
  -6.0611651375697594E-002   1.0032459099032403E-002   5.1520600797239427E-002
  -6.0909150404257144E-002   1.1716158671869471E-002   5.2247251826702798E-002
  -6.1206649432816687E-002   1.3203787207332044E-002   5.2761505182085201E-002
  -6.1504148461376237E-002   1.4495344705420049E-002   5.3063360863386602E-002
  -6.9044290558876925E-002   1.1312145738167061E-002   5.0237554240272646E-002
  -6.9316483191789971E-002   1.3757092324530061E-002   4.9459153112905663E-002
  -6.9588675824703017E-002   1.5664533245300028E-002   4.8943762450912698E-002
  -6.9860868457616063E-002   1.7034468500477049E-002   4.8691382254293772E-002
  -7.0133061090529081E-002   1.7866898090061062E-002   4.8702012523048829E-002
  -7.9362794319770918E-002   1.4471602987513286E-002   5.0629449677110867E-002
  -7.9134272417582446E-002   1.7481725550027680E-002   4.7792164090614056E-002
  -7.8905750515393960E-002   1.9612907818730606E-002   4.5693297108946297E-002
  -7.8677228613205460E-002   2.0865149793622060E-002   4.4332848732107535E-002
  -7.8448706711016988E-002   2.1238451474702047E-002   4.3710818960097798E-002
  -9.1269663629820016E-002   1.7631060236859498E-002   5.1757238404209753E-002
  -9.0065019053074985E-002   2.1206358775525312E-002   4.6519633730364641E-002
  -8.8860374476329981E-002   2.3561282392161181E-002   4.2495855800803561E-002
  -8.7655729899584978E-002   2.4695831086767067E-002   3.9685904615526506E-002
  -8.6451085322839960E-002   2.4610004859343032E-002   3.8089780174533516E-002
 -0.10476489848902418        2.0790517486205737E-002   5.3620920421569289E-002
 -0.10210872309826764        2.4930992001022959E-002   4.5641562032157371E-002
  -9.9452547707511094E-002   2.7509656965591739E-002   3.9351438526484567E-002
  -9.6796372316754559E-002   2.8526512379912102E-002   3.4750549904550718E-002
  -9.4140196925998010E-002   2.7981558243984038E-002   3.1838896166355928E-002
  -6.1504148461376237E-002   1.4495344705420049E-002   5.3063360863386602E-002
  -6.0188816313228172E-002   1.5497086197924916E-002   5.1653057636624339E-002
  -5.8873484165080099E-002   1.6115266716637947E-002   5.0693475359837981E-002
  -5.7558152016932027E-002   1.6349886261559195E-002   5.0184614033027534E-002
  -5.6242819868783954E-002   1.6200944832688580E-002   5.0126473656192938E-002
  -7.0133061090529081E-002   1.7866898090061062E-002   4.8702012523048829E-002
  -6.8413274739651045E-002   1.8320357233786517E-002   4.7256711457747611E-002
  -6.6693488388773009E-002   1.8553381151387955E-002   4.6169597847930358E-002
  -6.4973702037894987E-002   1.8565969842865248E-002   4.5440671693597195E-002
  -6.3253915687016937E-002   1.8358123308218524E-002   4.5069932994747972E-002
  -7.8448706711016988E-002   2.1238451474702047E-002   4.3710818960097798E-002
  -7.6416999651900866E-002   2.1143628269648121E-002   4.2393645803925351E-002
  -7.4385292592784771E-002   2.0991495586137894E-002   4.1342126608745026E-002
  -7.2353585533668635E-002   2.0782053424171304E-002   4.0556261374556840E-002
  -7.0321878474552554E-002   2.0515301783748413E-002   4.0036050101360757E-002
  -8.6451085322839960E-002   2.4610004859343032E-002   3.8089780174533516E-002
  -8.4199991049977649E-002   2.3966899305509708E-002   3.7063860675157601E-002
  -8.1948896777115407E-002   2.3429610020887854E-002   3.6211061642281862E-002
  -7.9697802504253110E-002   2.2998137005477357E-002   3.5531383075906434E-002
  -7.7446708231390826E-002   2.2672480259278302E-002   3.5024824976031169E-002
  -9.4140196925998010E-002   2.7981558243984038E-002   3.1838896166355928E-002
  -9.1762248933881449E-002   2.6790170341371287E-002   3.1267356071444312E-002
  -8.9384300941764860E-002   2.5867724455637828E-002   3.0776402948540980E-002
  -8.7006352949648300E-002   2.5214220586783426E-002   3.0366036797646087E-002
  -8.4628404957531711E-002   2.4829658734808233E-002   3.0036257618759457E-002
  -5.6242819868783954E-002   1.6200944832688580E-002   5.0126473656192938E-002
  -5.4719026524187635E-002   1.5860088958925669E-002   4.9833421233755684E-002
  -5.3195233179591295E-002   1.5518965169169827E-002   4.9697757776555315E-002
  -5.1671439834994976E-002   1.5177573463421062E-002   4.9719483284591803E-002
  -5.0147646490398656E-002   1.4835913841679427E-002   4.9898597757865204E-002
  -6.3253915687016937E-002   1.8358123308218524E-002   4.5069932994747972E-002
  -6.1555241074366052E-002   1.8022145414503990E-002   4.4719458201823561E-002
  -5.9856566461715201E-002   1.7650340028778137E-002   4.4561356979771337E-002
  -5.8157891849064322E-002   1.7242707151040738E-002   4.4595629328591305E-002
  -5.6459217236413464E-002   1.6799246781292021E-002   4.4822275248283486E-002
  -7.0321878474552554E-002   2.0515301783748413E-002   4.0036050101360757E-002
  -6.8413337988211864E-002   2.0184201870082415E-002   3.9592593361930675E-002
  -6.6504797501871132E-002   1.9781714888386419E-002   3.9376494799008059E-002
  -6.4596257015530442E-002   1.9307840838660488E-002   3.9387754412592971E-002
  -6.2687716529189724E-002   1.8762579720904643E-002   3.9626372202685334E-002
  -7.7446708231390826E-002   2.2672480259278302E-002   3.5024824976031169E-002
  -7.5293317265724941E-002   2.2346258325660787E-002   3.4452826714076908E-002
  -7.3139926300059124E-002   2.1913089747994687E-002   3.4143171234265468E-002
  -7.0986535334393239E-002   2.1372974526280227E-002   3.4095858536596767E-002
  -6.8833144368727409E-002   2.0725912660517251E-002   3.4310888621070887E-002
  -8.4628404957531711E-002   2.4829658734808233E-002   3.0036257618759457E-002
  -8.2195178906905433E-002   2.4508314781239174E-002   2.9300158258262418E-002
  -7.9761952856279128E-002   2.4044464607602987E-002   2.8861386285543543E-002
  -7.7328726805652864E-002   2.3438108213899918E-002   2.8719941700602745E-002
  -7.4895500755026545E-002   2.2689245600129831E-002   2.8875824503440034E-002
  -5.0147646490398656E-002   1.4835913841679427E-002   4.9898597757865204E-002
  -4.8674785358653494E-002   1.4469366542866804E-002   4.9403635375226129E-002
  -4.7201924226908332E-002   1.4053311805904689E-002   4.9124515953508918E-002
  -4.5729063095163169E-002   1.3587749630793192E-002   4.9061239492713835E-002
  -4.4256201963418021E-002   1.3072680017532312E-002   4.9213805992840642E-002
  -5.6459217236413464E-002   1.6799246781292021E-002   4.4822275248283486E-002
  -5.4780801784427430E-002   1.6325615152612508E-002   4.4363084446201989E-002
  -5.3102386332441444E-002   1.5827468498082795E-002   4.4099159323680158E-002
  -5.1423970880455444E-002   1.5304806817702726E-002   4.4030499880717930E-002
  -4.9745555428469423E-002   1.4757630111472519E-002   4.4157106117315575E-002
  -6.2687716529189724E-002   1.8762579720904643E-002   3.9626372202685334E-002
  -6.0824324038325148E-002   1.8181863762358287E-002   3.9227945393460598E-002
  -5.8960931547460640E-002   1.7601625190260844E-002   3.9004206982433190E-002
  -5.7097539056596092E-002   1.7021864004612343E-002   3.8955156969603194E-002
  -5.5234146565731487E-002   1.6442580205412755E-002   3.9080795354970541E-002
  -6.8833144368727409E-002   2.0725912660517251E-002   3.4310888621070887E-002
  -6.6805352120346606E-002   2.0038112372104139E-002   3.3998218217001996E-002
  -6.4777559871965873E-002   1.9375781882439033E-002   3.3839658929768236E-002
  -6.2749767623585084E-002   1.8738921191521974E-002   3.3835210759369405E-002
  -6.0721975375204303E-002   1.8127530299352893E-002   3.3984873705805815E-002
  -7.4895500755026545E-002   2.2689245600129831E-002   2.8875824503440034E-002
  -7.2723886030491847E-002   2.1894360981849909E-002   2.8673902916826172E-002
  -7.0552271305957162E-002   2.1149938574617048E-002   2.8605515165685089E-002
  -6.8380656581422478E-002   2.0455978378431480E-002   2.8670661250016709E-002
  -6.6209041856887779E-002   1.9812480393293141E-002   2.8869341169821205E-002
  -4.4256201963418021E-002   1.3072680017532312E-002   4.9213805992840642E-002
  -4.2442144423015624E-002   1.2535800065502950E-002   4.8991476212617402E-002
  -4.0628086882613247E-002   1.2004806874085214E-002   4.8989254111683700E-002
  -3.8814029342210843E-002   1.1479700443279669E-002   4.9207139690039439E-002
  -3.6999971801808459E-002   1.0960480773086145E-002   4.9645132947684634E-002
  -4.9745555428469423E-002   1.4757630111472519E-002   4.4157106117315575E-002
  -4.7712889021305514E-002   1.4196754894627364E-002   4.3935542234969913E-002
  -4.5680222614141577E-002   1.3632997682402656E-002   4.3931088406857749E-002
  -4.3647556206977654E-002   1.3066358474798073E-002   4.4143744632979258E-002
  -4.1614889799813731E-002   1.2496837271813943E-002   4.4573510913334335E-002
  -5.5234146565731487E-002   1.6442580205412755E-002   3.9080795354970541E-002
  -5.2985868916861939E-002   1.5857709723751959E-002   3.8851228614510736E-002
  -5.0737591267992321E-002   1.5261188490719883E-002   3.8835774303228730E-002
  -4.8489313619122731E-002   1.4653016506316478E-002   3.9034432421124463E-002
  -4.6241035970253155E-002   1.4033193770541769E-002   3.9447202968197870E-002
  -6.0721975375204303E-002   1.8127530299352893E-002   3.3984873705805815E-002
  -5.8261084109684919E-002   1.7518664552876491E-002   3.3738535351240259E-002
  -5.5800192844165500E-002   1.6889379299037135E-002   3.3703311800796602E-002
  -5.3339301578646130E-002   1.6239674537834883E-002   3.3879203054474651E-002
  -5.0878410313126746E-002   1.5569550269269580E-002   3.4266209112274841E-002
  -6.6209041856887779E-002   1.9812480393293141E-002   2.8869341169821205E-002
  -6.3538534599774432E-002   1.9179619382000995E-002   2.8597462445158178E-002
  -6.0868027342661099E-002   1.8517570107354636E-002   2.8533700899561393E-002
  -5.8197520085547759E-002   1.7826332569353252E-002   2.8678056533030544E-002
  -5.5527012828434447E-002   1.7105906767997447E-002   2.9030529345565548E-002
  -3.6999971801808459E-002   1.0960480773086145E-002   4.9645132947684634E-002
  -3.5581163836916230E-002   1.0419364284704802E-002   4.9331050490280637E-002
  -3.4162355872024007E-002   9.8285673993359912E-003   4.9166196354201719E-002
  -3.2743547907131770E-002   9.1880901169801230E-003   4.9150570539448046E-002
  -3.1324739942239541E-002   8.4979324376368015E-003   4.9284173046019453E-002
  -4.1614889799813731E-002   1.2496837271813943E-002   4.4573510913334335E-002
  -4.0048286572855245E-002   1.1912950482312223E-002   4.4209002436915917E-002
  -3.8481683345896772E-002   1.1303214515155063E-002   4.3990856163304615E-002
  -3.6915080118938272E-002   1.0667629370342303E-002   4.3919072092500594E-002
  -3.5348476891979869E-002   1.0006195047874145E-002   4.3993650224504077E-002
  -4.6241035970253155E-002   1.4033193770541769E-002   3.9447202968197870E-002
  -4.4529503599746265E-002   1.3406536679919645E-002   3.9056099692096599E-002
  -4.2817971229239422E-002   1.2777861630973816E-002   3.8808492500284897E-002
  -4.1106438858732587E-002   1.2147168623704487E-002   3.8704381392762562E-002
  -3.9394906488225689E-002   1.1514457658111515E-002   3.8743766369529739E-002
  -5.0878410313126746E-002   1.5569550269269580E-002   3.4266209112274841E-002
  -4.9024814917589345E-002   1.4900122877527122E-002   3.3872342255822918E-002
  -4.7171219522052013E-002   1.4252508746792673E-002   3.3619105365142510E-002
  -4.5317624126514626E-002   1.3626707877066558E-002   3.3506498440233658E-002
  -4.3464028730977322E-002   1.3022720268348872E-002   3.3534521481096410E-002
  -5.5527012828434447E-002   1.7105906767997447E-002   2.9030529345565548E-002
  -5.3534220526384485E-002   1.6393709075134488E-002   2.8657730128094694E-002
  -5.1541428224334440E-002   1.5727155862611489E-002   2.8422694757877509E-002
  -4.9548635922284465E-002   1.5106247130428813E-002   2.8325423234914007E-002
  -4.7555843620234489E-002   1.4530982878586229E-002   2.8365915559204313E-002
  -3.1324739942239541E-002   8.4979324376368015E-003   4.9284173046019453E-002
  -2.9403174405745733E-002   7.9092637850254888E-003   4.8952446574037634E-002
  -2.7481608869251876E-002   7.5732535828650221E-003   4.8814880005050160E-002
  -2.5560043332757996E-002   7.4899018311558145E-003   4.8871473339057267E-002
  -2.3638477796264212E-002   7.6592085298976542E-003   4.9122226576058914E-002
  -3.5348476891979869E-002   1.0006195047874145E-002   4.3993650224504077E-002
  -3.3229926916273467E-002   9.3919645758853698E-003   4.3828513306767347E-002
  -3.1111376940567065E-002   8.8979909825111503E-003   4.3863185364460933E-002
  -2.8992826964860718E-002   8.5242742677511946E-003   4.4097666397585306E-002
  -2.6874276989154261E-002   8.2708144316054888E-003   4.4531956406139939E-002
  -3.9394906488225689E-002   1.1514457658111515E-002   3.8743766369529739E-002
  -3.7073723000870765E-002   1.0874665366745501E-002   3.8612817434201252E-002
  -3.4752539513515868E-002   1.0222728382157119E-002   3.8687326546739349E-002
  -3.2431356026160880E-002   9.5586467043464653E-003   3.8967293707144204E-002
  -3.0110172538806018E-002   8.8824203333133234E-003   3.9452718915415352E-002
  -4.3464028730977322E-002   1.3022720268348872E-002   3.3534521481096410E-002
  -4.0934562659537786E-002   1.2357366157605784E-002   3.3305358956339556E-002
  -3.8405096588098257E-002   1.1547465781803112E-002   3.3287303551885389E-002
  -3.5875630516658721E-002   1.0593019140941847E-002   3.3480355267733804E-002
  -3.3346164445219303E-002   9.4940262350212690E-003   3.3884514103884669E-002
  -4.7555843620234489E-002   1.4530982878586229E-002   2.8365915559204313E-002
  -4.4812445892274400E-002   1.3840066948465679E-002   2.7906137873182302E-002
  -4.2069048164314241E-002   1.2872203181449160E-002   2.7663116379899155E-002
  -3.9325650436354116E-002   1.1627391577537130E-002   2.7636851079354291E-002
  -3.6582252708394047E-002   1.0105632136728993E-002   2.7827341971548236E-002
  -9.0362847650452105E-002   0.0000000000000000        4.9835403717636624E-002
  -9.3963360360095116E-002   5.4048169327589254E-003   5.3209306492696735E-002
  -9.7563873069738141E-002   1.0671508824712857E-002   5.4964860201705545E-002
 -0.10116438577938115        1.5800075675861790E-002   5.5102064844663068E-002
 -0.10476489848902418        2.0790517486205737E-002   5.3620920421569289E-002
 -0.10329487888189959        0.0000000000000000        5.8664116526851169E-002
 -0.10683242804573834        1.0884991642535473E-002   5.2119695146890223E-002
 -0.11036997720957710        1.9172874239606556E-002   4.7319549924589116E-002
 -0.11390752637341585        2.4863647791213236E-002   4.4263680859947842E-002
 -0.11744507553725460        2.7957312297355524E-002   4.2952087952966407E-002
 -0.12645892983708903        0.0000000000000000        7.4202496048171973E-002
 -0.12657089023141235        1.6365166352312024E-002   5.5280766508530567E-002
 -0.12668285062573573        2.7674239654500252E-002   4.1465938350260134E-002
 -0.12679481102005905        3.3927219906564679E-002   3.2758011573360668E-002
 -0.12690677141438239        3.5124107108505331E-002   2.9156986177832162E-002
 -0.15985500051602036        0.0000000000000000        9.6450542281599008E-002
 -0.15317874691711716        2.1845341062088571E-002   6.2692520577617761E-002
 -0.14650249331821394        3.6175605069393955E-002   3.7404025478718607E-002
 -0.13982623971931080        4.2990792021916115E-002   2.0585056984901515E-002
 -0.13314998612040760        4.2290901919655108E-002   1.2235615096166596E-002
 -0.20348309091869363        0.0000000000000000       0.12540825522713231     
 -0.18665599810285277        2.7325515771865122E-002   7.4354957354151791E-002
 -0.16982890528701192        4.4676970484287655E-002   3.5133811309964499E-002
 -0.15300181247117109        5.2054364137267571E-002   7.7448170945704914E-003
 -0.13617471965533023        4.9457696730804926E-002  -7.8120252920303584E-003
 -0.10476489848902418        2.0790517486205737E-002   5.3620920421569289E-002
 -0.10210872309826764        2.4930992001022959E-002   4.5641562032157371E-002
  -9.9452547707511094E-002   2.7509656965591739E-002   3.9351438526484567E-002
  -9.6796372316754559E-002   2.8526512379912102E-002   3.4750549904550718E-002
  -9.4140196925998010E-002   2.7981558243984038E-002   3.1838896166355928E-002
 -0.11744507553725460        2.7957312297355524E-002   4.2952087952966407E-002
 -0.11348718500584484        2.9428905023136654E-002   3.6699268958818143E-002
 -0.10952929447443509        3.0253463233659936E-002   3.1360645362237267E-002
 -0.10557140394302532        3.0430986928925284E-002   2.6936217163223738E-002
 -0.10161351341161559        2.9961476108932746E-002   2.3425984361777626E-002
 -0.12690677141438239        3.5124107108505331E-002   2.9156986177832162E-002
 -0.12242220522849109        3.3926818045250377E-002   2.5545481613938052E-002
 -0.11793763904259980        3.2997269501728099E-002   2.2073132961439621E-002
 -0.11345307285670850        3.2335461477938428E-002   1.8739940220337030E-002
 -0.10896850667081717        3.1941393973881474E-002   1.5545903390630082E-002
 -0.13314998612040760        4.2290901919655108E-002   1.2235615096166596E-002
 -0.12891378376620638        3.8424731067364104E-002   1.2180199997517184E-002
 -0.12467758141200518        3.5741075769796279E-002   1.1488901324091812E-002
 -0.12044137905780400        3.4239936026951662E-002   1.0161719075890559E-002
 -0.11620517670360279        3.3921311838830168E-002   8.1986532529134300E-003
 -0.13617471965533023        4.9457696730804926E-002  -7.8120252920303584E-003
 -0.13296192061899076        4.2922644089477782E-002  -3.3965758904445816E-003
 -0.12974912158265128        3.8484882037864480E-002  -3.9204954980636211E-004
 -0.12653632254631184        3.6144410575964792E-002   1.2015537298844135E-003
 -0.12332352350997236        3.5901229703778875E-002   1.3842339486275224E-003
  -9.4140196925998010E-002   2.7981558243984038E-002   3.1838896166355928E-002
  -9.1762248933881449E-002   2.6790170341371287E-002   3.1267356071444312E-002
  -8.9384300941764860E-002   2.5867724455637828E-002   3.0776402948540980E-002
  -8.7006352949648300E-002   2.5214220586783426E-002   3.0366036797646087E-002
  -8.4628404957531711E-002   2.4829658734808233E-002   3.0036257618759457E-002
 -0.10161351341161559        2.9961476108932746E-002   2.3425984361777626E-002
  -9.9141687813967525E-002   2.9192563979594122E-002   2.3144645083527555E-002
  -9.6669862216319444E-002   2.8471883746821219E-002   2.2970474044332122E-002
  -9.4198036618671377E-002   2.7799435410614019E-002   2.2903471244191460E-002
  -9.1726211021023282E-002   2.7175218970972595E-002   2.2943636683105340E-002
 -0.10896850667081717        3.1941393973881474E-002   1.5545903390630082E-002
 -0.10637622220059127        3.1594957617816902E-002   1.5334054808728249E-002
 -0.10378393773036540        3.1076043038004701E-002   1.5255955732927262E-002
 -0.10119165326013954        3.0384650234444626E-002   1.5311606163227295E-002
  -9.8599368789913641E-002   2.9520779207136909E-002   1.5501006099628244E-002
 -0.11620517670360279        3.3921311838830168E-002   8.1986532529134300E-003
 -0.11346585209375276        3.3997351256039650E-002   7.8355852470461708E-003
 -0.11072652748390280        3.3680202329188183E-002   7.6328480143262444E-003
 -0.10798720287405278        3.2969865058275233E-002   7.5904415547535598E-003
 -0.10524787826420277        3.1866339443301334E-002   7.7083658683281845E-003
 -0.12332352350997236        3.5901229703778875E-002   1.3842339486275224E-003
 -0.12041057749345191        3.6399744894262495E-002   6.4923639848155079E-004
 -0.11749763147693153        3.6284361620371540E-002   1.0115088852923060E-004
 -0.11458468546041112        3.5555079882105829E-002  -2.6002258122970537E-004
 -0.11167173944389069        3.4211899679465585E-002  -4.3428401079498302E-004
  -8.4628404957531711E-002   2.4829658734808233E-002   3.0036257618759457E-002
  -8.2195178906905433E-002   2.4508314781239174E-002   2.9300158258262418E-002
  -7.9761952856279128E-002   2.4044464607602987E-002   2.8861386285543543E-002
  -7.7328726805652864E-002   2.3438108213899918E-002   2.8719941700602745E-002
  -7.4895500755026545E-002   2.2689245600129831E-002   2.8875824503440034E-002
  -9.1726211021023282E-002   2.7175218970972595E-002   2.2943636683105340E-002
  -8.9025601016929856E-002   2.6552777171256481E-002   2.2308647764507653E-002
  -8.6324991012836416E-002   2.5885652754825263E-002   2.1911099365066154E-002
  -8.3624381008742907E-002   2.5173845721679140E-002   2.1750991484781015E-002
  -8.0923771004649495E-002   2.4417356071817831E-002   2.1828324123652154E-002
  -9.8599368789913641E-002   2.9520779207136909E-002   1.5501006099628244E-002
  -9.5691261700974847E-002   2.8597239561273753E-002   1.5064951226281858E-002
  -9.2783154612036067E-002   2.7726840902047509E-002   1.4806450003469774E-002
  -8.9875047523097315E-002   2.6909583229458248E-002   1.4725502431192215E-002
  -8.6966940434158480E-002   2.6145466543505844E-002   1.4822108509449088E-002
 -0.10524787826420277        3.1866339443301334E-002   7.7083658683281845E-003
 -0.10219216095904050        3.0641701951291140E-002   7.5690686435849639E-003
  -9.9136443653878220E-002   2.9568029049269744E-002   7.5474382007543264E-003
  -9.6080726348715909E-002   2.8645320737237332E-002   7.6434745398363448E-003
  -9.3025009043553653E-002   2.7873577015193794E-002   7.8571776608307910E-003
 -0.11167173944389069        3.4211899679465585E-002  -4.3428401079498302E-004
 -0.10852829879112674        3.2686164341308388E-002  -1.7899998358303360E-004
 -0.10538485813836276        3.1409217196492076E-002   1.3406395691974160E-004
 -0.10224141748559880        3.0381058245016562E-002   5.0490781071322113E-004
  -9.9097976832834833E-002   2.9601687486881800E-002   9.3353157779740847E-004
  -7.4895500755026545E-002   2.2689245600129831E-002   2.8875824503440034E-002
  -7.2723886030491847E-002   2.1894360981849909E-002   2.8673902916826172E-002
  -7.0552271305957162E-002   2.1149938574617048E-002   2.8605515165685089E-002
  -6.8380656581422478E-002   2.0455978378431480E-002   2.8670661250016709E-002
  -6.6209041856887779E-002   1.9812480393293141E-002   2.8869341169821205E-002
  -8.0923771004649495E-002   2.4417356071817831E-002   2.1828324123652154E-002
  -7.8615510897397739E-002   2.3643094777497653E-002   2.1644415673818501E-002
  -7.6307250790145970E-002   2.2877972810974374E-002   2.1600264153946336E-002
  -7.3998990682894172E-002   2.2121990172248182E-002   2.1695869564035485E-002
  -7.1690730575642417E-002   2.1375146861318944E-002   2.1931231904086024E-002
  -8.6966940434158480E-002   2.6145466543505844E-002   1.4822108509449088E-002
  -8.4515811849701084E-002   2.5391828573145300E-002   1.4614890313145681E-002
  -8.2064683265243688E-002   2.4606007047331509E-002   1.4553652141292128E-002
  -7.9613554680786305E-002   2.3788001966064780E-002   1.4638393993888639E-002
  -7.7162426096328895E-002   2.2937813329344720E-002   1.4869115870934979E-002
  -9.3025009043553653E-002   2.7873577015193794E-002   7.8571776608307910E-003
  -9.0424788887401991E-002   2.7140562368793024E-002   7.5853268348074505E-003
  -8.7824568731250316E-002   2.6334041283688880E-002   7.4656791277222705E-003
  -8.5224348575098682E-002   2.5454013759881430E-002   7.4982345395757741E-003
  -8.2624128418946979E-002   2.4500479797370397E-002   7.6829930703679987E-003
  -9.9097976832834833E-002   2.9601687486881800E-002   9.3353157779740847E-004
  -9.6342442010500351E-002   2.8889296164440637E-002   5.5572523880365043E-004
  -9.3586907188165869E-002   2.8062075520045929E-002   3.3634511323712979E-004
  -9.0831372365831387E-002   2.7120025553698000E-002   2.7539120109738163E-004
  -8.8075837543496904E-002   2.6063146265396187E-002   3.7286350238519006E-004
  -6.6209041856887779E-002   1.9812480393293141E-002   2.8869341169821205E-002
  -6.3538534599774432E-002   1.9179619382000995E-002   2.8597462445158178E-002
  -6.0868027342661099E-002   1.8517570107354636E-002   2.8533700899561393E-002
  -5.8197520085547759E-002   1.7826332569353252E-002   2.8678056533030544E-002
  -5.5527012828434447E-002   1.7105906767997447E-002   2.9030529345565548E-002
  -7.1690730575642417E-002   2.1375146861318944E-002   2.1931231904086024E-002
  -6.8811469391618113E-002   2.0632614016078951E-002   2.1655129795449882E-002
  -6.5932208207593795E-002   1.9889562774420562E-002   2.1588418361569606E-002
  -6.3052947023569519E-002   1.9145993136343437E-002   2.1731097602445355E-002
  -6.0173685839545188E-002   1.8401905101847971E-002   2.2083167518077151E-002
  -7.7162426096328895E-002   2.2937813329344720E-002   1.4869115870934979E-002
  -7.4073137489703594E-002   2.2085608650156865E-002   1.4617460245261470E-002
  -7.0983848883078307E-002   2.1261555441486488E-002   1.4576468790033992E-002
  -6.7894560276453061E-002   2.0465653703333735E-002   1.4746141505252358E-002
  -6.4805271669827774E-002   1.9697903435698466E-002   1.5126478390916742E-002
  -8.2624128418946979E-002   2.4500479797370397E-002   7.6829930703679987E-003
  -7.9323538894030848E-002   2.3538603284234579E-002   7.4844537945932283E-003
  -7.6022949369114634E-002   2.2633548108552858E-002   7.4978521849545683E-003
  -7.2722359844198392E-002   2.1785314270323757E-002   7.7231882414516475E-003
  -6.9421770319282261E-002   2.0993901769548809E-002   8.1604619640847330E-003
  -8.8075837543496904E-002   2.6063146265396187E-002   3.7286350238519006E-004
  -8.4562673604599792E-002   2.4991597918312791E-002   2.5611044344531209E-004
  -8.1049509665702735E-002   2.4005540775618422E-002   3.5256854633139434E-004
  -7.7536345726805678E-002   2.3104974837314239E-002   6.6223781104338825E-004
  -7.4023181787908565E-002   2.2289900103399374E-002   1.1851182375811620E-003
  -5.5527012828434447E-002   1.7105906767997447E-002   2.9030529345565548E-002
  -5.3534220526384485E-002   1.6393709075134488E-002   2.8657730128094694E-002
  -5.1541428224334440E-002   1.5727155862611489E-002   2.8422694757877509E-002
  -4.9548635922284465E-002   1.5106247130428813E-002   2.8325423234914007E-002
  -4.7555843620234489E-002   1.4530982878586229E-002   2.8365915559204313E-002
  -6.0173685839545188E-002   1.8401905101847971E-002   2.2083167518077151E-002
  -5.8037362469036263E-002   1.7656906428005797E-002   2.1753393501672269E-002
  -5.5901039098527283E-002   1.6910604871888668E-002   2.1572917774931644E-002
  -5.3764715728018303E-002   1.6163000433496971E-002   2.1541740337855317E-002
  -5.1628392357509365E-002   1.5414093112830263E-002   2.1659861190443108E-002
  -6.4805271669827774E-002   1.9697903435698466E-002   1.5126478390916742E-002
  -6.2513882788449299E-002   1.8920103780877051E-002   1.4792782212963179E-002
  -6.0222493907070906E-002   1.8094053881165785E-002   1.4619918767084149E-002
  -5.7931105025692493E-002   1.7219753736564904E-002   1.4607888053279814E-002
  -5.5639716144314101E-002   1.6297203347074407E-002   1.4756690071550310E-002
  -6.9421770319282261E-002   2.0993901769548809E-002   8.1604619640847330E-003
  -6.6963781484623827E-002   2.0183301133748444E-002   7.7758962619673203E-003
  -6.4505792649965393E-002   1.9277502890442989E-002   7.5636977343348667E-003
  -6.2047803815306946E-002   1.8276507039633228E-002   7.5238663811877339E-003
  -5.9589814980648512E-002   1.7180313581318329E-002   7.6564022025260720E-003
  -7.4023181787908565E-002   2.2289900103399374E-002   1.1851182375811620E-003
  -7.1387058557559613E-002   2.1446498486619614E-002   7.0273564868478244E-004
  -6.8750935327210716E-002   2.0460951899720276E-002   4.0425467668400716E-004
  -6.6114812096861764E-002   1.9333260342701046E-002   2.8967532157955084E-004
  -6.3478688866512867E-002   1.8063423815562474E-002   3.5899758337043508E-004
  -4.7555843620234489E-002   1.4530982878586229E-002   2.8365915559204313E-002
  -4.4812445892274400E-002   1.3840066948465679E-002   2.7906137873182302E-002
  -4.2069048164314241E-002   1.2872203181449160E-002   2.7663116379899155E-002
  -3.9325650436354116E-002   1.1627391577537130E-002   2.7636851079354291E-002
  -3.6582252708394047E-002   1.0105632136728993E-002   2.7827341971548236E-002
  -5.1628392357509365E-002   1.5414093112830263E-002   2.1659861190443108E-002
  -4.8680487704576822E-002   1.4632936535161317E-002   2.1078987452812309E-002
  -4.5732583051644342E-002   1.3788584325762451E-002   2.0690371372387606E-002
  -4.2784678398711917E-002   1.2881036484634064E-002   2.0494012949169194E-002
  -3.9836773745779375E-002   1.1910293011775708E-002   2.0489912183156656E-002
  -5.5639716144314101E-002   1.6297203347074407E-002   1.4756690071550310E-002
  -5.2511803101941666E-002   1.5425806121856928E-002   1.4268472487476855E-002
  -4.9383890059569335E-002   1.4704965470075687E-002   1.3948014025076810E-002
  -4.6255977017196762E-002   1.4134681391731137E-002   1.3795314684350607E-002
  -4.3128063974824535E-002   1.3714953886822423E-002   1.3810374465298147E-002
  -5.9589814980648512E-002   1.7180313581318329E-002   7.6564022025260720E-003
  -5.6306392084368682E-002   1.6218675708552663E-002   7.4745929771758111E-003
  -5.3022969188088791E-002   1.5621346614389339E-002   7.4360443379670044E-003
  -4.9739546291809052E-002   1.5388326298827974E-002   7.5407562848990271E-003
  -4.6456123395529056E-002   1.5519614761869360E-002   7.7887288179726288E-003
  -6.3478688866512867E-002   1.8063423815562474E-002   3.5899758337043508E-004
  -6.0064254651857940E-002   1.7011545295247843E-002   6.9734892190964626E-004
  -5.6649820437203124E-002   1.6537727758702075E-002   1.1544623110575913E-003
  -5.3235386222548170E-002   1.6641971205925164E-002   1.7303377508143397E-003
  -4.9820952007893382E-002   1.7324275636915853E-002   2.4249752411795722E-003
 </DataArray>
 </PointData>
 </Piece>
 <Piece  NumberOfPoints="          1600 "  NumberOfCells="         1024 ">
 <Points>
 <DataArray  type="Float64" NumberOfComponents="3"  format="ascii" >
  0.50000000000000000        0.0000000000000000        0.0000000000000000     
  0.53125000000000000        0.0000000000000000        0.0000000000000000     
  0.56250000000000000        0.0000000000000000        0.0000000000000000     
  0.59375000000000000        0.0000000000000000        0.0000000000000000     
  0.62500000000000000        0.0000000000000000        0.0000000000000000     
  0.50000000000000000        3.1250000000000000E-002   0.0000000000000000     
  0.53125000000000000        3.1250000000000000E-002   0.0000000000000000     
  0.56250000000000000        3.1250000000000000E-002   0.0000000000000000     
  0.59375000000000000        3.1250000000000000E-002   0.0000000000000000     
  0.62500000000000000        3.1250000000000000E-002   0.0000000000000000     
  0.50000000000000000        6.2500000000000000E-002   0.0000000000000000     
  0.53125000000000000        6.2500000000000000E-002   0.0000000000000000     
  0.56250000000000000        6.2500000000000000E-002   0.0000000000000000     
  0.59375000000000000        6.2500000000000000E-002   0.0000000000000000     
  0.62500000000000000        6.2500000000000000E-002   0.0000000000000000     
  0.50000000000000000        9.3750000000000000E-002   0.0000000000000000     
  0.53125000000000000        9.3750000000000000E-002   0.0000000000000000     
  0.56250000000000000        9.3750000000000000E-002   0.0000000000000000     
  0.59375000000000000        9.3750000000000000E-002   0.0000000000000000     
  0.62500000000000000        9.3750000000000000E-002   0.0000000000000000     
  0.50000000000000000       0.12500000000000000        0.0000000000000000     
  0.53125000000000000       0.12500000000000000        0.0000000000000000     
  0.56250000000000000       0.12500000000000000        0.0000000000000000     
  0.59375000000000000       0.12500000000000000        0.0000000000000000     
  0.62500000000000000       0.12500000000000000        0.0000000000000000     
  0.62500000000000000        0.0000000000000000        0.0000000000000000     
  0.65625000000000000        0.0000000000000000        0.0000000000000000     
  0.68750000000000000        0.0000000000000000        0.0000000000000000     
  0.71875000000000000        0.0000000000000000        0.0000000000000000     
  0.75000000000000000        0.0000000000000000        0.0000000000000000     
  0.62500000000000000        3.1250000000000000E-002   0.0000000000000000     
  0.65625000000000000        3.1250000000000000E-002   0.0000000000000000     
  0.68750000000000000        3.1250000000000000E-002   0.0000000000000000     
  0.71875000000000000        3.1250000000000000E-002   0.0000000000000000     
  0.75000000000000000        3.1250000000000000E-002   0.0000000000000000     
  0.62500000000000000        6.2500000000000000E-002   0.0000000000000000     
  0.65625000000000000        6.2500000000000000E-002   0.0000000000000000     
  0.68750000000000000        6.2500000000000000E-002   0.0000000000000000     
  0.71875000000000000        6.2500000000000000E-002   0.0000000000000000     
  0.75000000000000000        6.2500000000000000E-002   0.0000000000000000     
  0.62500000000000000        9.3750000000000000E-002   0.0000000000000000     
  0.65625000000000000        9.3750000000000000E-002   0.0000000000000000     
  0.68750000000000000        9.3750000000000000E-002   0.0000000000000000     
  0.71875000000000000        9.3750000000000000E-002   0.0000000000000000     
  0.75000000000000000        9.3750000000000000E-002   0.0000000000000000     
  0.62500000000000000       0.12500000000000000        0.0000000000000000     
  0.65625000000000000       0.12500000000000000        0.0000000000000000     
  0.68750000000000000       0.12500000000000000        0.0000000000000000     
  0.71875000000000000       0.12500000000000000        0.0000000000000000     
  0.75000000000000000       0.12500000000000000        0.0000000000000000     
  0.75000000000000000        0.0000000000000000        0.0000000000000000     
  0.78125000000000000        0.0000000000000000        0.0000000000000000     
  0.81250000000000000        0.0000000000000000        0.0000000000000000     
  0.84375000000000000        0.0000000000000000        0.0000000000000000     
  0.87500000000000000        0.0000000000000000        0.0000000000000000     
  0.75000000000000000        3.1250000000000000E-002   0.0000000000000000     
  0.78125000000000000        3.1250000000000000E-002   0.0000000000000000     
  0.81250000000000000        3.1250000000000000E-002   0.0000000000000000     
  0.84375000000000000        3.1250000000000000E-002   0.0000000000000000     
  0.87500000000000000        3.1250000000000000E-002   0.0000000000000000     
  0.75000000000000000        6.2500000000000000E-002   0.0000000000000000     
  0.78125000000000000        6.2500000000000000E-002   0.0000000000000000     
  0.81250000000000000        6.2500000000000000E-002   0.0000000000000000     
  0.84375000000000000        6.2500000000000000E-002   0.0000000000000000     
  0.87500000000000000        6.2500000000000000E-002   0.0000000000000000     
  0.75000000000000000        9.3750000000000000E-002   0.0000000000000000     
  0.78125000000000000        9.3750000000000000E-002   0.0000000000000000     
  0.81250000000000000        9.3750000000000000E-002   0.0000000000000000     
  0.84375000000000000        9.3750000000000000E-002   0.0000000000000000     
  0.87500000000000000        9.3750000000000000E-002   0.0000000000000000     
  0.75000000000000000       0.12500000000000000        0.0000000000000000     
  0.78125000000000000       0.12500000000000000        0.0000000000000000     
  0.81250000000000000       0.12500000000000000        0.0000000000000000     
  0.84375000000000000       0.12500000000000000        0.0000000000000000     
  0.87500000000000000       0.12500000000000000        0.0000000000000000     
  0.87500000000000000        0.0000000000000000        0.0000000000000000     
  0.90625000000000000        0.0000000000000000        0.0000000000000000     
  0.93750000000000000        0.0000000000000000        0.0000000000000000     
  0.96875000000000000        0.0000000000000000        0.0000000000000000     
   1.0000000000000000        0.0000000000000000        0.0000000000000000     
  0.87500000000000000        3.1250000000000000E-002   0.0000000000000000     
  0.90625000000000000        3.1250000000000000E-002   0.0000000000000000     
  0.93750000000000000        3.1250000000000000E-002   0.0000000000000000     
  0.96875000000000000        3.1250000000000000E-002   0.0000000000000000     
   1.0000000000000000        3.1250000000000000E-002   0.0000000000000000     
  0.87500000000000000        6.2500000000000000E-002   0.0000000000000000     
  0.90625000000000000        6.2500000000000000E-002   0.0000000000000000     
  0.93750000000000000        6.2500000000000000E-002   0.0000000000000000     
  0.96875000000000000        6.2500000000000000E-002   0.0000000000000000     
   1.0000000000000000        6.2500000000000000E-002   0.0000000000000000     
  0.87500000000000000        9.3750000000000000E-002   0.0000000000000000     
  0.90625000000000000        9.3750000000000000E-002   0.0000000000000000     
  0.93750000000000000        9.3750000000000000E-002   0.0000000000000000     
  0.96875000000000000        9.3750000000000000E-002   0.0000000000000000     
   1.0000000000000000        9.3750000000000000E-002   0.0000000000000000     
  0.87500000000000000       0.12500000000000000        0.0000000000000000     
  0.90625000000000000       0.12500000000000000        0.0000000000000000     
  0.93750000000000000       0.12500000000000000        0.0000000000000000     
  0.96875000000000000       0.12500000000000000        0.0000000000000000     
   1.0000000000000000       0.12500000000000000        0.0000000000000000     
   1.0000000000000000        0.0000000000000000        0.0000000000000000     
   1.0312500000000000        0.0000000000000000        0.0000000000000000     
   1.0625000000000000        0.0000000000000000        0.0000000000000000     
   1.0937500000000000        0.0000000000000000        0.0000000000000000     
   1.1250000000000000        0.0000000000000000        0.0000000000000000     
   1.0000000000000000        3.1250000000000000E-002   0.0000000000000000     
   1.0312500000000000        3.1250000000000000E-002   0.0000000000000000     
   1.0625000000000000        3.1250000000000000E-002   0.0000000000000000     
   1.0937500000000000        3.1250000000000000E-002   0.0000000000000000     
   1.1250000000000000        3.1250000000000000E-002   0.0000000000000000     
   1.0000000000000000        6.2500000000000000E-002   0.0000000000000000     
   1.0312500000000000        6.2500000000000000E-002   0.0000000000000000     
   1.0625000000000000        6.2500000000000000E-002   0.0000000000000000     
   1.0937500000000000        6.2500000000000000E-002   0.0000000000000000     
   1.1250000000000000        6.2500000000000000E-002   0.0000000000000000     
   1.0000000000000000        9.3750000000000000E-002   0.0000000000000000     
   1.0312500000000000        9.3750000000000000E-002   0.0000000000000000     
   1.0625000000000000        9.3750000000000000E-002   0.0000000000000000     
   1.0937500000000000        9.3750000000000000E-002   0.0000000000000000     
   1.1250000000000000        9.3750000000000000E-002   0.0000000000000000     
   1.0000000000000000       0.12500000000000000        0.0000000000000000     
   1.0312500000000000       0.12500000000000000        0.0000000000000000     
   1.0625000000000000       0.12500000000000000        0.0000000000000000     
   1.0937500000000000       0.12500000000000000        0.0000000000000000     
   1.1250000000000000       0.12500000000000000        0.0000000000000000     
   1.1250000000000000        0.0000000000000000        0.0000000000000000     
   1.1562500000000000        0.0000000000000000        0.0000000000000000     
   1.1875000000000000        0.0000000000000000        0.0000000000000000     
   1.2187500000000000        0.0000000000000000        0.0000000000000000     
   1.2500000000000000        0.0000000000000000        0.0000000000000000     
   1.1250000000000000        3.1250000000000000E-002   0.0000000000000000     
   1.1562500000000000        3.1250000000000000E-002   0.0000000000000000     
   1.1875000000000000        3.1250000000000000E-002   0.0000000000000000     
   1.2187500000000000        3.1250000000000000E-002   0.0000000000000000     
   1.2500000000000000        3.1250000000000000E-002   0.0000000000000000     
   1.1250000000000000        6.2500000000000000E-002   0.0000000000000000     
   1.1562500000000000        6.2500000000000000E-002   0.0000000000000000     
   1.1875000000000000        6.2500000000000000E-002   0.0000000000000000     
   1.2187500000000000        6.2500000000000000E-002   0.0000000000000000     
   1.2500000000000000        6.2500000000000000E-002   0.0000000000000000     
   1.1250000000000000        9.3750000000000000E-002   0.0000000000000000     
   1.1562500000000000        9.3750000000000000E-002   0.0000000000000000     
   1.1875000000000000        9.3750000000000000E-002   0.0000000000000000     
   1.2187500000000000        9.3750000000000000E-002   0.0000000000000000     
   1.2500000000000000        9.3750000000000000E-002   0.0000000000000000     
   1.1250000000000000       0.12500000000000000        0.0000000000000000     
   1.1562500000000000       0.12500000000000000        0.0000000000000000     
   1.1875000000000000       0.12500000000000000        0.0000000000000000     
   1.2187500000000000       0.12500000000000000        0.0000000000000000     
   1.2500000000000000       0.12500000000000000        0.0000000000000000     
   1.2500000000000000        0.0000000000000000        0.0000000000000000     
   1.2812500000000000        0.0000000000000000        0.0000000000000000     
   1.3125000000000000        0.0000000000000000        0.0000000000000000     
   1.3437500000000000        0.0000000000000000        0.0000000000000000     
   1.3750000000000000        0.0000000000000000        0.0000000000000000     
   1.2500000000000000        3.1250000000000000E-002   0.0000000000000000     
   1.2812500000000000        3.1250000000000000E-002   0.0000000000000000     
   1.3125000000000000        3.1250000000000000E-002   0.0000000000000000     
   1.3437500000000000        3.1250000000000000E-002   0.0000000000000000     
   1.3750000000000000        3.1250000000000000E-002   0.0000000000000000     
   1.2500000000000000        6.2500000000000000E-002   0.0000000000000000     
   1.2812500000000000        6.2500000000000000E-002   0.0000000000000000     
   1.3125000000000000        6.2500000000000000E-002   0.0000000000000000     
   1.3437500000000000        6.2500000000000000E-002   0.0000000000000000     
   1.3750000000000000        6.2500000000000000E-002   0.0000000000000000     
   1.2500000000000000        9.3750000000000000E-002   0.0000000000000000     
   1.2812500000000000        9.3750000000000000E-002   0.0000000000000000     
   1.3125000000000000        9.3750000000000000E-002   0.0000000000000000     
   1.3437500000000000        9.3750000000000000E-002   0.0000000000000000     
   1.3750000000000000        9.3750000000000000E-002   0.0000000000000000     
   1.2500000000000000       0.12500000000000000        0.0000000000000000     
   1.2812500000000000       0.12500000000000000        0.0000000000000000     
   1.3125000000000000       0.12500000000000000        0.0000000000000000     
   1.3437500000000000       0.12500000000000000        0.0000000000000000     
   1.3750000000000000       0.12500000000000000        0.0000000000000000     
   1.3750000000000000        0.0000000000000000        0.0000000000000000     
   1.4062500000000000        0.0000000000000000        0.0000000000000000     
   1.4375000000000000        0.0000000000000000        0.0000000000000000     
   1.4687500000000000        0.0000000000000000        0.0000000000000000     
   1.5000000000000000        0.0000000000000000        0.0000000000000000     
   1.3750000000000000        3.1250000000000000E-002   0.0000000000000000     
   1.4062500000000000        3.1250000000000000E-002   0.0000000000000000     
   1.4375000000000000        3.1250000000000000E-002   0.0000000000000000     
   1.4687500000000000        3.1250000000000000E-002   0.0000000000000000     
   1.5000000000000000        3.1250000000000000E-002   0.0000000000000000     
   1.3750000000000000        6.2500000000000000E-002   0.0000000000000000     
   1.4062500000000000        6.2500000000000000E-002   0.0000000000000000     
   1.4375000000000000        6.2500000000000000E-002   0.0000000000000000     
   1.4687500000000000        6.2500000000000000E-002   0.0000000000000000     
   1.5000000000000000        6.2500000000000000E-002   0.0000000000000000     
   1.3750000000000000        9.3750000000000000E-002   0.0000000000000000     
   1.4062500000000000        9.3750000000000000E-002   0.0000000000000000     
   1.4375000000000000        9.3750000000000000E-002   0.0000000000000000     
   1.4687500000000000        9.3750000000000000E-002   0.0000000000000000     
   1.5000000000000000        9.3750000000000000E-002   0.0000000000000000     
   1.3750000000000000       0.12500000000000000        0.0000000000000000     
   1.4062500000000000       0.12500000000000000        0.0000000000000000     
   1.4375000000000000       0.12500000000000000        0.0000000000000000     
   1.4687500000000000       0.12500000000000000        0.0000000000000000     
   1.5000000000000000       0.12500000000000000        0.0000000000000000     
  0.50000000000000000       0.12500000000000000        0.0000000000000000     
  0.53125000000000000       0.12500000000000000        0.0000000000000000     
  0.56250000000000000       0.12500000000000000        0.0000000000000000     
  0.59375000000000000       0.12500000000000000        0.0000000000000000     
  0.62500000000000000       0.12500000000000000        0.0000000000000000     
  0.50000000000000000       0.15625000000000000        0.0000000000000000     
  0.53125000000000000       0.15625000000000000        0.0000000000000000     
  0.56250000000000000       0.15625000000000000        0.0000000000000000     
  0.59375000000000000       0.15625000000000000        0.0000000000000000     
  0.62500000000000000       0.15625000000000000        0.0000000000000000     
  0.50000000000000000       0.18750000000000000        0.0000000000000000     
  0.53125000000000000       0.18750000000000000        0.0000000000000000     
  0.56250000000000000       0.18750000000000000        0.0000000000000000     
  0.59375000000000000       0.18750000000000000        0.0000000000000000     
  0.62500000000000000       0.18750000000000000        0.0000000000000000     
  0.50000000000000000       0.21875000000000000        0.0000000000000000     
  0.53125000000000000       0.21875000000000000        0.0000000000000000     
  0.56250000000000000       0.21875000000000000        0.0000000000000000     
  0.59375000000000000       0.21875000000000000        0.0000000000000000     
  0.62500000000000000       0.21875000000000000        0.0000000000000000     
  0.50000000000000000       0.25000000000000000        0.0000000000000000     
  0.53125000000000000       0.25000000000000000        0.0000000000000000     
  0.56250000000000000       0.25000000000000000        0.0000000000000000     
  0.59375000000000000       0.25000000000000000        0.0000000000000000     
  0.62500000000000000       0.25000000000000000        0.0000000000000000     
  0.62500000000000000       0.12500000000000000        0.0000000000000000     
  0.65625000000000000       0.12500000000000000        0.0000000000000000     
  0.68750000000000000       0.12500000000000000        0.0000000000000000     
  0.71875000000000000       0.12500000000000000        0.0000000000000000     
  0.75000000000000000       0.12500000000000000        0.0000000000000000     
  0.62500000000000000       0.15625000000000000        0.0000000000000000     
  0.65625000000000000       0.15625000000000000        0.0000000000000000     
  0.68750000000000000       0.15625000000000000        0.0000000000000000     
  0.71875000000000000       0.15625000000000000        0.0000000000000000     
  0.75000000000000000       0.15625000000000000        0.0000000000000000     
  0.62500000000000000       0.18750000000000000        0.0000000000000000     
  0.65625000000000000       0.18750000000000000        0.0000000000000000     
  0.68750000000000000       0.18750000000000000        0.0000000000000000     
  0.71875000000000000       0.18750000000000000        0.0000000000000000     
  0.75000000000000000       0.18750000000000000        0.0000000000000000     
  0.62500000000000000       0.21875000000000000        0.0000000000000000     
  0.65625000000000000       0.21875000000000000        0.0000000000000000     
  0.68750000000000000       0.21875000000000000        0.0000000000000000     
  0.71875000000000000       0.21875000000000000        0.0000000000000000     
  0.75000000000000000       0.21875000000000000        0.0000000000000000     
  0.62500000000000000       0.25000000000000000        0.0000000000000000     
  0.65625000000000000       0.25000000000000000        0.0000000000000000     
  0.68750000000000000       0.25000000000000000        0.0000000000000000     
  0.71875000000000000       0.25000000000000000        0.0000000000000000     
  0.75000000000000000       0.25000000000000000        0.0000000000000000     
  0.75000000000000000       0.12500000000000000        0.0000000000000000     
  0.78125000000000000       0.12500000000000000        0.0000000000000000     
  0.81250000000000000       0.12500000000000000        0.0000000000000000     
  0.84375000000000000       0.12500000000000000        0.0000000000000000     
  0.87500000000000000       0.12500000000000000        0.0000000000000000     
  0.75000000000000000       0.15625000000000000        0.0000000000000000     
  0.78125000000000000       0.15625000000000000        0.0000000000000000     
  0.81250000000000000       0.15625000000000000        0.0000000000000000     
  0.84375000000000000       0.15625000000000000        0.0000000000000000     
  0.87500000000000000       0.15625000000000000        0.0000000000000000     
  0.75000000000000000       0.18750000000000000        0.0000000000000000     
  0.78125000000000000       0.18750000000000000        0.0000000000000000     
  0.81250000000000000       0.18750000000000000        0.0000000000000000     
  0.84375000000000000       0.18750000000000000        0.0000000000000000     
  0.87500000000000000       0.18750000000000000        0.0000000000000000     
  0.75000000000000000       0.21875000000000000        0.0000000000000000     
  0.78125000000000000       0.21875000000000000        0.0000000000000000     
  0.81250000000000000       0.21875000000000000        0.0000000000000000     
  0.84375000000000000       0.21875000000000000        0.0000000000000000     
  0.87500000000000000       0.21875000000000000        0.0000000000000000     
  0.75000000000000000       0.25000000000000000        0.0000000000000000     
  0.78125000000000000       0.25000000000000000        0.0000000000000000     
  0.81250000000000000       0.25000000000000000        0.0000000000000000     
  0.84375000000000000       0.25000000000000000        0.0000000000000000     
  0.87500000000000000       0.25000000000000000        0.0000000000000000     
  0.87500000000000000       0.12500000000000000        0.0000000000000000     
  0.90625000000000000       0.12500000000000000        0.0000000000000000     
  0.93750000000000000       0.12500000000000000        0.0000000000000000     
  0.96875000000000000       0.12500000000000000        0.0000000000000000     
   1.0000000000000000       0.12500000000000000        0.0000000000000000     
  0.87500000000000000       0.15625000000000000        0.0000000000000000     
  0.90625000000000000       0.15625000000000000        0.0000000000000000     
  0.93750000000000000       0.15625000000000000        0.0000000000000000     
  0.96875000000000000       0.15625000000000000        0.0000000000000000     
   1.0000000000000000       0.15625000000000000        0.0000000000000000     
  0.87500000000000000       0.18750000000000000        0.0000000000000000     
  0.90625000000000000       0.18750000000000000        0.0000000000000000     
  0.93750000000000000       0.18750000000000000        0.0000000000000000     
  0.96875000000000000       0.18750000000000000        0.0000000000000000     
   1.0000000000000000       0.18750000000000000        0.0000000000000000     
  0.87500000000000000       0.21875000000000000        0.0000000000000000     
  0.90625000000000000       0.21875000000000000        0.0000000000000000     
  0.93750000000000000       0.21875000000000000        0.0000000000000000     
  0.96875000000000000       0.21875000000000000        0.0000000000000000     
   1.0000000000000000       0.21875000000000000        0.0000000000000000     
  0.87500000000000000       0.25000000000000000        0.0000000000000000     
  0.90625000000000000       0.25000000000000000        0.0000000000000000     
  0.93750000000000000       0.25000000000000000        0.0000000000000000     
  0.96875000000000000       0.25000000000000000        0.0000000000000000     
   1.0000000000000000       0.25000000000000000        0.0000000000000000     
   1.0000000000000000       0.12500000000000000        0.0000000000000000     
   1.0312500000000000       0.12500000000000000        0.0000000000000000     
   1.0625000000000000       0.12500000000000000        0.0000000000000000     
   1.0937500000000000       0.12500000000000000        0.0000000000000000     
   1.1250000000000000       0.12500000000000000        0.0000000000000000     
   1.0000000000000000       0.15625000000000000        0.0000000000000000     
   1.0312500000000000       0.15625000000000000        0.0000000000000000     
   1.0625000000000000       0.15625000000000000        0.0000000000000000     
   1.0937500000000000       0.15625000000000000        0.0000000000000000     
   1.1250000000000000       0.15625000000000000        0.0000000000000000     
   1.0000000000000000       0.18750000000000000        0.0000000000000000     
   1.0312500000000000       0.18750000000000000        0.0000000000000000     
   1.0625000000000000       0.18750000000000000        0.0000000000000000     
   1.0937500000000000       0.18750000000000000        0.0000000000000000     
   1.1250000000000000       0.18750000000000000        0.0000000000000000     
   1.0000000000000000       0.21875000000000000        0.0000000000000000     
   1.0312500000000000       0.21875000000000000        0.0000000000000000     
   1.0625000000000000       0.21875000000000000        0.0000000000000000     
   1.0937500000000000       0.21875000000000000        0.0000000000000000     
   1.1250000000000000       0.21875000000000000        0.0000000000000000     
   1.0000000000000000       0.25000000000000000        0.0000000000000000     
   1.0312500000000000       0.25000000000000000        0.0000000000000000     
   1.0625000000000000       0.25000000000000000        0.0000000000000000     
   1.0937500000000000       0.25000000000000000        0.0000000000000000     
   1.1250000000000000       0.25000000000000000        0.0000000000000000     
   1.1250000000000000       0.12500000000000000        0.0000000000000000     
   1.1562500000000000       0.12500000000000000        0.0000000000000000     
   1.1875000000000000       0.12500000000000000        0.0000000000000000     
   1.2187500000000000       0.12500000000000000        0.0000000000000000     
   1.2500000000000000       0.12500000000000000        0.0000000000000000     
   1.1250000000000000       0.15625000000000000        0.0000000000000000     
   1.1562500000000000       0.15625000000000000        0.0000000000000000     
   1.1875000000000000       0.15625000000000000        0.0000000000000000     
   1.2187500000000000       0.15625000000000000        0.0000000000000000     
   1.2500000000000000       0.15625000000000000        0.0000000000000000     
   1.1250000000000000       0.18750000000000000        0.0000000000000000     
   1.1562500000000000       0.18750000000000000        0.0000000000000000     
   1.1875000000000000       0.18750000000000000        0.0000000000000000     
   1.2187500000000000       0.18750000000000000        0.0000000000000000     
   1.2500000000000000       0.18750000000000000        0.0000000000000000     
   1.1250000000000000       0.21875000000000000        0.0000000000000000     
   1.1562500000000000       0.21875000000000000        0.0000000000000000     
   1.1875000000000000       0.21875000000000000        0.0000000000000000     
   1.2187500000000000       0.21875000000000000        0.0000000000000000     
   1.2500000000000000       0.21875000000000000        0.0000000000000000     
   1.1250000000000000       0.25000000000000000        0.0000000000000000     
   1.1562500000000000       0.25000000000000000        0.0000000000000000     
   1.1875000000000000       0.25000000000000000        0.0000000000000000     
   1.2187500000000000       0.25000000000000000        0.0000000000000000     
   1.2500000000000000       0.25000000000000000        0.0000000000000000     
   1.2500000000000000       0.12500000000000000        0.0000000000000000     
   1.2812500000000000       0.12500000000000000        0.0000000000000000     
   1.3125000000000000       0.12500000000000000        0.0000000000000000     
   1.3437500000000000       0.12500000000000000        0.0000000000000000     
   1.3750000000000000       0.12500000000000000        0.0000000000000000     
   1.2500000000000000       0.15625000000000000        0.0000000000000000     
   1.2812500000000000       0.15625000000000000        0.0000000000000000     
   1.3125000000000000       0.15625000000000000        0.0000000000000000     
   1.3437500000000000       0.15625000000000000        0.0000000000000000     
   1.3750000000000000       0.15625000000000000        0.0000000000000000     
   1.2500000000000000       0.18750000000000000        0.0000000000000000     
   1.2812500000000000       0.18750000000000000        0.0000000000000000     
   1.3125000000000000       0.18750000000000000        0.0000000000000000     
   1.3437500000000000       0.18750000000000000        0.0000000000000000     
   1.3750000000000000       0.18750000000000000        0.0000000000000000     
   1.2500000000000000       0.21875000000000000        0.0000000000000000     
   1.2812500000000000       0.21875000000000000        0.0000000000000000     
   1.3125000000000000       0.21875000000000000        0.0000000000000000     
   1.3437500000000000       0.21875000000000000        0.0000000000000000     
   1.3750000000000000       0.21875000000000000        0.0000000000000000     
   1.2500000000000000       0.25000000000000000        0.0000000000000000     
   1.2812500000000000       0.25000000000000000        0.0000000000000000     
   1.3125000000000000       0.25000000000000000        0.0000000000000000     
   1.3437500000000000       0.25000000000000000        0.0000000000000000     
   1.3750000000000000       0.25000000000000000        0.0000000000000000     
   1.3750000000000000       0.12500000000000000        0.0000000000000000     
   1.4062500000000000       0.12500000000000000        0.0000000000000000     
   1.4375000000000000       0.12500000000000000        0.0000000000000000     
   1.4687500000000000       0.12500000000000000        0.0000000000000000     
   1.5000000000000000       0.12500000000000000        0.0000000000000000     
   1.3750000000000000       0.15625000000000000        0.0000000000000000     
   1.4062500000000000       0.15625000000000000        0.0000000000000000     
   1.4375000000000000       0.15625000000000000        0.0000000000000000     
   1.4687500000000000       0.15625000000000000        0.0000000000000000     
   1.5000000000000000       0.15625000000000000        0.0000000000000000     
   1.3750000000000000       0.18750000000000000        0.0000000000000000     
   1.4062500000000000       0.18750000000000000        0.0000000000000000     
   1.4375000000000000       0.18750000000000000        0.0000000000000000     
   1.4687500000000000       0.18750000000000000        0.0000000000000000     
   1.5000000000000000       0.18750000000000000        0.0000000000000000     
   1.3750000000000000       0.21875000000000000        0.0000000000000000     
   1.4062500000000000       0.21875000000000000        0.0000000000000000     
   1.4375000000000000       0.21875000000000000        0.0000000000000000     
   1.4687500000000000       0.21875000000000000        0.0000000000000000     
   1.5000000000000000       0.21875000000000000        0.0000000000000000     
   1.3750000000000000       0.25000000000000000        0.0000000000000000     
   1.4062500000000000       0.25000000000000000        0.0000000000000000     
   1.4375000000000000       0.25000000000000000        0.0000000000000000     
   1.4687500000000000       0.25000000000000000        0.0000000000000000     
   1.5000000000000000       0.25000000000000000        0.0000000000000000     
  0.50000000000000000       0.25000000000000000        0.0000000000000000     
  0.53125000000000000       0.25000000000000000        0.0000000000000000     
  0.56250000000000000       0.25000000000000000        0.0000000000000000     
  0.59375000000000000       0.25000000000000000        0.0000000000000000     
  0.62500000000000000       0.25000000000000000        0.0000000000000000     
  0.50000000000000000       0.28125000000000000        0.0000000000000000     
  0.53125000000000000       0.28125000000000000        0.0000000000000000     
  0.56250000000000000       0.28125000000000000        0.0000000000000000     
  0.59375000000000000       0.28125000000000000        0.0000000000000000     
  0.62500000000000000       0.28125000000000000        0.0000000000000000     
  0.50000000000000000       0.31250000000000000        0.0000000000000000     
  0.53125000000000000       0.31250000000000000        0.0000000000000000     
  0.56250000000000000       0.31250000000000000        0.0000000000000000     
  0.59375000000000000       0.31250000000000000        0.0000000000000000     
  0.62500000000000000       0.31250000000000000        0.0000000000000000     
  0.50000000000000000       0.34375000000000000        0.0000000000000000     
  0.53125000000000000       0.34375000000000000        0.0000000000000000     
  0.56250000000000000       0.34375000000000000        0.0000000000000000     
  0.59375000000000000       0.34375000000000000        0.0000000000000000     
  0.62500000000000000       0.34375000000000000        0.0000000000000000     
  0.50000000000000000       0.37500000000000000        0.0000000000000000     
  0.53125000000000000       0.37500000000000000        0.0000000000000000     
  0.56250000000000000       0.37500000000000000        0.0000000000000000     
  0.59375000000000000       0.37500000000000000        0.0000000000000000     
  0.62500000000000000       0.37500000000000000        0.0000000000000000     
  0.62500000000000000       0.25000000000000000        0.0000000000000000     
  0.65625000000000000       0.25000000000000000        0.0000000000000000     
  0.68750000000000000       0.25000000000000000        0.0000000000000000     
  0.71875000000000000       0.25000000000000000        0.0000000000000000     
  0.75000000000000000       0.25000000000000000        0.0000000000000000     
  0.62500000000000000       0.28125000000000000        0.0000000000000000     
  0.65625000000000000       0.28125000000000000        0.0000000000000000     
  0.68750000000000000       0.28125000000000000        0.0000000000000000     
  0.71875000000000000       0.28125000000000000        0.0000000000000000     
  0.75000000000000000       0.28125000000000000        0.0000000000000000     
  0.62500000000000000       0.31250000000000000        0.0000000000000000     
  0.65625000000000000       0.31250000000000000        0.0000000000000000     
  0.68750000000000000       0.31250000000000000        0.0000000000000000     
  0.71875000000000000       0.31250000000000000        0.0000000000000000     
  0.75000000000000000       0.31250000000000000        0.0000000000000000     
  0.62500000000000000       0.34375000000000000        0.0000000000000000     
  0.65625000000000000       0.34375000000000000        0.0000000000000000     
  0.68750000000000000       0.34375000000000000        0.0000000000000000     
  0.71875000000000000       0.34375000000000000        0.0000000000000000     
  0.75000000000000000       0.34375000000000000        0.0000000000000000     
  0.62500000000000000       0.37500000000000000        0.0000000000000000     
  0.65625000000000000       0.37500000000000000        0.0000000000000000     
  0.68750000000000000       0.37500000000000000        0.0000000000000000     
  0.71875000000000000       0.37500000000000000        0.0000000000000000     
  0.75000000000000000       0.37500000000000000        0.0000000000000000     
  0.75000000000000000       0.25000000000000000        0.0000000000000000     
  0.78125000000000000       0.25000000000000000        0.0000000000000000     
  0.81250000000000000       0.25000000000000000        0.0000000000000000     
  0.84375000000000000       0.25000000000000000        0.0000000000000000     
  0.87500000000000000       0.25000000000000000        0.0000000000000000     
  0.75000000000000000       0.28125000000000000        0.0000000000000000     
  0.78125000000000000       0.28125000000000000        0.0000000000000000     
  0.81250000000000000       0.28125000000000000        0.0000000000000000     
  0.84375000000000000       0.28125000000000000        0.0000000000000000     
  0.87500000000000000       0.28125000000000000        0.0000000000000000     
  0.75000000000000000       0.31250000000000000        0.0000000000000000     
  0.78125000000000000       0.31250000000000000        0.0000000000000000     
  0.81250000000000000       0.31250000000000000        0.0000000000000000     
  0.84375000000000000       0.31250000000000000        0.0000000000000000     
  0.87500000000000000       0.31250000000000000        0.0000000000000000     
  0.75000000000000000       0.34375000000000000        0.0000000000000000     
  0.78125000000000000       0.34375000000000000        0.0000000000000000     
  0.81250000000000000       0.34375000000000000        0.0000000000000000     
  0.84375000000000000       0.34375000000000000        0.0000000000000000     
  0.87500000000000000       0.34375000000000000        0.0000000000000000     
  0.75000000000000000       0.37500000000000000        0.0000000000000000     
  0.78125000000000000       0.37500000000000000        0.0000000000000000     
  0.81250000000000000       0.37500000000000000        0.0000000000000000     
  0.84375000000000000       0.37500000000000000        0.0000000000000000     
  0.87500000000000000       0.37500000000000000        0.0000000000000000     
  0.87500000000000000       0.25000000000000000        0.0000000000000000     
  0.90625000000000000       0.25000000000000000        0.0000000000000000     
  0.93750000000000000       0.25000000000000000        0.0000000000000000     
  0.96875000000000000       0.25000000000000000        0.0000000000000000     
   1.0000000000000000       0.25000000000000000        0.0000000000000000     
  0.87500000000000000       0.28125000000000000        0.0000000000000000     
  0.90625000000000000       0.28125000000000000        0.0000000000000000     
  0.93750000000000000       0.28125000000000000        0.0000000000000000     
  0.96875000000000000       0.28125000000000000        0.0000000000000000     
   1.0000000000000000       0.28125000000000000        0.0000000000000000     
  0.87500000000000000       0.31250000000000000        0.0000000000000000     
  0.90625000000000000       0.31250000000000000        0.0000000000000000     
  0.93750000000000000       0.31250000000000000        0.0000000000000000     
  0.96875000000000000       0.31250000000000000        0.0000000000000000     
   1.0000000000000000       0.31250000000000000        0.0000000000000000     
  0.87500000000000000       0.34375000000000000        0.0000000000000000     
  0.90625000000000000       0.34375000000000000        0.0000000000000000     
  0.93750000000000000       0.34375000000000000        0.0000000000000000     
  0.96875000000000000       0.34375000000000000        0.0000000000000000     
   1.0000000000000000       0.34375000000000000        0.0000000000000000     
  0.87500000000000000       0.37500000000000000        0.0000000000000000     
  0.90625000000000000       0.37500000000000000        0.0000000000000000     
  0.93750000000000000       0.37500000000000000        0.0000000000000000     
  0.96875000000000000       0.37500000000000000        0.0000000000000000     
   1.0000000000000000       0.37500000000000000        0.0000000000000000     
   1.0000000000000000       0.25000000000000000        0.0000000000000000     
   1.0312500000000000       0.25000000000000000        0.0000000000000000     
   1.0625000000000000       0.25000000000000000        0.0000000000000000     
   1.0937500000000000       0.25000000000000000        0.0000000000000000     
   1.1250000000000000       0.25000000000000000        0.0000000000000000     
   1.0000000000000000       0.28125000000000000        0.0000000000000000     
   1.0312500000000000       0.28125000000000000        0.0000000000000000     
   1.0625000000000000       0.28125000000000000        0.0000000000000000     
   1.0937500000000000       0.28125000000000000        0.0000000000000000     
   1.1250000000000000       0.28125000000000000        0.0000000000000000     
   1.0000000000000000       0.31250000000000000        0.0000000000000000     
   1.0312500000000000       0.31250000000000000        0.0000000000000000     
   1.0625000000000000       0.31250000000000000        0.0000000000000000     
   1.0937500000000000       0.31250000000000000        0.0000000000000000     
   1.1250000000000000       0.31250000000000000        0.0000000000000000     
   1.0000000000000000       0.34375000000000000        0.0000000000000000     
   1.0312500000000000       0.34375000000000000        0.0000000000000000     
   1.0625000000000000       0.34375000000000000        0.0000000000000000     
   1.0937500000000000       0.34375000000000000        0.0000000000000000     
   1.1250000000000000       0.34375000000000000        0.0000000000000000     
   1.0000000000000000       0.37500000000000000        0.0000000000000000     
   1.0312500000000000       0.37500000000000000        0.0000000000000000     
   1.0625000000000000       0.37500000000000000        0.0000000000000000     
   1.0937500000000000       0.37500000000000000        0.0000000000000000     
   1.1250000000000000       0.37500000000000000        0.0000000000000000     
   1.1250000000000000       0.25000000000000000        0.0000000000000000     
   1.1562500000000000       0.25000000000000000        0.0000000000000000     
   1.1875000000000000       0.25000000000000000        0.0000000000000000     
   1.2187500000000000       0.25000000000000000        0.0000000000000000     
   1.2500000000000000       0.25000000000000000        0.0000000000000000     
   1.1250000000000000       0.28125000000000000        0.0000000000000000     
   1.1562500000000000       0.28125000000000000        0.0000000000000000     
   1.1875000000000000       0.28125000000000000        0.0000000000000000     
   1.2187500000000000       0.28125000000000000        0.0000000000000000     
   1.2500000000000000       0.28125000000000000        0.0000000000000000     
   1.1250000000000000       0.31250000000000000        0.0000000000000000     
   1.1562500000000000       0.31250000000000000        0.0000000000000000     
   1.1875000000000000       0.31250000000000000        0.0000000000000000     
   1.2187500000000000       0.31250000000000000        0.0000000000000000     
   1.2500000000000000       0.31250000000000000        0.0000000000000000     
   1.1250000000000000       0.34375000000000000        0.0000000000000000     
   1.1562500000000000       0.34375000000000000        0.0000000000000000     
   1.1875000000000000       0.34375000000000000        0.0000000000000000     
   1.2187500000000000       0.34375000000000000        0.0000000000000000     
   1.2500000000000000       0.34375000000000000        0.0000000000000000     
   1.1250000000000000       0.37500000000000000        0.0000000000000000     
   1.1562500000000000       0.37500000000000000        0.0000000000000000     
   1.1875000000000000       0.37500000000000000        0.0000000000000000     
   1.2187500000000000       0.37500000000000000        0.0000000000000000     
   1.2500000000000000       0.37500000000000000        0.0000000000000000     
   1.2500000000000000       0.25000000000000000        0.0000000000000000     
   1.2812500000000000       0.25000000000000000        0.0000000000000000     
   1.3125000000000000       0.25000000000000000        0.0000000000000000     
   1.3437500000000000       0.25000000000000000        0.0000000000000000     
   1.3750000000000000       0.25000000000000000        0.0000000000000000     
   1.2500000000000000       0.28125000000000000        0.0000000000000000     
   1.2812500000000000       0.28125000000000000        0.0000000000000000     
   1.3125000000000000       0.28125000000000000        0.0000000000000000     
   1.3437500000000000       0.28125000000000000        0.0000000000000000     
   1.3750000000000000       0.28125000000000000        0.0000000000000000     
   1.2500000000000000       0.31250000000000000        0.0000000000000000     
   1.2812500000000000       0.31250000000000000        0.0000000000000000     
   1.3125000000000000       0.31250000000000000        0.0000000000000000     
   1.3437500000000000       0.31250000000000000        0.0000000000000000     
   1.3750000000000000       0.31250000000000000        0.0000000000000000     
   1.2500000000000000       0.34375000000000000        0.0000000000000000     
   1.2812500000000000       0.34375000000000000        0.0000000000000000     
   1.3125000000000000       0.34375000000000000        0.0000000000000000     
   1.3437500000000000       0.34375000000000000        0.0000000000000000     
   1.3750000000000000       0.34375000000000000        0.0000000000000000     
   1.2500000000000000       0.37500000000000000        0.0000000000000000     
   1.2812500000000000       0.37500000000000000        0.0000000000000000     
   1.3125000000000000       0.37500000000000000        0.0000000000000000     
   1.3437500000000000       0.37500000000000000        0.0000000000000000     
   1.3750000000000000       0.37500000000000000        0.0000000000000000     
   1.3750000000000000       0.25000000000000000        0.0000000000000000     
   1.4062500000000000       0.25000000000000000        0.0000000000000000     
   1.4375000000000000       0.25000000000000000        0.0000000000000000     
   1.4687500000000000       0.25000000000000000        0.0000000000000000     
   1.5000000000000000       0.25000000000000000        0.0000000000000000     
   1.3750000000000000       0.28125000000000000        0.0000000000000000     
   1.4062500000000000       0.28125000000000000        0.0000000000000000     
   1.4375000000000000       0.28125000000000000        0.0000000000000000     
   1.4687500000000000       0.28125000000000000        0.0000000000000000     
   1.5000000000000000       0.28125000000000000        0.0000000000000000     
   1.3750000000000000       0.31250000000000000        0.0000000000000000     
   1.4062500000000000       0.31250000000000000        0.0000000000000000     
   1.4375000000000000       0.31250000000000000        0.0000000000000000     
   1.4687500000000000       0.31250000000000000        0.0000000000000000     
   1.5000000000000000       0.31250000000000000        0.0000000000000000     
   1.3750000000000000       0.34375000000000000        0.0000000000000000     
   1.4062500000000000       0.34375000000000000        0.0000000000000000     
   1.4375000000000000       0.34375000000000000        0.0000000000000000     
   1.4687500000000000       0.34375000000000000        0.0000000000000000     
   1.5000000000000000       0.34375000000000000        0.0000000000000000     
   1.3750000000000000       0.37500000000000000        0.0000000000000000     
   1.4062500000000000       0.37500000000000000        0.0000000000000000     
   1.4375000000000000       0.37500000000000000        0.0000000000000000     
   1.4687500000000000       0.37500000000000000        0.0000000000000000     
   1.5000000000000000       0.37500000000000000        0.0000000000000000     
  0.50000000000000000       0.37500000000000000        0.0000000000000000     
  0.53125000000000000       0.37500000000000000        0.0000000000000000     
  0.56250000000000000       0.37500000000000000        0.0000000000000000     
  0.59375000000000000       0.37500000000000000        0.0000000000000000     
  0.62500000000000000       0.37500000000000000        0.0000000000000000     
  0.50000000000000000       0.40625000000000000        0.0000000000000000     
  0.53125000000000000       0.40625000000000000        0.0000000000000000     
  0.56250000000000000       0.40625000000000000        0.0000000000000000     
  0.59375000000000000       0.40625000000000000        0.0000000000000000     
  0.62500000000000000       0.40625000000000000        0.0000000000000000     
  0.50000000000000000       0.43750000000000000        0.0000000000000000     
  0.53125000000000000       0.43750000000000000        0.0000000000000000     
  0.56250000000000000       0.43750000000000000        0.0000000000000000     
  0.59375000000000000       0.43750000000000000        0.0000000000000000     
  0.62500000000000000       0.43750000000000000        0.0000000000000000     
  0.50000000000000000       0.46875000000000000        0.0000000000000000     
  0.53125000000000000       0.46875000000000000        0.0000000000000000     
  0.56250000000000000       0.46875000000000000        0.0000000000000000     
  0.59375000000000000       0.46875000000000000        0.0000000000000000     
  0.62500000000000000       0.46875000000000000        0.0000000000000000     
  0.50000000000000000       0.50000000000000000        0.0000000000000000     
  0.53125000000000000       0.50000000000000000        0.0000000000000000     
  0.56250000000000000       0.50000000000000000        0.0000000000000000     
  0.59375000000000000       0.50000000000000000        0.0000000000000000     
  0.62500000000000000       0.50000000000000000        0.0000000000000000     
  0.62500000000000000       0.37500000000000000        0.0000000000000000     
  0.65625000000000000       0.37500000000000000        0.0000000000000000     
  0.68750000000000000       0.37500000000000000        0.0000000000000000     
  0.71875000000000000       0.37500000000000000        0.0000000000000000     
  0.75000000000000000       0.37500000000000000        0.0000000000000000     
  0.62500000000000000       0.40625000000000000        0.0000000000000000     
  0.65625000000000000       0.40625000000000000        0.0000000000000000     
  0.68750000000000000       0.40625000000000000        0.0000000000000000     
  0.71875000000000000       0.40625000000000000        0.0000000000000000     
  0.75000000000000000       0.40625000000000000        0.0000000000000000     
  0.62500000000000000       0.43750000000000000        0.0000000000000000     
  0.65625000000000000       0.43750000000000000        0.0000000000000000     
  0.68750000000000000       0.43750000000000000        0.0000000000000000     
  0.71875000000000000       0.43750000000000000        0.0000000000000000     
  0.75000000000000000       0.43750000000000000        0.0000000000000000     
  0.62500000000000000       0.46875000000000000        0.0000000000000000     
  0.65625000000000000       0.46875000000000000        0.0000000000000000     
  0.68750000000000000       0.46875000000000000        0.0000000000000000     
  0.71875000000000000       0.46875000000000000        0.0000000000000000     
  0.75000000000000000       0.46875000000000000        0.0000000000000000     
  0.62500000000000000       0.50000000000000000        0.0000000000000000     
  0.65625000000000000       0.50000000000000000        0.0000000000000000     
  0.68750000000000000       0.50000000000000000        0.0000000000000000     
  0.71875000000000000       0.50000000000000000        0.0000000000000000     
  0.75000000000000000       0.50000000000000000        0.0000000000000000     
  0.75000000000000000       0.37500000000000000        0.0000000000000000     
  0.78125000000000000       0.37500000000000000        0.0000000000000000     
  0.81250000000000000       0.37500000000000000        0.0000000000000000     
  0.84375000000000000       0.37500000000000000        0.0000000000000000     
  0.87500000000000000       0.37500000000000000        0.0000000000000000     
  0.75000000000000000       0.40625000000000000        0.0000000000000000     
  0.78125000000000000       0.40625000000000000        0.0000000000000000     
  0.81250000000000000       0.40625000000000000        0.0000000000000000     
  0.84375000000000000       0.40625000000000000        0.0000000000000000     
  0.87500000000000000       0.40625000000000000        0.0000000000000000     
  0.75000000000000000       0.43750000000000000        0.0000000000000000     
  0.78125000000000000       0.43750000000000000        0.0000000000000000     
  0.81250000000000000       0.43750000000000000        0.0000000000000000     
  0.84375000000000000       0.43750000000000000        0.0000000000000000     
  0.87500000000000000       0.43750000000000000        0.0000000000000000     
  0.75000000000000000       0.46875000000000000        0.0000000000000000     
  0.78125000000000000       0.46875000000000000        0.0000000000000000     
  0.81250000000000000       0.46875000000000000        0.0000000000000000     
  0.84375000000000000       0.46875000000000000        0.0000000000000000     
  0.87500000000000000       0.46875000000000000        0.0000000000000000     
  0.75000000000000000       0.50000000000000000        0.0000000000000000     
  0.78125000000000000       0.50000000000000000        0.0000000000000000     
  0.81250000000000000       0.50000000000000000        0.0000000000000000     
  0.84375000000000000       0.50000000000000000        0.0000000000000000     
  0.87500000000000000       0.50000000000000000        0.0000000000000000     
  0.87500000000000000       0.37500000000000000        0.0000000000000000     
  0.90625000000000000       0.37500000000000000        0.0000000000000000     
  0.93750000000000000       0.37500000000000000        0.0000000000000000     
  0.96875000000000000       0.37500000000000000        0.0000000000000000     
   1.0000000000000000       0.37500000000000000        0.0000000000000000     
  0.87500000000000000       0.40625000000000000        0.0000000000000000     
  0.90625000000000000       0.40625000000000000        0.0000000000000000     
  0.93750000000000000       0.40625000000000000        0.0000000000000000     
  0.96875000000000000       0.40625000000000000        0.0000000000000000     
   1.0000000000000000       0.40625000000000000        0.0000000000000000     
  0.87500000000000000       0.43750000000000000        0.0000000000000000     
  0.90625000000000000       0.43750000000000000        0.0000000000000000     
  0.93750000000000000       0.43750000000000000        0.0000000000000000     
  0.96875000000000000       0.43750000000000000        0.0000000000000000     
   1.0000000000000000       0.43750000000000000        0.0000000000000000     
  0.87500000000000000       0.46875000000000000        0.0000000000000000     
  0.90625000000000000       0.46875000000000000        0.0000000000000000     
  0.93750000000000000       0.46875000000000000        0.0000000000000000     
  0.96875000000000000       0.46875000000000000        0.0000000000000000     
   1.0000000000000000       0.46875000000000000        0.0000000000000000     
  0.87500000000000000       0.50000000000000000        0.0000000000000000     
  0.90625000000000000       0.50000000000000000        0.0000000000000000     
  0.93750000000000000       0.50000000000000000        0.0000000000000000     
  0.96875000000000000       0.50000000000000000        0.0000000000000000     
   1.0000000000000000       0.50000000000000000        0.0000000000000000     
   1.0000000000000000       0.37500000000000000        0.0000000000000000     
   1.0312500000000000       0.37500000000000000        0.0000000000000000     
   1.0625000000000000       0.37500000000000000        0.0000000000000000     
   1.0937500000000000       0.37500000000000000        0.0000000000000000     
   1.1250000000000000       0.37500000000000000        0.0000000000000000     
   1.0000000000000000       0.40625000000000000        0.0000000000000000     
   1.0312500000000000       0.40625000000000000        0.0000000000000000     
   1.0625000000000000       0.40625000000000000        0.0000000000000000     
   1.0937500000000000       0.40625000000000000        0.0000000000000000     
   1.1250000000000000       0.40625000000000000        0.0000000000000000     
   1.0000000000000000       0.43750000000000000        0.0000000000000000     
   1.0312500000000000       0.43750000000000000        0.0000000000000000     
   1.0625000000000000       0.43750000000000000        0.0000000000000000     
   1.0937500000000000       0.43750000000000000        0.0000000000000000     
   1.1250000000000000       0.43750000000000000        0.0000000000000000     
   1.0000000000000000       0.46875000000000000        0.0000000000000000     
   1.0312500000000000       0.46875000000000000        0.0000000000000000     
   1.0625000000000000       0.46875000000000000        0.0000000000000000     
   1.0937500000000000       0.46875000000000000        0.0000000000000000     
   1.1250000000000000       0.46875000000000000        0.0000000000000000     
   1.0000000000000000       0.50000000000000000        0.0000000000000000     
   1.0312500000000000       0.50000000000000000        0.0000000000000000     
   1.0625000000000000       0.50000000000000000        0.0000000000000000     
   1.0937500000000000       0.50000000000000000        0.0000000000000000     
   1.1250000000000000       0.50000000000000000        0.0000000000000000     
   1.1250000000000000       0.37500000000000000        0.0000000000000000     
   1.1562500000000000       0.37500000000000000        0.0000000000000000     
   1.1875000000000000       0.37500000000000000        0.0000000000000000     
   1.2187500000000000       0.37500000000000000        0.0000000000000000     
   1.2500000000000000       0.37500000000000000        0.0000000000000000     
   1.1250000000000000       0.40625000000000000        0.0000000000000000     
   1.1562500000000000       0.40625000000000000        0.0000000000000000     
   1.1875000000000000       0.40625000000000000        0.0000000000000000     
   1.2187500000000000       0.40625000000000000        0.0000000000000000     
   1.2500000000000000       0.40625000000000000        0.0000000000000000     
   1.1250000000000000       0.43750000000000000        0.0000000000000000     
   1.1562500000000000       0.43750000000000000        0.0000000000000000     
   1.1875000000000000       0.43750000000000000        0.0000000000000000     
   1.2187500000000000       0.43750000000000000        0.0000000000000000     
   1.2500000000000000       0.43750000000000000        0.0000000000000000     
   1.1250000000000000       0.46875000000000000        0.0000000000000000     
   1.1562500000000000       0.46875000000000000        0.0000000000000000     
   1.1875000000000000       0.46875000000000000        0.0000000000000000     
   1.2187500000000000       0.46875000000000000        0.0000000000000000     
   1.2500000000000000       0.46875000000000000        0.0000000000000000     
   1.1250000000000000       0.50000000000000000        0.0000000000000000     
   1.1562500000000000       0.50000000000000000        0.0000000000000000     
   1.1875000000000000       0.50000000000000000        0.0000000000000000     
   1.2187500000000000       0.50000000000000000        0.0000000000000000     
   1.2500000000000000       0.50000000000000000        0.0000000000000000     
   1.2500000000000000       0.37500000000000000        0.0000000000000000     
   1.2812500000000000       0.37500000000000000        0.0000000000000000     
   1.3125000000000000       0.37500000000000000        0.0000000000000000     
   1.3437500000000000       0.37500000000000000        0.0000000000000000     
   1.3750000000000000       0.37500000000000000        0.0000000000000000     
   1.2500000000000000       0.40625000000000000        0.0000000000000000     
   1.2812500000000000       0.40625000000000000        0.0000000000000000     
   1.3125000000000000       0.40625000000000000        0.0000000000000000     
   1.3437500000000000       0.40625000000000000        0.0000000000000000     
   1.3750000000000000       0.40625000000000000        0.0000000000000000     
   1.2500000000000000       0.43750000000000000        0.0000000000000000     
   1.2812500000000000       0.43750000000000000        0.0000000000000000     
   1.3125000000000000       0.43750000000000000        0.0000000000000000     
   1.3437500000000000       0.43750000000000000        0.0000000000000000     
   1.3750000000000000       0.43750000000000000        0.0000000000000000     
   1.2500000000000000       0.46875000000000000        0.0000000000000000     
   1.2812500000000000       0.46875000000000000        0.0000000000000000     
   1.3125000000000000       0.46875000000000000        0.0000000000000000     
   1.3437500000000000       0.46875000000000000        0.0000000000000000     
   1.3750000000000000       0.46875000000000000        0.0000000000000000     
   1.2500000000000000       0.50000000000000000        0.0000000000000000     
   1.2812500000000000       0.50000000000000000        0.0000000000000000     
   1.3125000000000000       0.50000000000000000        0.0000000000000000     
   1.3437500000000000       0.50000000000000000        0.0000000000000000     
   1.3750000000000000       0.50000000000000000        0.0000000000000000     
   1.3750000000000000       0.37500000000000000        0.0000000000000000     
   1.4062500000000000       0.37500000000000000        0.0000000000000000     
   1.4375000000000000       0.37500000000000000        0.0000000000000000     
   1.4687500000000000       0.37500000000000000        0.0000000000000000     
   1.5000000000000000       0.37500000000000000        0.0000000000000000     
   1.3750000000000000       0.40625000000000000        0.0000000000000000     
   1.4062500000000000       0.40625000000000000        0.0000000000000000     
   1.4375000000000000       0.40625000000000000        0.0000000000000000     
   1.4687500000000000       0.40625000000000000        0.0000000000000000     
   1.5000000000000000       0.40625000000000000        0.0000000000000000     
   1.3750000000000000       0.43750000000000000        0.0000000000000000     
   1.4062500000000000       0.43750000000000000        0.0000000000000000     
   1.4375000000000000       0.43750000000000000        0.0000000000000000     
   1.4687500000000000       0.43750000000000000        0.0000000000000000     
   1.5000000000000000       0.43750000000000000        0.0000000000000000     
   1.3750000000000000       0.46875000000000000        0.0000000000000000     
   1.4062500000000000       0.46875000000000000        0.0000000000000000     
   1.4375000000000000       0.46875000000000000        0.0000000000000000     
   1.4687500000000000       0.46875000000000000        0.0000000000000000     
   1.5000000000000000       0.46875000000000000        0.0000000000000000     
   1.3750000000000000       0.50000000000000000        0.0000000000000000     
   1.4062500000000000       0.50000000000000000        0.0000000000000000     
   1.4375000000000000       0.50000000000000000        0.0000000000000000     
   1.4687500000000000       0.50000000000000000        0.0000000000000000     
   1.5000000000000000       0.50000000000000000        0.0000000000000000     
  0.50000000000000000       0.50000000000000000        0.0000000000000000     
  0.53125000000000000       0.50000000000000000        0.0000000000000000     
  0.56250000000000000       0.50000000000000000        0.0000000000000000     
  0.59375000000000000       0.50000000000000000        0.0000000000000000     
  0.62500000000000000       0.50000000000000000        0.0000000000000000     
  0.50000000000000000       0.53125000000000000        0.0000000000000000     
  0.53125000000000000       0.53125000000000000        0.0000000000000000     
  0.56250000000000000       0.53125000000000000        0.0000000000000000     
  0.59375000000000000       0.53125000000000000        0.0000000000000000     
  0.62500000000000000       0.53125000000000000        0.0000000000000000     
  0.50000000000000000       0.56250000000000000        0.0000000000000000     
  0.53125000000000000       0.56250000000000000        0.0000000000000000     
  0.56250000000000000       0.56250000000000000        0.0000000000000000     
  0.59375000000000000       0.56250000000000000        0.0000000000000000     
  0.62500000000000000       0.56250000000000000        0.0000000000000000     
  0.50000000000000000       0.59375000000000000        0.0000000000000000     
  0.53125000000000000       0.59375000000000000        0.0000000000000000     
  0.56250000000000000       0.59375000000000000        0.0000000000000000     
  0.59375000000000000       0.59375000000000000        0.0000000000000000     
  0.62500000000000000       0.59375000000000000        0.0000000000000000     
  0.50000000000000000       0.62500000000000000        0.0000000000000000     
  0.53125000000000000       0.62500000000000000        0.0000000000000000     
  0.56250000000000000       0.62500000000000000        0.0000000000000000     
  0.59375000000000000       0.62500000000000000        0.0000000000000000     
  0.62500000000000000       0.62500000000000000        0.0000000000000000     
  0.62500000000000000       0.50000000000000000        0.0000000000000000     
  0.65625000000000000       0.50000000000000000        0.0000000000000000     
  0.68750000000000000       0.50000000000000000        0.0000000000000000     
  0.71875000000000000       0.50000000000000000        0.0000000000000000     
  0.75000000000000000       0.50000000000000000        0.0000000000000000     
  0.62500000000000000       0.53125000000000000        0.0000000000000000     
  0.65625000000000000       0.53125000000000000        0.0000000000000000     
  0.68750000000000000       0.53125000000000000        0.0000000000000000     
  0.71875000000000000       0.53125000000000000        0.0000000000000000     
  0.75000000000000000       0.53125000000000000        0.0000000000000000     
  0.62500000000000000       0.56250000000000000        0.0000000000000000     
  0.65625000000000000       0.56250000000000000        0.0000000000000000     
  0.68750000000000000       0.56250000000000000        0.0000000000000000     
  0.71875000000000000       0.56250000000000000        0.0000000000000000     
  0.75000000000000000       0.56250000000000000        0.0000000000000000     
  0.62500000000000000       0.59375000000000000        0.0000000000000000     
  0.65625000000000000       0.59375000000000000        0.0000000000000000     
  0.68750000000000000       0.59375000000000000        0.0000000000000000     
  0.71875000000000000       0.59375000000000000        0.0000000000000000     
  0.75000000000000000       0.59375000000000000        0.0000000000000000     
  0.62500000000000000       0.62500000000000000        0.0000000000000000     
  0.65625000000000000       0.62500000000000000        0.0000000000000000     
  0.68750000000000000       0.62500000000000000        0.0000000000000000     
  0.71875000000000000       0.62500000000000000        0.0000000000000000     
  0.75000000000000000       0.62500000000000000        0.0000000000000000     
  0.75000000000000000       0.50000000000000000        0.0000000000000000     
  0.78125000000000000       0.50000000000000000        0.0000000000000000     
  0.81250000000000000       0.50000000000000000        0.0000000000000000     
  0.84375000000000000       0.50000000000000000        0.0000000000000000     
  0.87500000000000000       0.50000000000000000        0.0000000000000000     
  0.75000000000000000       0.53125000000000000        0.0000000000000000     
  0.78125000000000000       0.53125000000000000        0.0000000000000000     
  0.81250000000000000       0.53125000000000000        0.0000000000000000     
  0.84375000000000000       0.53125000000000000        0.0000000000000000     
  0.87500000000000000       0.53125000000000000        0.0000000000000000     
  0.75000000000000000       0.56250000000000000        0.0000000000000000     
  0.78125000000000000       0.56250000000000000        0.0000000000000000     
  0.81250000000000000       0.56250000000000000        0.0000000000000000     
  0.84375000000000000       0.56250000000000000        0.0000000000000000     
  0.87500000000000000       0.56250000000000000        0.0000000000000000     
  0.75000000000000000       0.59375000000000000        0.0000000000000000     
  0.78125000000000000       0.59375000000000000        0.0000000000000000     
  0.81250000000000000       0.59375000000000000        0.0000000000000000     
  0.84375000000000000       0.59375000000000000        0.0000000000000000     
  0.87500000000000000       0.59375000000000000        0.0000000000000000     
  0.75000000000000000       0.62500000000000000        0.0000000000000000     
  0.78125000000000000       0.62500000000000000        0.0000000000000000     
  0.81250000000000000       0.62500000000000000        0.0000000000000000     
  0.84375000000000000       0.62500000000000000        0.0000000000000000     
  0.87500000000000000       0.62500000000000000        0.0000000000000000     
  0.87500000000000000       0.50000000000000000        0.0000000000000000     
  0.90625000000000000       0.50000000000000000        0.0000000000000000     
  0.93750000000000000       0.50000000000000000        0.0000000000000000     
  0.96875000000000000       0.50000000000000000        0.0000000000000000     
   1.0000000000000000       0.50000000000000000        0.0000000000000000     
  0.87500000000000000       0.53125000000000000        0.0000000000000000     
  0.90625000000000000       0.53125000000000000        0.0000000000000000     
  0.93750000000000000       0.53125000000000000        0.0000000000000000     
  0.96875000000000000       0.53125000000000000        0.0000000000000000     
   1.0000000000000000       0.53125000000000000        0.0000000000000000     
  0.87500000000000000       0.56250000000000000        0.0000000000000000     
  0.90625000000000000       0.56250000000000000        0.0000000000000000     
  0.93750000000000000       0.56250000000000000        0.0000000000000000     
  0.96875000000000000       0.56250000000000000        0.0000000000000000     
   1.0000000000000000       0.56250000000000000        0.0000000000000000     
  0.87500000000000000       0.59375000000000000        0.0000000000000000     
  0.90625000000000000       0.59375000000000000        0.0000000000000000     
  0.93750000000000000       0.59375000000000000        0.0000000000000000     
  0.96875000000000000       0.59375000000000000        0.0000000000000000     
   1.0000000000000000       0.59375000000000000        0.0000000000000000     
  0.87500000000000000       0.62500000000000000        0.0000000000000000     
  0.90625000000000000       0.62500000000000000        0.0000000000000000     
  0.93750000000000000       0.62500000000000000        0.0000000000000000     
  0.96875000000000000       0.62500000000000000        0.0000000000000000     
   1.0000000000000000       0.62500000000000000        0.0000000000000000     
   1.0000000000000000       0.50000000000000000        0.0000000000000000     
   1.0312500000000000       0.50000000000000000        0.0000000000000000     
   1.0625000000000000       0.50000000000000000        0.0000000000000000     
   1.0937500000000000       0.50000000000000000        0.0000000000000000     
   1.1250000000000000       0.50000000000000000        0.0000000000000000     
   1.0000000000000000       0.53125000000000000        0.0000000000000000     
   1.0312500000000000       0.53125000000000000        0.0000000000000000     
   1.0625000000000000       0.53125000000000000        0.0000000000000000     
   1.0937500000000000       0.53125000000000000        0.0000000000000000     
   1.1250000000000000       0.53125000000000000        0.0000000000000000     
   1.0000000000000000       0.56250000000000000        0.0000000000000000     
   1.0312500000000000       0.56250000000000000        0.0000000000000000     
   1.0625000000000000       0.56250000000000000        0.0000000000000000     
   1.0937500000000000       0.56250000000000000        0.0000000000000000     
   1.1250000000000000       0.56250000000000000        0.0000000000000000     
   1.0000000000000000       0.59375000000000000        0.0000000000000000     
   1.0312500000000000       0.59375000000000000        0.0000000000000000     
   1.0625000000000000       0.59375000000000000        0.0000000000000000     
   1.0937500000000000       0.59375000000000000        0.0000000000000000     
   1.1250000000000000       0.59375000000000000        0.0000000000000000     
   1.0000000000000000       0.62500000000000000        0.0000000000000000     
   1.0312500000000000       0.62500000000000000        0.0000000000000000     
   1.0625000000000000       0.62500000000000000        0.0000000000000000     
   1.0937500000000000       0.62500000000000000        0.0000000000000000     
   1.1250000000000000       0.62500000000000000        0.0000000000000000     
   1.1250000000000000       0.50000000000000000        0.0000000000000000     
   1.1562500000000000       0.50000000000000000        0.0000000000000000     
   1.1875000000000000       0.50000000000000000        0.0000000000000000     
   1.2187500000000000       0.50000000000000000        0.0000000000000000     
   1.2500000000000000       0.50000000000000000        0.0000000000000000     
   1.1250000000000000       0.53125000000000000        0.0000000000000000     
   1.1562500000000000       0.53125000000000000        0.0000000000000000     
   1.1875000000000000       0.53125000000000000        0.0000000000000000     
   1.2187500000000000       0.53125000000000000        0.0000000000000000     
   1.2500000000000000       0.53125000000000000        0.0000000000000000     
   1.1250000000000000       0.56250000000000000        0.0000000000000000     
   1.1562500000000000       0.56250000000000000        0.0000000000000000     
   1.1875000000000000       0.56250000000000000        0.0000000000000000     
   1.2187500000000000       0.56250000000000000        0.0000000000000000     
   1.2500000000000000       0.56250000000000000        0.0000000000000000     
   1.1250000000000000       0.59375000000000000        0.0000000000000000     
   1.1562500000000000       0.59375000000000000        0.0000000000000000     
   1.1875000000000000       0.59375000000000000        0.0000000000000000     
   1.2187500000000000       0.59375000000000000        0.0000000000000000     
   1.2500000000000000       0.59375000000000000        0.0000000000000000     
   1.1250000000000000       0.62500000000000000        0.0000000000000000     
   1.1562500000000000       0.62500000000000000        0.0000000000000000     
   1.1875000000000000       0.62500000000000000        0.0000000000000000     
   1.2187500000000000       0.62500000000000000        0.0000000000000000     
   1.2500000000000000       0.62500000000000000        0.0000000000000000     
   1.2500000000000000       0.50000000000000000        0.0000000000000000     
   1.2812500000000000       0.50000000000000000        0.0000000000000000     
   1.3125000000000000       0.50000000000000000        0.0000000000000000     
   1.3437500000000000       0.50000000000000000        0.0000000000000000     
   1.3750000000000000       0.50000000000000000        0.0000000000000000     
   1.2500000000000000       0.53125000000000000        0.0000000000000000     
   1.2812500000000000       0.53125000000000000        0.0000000000000000     
   1.3125000000000000       0.53125000000000000        0.0000000000000000     
   1.3437500000000000       0.53125000000000000        0.0000000000000000     
   1.3750000000000000       0.53125000000000000        0.0000000000000000     
   1.2500000000000000       0.56250000000000000        0.0000000000000000     
   1.2812500000000000       0.56250000000000000        0.0000000000000000     
   1.3125000000000000       0.56250000000000000        0.0000000000000000     
   1.3437500000000000       0.56250000000000000        0.0000000000000000     
   1.3750000000000000       0.56250000000000000        0.0000000000000000     
   1.2500000000000000       0.59375000000000000        0.0000000000000000     
   1.2812500000000000       0.59375000000000000        0.0000000000000000     
   1.3125000000000000       0.59375000000000000        0.0000000000000000     
   1.3437500000000000       0.59375000000000000        0.0000000000000000     
   1.3750000000000000       0.59375000000000000        0.0000000000000000     
   1.2500000000000000       0.62500000000000000        0.0000000000000000     
   1.2812500000000000       0.62500000000000000        0.0000000000000000     
   1.3125000000000000       0.62500000000000000        0.0000000000000000     
   1.3437500000000000       0.62500000000000000        0.0000000000000000     
   1.3750000000000000       0.62500000000000000        0.0000000000000000     
   1.3750000000000000       0.50000000000000000        0.0000000000000000     
   1.4062500000000000       0.50000000000000000        0.0000000000000000     
   1.4375000000000000       0.50000000000000000        0.0000000000000000     
   1.4687500000000000       0.50000000000000000        0.0000000000000000     
   1.5000000000000000       0.50000000000000000        0.0000000000000000     
   1.3750000000000000       0.53125000000000000        0.0000000000000000     
   1.4062500000000000       0.53125000000000000        0.0000000000000000     
   1.4375000000000000       0.53125000000000000        0.0000000000000000     
   1.4687500000000000       0.53125000000000000        0.0000000000000000     
   1.5000000000000000       0.53125000000000000        0.0000000000000000     
   1.3750000000000000       0.56250000000000000        0.0000000000000000     
   1.4062500000000000       0.56250000000000000        0.0000000000000000     
   1.4375000000000000       0.56250000000000000        0.0000000000000000     
   1.4687500000000000       0.56250000000000000        0.0000000000000000     
   1.5000000000000000       0.56250000000000000        0.0000000000000000     
   1.3750000000000000       0.59375000000000000        0.0000000000000000     
   1.4062500000000000       0.59375000000000000        0.0000000000000000     
   1.4375000000000000       0.59375000000000000        0.0000000000000000     
   1.4687500000000000       0.59375000000000000        0.0000000000000000     
   1.5000000000000000       0.59375000000000000        0.0000000000000000     
   1.3750000000000000       0.62500000000000000        0.0000000000000000     
   1.4062500000000000       0.62500000000000000        0.0000000000000000     
   1.4375000000000000       0.62500000000000000        0.0000000000000000     
   1.4687500000000000       0.62500000000000000        0.0000000000000000     
   1.5000000000000000       0.62500000000000000        0.0000000000000000     
  0.50000000000000000       0.62500000000000000        0.0000000000000000     
  0.53125000000000000       0.62500000000000000        0.0000000000000000     
  0.56250000000000000       0.62500000000000000        0.0000000000000000     
  0.59375000000000000       0.62500000000000000        0.0000000000000000     
  0.62500000000000000       0.62500000000000000        0.0000000000000000     
  0.50000000000000000       0.65625000000000000        0.0000000000000000     
  0.53125000000000000       0.65625000000000000        0.0000000000000000     
  0.56250000000000000       0.65625000000000000        0.0000000000000000     
  0.59375000000000000       0.65625000000000000        0.0000000000000000     
  0.62500000000000000       0.65625000000000000        0.0000000000000000     
  0.50000000000000000       0.68750000000000000        0.0000000000000000     
  0.53125000000000000       0.68750000000000000        0.0000000000000000     
  0.56250000000000000       0.68750000000000000        0.0000000000000000     
  0.59375000000000000       0.68750000000000000        0.0000000000000000     
  0.62500000000000000       0.68750000000000000        0.0000000000000000     
  0.50000000000000000       0.71875000000000000        0.0000000000000000     
  0.53125000000000000       0.71875000000000000        0.0000000000000000     
  0.56250000000000000       0.71875000000000000        0.0000000000000000     
  0.59375000000000000       0.71875000000000000        0.0000000000000000     
  0.62500000000000000       0.71875000000000000        0.0000000000000000     
  0.50000000000000000       0.75000000000000000        0.0000000000000000     
  0.53125000000000000       0.75000000000000000        0.0000000000000000     
  0.56250000000000000       0.75000000000000000        0.0000000000000000     
  0.59375000000000000       0.75000000000000000        0.0000000000000000     
  0.62500000000000000       0.75000000000000000        0.0000000000000000     
  0.62500000000000000       0.62500000000000000        0.0000000000000000     
  0.65625000000000000       0.62500000000000000        0.0000000000000000     
  0.68750000000000000       0.62500000000000000        0.0000000000000000     
  0.71875000000000000       0.62500000000000000        0.0000000000000000     
  0.75000000000000000       0.62500000000000000        0.0000000000000000     
  0.62500000000000000       0.65625000000000000        0.0000000000000000     
  0.65625000000000000       0.65625000000000000        0.0000000000000000     
  0.68750000000000000       0.65625000000000000        0.0000000000000000     
  0.71875000000000000       0.65625000000000000        0.0000000000000000     
  0.75000000000000000       0.65625000000000000        0.0000000000000000     
  0.62500000000000000       0.68750000000000000        0.0000000000000000     
  0.65625000000000000       0.68750000000000000        0.0000000000000000     
  0.68750000000000000       0.68750000000000000        0.0000000000000000     
  0.71875000000000000       0.68750000000000000        0.0000000000000000     
  0.75000000000000000       0.68750000000000000        0.0000000000000000     
  0.62500000000000000       0.71875000000000000        0.0000000000000000     
  0.65625000000000000       0.71875000000000000        0.0000000000000000     
  0.68750000000000000       0.71875000000000000        0.0000000000000000     
  0.71875000000000000       0.71875000000000000        0.0000000000000000     
  0.75000000000000000       0.71875000000000000        0.0000000000000000     
  0.62500000000000000       0.75000000000000000        0.0000000000000000     
  0.65625000000000000       0.75000000000000000        0.0000000000000000     
  0.68750000000000000       0.75000000000000000        0.0000000000000000     
  0.71875000000000000       0.75000000000000000        0.0000000000000000     
  0.75000000000000000       0.75000000000000000        0.0000000000000000     
  0.75000000000000000       0.62500000000000000        0.0000000000000000     
  0.78125000000000000       0.62500000000000000        0.0000000000000000     
  0.81250000000000000       0.62500000000000000        0.0000000000000000     
  0.84375000000000000       0.62500000000000000        0.0000000000000000     
  0.87500000000000000       0.62500000000000000        0.0000000000000000     
  0.75000000000000000       0.65625000000000000        0.0000000000000000     
  0.78125000000000000       0.65625000000000000        0.0000000000000000     
  0.81250000000000000       0.65625000000000000        0.0000000000000000     
  0.84375000000000000       0.65625000000000000        0.0000000000000000     
  0.87500000000000000       0.65625000000000000        0.0000000000000000     
  0.75000000000000000       0.68750000000000000        0.0000000000000000     
  0.78125000000000000       0.68750000000000000        0.0000000000000000     
  0.81250000000000000       0.68750000000000000        0.0000000000000000     
  0.84375000000000000       0.68750000000000000        0.0000000000000000     
  0.87500000000000000       0.68750000000000000        0.0000000000000000     
  0.75000000000000000       0.71875000000000000        0.0000000000000000     
  0.78125000000000000       0.71875000000000000        0.0000000000000000     
  0.81250000000000000       0.71875000000000000        0.0000000000000000     
  0.84375000000000000       0.71875000000000000        0.0000000000000000     
  0.87500000000000000       0.71875000000000000        0.0000000000000000     
  0.75000000000000000       0.75000000000000000        0.0000000000000000     
  0.78125000000000000       0.75000000000000000        0.0000000000000000     
  0.81250000000000000       0.75000000000000000        0.0000000000000000     
  0.84375000000000000       0.75000000000000000        0.0000000000000000     
  0.87500000000000000       0.75000000000000000        0.0000000000000000     
  0.87500000000000000       0.62500000000000000        0.0000000000000000     
  0.90625000000000000       0.62500000000000000        0.0000000000000000     
  0.93750000000000000       0.62500000000000000        0.0000000000000000     
  0.96875000000000000       0.62500000000000000        0.0000000000000000     
   1.0000000000000000       0.62500000000000000        0.0000000000000000     
  0.87500000000000000       0.65625000000000000        0.0000000000000000     
  0.90625000000000000       0.65625000000000000        0.0000000000000000     
  0.93750000000000000       0.65625000000000000        0.0000000000000000     
  0.96875000000000000       0.65625000000000000        0.0000000000000000     
   1.0000000000000000       0.65625000000000000        0.0000000000000000     
  0.87500000000000000       0.68750000000000000        0.0000000000000000     
  0.90625000000000000       0.68750000000000000        0.0000000000000000     
  0.93750000000000000       0.68750000000000000        0.0000000000000000     
  0.96875000000000000       0.68750000000000000        0.0000000000000000     
   1.0000000000000000       0.68750000000000000        0.0000000000000000     
  0.87500000000000000       0.71875000000000000        0.0000000000000000     
  0.90625000000000000       0.71875000000000000        0.0000000000000000     
  0.93750000000000000       0.71875000000000000        0.0000000000000000     
  0.96875000000000000       0.71875000000000000        0.0000000000000000     
   1.0000000000000000       0.71875000000000000        0.0000000000000000     
  0.87500000000000000       0.75000000000000000        0.0000000000000000     
  0.90625000000000000       0.75000000000000000        0.0000000000000000     
  0.93750000000000000       0.75000000000000000        0.0000000000000000     
  0.96875000000000000       0.75000000000000000        0.0000000000000000     
   1.0000000000000000       0.75000000000000000        0.0000000000000000     
   1.0000000000000000       0.62500000000000000        0.0000000000000000     
   1.0312500000000000       0.62500000000000000        0.0000000000000000     
   1.0625000000000000       0.62500000000000000        0.0000000000000000     
   1.0937500000000000       0.62500000000000000        0.0000000000000000     
   1.1250000000000000       0.62500000000000000        0.0000000000000000     
   1.0000000000000000       0.65625000000000000        0.0000000000000000     
   1.0312500000000000       0.65625000000000000        0.0000000000000000     
   1.0625000000000000       0.65625000000000000        0.0000000000000000     
   1.0937500000000000       0.65625000000000000        0.0000000000000000     
   1.1250000000000000       0.65625000000000000        0.0000000000000000     
   1.0000000000000000       0.68750000000000000        0.0000000000000000     
   1.0312500000000000       0.68750000000000000        0.0000000000000000     
   1.0625000000000000       0.68750000000000000        0.0000000000000000     
   1.0937500000000000       0.68750000000000000        0.0000000000000000     
   1.1250000000000000       0.68750000000000000        0.0000000000000000     
   1.0000000000000000       0.71875000000000000        0.0000000000000000     
   1.0312500000000000       0.71875000000000000        0.0000000000000000     
   1.0625000000000000       0.71875000000000000        0.0000000000000000     
   1.0937500000000000       0.71875000000000000        0.0000000000000000     
   1.1250000000000000       0.71875000000000000        0.0000000000000000     
   1.0000000000000000       0.75000000000000000        0.0000000000000000     
   1.0312500000000000       0.75000000000000000        0.0000000000000000     
   1.0625000000000000       0.75000000000000000        0.0000000000000000     
   1.0937500000000000       0.75000000000000000        0.0000000000000000     
   1.1250000000000000       0.75000000000000000        0.0000000000000000     
   1.1250000000000000       0.62500000000000000        0.0000000000000000     
   1.1562500000000000       0.62500000000000000        0.0000000000000000     
   1.1875000000000000       0.62500000000000000        0.0000000000000000     
   1.2187500000000000       0.62500000000000000        0.0000000000000000     
   1.2500000000000000       0.62500000000000000        0.0000000000000000     
   1.1250000000000000       0.65625000000000000        0.0000000000000000     
   1.1562500000000000       0.65625000000000000        0.0000000000000000     
   1.1875000000000000       0.65625000000000000        0.0000000000000000     
   1.2187500000000000       0.65625000000000000        0.0000000000000000     
   1.2500000000000000       0.65625000000000000        0.0000000000000000     
   1.1250000000000000       0.68750000000000000        0.0000000000000000     
   1.1562500000000000       0.68750000000000000        0.0000000000000000     
   1.1875000000000000       0.68750000000000000        0.0000000000000000     
   1.2187500000000000       0.68750000000000000        0.0000000000000000     
   1.2500000000000000       0.68750000000000000        0.0000000000000000     
   1.1250000000000000       0.71875000000000000        0.0000000000000000     
   1.1562500000000000       0.71875000000000000        0.0000000000000000     
   1.1875000000000000       0.71875000000000000        0.0000000000000000     
   1.2187500000000000       0.71875000000000000        0.0000000000000000     
   1.2500000000000000       0.71875000000000000        0.0000000000000000     
   1.1250000000000000       0.75000000000000000        0.0000000000000000     
   1.1562500000000000       0.75000000000000000        0.0000000000000000     
   1.1875000000000000       0.75000000000000000        0.0000000000000000     
   1.2187500000000000       0.75000000000000000        0.0000000000000000     
   1.2500000000000000       0.75000000000000000        0.0000000000000000     
   1.2500000000000000       0.62500000000000000        0.0000000000000000     
   1.2812500000000000       0.62500000000000000        0.0000000000000000     
   1.3125000000000000       0.62500000000000000        0.0000000000000000     
   1.3437500000000000       0.62500000000000000        0.0000000000000000     
   1.3750000000000000       0.62500000000000000        0.0000000000000000     
   1.2500000000000000       0.65625000000000000        0.0000000000000000     
   1.2812500000000000       0.65625000000000000        0.0000000000000000     
   1.3125000000000000       0.65625000000000000        0.0000000000000000     
   1.3437500000000000       0.65625000000000000        0.0000000000000000     
   1.3750000000000000       0.65625000000000000        0.0000000000000000     
   1.2500000000000000       0.68750000000000000        0.0000000000000000     
   1.2812500000000000       0.68750000000000000        0.0000000000000000     
   1.3125000000000000       0.68750000000000000        0.0000000000000000     
   1.3437500000000000       0.68750000000000000        0.0000000000000000     
   1.3750000000000000       0.68750000000000000        0.0000000000000000     
   1.2500000000000000       0.71875000000000000        0.0000000000000000     
   1.2812500000000000       0.71875000000000000        0.0000000000000000     
   1.3125000000000000       0.71875000000000000        0.0000000000000000     
   1.3437500000000000       0.71875000000000000        0.0000000000000000     
   1.3750000000000000       0.71875000000000000        0.0000000000000000     
   1.2500000000000000       0.75000000000000000        0.0000000000000000     
   1.2812500000000000       0.75000000000000000        0.0000000000000000     
   1.3125000000000000       0.75000000000000000        0.0000000000000000     
   1.3437500000000000       0.75000000000000000        0.0000000000000000     
   1.3750000000000000       0.75000000000000000        0.0000000000000000     
   1.3750000000000000       0.62500000000000000        0.0000000000000000     
   1.4062500000000000       0.62500000000000000        0.0000000000000000     
   1.4375000000000000       0.62500000000000000        0.0000000000000000     
   1.4687500000000000       0.62500000000000000        0.0000000000000000     
   1.5000000000000000       0.62500000000000000        0.0000000000000000     
   1.3750000000000000       0.65625000000000000        0.0000000000000000     
   1.4062500000000000       0.65625000000000000        0.0000000000000000     
   1.4375000000000000       0.65625000000000000        0.0000000000000000     
   1.4687500000000000       0.65625000000000000        0.0000000000000000     
   1.5000000000000000       0.65625000000000000        0.0000000000000000     
   1.3750000000000000       0.68750000000000000        0.0000000000000000     
   1.4062500000000000       0.68750000000000000        0.0000000000000000     
   1.4375000000000000       0.68750000000000000        0.0000000000000000     
   1.4687500000000000       0.68750000000000000        0.0000000000000000     
   1.5000000000000000       0.68750000000000000        0.0000000000000000     
   1.3750000000000000       0.71875000000000000        0.0000000000000000     
   1.4062500000000000       0.71875000000000000        0.0000000000000000     
   1.4375000000000000       0.71875000000000000        0.0000000000000000     
   1.4687500000000000       0.71875000000000000        0.0000000000000000     
   1.5000000000000000       0.71875000000000000        0.0000000000000000     
   1.3750000000000000       0.75000000000000000        0.0000000000000000     
   1.4062500000000000       0.75000000000000000        0.0000000000000000     
   1.4375000000000000       0.75000000000000000        0.0000000000000000     
   1.4687500000000000       0.75000000000000000        0.0000000000000000     
   1.5000000000000000       0.75000000000000000        0.0000000000000000     
  0.50000000000000000       0.75000000000000000        0.0000000000000000     
  0.53125000000000000       0.75000000000000000        0.0000000000000000     
  0.56250000000000000       0.75000000000000000        0.0000000000000000     
  0.59375000000000000       0.75000000000000000        0.0000000000000000     
  0.62500000000000000       0.75000000000000000        0.0000000000000000     
  0.50000000000000000       0.78125000000000000        0.0000000000000000     
  0.53125000000000000       0.78125000000000000        0.0000000000000000     
  0.56250000000000000       0.78125000000000000        0.0000000000000000     
  0.59375000000000000       0.78125000000000000        0.0000000000000000     
  0.62500000000000000       0.78125000000000000        0.0000000000000000     
  0.50000000000000000       0.81250000000000000        0.0000000000000000     
  0.53125000000000000       0.81250000000000000        0.0000000000000000     
  0.56250000000000000       0.81250000000000000        0.0000000000000000     
  0.59375000000000000       0.81250000000000000        0.0000000000000000     
  0.62500000000000000       0.81250000000000000        0.0000000000000000     
  0.50000000000000000       0.84375000000000000        0.0000000000000000     
  0.53125000000000000       0.84375000000000000        0.0000000000000000     
  0.56250000000000000       0.84375000000000000        0.0000000000000000     
  0.59375000000000000       0.84375000000000000        0.0000000000000000     
  0.62500000000000000       0.84375000000000000        0.0000000000000000     
  0.50000000000000000       0.87500000000000000        0.0000000000000000     
  0.53125000000000000       0.87500000000000000        0.0000000000000000     
  0.56250000000000000       0.87500000000000000        0.0000000000000000     
  0.59375000000000000       0.87500000000000000        0.0000000000000000     
  0.62500000000000000       0.87500000000000000        0.0000000000000000     
  0.62500000000000000       0.75000000000000000        0.0000000000000000     
  0.65625000000000000       0.75000000000000000        0.0000000000000000     
  0.68750000000000000       0.75000000000000000        0.0000000000000000     
  0.71875000000000000       0.75000000000000000        0.0000000000000000     
  0.75000000000000000       0.75000000000000000        0.0000000000000000     
  0.62500000000000000       0.78125000000000000        0.0000000000000000     
  0.65625000000000000       0.78125000000000000        0.0000000000000000     
  0.68750000000000000       0.78125000000000000        0.0000000000000000     
  0.71875000000000000       0.78125000000000000        0.0000000000000000     
  0.75000000000000000       0.78125000000000000        0.0000000000000000     
  0.62500000000000000       0.81250000000000000        0.0000000000000000     
  0.65625000000000000       0.81250000000000000        0.0000000000000000     
  0.68750000000000000       0.81250000000000000        0.0000000000000000     
  0.71875000000000000       0.81250000000000000        0.0000000000000000     
  0.75000000000000000       0.81250000000000000        0.0000000000000000     
  0.62500000000000000       0.84375000000000000        0.0000000000000000     
  0.65625000000000000       0.84375000000000000        0.0000000000000000     
  0.68750000000000000       0.84375000000000000        0.0000000000000000     
  0.71875000000000000       0.84375000000000000        0.0000000000000000     
  0.75000000000000000       0.84375000000000000        0.0000000000000000     
  0.62500000000000000       0.87500000000000000        0.0000000000000000     
  0.65625000000000000       0.87500000000000000        0.0000000000000000     
  0.68750000000000000       0.87500000000000000        0.0000000000000000     
  0.71875000000000000       0.87500000000000000        0.0000000000000000     
  0.75000000000000000       0.87500000000000000        0.0000000000000000     
  0.75000000000000000       0.75000000000000000        0.0000000000000000     
  0.78125000000000000       0.75000000000000000        0.0000000000000000     
  0.81250000000000000       0.75000000000000000        0.0000000000000000     
  0.84375000000000000       0.75000000000000000        0.0000000000000000     
  0.87500000000000000       0.75000000000000000        0.0000000000000000     
  0.75000000000000000       0.78125000000000000        0.0000000000000000     
  0.78125000000000000       0.78125000000000000        0.0000000000000000     
  0.81250000000000000       0.78125000000000000        0.0000000000000000     
  0.84375000000000000       0.78125000000000000        0.0000000000000000     
  0.87500000000000000       0.78125000000000000        0.0000000000000000     
  0.75000000000000000       0.81250000000000000        0.0000000000000000     
  0.78125000000000000       0.81250000000000000        0.0000000000000000     
  0.81250000000000000       0.81250000000000000        0.0000000000000000     
  0.84375000000000000       0.81250000000000000        0.0000000000000000     
  0.87500000000000000       0.81250000000000000        0.0000000000000000     
  0.75000000000000000       0.84375000000000000        0.0000000000000000     
  0.78125000000000000       0.84375000000000000        0.0000000000000000     
  0.81250000000000000       0.84375000000000000        0.0000000000000000     
  0.84375000000000000       0.84375000000000000        0.0000000000000000     
  0.87500000000000000       0.84375000000000000        0.0000000000000000     
  0.75000000000000000       0.87500000000000000        0.0000000000000000     
  0.78125000000000000       0.87500000000000000        0.0000000000000000     
  0.81250000000000000       0.87500000000000000        0.0000000000000000     
  0.84375000000000000       0.87500000000000000        0.0000000000000000     
  0.87500000000000000       0.87500000000000000        0.0000000000000000     
  0.87500000000000000       0.75000000000000000        0.0000000000000000     
  0.90625000000000000       0.75000000000000000        0.0000000000000000     
  0.93750000000000000       0.75000000000000000        0.0000000000000000     
  0.96875000000000000       0.75000000000000000        0.0000000000000000     
   1.0000000000000000       0.75000000000000000        0.0000000000000000     
  0.87500000000000000       0.78125000000000000        0.0000000000000000     
  0.90625000000000000       0.78125000000000000        0.0000000000000000     
  0.93750000000000000       0.78125000000000000        0.0000000000000000     
  0.96875000000000000       0.78125000000000000        0.0000000000000000     
   1.0000000000000000       0.78125000000000000        0.0000000000000000     
  0.87500000000000000       0.81250000000000000        0.0000000000000000     
  0.90625000000000000       0.81250000000000000        0.0000000000000000     
  0.93750000000000000       0.81250000000000000        0.0000000000000000     
  0.96875000000000000       0.81250000000000000        0.0000000000000000     
   1.0000000000000000       0.81250000000000000        0.0000000000000000     
  0.87500000000000000       0.84375000000000000        0.0000000000000000     
  0.90625000000000000       0.84375000000000000        0.0000000000000000     
  0.93750000000000000       0.84375000000000000        0.0000000000000000     
  0.96875000000000000       0.84375000000000000        0.0000000000000000     
   1.0000000000000000       0.84375000000000000        0.0000000000000000     
  0.87500000000000000       0.87500000000000000        0.0000000000000000     
  0.90625000000000000       0.87500000000000000        0.0000000000000000     
  0.93750000000000000       0.87500000000000000        0.0000000000000000     
  0.96875000000000000       0.87500000000000000        0.0000000000000000     
   1.0000000000000000       0.87500000000000000        0.0000000000000000     
   1.0000000000000000       0.75000000000000000        0.0000000000000000     
   1.0312500000000000       0.75000000000000000        0.0000000000000000     
   1.0625000000000000       0.75000000000000000        0.0000000000000000     
   1.0937500000000000       0.75000000000000000        0.0000000000000000     
   1.1250000000000000       0.75000000000000000        0.0000000000000000     
   1.0000000000000000       0.78125000000000000        0.0000000000000000     
   1.0312500000000000       0.78125000000000000        0.0000000000000000     
   1.0625000000000000       0.78125000000000000        0.0000000000000000     
   1.0937500000000000       0.78125000000000000        0.0000000000000000     
   1.1250000000000000       0.78125000000000000        0.0000000000000000     
   1.0000000000000000       0.81250000000000000        0.0000000000000000     
   1.0312500000000000       0.81250000000000000        0.0000000000000000     
   1.0625000000000000       0.81250000000000000        0.0000000000000000     
   1.0937500000000000       0.81250000000000000        0.0000000000000000     
   1.1250000000000000       0.81250000000000000        0.0000000000000000     
   1.0000000000000000       0.84375000000000000        0.0000000000000000     
   1.0312500000000000       0.84375000000000000        0.0000000000000000     
   1.0625000000000000       0.84375000000000000        0.0000000000000000     
   1.0937500000000000       0.84375000000000000        0.0000000000000000     
   1.1250000000000000       0.84375000000000000        0.0000000000000000     
   1.0000000000000000       0.87500000000000000        0.0000000000000000     
   1.0312500000000000       0.87500000000000000        0.0000000000000000     
   1.0625000000000000       0.87500000000000000        0.0000000000000000     
   1.0937500000000000       0.87500000000000000        0.0000000000000000     
   1.1250000000000000       0.87500000000000000        0.0000000000000000     
   1.1250000000000000       0.75000000000000000        0.0000000000000000     
   1.1562500000000000       0.75000000000000000        0.0000000000000000     
   1.1875000000000000       0.75000000000000000        0.0000000000000000     
   1.2187500000000000       0.75000000000000000        0.0000000000000000     
   1.2500000000000000       0.75000000000000000        0.0000000000000000     
   1.1250000000000000       0.78125000000000000        0.0000000000000000     
   1.1562500000000000       0.78125000000000000        0.0000000000000000     
   1.1875000000000000       0.78125000000000000        0.0000000000000000     
   1.2187500000000000       0.78125000000000000        0.0000000000000000     
   1.2500000000000000       0.78125000000000000        0.0000000000000000     
   1.1250000000000000       0.81250000000000000        0.0000000000000000     
   1.1562500000000000       0.81250000000000000        0.0000000000000000     
   1.1875000000000000       0.81250000000000000        0.0000000000000000     
   1.2187500000000000       0.81250000000000000        0.0000000000000000     
   1.2500000000000000       0.81250000000000000        0.0000000000000000     
   1.1250000000000000       0.84375000000000000        0.0000000000000000     
   1.1562500000000000       0.84375000000000000        0.0000000000000000     
   1.1875000000000000       0.84375000000000000        0.0000000000000000     
   1.2187500000000000       0.84375000000000000        0.0000000000000000     
   1.2500000000000000       0.84375000000000000        0.0000000000000000     
   1.1250000000000000       0.87500000000000000        0.0000000000000000     
   1.1562500000000000       0.87500000000000000        0.0000000000000000     
   1.1875000000000000       0.87500000000000000        0.0000000000000000     
   1.2187500000000000       0.87500000000000000        0.0000000000000000     
   1.2500000000000000       0.87500000000000000        0.0000000000000000     
   1.2500000000000000       0.75000000000000000        0.0000000000000000     
   1.2812500000000000       0.75000000000000000        0.0000000000000000     
   1.3125000000000000       0.75000000000000000        0.0000000000000000     
   1.3437500000000000       0.75000000000000000        0.0000000000000000     
   1.3750000000000000       0.75000000000000000        0.0000000000000000     
   1.2500000000000000       0.78125000000000000        0.0000000000000000     
   1.2812500000000000       0.78125000000000000        0.0000000000000000     
   1.3125000000000000       0.78125000000000000        0.0000000000000000     
   1.3437500000000000       0.78125000000000000        0.0000000000000000     
   1.3750000000000000       0.78125000000000000        0.0000000000000000     
   1.2500000000000000       0.81250000000000000        0.0000000000000000     
   1.2812500000000000       0.81250000000000000        0.0000000000000000     
   1.3125000000000000       0.81250000000000000        0.0000000000000000     
   1.3437500000000000       0.81250000000000000        0.0000000000000000     
   1.3750000000000000       0.81250000000000000        0.0000000000000000     
   1.2500000000000000       0.84375000000000000        0.0000000000000000     
   1.2812500000000000       0.84375000000000000        0.0000000000000000     
   1.3125000000000000       0.84375000000000000        0.0000000000000000     
   1.3437500000000000       0.84375000000000000        0.0000000000000000     
   1.3750000000000000       0.84375000000000000        0.0000000000000000     
   1.2500000000000000       0.87500000000000000        0.0000000000000000     
   1.2812500000000000       0.87500000000000000        0.0000000000000000     
   1.3125000000000000       0.87500000000000000        0.0000000000000000     
   1.3437500000000000       0.87500000000000000        0.0000000000000000     
   1.3750000000000000       0.87500000000000000        0.0000000000000000     
   1.3750000000000000       0.75000000000000000        0.0000000000000000     
   1.4062500000000000       0.75000000000000000        0.0000000000000000     
   1.4375000000000000       0.75000000000000000        0.0000000000000000     
   1.4687500000000000       0.75000000000000000        0.0000000000000000     
   1.5000000000000000       0.75000000000000000        0.0000000000000000     
   1.3750000000000000       0.78125000000000000        0.0000000000000000     
   1.4062500000000000       0.78125000000000000        0.0000000000000000     
   1.4375000000000000       0.78125000000000000        0.0000000000000000     
   1.4687500000000000       0.78125000000000000        0.0000000000000000     
   1.5000000000000000       0.78125000000000000        0.0000000000000000     
   1.3750000000000000       0.81250000000000000        0.0000000000000000     
   1.4062500000000000       0.81250000000000000        0.0000000000000000     
   1.4375000000000000       0.81250000000000000        0.0000000000000000     
   1.4687500000000000       0.81250000000000000        0.0000000000000000     
   1.5000000000000000       0.81250000000000000        0.0000000000000000     
   1.3750000000000000       0.84375000000000000        0.0000000000000000     
   1.4062500000000000       0.84375000000000000        0.0000000000000000     
   1.4375000000000000       0.84375000000000000        0.0000000000000000     
   1.4687500000000000       0.84375000000000000        0.0000000000000000     
   1.5000000000000000       0.84375000000000000        0.0000000000000000     
   1.3750000000000000       0.87500000000000000        0.0000000000000000     
   1.4062500000000000       0.87500000000000000        0.0000000000000000     
   1.4375000000000000       0.87500000000000000        0.0000000000000000     
   1.4687500000000000       0.87500000000000000        0.0000000000000000     
   1.5000000000000000       0.87500000000000000        0.0000000000000000     
  0.50000000000000000       0.87500000000000000        0.0000000000000000     
  0.53125000000000000       0.87500000000000000        0.0000000000000000     
  0.56250000000000000       0.87500000000000000        0.0000000000000000     
  0.59375000000000000       0.87500000000000000        0.0000000000000000     
  0.62500000000000000       0.87500000000000000        0.0000000000000000     
  0.50000000000000000       0.90625000000000000        0.0000000000000000     
  0.53125000000000000       0.90625000000000000        0.0000000000000000     
  0.56250000000000000       0.90625000000000000        0.0000000000000000     
  0.59375000000000000       0.90625000000000000        0.0000000000000000     
  0.62500000000000000       0.90625000000000000        0.0000000000000000     
  0.50000000000000000       0.93750000000000000        0.0000000000000000     
  0.53125000000000000       0.93750000000000000        0.0000000000000000     
  0.56250000000000000       0.93750000000000000        0.0000000000000000     
  0.59375000000000000       0.93750000000000000        0.0000000000000000     
  0.62500000000000000       0.93750000000000000        0.0000000000000000     
  0.50000000000000000       0.96875000000000000        0.0000000000000000     
  0.53125000000000000       0.96875000000000000        0.0000000000000000     
  0.56250000000000000       0.96875000000000000        0.0000000000000000     
  0.59375000000000000       0.96875000000000000        0.0000000000000000     
  0.62500000000000000       0.96875000000000000        0.0000000000000000     
  0.50000000000000000        1.0000000000000000        0.0000000000000000     
  0.53125000000000000        1.0000000000000000        0.0000000000000000     
  0.56250000000000000        1.0000000000000000        0.0000000000000000     
  0.59375000000000000        1.0000000000000000        0.0000000000000000     
  0.62500000000000000        1.0000000000000000        0.0000000000000000     
  0.62500000000000000       0.87500000000000000        0.0000000000000000     
  0.65625000000000000       0.87500000000000000        0.0000000000000000     
  0.68750000000000000       0.87500000000000000        0.0000000000000000     
  0.71875000000000000       0.87500000000000000        0.0000000000000000     
  0.75000000000000000       0.87500000000000000        0.0000000000000000     
  0.62500000000000000       0.90625000000000000        0.0000000000000000     
  0.65625000000000000       0.90625000000000000        0.0000000000000000     
  0.68750000000000000       0.90625000000000000        0.0000000000000000     
  0.71875000000000000       0.90625000000000000        0.0000000000000000     
  0.75000000000000000       0.90625000000000000        0.0000000000000000     
  0.62500000000000000       0.93750000000000000        0.0000000000000000     
  0.65625000000000000       0.93750000000000000        0.0000000000000000     
  0.68750000000000000       0.93750000000000000        0.0000000000000000     
  0.71875000000000000       0.93750000000000000        0.0000000000000000     
  0.75000000000000000       0.93750000000000000        0.0000000000000000     
  0.62500000000000000       0.96875000000000000        0.0000000000000000     
  0.65625000000000000       0.96875000000000000        0.0000000000000000     
  0.68750000000000000       0.96875000000000000        0.0000000000000000     
  0.71875000000000000       0.96875000000000000        0.0000000000000000     
  0.75000000000000000       0.96875000000000000        0.0000000000000000     
  0.62500000000000000        1.0000000000000000        0.0000000000000000     
  0.65625000000000000        1.0000000000000000        0.0000000000000000     
  0.68750000000000000        1.0000000000000000        0.0000000000000000     
  0.71875000000000000        1.0000000000000000        0.0000000000000000     
  0.75000000000000000        1.0000000000000000        0.0000000000000000     
  0.75000000000000000       0.87500000000000000        0.0000000000000000     
  0.78125000000000000       0.87500000000000000        0.0000000000000000     
  0.81250000000000000       0.87500000000000000        0.0000000000000000     
  0.84375000000000000       0.87500000000000000        0.0000000000000000     
  0.87500000000000000       0.87500000000000000        0.0000000000000000     
  0.75000000000000000       0.90625000000000000        0.0000000000000000     
  0.78125000000000000       0.90625000000000000        0.0000000000000000     
  0.81250000000000000       0.90625000000000000        0.0000000000000000     
  0.84375000000000000       0.90625000000000000        0.0000000000000000     
  0.87500000000000000       0.90625000000000000        0.0000000000000000     
  0.75000000000000000       0.93750000000000000        0.0000000000000000     
  0.78125000000000000       0.93750000000000000        0.0000000000000000     
  0.81250000000000000       0.93750000000000000        0.0000000000000000     
  0.84375000000000000       0.93750000000000000        0.0000000000000000     
  0.87500000000000000       0.93750000000000000        0.0000000000000000     
  0.75000000000000000       0.96875000000000000        0.0000000000000000     
  0.78125000000000000       0.96875000000000000        0.0000000000000000     
  0.81250000000000000       0.96875000000000000        0.0000000000000000     
  0.84375000000000000       0.96875000000000000        0.0000000000000000     
  0.87500000000000000       0.96875000000000000        0.0000000000000000     
  0.75000000000000000        1.0000000000000000        0.0000000000000000     
  0.78125000000000000        1.0000000000000000        0.0000000000000000     
  0.81250000000000000        1.0000000000000000        0.0000000000000000     
  0.84375000000000000        1.0000000000000000        0.0000000000000000     
  0.87500000000000000        1.0000000000000000        0.0000000000000000     
  0.87500000000000000       0.87500000000000000        0.0000000000000000     
  0.90625000000000000       0.87500000000000000        0.0000000000000000     
  0.93750000000000000       0.87500000000000000        0.0000000000000000     
  0.96875000000000000       0.87500000000000000        0.0000000000000000     
   1.0000000000000000       0.87500000000000000        0.0000000000000000     
  0.87500000000000000       0.90625000000000000        0.0000000000000000     
  0.90625000000000000       0.90625000000000000        0.0000000000000000     
  0.93750000000000000       0.90625000000000000        0.0000000000000000     
  0.96875000000000000       0.90625000000000000        0.0000000000000000     
   1.0000000000000000       0.90625000000000000        0.0000000000000000     
  0.87500000000000000       0.93750000000000000        0.0000000000000000     
  0.90625000000000000       0.93750000000000000        0.0000000000000000     
  0.93750000000000000       0.93750000000000000        0.0000000000000000     
  0.96875000000000000       0.93750000000000000        0.0000000000000000     
   1.0000000000000000       0.93750000000000000        0.0000000000000000     
  0.87500000000000000       0.96875000000000000        0.0000000000000000     
  0.90625000000000000       0.96875000000000000        0.0000000000000000     
  0.93750000000000000       0.96875000000000000        0.0000000000000000     
  0.96875000000000000       0.96875000000000000        0.0000000000000000     
   1.0000000000000000       0.96875000000000000        0.0000000000000000     
  0.87500000000000000        1.0000000000000000        0.0000000000000000     
  0.90625000000000000        1.0000000000000000        0.0000000000000000     
  0.93750000000000000        1.0000000000000000        0.0000000000000000     
  0.96875000000000000        1.0000000000000000        0.0000000000000000     
   1.0000000000000000        1.0000000000000000        0.0000000000000000     
   1.0000000000000000       0.87500000000000000        0.0000000000000000     
   1.0312500000000000       0.87500000000000000        0.0000000000000000     
   1.0625000000000000       0.87500000000000000        0.0000000000000000     
   1.0937500000000000       0.87500000000000000        0.0000000000000000     
   1.1250000000000000       0.87500000000000000        0.0000000000000000     
   1.0000000000000000       0.90625000000000000        0.0000000000000000     
   1.0312500000000000       0.90625000000000000        0.0000000000000000     
   1.0625000000000000       0.90625000000000000        0.0000000000000000     
   1.0937500000000000       0.90625000000000000        0.0000000000000000     
   1.1250000000000000       0.90625000000000000        0.0000000000000000     
   1.0000000000000000       0.93750000000000000        0.0000000000000000     
   1.0312500000000000       0.93750000000000000        0.0000000000000000     
   1.0625000000000000       0.93750000000000000        0.0000000000000000     
   1.0937500000000000       0.93750000000000000        0.0000000000000000     
   1.1250000000000000       0.93750000000000000        0.0000000000000000     
   1.0000000000000000       0.96875000000000000        0.0000000000000000     
   1.0312500000000000       0.96875000000000000        0.0000000000000000     
   1.0625000000000000       0.96875000000000000        0.0000000000000000     
   1.0937500000000000       0.96875000000000000        0.0000000000000000     
   1.1250000000000000       0.96875000000000000        0.0000000000000000     
   1.0000000000000000        1.0000000000000000        0.0000000000000000     
   1.0312500000000000        1.0000000000000000        0.0000000000000000     
   1.0625000000000000        1.0000000000000000        0.0000000000000000     
   1.0937500000000000        1.0000000000000000        0.0000000000000000     
   1.1250000000000000        1.0000000000000000        0.0000000000000000     
   1.1250000000000000       0.87500000000000000        0.0000000000000000     
   1.1562500000000000       0.87500000000000000        0.0000000000000000     
   1.1875000000000000       0.87500000000000000        0.0000000000000000     
   1.2187500000000000       0.87500000000000000        0.0000000000000000     
   1.2500000000000000       0.87500000000000000        0.0000000000000000     
   1.1250000000000000       0.90625000000000000        0.0000000000000000     
   1.1562500000000000       0.90625000000000000        0.0000000000000000     
   1.1875000000000000       0.90625000000000000        0.0000000000000000     
   1.2187500000000000       0.90625000000000000        0.0000000000000000     
   1.2500000000000000       0.90625000000000000        0.0000000000000000     
   1.1250000000000000       0.93750000000000000        0.0000000000000000     
   1.1562500000000000       0.93750000000000000        0.0000000000000000     
   1.1875000000000000       0.93750000000000000        0.0000000000000000     
   1.2187500000000000       0.93750000000000000        0.0000000000000000     
   1.2500000000000000       0.93750000000000000        0.0000000000000000     
   1.1250000000000000       0.96875000000000000        0.0000000000000000     
   1.1562500000000000       0.96875000000000000        0.0000000000000000     
   1.1875000000000000       0.96875000000000000        0.0000000000000000     
   1.2187500000000000       0.96875000000000000        0.0000000000000000     
   1.2500000000000000       0.96875000000000000        0.0000000000000000     
   1.1250000000000000        1.0000000000000000        0.0000000000000000     
   1.1562500000000000        1.0000000000000000        0.0000000000000000     
   1.1875000000000000        1.0000000000000000        0.0000000000000000     
   1.2187500000000000        1.0000000000000000        0.0000000000000000     
   1.2500000000000000        1.0000000000000000        0.0000000000000000     
   1.2500000000000000       0.87500000000000000        0.0000000000000000     
   1.2812500000000000       0.87500000000000000        0.0000000000000000     
   1.3125000000000000       0.87500000000000000        0.0000000000000000     
   1.3437500000000000       0.87500000000000000        0.0000000000000000     
   1.3750000000000000       0.87500000000000000        0.0000000000000000     
   1.2500000000000000       0.90625000000000000        0.0000000000000000     
   1.2812500000000000       0.90625000000000000        0.0000000000000000     
   1.3125000000000000       0.90625000000000000        0.0000000000000000     
   1.3437500000000000       0.90625000000000000        0.0000000000000000     
   1.3750000000000000       0.90625000000000000        0.0000000000000000     
   1.2500000000000000       0.93750000000000000        0.0000000000000000     
   1.2812500000000000       0.93750000000000000        0.0000000000000000     
   1.3125000000000000       0.93750000000000000        0.0000000000000000     
   1.3437500000000000       0.93750000000000000        0.0000000000000000     
   1.3750000000000000       0.93750000000000000        0.0000000000000000     
   1.2500000000000000       0.96875000000000000        0.0000000000000000     
   1.2812500000000000       0.96875000000000000        0.0000000000000000     
   1.3125000000000000       0.96875000000000000        0.0000000000000000     
   1.3437500000000000       0.96875000000000000        0.0000000000000000     
   1.3750000000000000       0.96875000000000000        0.0000000000000000     
   1.2500000000000000        1.0000000000000000        0.0000000000000000     
   1.2812500000000000        1.0000000000000000        0.0000000000000000     
   1.3125000000000000        1.0000000000000000        0.0000000000000000     
   1.3437500000000000        1.0000000000000000        0.0000000000000000     
   1.3750000000000000        1.0000000000000000        0.0000000000000000     
   1.3750000000000000       0.87500000000000000        0.0000000000000000     
   1.4062500000000000       0.87500000000000000        0.0000000000000000     
   1.4375000000000000       0.87500000000000000        0.0000000000000000     
   1.4687500000000000       0.87500000000000000        0.0000000000000000     
   1.5000000000000000       0.87500000000000000        0.0000000000000000     
   1.3750000000000000       0.90625000000000000        0.0000000000000000     
   1.4062500000000000       0.90625000000000000        0.0000000000000000     
   1.4375000000000000       0.90625000000000000        0.0000000000000000     
   1.4687500000000000       0.90625000000000000        0.0000000000000000     
   1.5000000000000000       0.90625000000000000        0.0000000000000000     
   1.3750000000000000       0.93750000000000000        0.0000000000000000     
   1.4062500000000000       0.93750000000000000        0.0000000000000000     
   1.4375000000000000       0.93750000000000000        0.0000000000000000     
   1.4687500000000000       0.93750000000000000        0.0000000000000000     
   1.5000000000000000       0.93750000000000000        0.0000000000000000     
   1.3750000000000000       0.96875000000000000        0.0000000000000000     
   1.4062500000000000       0.96875000000000000        0.0000000000000000     
   1.4375000000000000       0.96875000000000000        0.0000000000000000     
   1.4687500000000000       0.96875000000000000        0.0000000000000000     
   1.5000000000000000       0.96875000000000000        0.0000000000000000     
   1.3750000000000000        1.0000000000000000        0.0000000000000000     
   1.4062500000000000        1.0000000000000000        0.0000000000000000     
   1.4375000000000000        1.0000000000000000        0.0000000000000000     
   1.4687500000000000        1.0000000000000000        0.0000000000000000     
   1.5000000000000000        1.0000000000000000        0.0000000000000000     
 </DataArray>
 </Points>
 <Cells>
 <DataArray  type="Int32"  Name="connectivity"  format="ascii">
           0           1           6           5
           1           2           7           6
           2           3           8           7
           3           4           9           8
           5           6          11          10
           6           7          12          11
           7           8          13          12
           8           9          14          13
          10          11          16          15
          11          12          17          16
          12          13          18          17
          13          14          19          18
          15          16          21          20
          16          17          22          21
          17          18          23          22
          18          19          24          23
          25          26          31          30
          26          27          32          31
          27          28          33          32
          28          29          34          33
          30          31          36          35
          31          32          37          36
          32          33          38          37
          33          34          39          38
          35          36          41          40
          36          37          42          41
          37          38          43          42
          38          39          44          43
          40          41          46          45
          41          42          47          46
          42          43          48          47
          43          44          49          48
          50          51          56          55
          51          52          57          56
          52          53          58          57
          53          54          59          58
          55          56          61          60
          56          57          62          61
          57          58          63          62
          58          59          64          63
          60          61          66          65
          61          62          67          66
          62          63          68          67
          63          64          69          68
          65          66          71          70
          66          67          72          71
          67          68          73          72
          68          69          74          73
          75          76          81          80
          76          77          82          81
          77          78          83          82
          78          79          84          83
          80          81          86          85
          81          82          87          86
          82          83          88          87
          83          84          89          88
          85          86          91          90
          86          87          92          91
          87          88          93          92
          88          89          94          93
          90          91          96          95
          91          92          97          96
          92          93          98          97
          93          94          99          98
         100         101         106         105
         101         102         107         106
         102         103         108         107
         103         104         109         108
         105         106         111         110
         106         107         112         111
         107         108         113         112
         108         109         114         113
         110         111         116         115
         111         112         117         116
         112         113         118         117
         113         114         119         118
         115         116         121         120
         116         117         122         121
         117         118         123         122
         118         119         124         123
         125         126         131         130
         126         127         132         131
         127         128         133         132
         128         129         134         133
         130         131         136         135
         131         132         137         136
         132         133         138         137
         133         134         139         138
         135         136         141         140
         136         137         142         141
         137         138         143         142
         138         139         144         143
         140         141         146         145
         141         142         147         146
         142         143         148         147
         143         144         149         148
         150         151         156         155
         151         152         157         156
         152         153         158         157
         153         154         159         158
         155         156         161         160
         156         157         162         161
         157         158         163         162
         158         159         164         163
         160         161         166         165
         161         162         167         166
         162         163         168         167
         163         164         169         168
         165         166         171         170
         166         167         172         171
         167         168         173         172
         168         169         174         173
         175         176         181         180
         176         177         182         181
         177         178         183         182
         178         179         184         183
         180         181         186         185
         181         182         187         186
         182         183         188         187
         183         184         189         188
         185         186         191         190
         186         187         192         191
         187         188         193         192
         188         189         194         193
         190         191         196         195
         191         192         197         196
         192         193         198         197
         193         194         199         198
         200         201         206         205
         201         202         207         206
         202         203         208         207
         203         204         209         208
         205         206         211         210
         206         207         212         211
         207         208         213         212
         208         209         214         213
         210         211         216         215
         211         212         217         216
         212         213         218         217
         213         214         219         218
         215         216         221         220
         216         217         222         221
         217         218         223         222
         218         219         224         223
         225         226         231         230
         226         227         232         231
         227         228         233         232
         228         229         234         233
         230         231         236         235
         231         232         237         236
         232         233         238         237
         233         234         239         238
         235         236         241         240
         236         237         242         241
         237         238         243         242
         238         239         244         243
         240         241         246         245
         241         242         247         246
         242         243         248         247
         243         244         249         248
         250         251         256         255
         251         252         257         256
         252         253         258         257
         253         254         259         258
         255         256         261         260
         256         257         262         261
         257         258         263         262
         258         259         264         263
         260         261         266         265
         261         262         267         266
         262         263         268         267
         263         264         269         268
         265         266         271         270
         266         267         272         271
         267         268         273         272
         268         269         274         273
         275         276         281         280
         276         277         282         281
         277         278         283         282
         278         279         284         283
         280         281         286         285
         281         282         287         286
         282         283         288         287
         283         284         289         288
         285         286         291         290
         286         287         292         291
         287         288         293         292
         288         289         294         293
         290         291         296         295
         291         292         297         296
         292         293         298         297
         293         294         299         298
         300         301         306         305
         301         302         307         306
         302         303         308         307
         303         304         309         308
         305         306         311         310
         306         307         312         311
         307         308         313         312
         308         309         314         313
         310         311         316         315
         311         312         317         316
         312         313         318         317
         313         314         319         318
         315         316         321         320
         316         317         322         321
         317         318         323         322
         318         319         324         323
         325         326         331         330
         326         327         332         331
         327         328         333         332
         328         329         334         333
         330         331         336         335
         331         332         337         336
         332         333         338         337
         333         334         339         338
         335         336         341         340
         336         337         342         341
         337         338         343         342
         338         339         344         343
         340         341         346         345
         341         342         347         346
         342         343         348         347
         343         344         349         348
         350         351         356         355
         351         352         357         356
         352         353         358         357
         353         354         359         358
         355         356         361         360
         356         357         362         361
         357         358         363         362
         358         359         364         363
         360         361         366         365
         361         362         367         366
         362         363         368         367
         363         364         369         368
         365         366         371         370
         366         367         372         371
         367         368         373         372
         368         369         374         373
         375         376         381         380
         376         377         382         381
         377         378         383         382
         378         379         384         383
         380         381         386         385
         381         382         387         386
         382         383         388         387
         383         384         389         388
         385         386         391         390
         386         387         392         391
         387         388         393         392
         388         389         394         393
         390         391         396         395
         391         392         397         396
         392         393         398         397
         393         394         399         398
         400         401         406         405
         401         402         407         406
         402         403         408         407
         403         404         409         408
         405         406         411         410
         406         407         412         411
         407         408         413         412
         408         409         414         413
         410         411         416         415
         411         412         417         416
         412         413         418         417
         413         414         419         418
         415         416         421         420
         416         417         422         421
         417         418         423         422
         418         419         424         423
         425         426         431         430
         426         427         432         431
         427         428         433         432
         428         429         434         433
         430         431         436         435
         431         432         437         436
         432         433         438         437
         433         434         439         438
         435         436         441         440
         436         437         442         441
         437         438         443         442
         438         439         444         443
         440         441         446         445
         441         442         447         446
         442         443         448         447
         443         444         449         448
         450         451         456         455
         451         452         457         456
         452         453         458         457
         453         454         459         458
         455         456         461         460
         456         457         462         461
         457         458         463         462
         458         459         464         463
         460         461         466         465
         461         462         467         466
         462         463         468         467
         463         464         469         468
         465         466         471         470
         466         467         472         471
         467         468         473         472
         468         469         474         473
         475         476         481         480
         476         477         482         481
         477         478         483         482
         478         479         484         483
         480         481         486         485
         481         482         487         486
         482         483         488         487
         483         484         489         488
         485         486         491         490
         486         487         492         491
         487         488         493         492
         488         489         494         493
         490         491         496         495
         491         492         497         496
         492         493         498         497
         493         494         499         498
         500         501         506         505
         501         502         507         506
         502         503         508         507
         503         504         509         508
         505         506         511         510
         506         507         512         511
         507         508         513         512
         508         509         514         513
         510         511         516         515
         511         512         517         516
         512         513         518         517
         513         514         519         518
         515         516         521         520
         516         517         522         521
         517         518         523         522
         518         519         524         523
         525         526         531         530
         526         527         532         531
         527         528         533         532
         528         529         534         533
         530         531         536         535
         531         532         537         536
         532         533         538         537
         533         534         539         538
         535         536         541         540
         536         537         542         541
         537         538         543         542
         538         539         544         543
         540         541         546         545
         541         542         547         546
         542         543         548         547
         543         544         549         548
         550         551         556         555
         551         552         557         556
         552         553         558         557
         553         554         559         558
         555         556         561         560
         556         557         562         561
         557         558         563         562
         558         559         564         563
         560         561         566         565
         561         562         567         566
         562         563         568         567
         563         564         569         568
         565         566         571         570
         566         567         572         571
         567         568         573         572
         568         569         574         573
         575         576         581         580
         576         577         582         581
         577         578         583         582
         578         579         584         583
         580         581         586         585
         581         582         587         586
         582         583         588         587
         583         584         589         588
         585         586         591         590
         586         587         592         591
         587         588         593         592
         588         589         594         593
         590         591         596         595
         591         592         597         596
         592         593         598         597
         593         594         599         598
         600         601         606         605
         601         602         607         606
         602         603         608         607
         603         604         609         608
         605         606         611         610
         606         607         612         611
         607         608         613         612
         608         609         614         613
         610         611         616         615
         611         612         617         616
         612         613         618         617
         613         614         619         618
         615         616         621         620
         616         617         622         621
         617         618         623         622
         618         619         624         623
         625         626         631         630
         626         627         632         631
         627         628         633         632
         628         629         634         633
         630         631         636         635
         631         632         637         636
         632         633         638         637
         633         634         639         638
         635         636         641         640
         636         637         642         641
         637         638         643         642
         638         639         644         643
         640         641         646         645
         641         642         647         646
         642         643         648         647
         643         644         649         648
         650         651         656         655
         651         652         657         656
         652         653         658         657
         653         654         659         658
         655         656         661         660
         656         657         662         661
         657         658         663         662
         658         659         664         663
         660         661         666         665
         661         662         667         666
         662         663         668         667
         663         664         669         668
         665         666         671         670
         666         667         672         671
         667         668         673         672
         668         669         674         673
         675         676         681         680
         676         677         682         681
         677         678         683         682
         678         679         684         683
         680         681         686         685
         681         682         687         686
         682         683         688         687
         683         684         689         688
         685         686         691         690
         686         687         692         691
         687         688         693         692
         688         689         694         693
         690         691         696         695
         691         692         697         696
         692         693         698         697
         693         694         699         698
         700         701         706         705
         701         702         707         706
         702         703         708         707
         703         704         709         708
         705         706         711         710
         706         707         712         711
         707         708         713         712
         708         709         714         713
         710         711         716         715
         711         712         717         716
         712         713         718         717
         713         714         719         718
         715         716         721         720
         716         717         722         721
         717         718         723         722
         718         719         724         723
         725         726         731         730
         726         727         732         731
         727         728         733         732
         728         729         734         733
         730         731         736         735
         731         732         737         736
         732         733         738         737
         733         734         739         738
         735         736         741         740
         736         737         742         741
         737         738         743         742
         738         739         744         743
         740         741         746         745
         741         742         747         746
         742         743         748         747
         743         744         749         748
         750         751         756         755
         751         752         757         756
         752         753         758         757
         753         754         759         758
         755         756         761         760
         756         757         762         761
         757         758         763         762
         758         759         764         763
         760         761         766         765
         761         762         767         766
         762         763         768         767
         763         764         769         768
         765         766         771         770
         766         767         772         771
         767         768         773         772
         768         769         774         773
         775         776         781         780
         776         777         782         781
         777         778         783         782
         778         779         784         783
         780         781         786         785
         781         782         787         786
         782         783         788         787
         783         784         789         788
         785         786         791         790
         786         787         792         791
         787         788         793         792
         788         789         794         793
         790         791         796         795
         791         792         797         796
         792         793         798         797
         793         794         799         798
         800         801         806         805
         801         802         807         806
         802         803         808         807
         803         804         809         808
         805         806         811         810
         806         807         812         811
         807         808         813         812
         808         809         814         813
         810         811         816         815
         811         812         817         816
         812         813         818         817
         813         814         819         818
         815         816         821         820
         816         817         822         821
         817         818         823         822
         818         819         824         823
         825         826         831         830
         826         827         832         831
         827         828         833         832
         828         829         834         833
         830         831         836         835
         831         832         837         836
         832         833         838         837
         833         834         839         838
         835         836         841         840
         836         837         842         841
         837         838         843         842
         838         839         844         843
         840         841         846         845
         841         842         847         846
         842         843         848         847
         843         844         849         848
         850         851         856         855
         851         852         857         856
         852         853         858         857
         853         854         859         858
         855         856         861         860
         856         857         862         861
         857         858         863         862
         858         859         864         863
         860         861         866         865
         861         862         867         866
         862         863         868         867
         863         864         869         868
         865         866         871         870
         866         867         872         871
         867         868         873         872
         868         869         874         873
         875         876         881         880
         876         877         882         881
         877         878         883         882
         878         879         884         883
         880         881         886         885
         881         882         887         886
         882         883         888         887
         883         884         889         888
         885         886         891         890
         886         887         892         891
         887         888         893         892
         888         889         894         893
         890         891         896         895
         891         892         897         896
         892         893         898         897
         893         894         899         898
         900         901         906         905
         901         902         907         906
         902         903         908         907
         903         904         909         908
         905         906         911         910
         906         907         912         911
         907         908         913         912
         908         909         914         913
         910         911         916         915
         911         912         917         916
         912         913         918         917
         913         914         919         918
         915         916         921         920
         916         917         922         921
         917         918         923         922
         918         919         924         923
         925         926         931         930
         926         927         932         931
         927         928         933         932
         928         929         934         933
         930         931         936         935
         931         932         937         936
         932         933         938         937
         933         934         939         938
         935         936         941         940
         936         937         942         941
         937         938         943         942
         938         939         944         943
         940         941         946         945
         941         942         947         946
         942         943         948         947
         943         944         949         948
         950         951         956         955
         951         952         957         956
         952         953         958         957
         953         954         959         958
         955         956         961         960
         956         957         962         961
         957         958         963         962
         958         959         964         963
         960         961         966         965
         961         962         967         966
         962         963         968         967
         963         964         969         968
         965         966         971         970
         966         967         972         971
         967         968         973         972
         968         969         974         973
         975         976         981         980
         976         977         982         981
         977         978         983         982
         978         979         984         983
         980         981         986         985
         981         982         987         986
         982         983         988         987
         983         984         989         988
         985         986         991         990
         986         987         992         991
         987         988         993         992
         988         989         994         993
         990         991         996         995
         991         992         997         996
         992         993         998         997
         993         994         999         998
        1000        1001        1006        1005
        1001        1002        1007        1006
        1002        1003        1008        1007
        1003        1004        1009        1008
        1005        1006        1011        1010
        1006        1007        1012        1011
        1007        1008        1013        1012
        1008        1009        1014        1013
        1010        1011        1016        1015
        1011        1012        1017        1016
        1012        1013        1018        1017
        1013        1014        1019        1018
        1015        1016        1021        1020
        1016        1017        1022        1021
        1017        1018        1023        1022
        1018        1019        1024        1023
        1025        1026        1031        1030
        1026        1027        1032        1031
        1027        1028        1033        1032
        1028        1029        1034        1033
        1030        1031        1036        1035
        1031        1032        1037        1036
        1032        1033        1038        1037
        1033        1034        1039        1038
        1035        1036        1041        1040
        1036        1037        1042        1041
        1037        1038        1043        1042
        1038        1039        1044        1043
        1040        1041        1046        1045
        1041        1042        1047        1046
        1042        1043        1048        1047
        1043        1044        1049        1048
        1050        1051        1056        1055
        1051        1052        1057        1056
        1052        1053        1058        1057
        1053        1054        1059        1058
        1055        1056        1061        1060
        1056        1057        1062        1061
        1057        1058        1063        1062
        1058        1059        1064        1063
        1060        1061        1066        1065
        1061        1062        1067        1066
        1062        1063        1068        1067
        1063        1064        1069        1068
        1065        1066        1071        1070
        1066        1067        1072        1071
        1067        1068        1073        1072
        1068        1069        1074        1073
        1075        1076        1081        1080
        1076        1077        1082        1081
        1077        1078        1083        1082
        1078        1079        1084        1083
        1080        1081        1086        1085
        1081        1082        1087        1086
        1082        1083        1088        1087
        1083        1084        1089        1088
        1085        1086        1091        1090
        1086        1087        1092        1091
        1087        1088        1093        1092
        1088        1089        1094        1093
        1090        1091        1096        1095
        1091        1092        1097        1096
        1092        1093        1098        1097
        1093        1094        1099        1098
        1100        1101        1106        1105
        1101        1102        1107        1106
        1102        1103        1108        1107
        1103        1104        1109        1108
        1105        1106        1111        1110
        1106        1107        1112        1111
        1107        1108        1113        1112
        1108        1109        1114        1113
        1110        1111        1116        1115
        1111        1112        1117        1116
        1112        1113        1118        1117
        1113        1114        1119        1118
        1115        1116        1121        1120
        1116        1117        1122        1121
        1117        1118        1123        1122
        1118        1119        1124        1123
        1125        1126        1131        1130
        1126        1127        1132        1131
        1127        1128        1133        1132
        1128        1129        1134        1133
        1130        1131        1136        1135
        1131        1132        1137        1136
        1132        1133        1138        1137
        1133        1134        1139        1138
        1135        1136        1141        1140
        1136        1137        1142        1141
        1137        1138        1143        1142
        1138        1139        1144        1143
        1140        1141        1146        1145
        1141        1142        1147        1146
        1142        1143        1148        1147
        1143        1144        1149        1148
        1150        1151        1156        1155
        1151        1152        1157        1156
        1152        1153        1158        1157
        1153        1154        1159        1158
        1155        1156        1161        1160
        1156        1157        1162        1161
        1157        1158        1163        1162
        1158        1159        1164        1163
        1160        1161        1166        1165
        1161        1162        1167        1166
        1162        1163        1168        1167
        1163        1164        1169        1168
        1165        1166        1171        1170
        1166        1167        1172        1171
        1167        1168        1173        1172
        1168        1169        1174        1173
        1175        1176        1181        1180
        1176        1177        1182        1181
        1177        1178        1183        1182
        1178        1179        1184        1183
        1180        1181        1186        1185
        1181        1182        1187        1186
        1182        1183        1188        1187
        1183        1184        1189        1188
        1185        1186        1191        1190
        1186        1187        1192        1191
        1187        1188        1193        1192
        1188        1189        1194        1193
        1190        1191        1196        1195
        1191        1192        1197        1196
        1192        1193        1198        1197
        1193        1194        1199        1198
        1200        1201        1206        1205
        1201        1202        1207        1206
        1202        1203        1208        1207
        1203        1204        1209        1208
        1205        1206        1211        1210
        1206        1207        1212        1211
        1207        1208        1213        1212
        1208        1209        1214        1213
        1210        1211        1216        1215
        1211        1212        1217        1216
        1212        1213        1218        1217
        1213        1214        1219        1218
        1215        1216        1221        1220
        1216        1217        1222        1221
        1217        1218        1223        1222
        1218        1219        1224        1223
        1225        1226        1231        1230
        1226        1227        1232        1231
        1227        1228        1233        1232
        1228        1229        1234        1233
        1230        1231        1236        1235
        1231        1232        1237        1236
        1232        1233        1238        1237
        1233        1234        1239        1238
        1235        1236        1241        1240
        1236        1237        1242        1241
        1237        1238        1243        1242
        1238        1239        1244        1243
        1240        1241        1246        1245
        1241        1242        1247        1246
        1242        1243        1248        1247
        1243        1244        1249        1248
        1250        1251        1256        1255
        1251        1252        1257        1256
        1252        1253        1258        1257
        1253        1254        1259        1258
        1255        1256        1261        1260
        1256        1257        1262        1261
        1257        1258        1263        1262
        1258        1259        1264        1263
        1260        1261        1266        1265
        1261        1262        1267        1266
        1262        1263        1268        1267
        1263        1264        1269        1268
        1265        1266        1271        1270
        1266        1267        1272        1271
        1267        1268        1273        1272
        1268        1269        1274        1273
        1275        1276        1281        1280
        1276        1277        1282        1281
        1277        1278        1283        1282
        1278        1279        1284        1283
        1280        1281        1286        1285
        1281        1282        1287        1286
        1282        1283        1288        1287
        1283        1284        1289        1288
        1285        1286        1291        1290
        1286        1287        1292        1291
        1287        1288        1293        1292
        1288        1289        1294        1293
        1290        1291        1296        1295
        1291        1292        1297        1296
        1292        1293        1298        1297
        1293        1294        1299        1298
        1300        1301        1306        1305
        1301        1302        1307        1306
        1302        1303        1308        1307
        1303        1304        1309        1308
        1305        1306        1311        1310
        1306        1307        1312        1311
        1307        1308        1313        1312
        1308        1309        1314        1313
        1310        1311        1316        1315
        1311        1312        1317        1316
        1312        1313        1318        1317
        1313        1314        1319        1318
        1315        1316        1321        1320
        1316        1317        1322        1321
        1317        1318        1323        1322
        1318        1319        1324        1323
        1325        1326        1331        1330
        1326        1327        1332        1331
        1327        1328        1333        1332
        1328        1329        1334        1333
        1330        1331        1336        1335
        1331        1332        1337        1336
        1332        1333        1338        1337
        1333        1334        1339        1338
        1335        1336        1341        1340
        1336        1337        1342        1341
        1337        1338        1343        1342
        1338        1339        1344        1343
        1340        1341        1346        1345
        1341        1342        1347        1346
        1342        1343        1348        1347
        1343        1344        1349        1348
        1350        1351        1356        1355
        1351        1352        1357        1356
        1352        1353        1358        1357
        1353        1354        1359        1358
        1355        1356        1361        1360
        1356        1357        1362        1361
        1357        1358        1363        1362
        1358        1359        1364        1363
        1360        1361        1366        1365
        1361        1362        1367        1366
        1362        1363        1368        1367
        1363        1364        1369        1368
        1365        1366        1371        1370
        1366        1367        1372        1371
        1367        1368        1373        1372
        1368        1369        1374        1373
        1375        1376        1381        1380
        1376        1377        1382        1381
        1377        1378        1383        1382
        1378        1379        1384        1383
        1380        1381        1386        1385
        1381        1382        1387        1386
        1382        1383        1388        1387
        1383        1384        1389        1388
        1385        1386        1391        1390
        1386        1387        1392        1391
        1387        1388        1393        1392
        1388        1389        1394        1393
        1390        1391        1396        1395
        1391        1392        1397        1396
        1392        1393        1398        1397
        1393        1394        1399        1398
        1400        1401        1406        1405
        1401        1402        1407        1406
        1402        1403        1408        1407
        1403        1404        1409        1408
        1405        1406        1411        1410
        1406        1407        1412        1411
        1407        1408        1413        1412
        1408        1409        1414        1413
        1410        1411        1416        1415
        1411        1412        1417        1416
        1412        1413        1418        1417
        1413        1414        1419        1418
        1415        1416        1421        1420
        1416        1417        1422        1421
        1417        1418        1423        1422
        1418        1419        1424        1423
        1425        1426        1431        1430
        1426        1427        1432        1431
        1427        1428        1433        1432
        1428        1429        1434        1433
        1430        1431        1436        1435
        1431        1432        1437        1436
        1432        1433        1438        1437
        1433        1434        1439        1438
        1435        1436        1441        1440
        1436        1437        1442        1441
        1437        1438        1443        1442
        1438        1439        1444        1443
        1440        1441        1446        1445
        1441        1442        1447        1446
        1442        1443        1448        1447
        1443        1444        1449        1448
        1450        1451        1456        1455
        1451        1452        1457        1456
        1452        1453        1458        1457
        1453        1454        1459        1458
        1455        1456        1461        1460
        1456        1457        1462        1461
        1457        1458        1463        1462
        1458        1459        1464        1463
        1460        1461        1466        1465
        1461        1462        1467        1466
        1462        1463        1468        1467
        1463        1464        1469        1468
        1465        1466        1471        1470
        1466        1467        1472        1471
        1467        1468        1473        1472
        1468        1469        1474        1473
        1475        1476        1481        1480
        1476        1477        1482        1481
        1477        1478        1483        1482
        1478        1479        1484        1483
        1480        1481        1486        1485
        1481        1482        1487        1486
        1482        1483        1488        1487
        1483        1484        1489        1488
        1485        1486        1491        1490
        1486        1487        1492        1491
        1487        1488        1493        1492
        1488        1489        1494        1493
        1490        1491        1496        1495
        1491        1492        1497        1496
        1492        1493        1498        1497
        1493        1494        1499        1498
        1500        1501        1506        1505
        1501        1502        1507        1506
        1502        1503        1508        1507
        1503        1504        1509        1508
        1505        1506        1511        1510
        1506        1507        1512        1511
        1507        1508        1513        1512
        1508        1509        1514        1513
        1510        1511        1516        1515
        1511        1512        1517        1516
        1512        1513        1518        1517
        1513        1514        1519        1518
        1515        1516        1521        1520
        1516        1517        1522        1521
        1517        1518        1523        1522
        1518        1519        1524        1523
        1525        1526        1531        1530
        1526        1527        1532        1531
        1527        1528        1533        1532
        1528        1529        1534        1533
        1530        1531        1536        1535
        1531        1532        1537        1536
        1532        1533        1538        1537
        1533        1534        1539        1538
        1535        1536        1541        1540
        1536        1537        1542        1541
        1537        1538        1543        1542
        1538        1539        1544        1543
        1540        1541        1546        1545
        1541        1542        1547        1546
        1542        1543        1548        1547
        1543        1544        1549        1548
        1550        1551        1556        1555
        1551        1552        1557        1556
        1552        1553        1558        1557
        1553        1554        1559        1558
        1555        1556        1561        1560
        1556        1557        1562        1561
        1557        1558        1563        1562
        1558        1559        1564        1563
        1560        1561        1566        1565
        1561        1562        1567        1566
        1562        1563        1568        1567
        1563        1564        1569        1568
        1565        1566        1571        1570
        1566        1567        1572        1571
        1567        1568        1573        1572
        1568        1569        1574        1573
        1575        1576        1581        1580
        1576        1577        1582        1581
        1577        1578        1583        1582
        1578        1579        1584        1583
        1580        1581        1586        1585
        1581        1582        1587        1586
        1582        1583        1588        1587
        1583        1584        1589        1588
        1585        1586        1591        1590
        1586        1587        1592        1591
        1587        1588        1593        1592
        1588        1589        1594        1593
        1590        1591        1596        1595
        1591        1592        1597        1596
        1592        1593        1598        1597
        1593        1594        1599        1598
 </DataArray>
 <DataArray  type="Int32"  Name="offsets"  format="ascii"> 
           4
           8
          12
          16
          20
          24
          28
          32
          36
          40
          44
          48
          52
          56
          60
          64
          68
          72
          76
          80
          84
          88
          92
          96
         100
         104
         108
         112
         116
         120
         124
         128
         132
         136
         140
         144
         148
         152
         156
         160
         164
         168
         172
         176
         180
         184
         188
         192
         196
         200
         204
         208
         212
         216
         220
         224
         228
         232
         236
         240
         244
         248
         252
         256
         260
         264
         268
         272
         276
         280
         284
         288
         292
         296
         300
         304
         308
         312
         316
         320
         324
         328
         332
         336
         340
         344
         348
         352
         356
         360
         364
         368
         372
         376
         380
         384
         388
         392
         396
         400
         404
         408
         412
         416
         420
         424
         428
         432
         436
         440
         444
         448
         452
         456
         460
         464
         468
         472
         476
         480
         484
         488
         492
         496
         500
         504
         508
         512
         516
         520
         524
         528
         532
         536
         540
         544
         548
         552
         556
         560
         564
         568
         572
         576
         580
         584
         588
         592
         596
         600
         604
         608
         612
         616
         620
         624
         628
         632
         636
         640
         644
         648
         652
         656
         660
         664
         668
         672
         676
         680
         684
         688
         692
         696
         700
         704
         708
         712
         716
         720
         724
         728
         732
         736
         740
         744
         748
         752
         756
         760
         764
         768
         772
         776
         780
         784
         788
         792
         796
         800
         804
         808
         812
         816
         820
         824
         828
         832
         836
         840
         844
         848
         852
         856
         860
         864
         868
         872
         876
         880
         884
         888
         892
         896
         900
         904
         908
         912
         916
         920
         924
         928
         932
         936
         940
         944
         948
         952
         956
         960
         964
         968
         972
         976
         980
         984
         988
         992
         996
        1000
        1004
        1008
        1012
        1016
        1020
        1024
        1028
        1032
        1036
        1040
        1044
        1048
        1052
        1056
        1060
        1064
        1068
        1072
        1076
        1080
        1084
        1088
        1092
        1096
        1100
        1104
        1108
        1112
        1116
        1120
        1124
        1128
        1132
        1136
        1140
        1144
        1148
        1152
        1156
        1160
        1164
        1168
        1172
        1176
        1180
        1184
        1188
        1192
        1196
        1200
        1204
        1208
        1212
        1216
        1220
        1224
        1228
        1232
        1236
        1240
        1244
        1248
        1252
        1256
        1260
        1264
        1268
        1272
        1276
        1280
        1284
        1288
        1292
        1296
        1300
        1304
        1308
        1312
        1316
        1320
        1324
        1328
        1332
        1336
        1340
        1344
        1348
        1352
        1356
        1360
        1364
        1368
        1372
        1376
        1380
        1384
        1388
        1392
        1396
        1400
        1404
        1408
        1412
        1416
        1420
        1424
        1428
        1432
        1436
        1440
        1444
        1448
        1452
        1456
        1460
        1464
        1468
        1472
        1476
        1480
        1484
        1488
        1492
        1496
        1500
        1504
        1508
        1512
        1516
        1520
        1524
        1528
        1532
        1536
        1540
        1544
        1548
        1552
        1556
        1560
        1564
        1568
        1572
        1576
        1580
        1584
        1588
        1592
        1596
        1600
        1604
        1608
        1612
        1616
        1620
        1624
        1628
        1632
        1636
        1640
        1644
        1648
        1652
        1656
        1660
        1664
        1668
        1672
        1676
        1680
        1684
        1688
        1692
        1696
        1700
        1704
        1708
        1712
        1716
        1720
        1724
        1728
        1732
        1736
        1740
        1744
        1748
        1752
        1756
        1760
        1764
        1768
        1772
        1776
        1780
        1784
        1788
        1792
        1796
        1800
        1804
        1808
        1812
        1816
        1820
        1824
        1828
        1832
        1836
        1840
        1844
        1848
        1852
        1856
        1860
        1864
        1868
        1872
        1876
        1880
        1884
        1888
        1892
        1896
        1900
        1904
        1908
        1912
        1916
        1920
        1924
        1928
        1932
        1936
        1940
        1944
        1948
        1952
        1956
        1960
        1964
        1968
        1972
        1976
        1980
        1984
        1988
        1992
        1996
        2000
        2004
        2008
        2012
        2016
        2020
        2024
        2028
        2032
        2036
        2040
        2044
        2048
        2052
        2056
        2060
        2064
        2068
        2072
        2076
        2080
        2084
        2088
        2092
        2096
        2100
        2104
        2108
        2112
        2116
        2120
        2124
        2128
        2132
        2136
        2140
        2144
        2148
        2152
        2156
        2160
        2164
        2168
        2172
        2176
        2180
        2184
        2188
        2192
        2196
        2200
        2204
        2208
        2212
        2216
        2220
        2224
        2228
        2232
        2236
        2240
        2244
        2248
        2252
        2256
        2260
        2264
        2268
        2272
        2276
        2280
        2284
        2288
        2292
        2296
        2300
        2304
        2308
        2312
        2316
        2320
        2324
        2328
        2332
        2336
        2340
        2344
        2348
        2352
        2356
        2360
        2364
        2368
        2372
        2376
        2380
        2384
        2388
        2392
        2396
        2400
        2404
        2408
        2412
        2416
        2420
        2424
        2428
        2432
        2436
        2440
        2444
        2448
        2452
        2456
        2460
        2464
        2468
        2472
        2476
        2480
        2484
        2488
        2492
        2496
        2500
        2504
        2508
        2512
        2516
        2520
        2524
        2528
        2532
        2536
        2540
        2544
        2548
        2552
        2556
        2560
        2564
        2568
        2572
        2576
        2580
        2584
        2588
        2592
        2596
        2600
        2604
        2608
        2612
        2616
        2620
        2624
        2628
        2632
        2636
        2640
        2644
        2648
        2652
        2656
        2660
        2664
        2668
        2672
        2676
        2680
        2684
        2688
        2692
        2696
        2700
        2704
        2708
        2712
        2716
        2720
        2724
        2728
        2732
        2736
        2740
        2744
        2748
        2752
        2756
        2760
        2764
        2768
        2772
        2776
        2780
        2784
        2788
        2792
        2796
        2800
        2804
        2808
        2812
        2816
        2820
        2824
        2828
        2832
        2836
        2840
        2844
        2848
        2852
        2856
        2860
        2864
        2868
        2872
        2876
        2880
        2884
        2888
        2892
        2896
        2900
        2904
        2908
        2912
        2916
        2920
        2924
        2928
        2932
        2936
        2940
        2944
        2948
        2952
        2956
        2960
        2964
        2968
        2972
        2976
        2980
        2984
        2988
        2992
        2996
        3000
        3004
        3008
        3012
        3016
        3020
        3024
        3028
        3032
        3036
        3040
        3044
        3048
        3052
        3056
        3060
        3064
        3068
        3072
        3076
        3080
        3084
        3088
        3092
        3096
        3100
        3104
        3108
        3112
        3116
        3120
        3124
        3128
        3132
        3136
        3140
        3144
        3148
        3152
        3156
        3160
        3164
        3168
        3172
        3176
        3180
        3184
        3188
        3192
        3196
        3200
        3204
        3208
        3212
        3216
        3220
        3224
        3228
        3232
        3236
        3240
        3244
        3248
        3252
        3256
        3260
        3264
        3268
        3272
        3276
        3280
        3284
        3288
        3292
        3296
        3300
        3304
        3308
        3312
        3316
        3320
        3324
        3328
        3332
        3336
        3340
        3344
        3348
        3352
        3356
        3360
        3364
        3368
        3372
        3376
        3380
        3384
        3388
        3392
        3396
        3400
        3404
        3408
        3412
        3416
        3420
        3424
        3428
        3432
        3436
        3440
        3444
        3448
        3452
        3456
        3460
        3464
        3468
        3472
        3476
        3480
        3484
        3488
        3492
        3496
        3500
        3504
        3508
        3512
        3516
        3520
        3524
        3528
        3532
        3536
        3540
        3544
        3548
        3552
        3556
        3560
        3564
        3568
        3572
        3576
        3580
        3584
        3588
        3592
        3596
        3600
        3604
        3608
        3612
        3616
        3620
        3624
        3628
        3632
        3636
        3640
        3644
        3648
        3652
        3656
        3660
        3664
        3668
        3672
        3676
        3680
        3684
        3688
        3692
        3696
        3700
        3704
        3708
        3712
        3716
        3720
        3724
        3728
        3732
        3736
        3740
        3744
        3748
        3752
        3756
        3760
        3764
        3768
        3772
        3776
        3780
        3784
        3788
        3792
        3796
        3800
        3804
        3808
        3812
        3816
        3820
        3824
        3828
        3832
        3836
        3840
        3844
        3848
        3852
        3856
        3860
        3864
        3868
        3872
        3876
        3880
        3884
        3888
        3892
        3896
        3900
        3904
        3908
        3912
        3916
        3920
        3924
        3928
        3932
        3936
        3940
        3944
        3948
        3952
        3956
        3960
        3964
        3968
        3972
        3976
        3980
        3984
        3988
        3992
        3996
        4000
        4004
        4008
        4012
        4016
        4020
        4024
        4028
        4032
        4036
        4040
        4044
        4048
        4052
        4056
        4060
        4064
        4068
        4072
        4076
        4080
        4084
        4088
        4092
        4096
 </DataArray>
 <DataArray  type="UInt8"  Name="types"  format="ascii">
 9
 9
 9
 9
 9
 9
 9
 9
 9
 9
 9
 9
 9
 9
 9
 9
 9
 9
 9
 9
 9
 9
 9
 9
 9
 9
 9
 9
 9
 9
 9
 9
 9
 9
 9
 9
 9
 9
 9
 9
 9
 9
 9
 9
 9
 9
 9
 9
 9
 9
 9
 9
 9
 9
 9
 9
 9
 9
 9
 9
 9
 9
 9
 9
 9
 9
 9
 9
 9
 9
 9
 9
 9
 9
 9
 9
 9
 9
 9
 9
 9
 9
 9
 9
 9
 9
 9
 9
 9
 9
 9
 9
 9
 9
 9
 9
 9
 9
 9
 9
 9
 9
 9
 9
 9
 9
 9
 9
 9
 9
 9
 9
 9
 9
 9
 9
 9
 9
 9
 9
 9
 9
 9
 9
 9
 9
 9
 9
 9
 9
 9
 9
 9
 9
 9
 9
 9
 9
 9
 9
 9
 9
 9
 9
 9
 9
 9
 9
 9
 9
 9
 9
 9
 9
 9
 9
 9
 9
 9
 9
 9
 9
 9
 9
 9
 9
 9
 9
 9
 9
 9
 9
 9
 9
 9
 9
 9
 9
 9
 9
 9
 9
 9
 9
 9
 9
 9
 9
 9
 9
 9
 9
 9
 9
 9
 9
 9
 9
 9
 9
 9
 9
 9
 9
 9
 9
 9
 9
 9
 9
 9
 9
 9
 9
 9
 9
 9
 9
 9
 9
 9
 9
 9
 9
 9
 9
 9
 9
 9
 9
 9
 9
 9
 9
 9
 9
 9
 9
 9
 9
 9
 9
 9
 9
 9
 9
 9
 9
 9
 9
 9
 9
 9
 9
 9
 9
 9
 9
 9
 9
 9
 9
 9
 9
 9
 9
 9
 9
 9
 9
 9
 9
 9
 9
 9
 9
 9
 9
 9
 9
 9
 9
 9
 9
 9
 9
 9
 9
 9
 9
 9
 9
 9
 9
 9
 9
 9
 9
 9
 9
 9
 9
 9
 9
 9
 9
 9
 9
 9
 9
 9
 9
 9
 9
 9
 9
 9
 9
 9
 9
 9
 9
 9
 9
 9
 9
 9
 9
 9
 9
 9
 9
 9
 9
 9
 9
 9
 9
 9
 9
 9
 9
 9
 9
 9
 9
 9
 9
 9
 9
 9
 9
 9
 9
 9
 9
 9
 9
 9
 9
 9
 9
 9
 9
 9
 9
 9
 9
 9
 9
 9
 9
 9
 9
 9
 9
 9
 9
 9
 9
 9
 9
 9
 9
 9
 9
 9
 9
 9
 9
 9
 9
 9
 9
 9
 9
 9
 9
 9
 9
 9
 9
 9
 9
 9
 9
 9
 9
 9
 9
 9
 9
 9
 9
 9
 9
 9
 9
 9
 9
 9
 9
 9
 9
 9
 9
 9
 9
 9
 9
 9
 9
 9
 9
 9
 9
 9
 9
 9
 9
 9
 9
 9
 9
 9
 9
 9
 9
 9
 9
 9
 9
 9
 9
 9
 9
 9
 9
 9
 9
 9
 9
 9
 9
 9
 9
 9
 9
 9
 9
 9
 9
 9
 9
 9
 9
 9
 9
 9
 9
 9
 9
 9
 9
 9
 9
 9
 9
 9
 9
 9
 9
 9
 9
 9
 9
 9
 9
 9
 9
 9
 9
 9
 9
 9
 9
 9
 9
 9
 9
 9
 9
 9
 9
 9
 9
 9
 9
 9
 9
 9
 9
 9
 9
 9
 9
 9
 9
 9
 9
 9
 9
 9
 9
 9
 9
 9
 9
 9
 9
 9
 9
 9
 9
 9
 9
 9
 9
 9
 9
 9
 9
 9
 9
 9
 9
 9
 9
 9
 9
 9
 9
 9
 9
 9
 9
 9
 9
 9
 9
 9
 9
 9
 9
 9
 9
 9
 9
 9
 9
 9
 9
 9
 9
 9
 9
 9
 9
 9
 9
 9
 9
 9
 9
 9
 9
 9
 9
 9
 9
 9
 9
 9
 9
 9
 9
 9
 9
 9
 9
 9
 9
 9
 9
 9
 9
 9
 9
 9
 9
 9
 9
 9
 9
 9
 9
 9
 9
 9
 9
 9
 9
 9
 9
 9
 9
 9
 9
 9
 9
 9
 9
 9
 9
 9
 9
 9
 9
 9
 9
 9
 9
 9
 9
 9
 9
 9
 9
 9
 9
 9
 9
 9
 9
 9
 9
 9
 9
 9
 9
 9
 9
 9
 9
 9
 9
 9
 9
 9
 9
 9
 9
 9
 9
 9
 9
 9
 9
 9
 9
 9
 9
 9
 9
 9
 9
 9
 9
 9
 9
 9
 9
 9
 9
 9
 9
 9
 9
 9
 9
 9
 9
 9
 9
 9
 9
 9
 9
 9
 9
 9
 9
 9
 9
 9
 9
 9
 9
 9
 9
 9
 9
 9
 9
 9
 9
 9
 9
 9
 9
 9
 9
 9
 9
 9
 9
 9
 9
 9
 9
 9
 9
 9
 9
 9
 9
 9
 9
 9
 9
 9
 9
 9
 9
 9
 9
 9
 9
 9
 9
 9
 9
 9
 9
 9
 9
 9
 9
 9
 9
 9
 9
 9
 9
 9
 9
 9
 9
 9
 9
 9
 9
 9
 9
 9
 9
 9
 9
 9
 9
 9
 9
 9
 9
 9
 9
 9
 9
 9
 9
 9
 9
 9
 9
 9
 9
 9
 9
 9
 9
 9
 9
 9
 9
 9
 9
 9
 9
 9
 9
 9
 9
 9
 9
 9
 9
 9
 9
 9
 9
 9
 9
 9
 9
 9
 9
 9
 9
 9
 9
 9
 9
 9
 9
 9
 9
 9
 9
 9
 9
 9
 9
 9
 9
 9
 9
 9
 9
 9
 9
 9
 9
 9
 9
 9
 9
 9
 9
 9
 9
 9
 9
 9
 9
 9
 9
 9
 9
 9
 9
 9
 9
 9
 9
 9
 9
 9
 9
 9
 9
 9
 9
 9
 9
 9
 9
 9
 9
 9
 9
 9
 9
 9
 9
 9
 9
 9
 9
 9
 9
 9
 9
 9
 9
 9
 9
 9
 9
 9
 9
 9
 9
 9
 9
 9
 9
 9
 9
 9
 9
 9
 9
 9
 9
 9
 9
 9
 9
 9
 9
 9
 9
 9
 9
 9
 9
 9
 9
 9
 9
 9
 9
 9
 9
 9
 9
 9
 9
 9
 9
 9
 9
 9
 9
 9
 9
 9
 9
 9
 9
 9
 9
 9
 9
 9
 9
 9
 9
 9
 9
 9
 9
 9
 9
 9
 9
 9
 9
 9
 9
 9
 9
 9
 9
 9
 9
 9
 9
 9
 9
 9
 9
 9
 9
 9
 9
 9
 9
 9
 9
 9
 9
 9
 9
 </DataArray>
 </Cells> 
 <PointData>
 <DataArray  type="Float64" Name="disp" NumberOfComponents="3" format="ascii">
   6.5303610295255915E-002   6.2942531672378288E-002   0.0000000000000000     
   6.8444922963210475E-002   6.8234939355614352E-002   0.0000000000000000     
   7.1446381363061112E-002   7.3739709075416673E-002   0.0000000000000000     
   7.4307985494807827E-002   7.9456840831785225E-002   0.0000000000000000     
   7.7029735358450591E-002   8.5386334624720062E-002   0.0000000000000000     
   6.0072694201907001E-002   6.1827008582220025E-002   0.0000000000000000     
   6.3031923078753549E-002   6.7218633151510582E-002   0.0000000000000000     
   6.5857297759326208E-002   7.2804736336430614E-002   0.0000000000000000     
   6.8548818243624979E-002   7.8585318136980109E-002   0.0000000000000000     
   7.1106484531649861E-002   8.4560378553159093E-002   0.0000000000000000     
   5.5070920606212138E-002   6.0888445388515997E-002   0.0000000000000000     
   5.7842393598286711E-002   6.6342807659865444E-002   0.0000000000000000     
   6.0486873393411293E-002   7.1981784650302777E-002   0.0000000000000000     
   6.3004359991585879E-002   7.7805376359827982E-002   0.0000000000000000     
   6.5394853392810467E-002   8.3813582788441088E-002   0.0000000000000000     
   5.0298289508171327E-002   6.0126842091266182E-002   0.0000000000000000     
   5.2876334521809953E-002   6.5607462880678910E-002   0.0000000000000000     
   5.5335108265316353E-002   7.1270854017033120E-002   0.0000000000000000     
   5.7674610738690520E-002   7.7117015500328817E-002   0.0000000000000000     
   5.9894841941932453E-002   8.3145947330566003E-002   0.0000000000000000     
   4.5754800907784554E-002   5.9542198690470574E-002   0.0000000000000000     
   4.8133745849323298E-002   6.5012598813951022E-002   0.0000000000000000     
   5.0402002375041416E-002   7.0671944436621711E-002   0.0000000000000000     
   5.2559570484938908E-002   7.6520235558482655E-002   0.0000000000000000     
   5.4606450179015775E-002   8.2557472179533853E-002   0.0000000000000000     
   7.7029735358450591E-002   8.5386334624720062E-002   0.0000000000000000     
   7.9647339579564269E-002   9.1498188732725097E-002   0.0000000000000000     
   8.2196506783723686E-002   9.7762401434304355E-002   0.0000000000000000     
   8.4677236970928826E-002  0.10417897272945784        0.0000000000000000     
   8.7089530141179705E-002  0.11074790261818553        0.0000000000000000     
   7.1106484531649861E-002   8.4560378553159093E-002   0.0000000000000000     
   7.3564975900296592E-002   9.0707776281058153E-002   0.0000000000000000     
   7.5958971626460967E-002   9.7005370016767872E-002   0.0000000000000000     
   7.8288471710142943E-002  0.10345315976028821        0.0000000000000000     
   8.0553476151342562E-002  0.11005114551161925        0.0000000000000000     
   6.5394853392810467E-002   8.3813582788441088E-002   0.0000000000000000     
   6.7691649126415385E-002   8.9988809819009724E-002   0.0000000000000000     
   6.9928042721730935E-002   9.6313463334401467E-002   0.0000000000000000     
   7.2104034178757090E-002  0.10278754333461636        0.0000000000000000     
   7.4219623497493892E-002  0.10941104981965441        0.0000000000000000     
   5.9894841941932453E-002   8.3145947330566003E-002   0.0000000000000000     
   6.2027359257920626E-002   8.9341289346579755E-002   0.0000000000000000     
   6.4103720069533562E-002   9.5686681387205180E-002   0.0000000000000000     
   6.6123924376771268E-002  0.10218212345244226        0.0000000000000000     
   6.8087972179633707E-002  0.10882761554229101        0.0000000000000000     
   5.4606450179015775E-002   8.2557472179533853E-002   0.0000000000000000     
   5.6572106294812338E-002   8.8765214863768316E-002   0.0000000000000000     
   5.8486003669868891E-002   9.5125024175179013E-002   0.0000000000000000     
   6.0348142304185441E-002  0.10163690011376593        0.0000000000000000     
   6.2158522197761981E-002  0.10830084267952909        0.0000000000000000     
   8.7089530141179705E-002  0.11074790261818553        0.0000000000000000     
   8.9413941844976003E-002  0.11746008020091231        0.0000000000000000     
   9.1631027632817427E-002  0.12430639457806306        0.0000000000000000     
   9.3740787504703937E-002  0.13128684574963781        0.0000000000000000     
   9.5743221460635575E-002  0.13840143371563648        0.0000000000000000     
   8.0553476151342562E-002  0.11005114551161925        0.0000000000000000     
   8.2735644610107434E-002  0.11679147977764769        0.0000000000000000     
   8.4816636746485180E-002  0.12366631506526030        0.0000000000000000     
   8.6796452560475815E-002  0.13067565137445711        0.0000000000000000     
   8.8675092052079324E-002  0.13781948870523808        0.0000000000000000     
   7.4219623497493892E-002  0.10941104981965441        0.0000000000000000     
   7.6257583056293862E-002  0.11617678991690064        0.0000000000000000     
   7.8200685233509509E-002  0.12307757075374014        0.0000000000000000     
   8.0048930029140861E-002  0.13011339233017291        0.0000000000000000     
   8.1802317443187902E-002  0.13728425464619892        0.0000000000000000     
   6.8087972179633707E-002  0.10882761554229101        0.0000000000000000     
   6.9979757183535288E-002  0.11561601061867120        0.0000000000000000     
   7.1783173093890415E-002  0.12254016164350259        0.0000000000000000     
   7.3498219910699089E-002  0.12960006861678519        0.0000000000000000     
   7.5124897633961296E-002  0.13679573153851890        0.0000000000000000     
   6.2158522197761981E-002  0.10830084267952909        0.0000000000000000     
   6.3902166991831738E-002  0.11510914188295938        0.0000000000000000     
   6.5564100327627911E-002  0.12205408773454766        0.0000000000000000     
   6.7144322205150514E-002  0.12913568023429392        0.0000000000000000     
   6.8642832624399533E-002  0.13635391938219821        0.0000000000000000     
   9.5743221460635575E-002  0.13840143371563648        0.0000000000000000     
   9.7647136054030456E-002  0.14563805916380498        0.0000000000000000     
   9.9461337838306754E-002  0.15298462278188915        0.0000000000000000     
  0.10118582681346450       0.16044112456988893        0.0000000000000000     
  0.10282060297950366       0.16800756452780435        0.0000000000000000     
   8.8675092052079324E-002  0.13781948870523808        0.0000000000000000     
   9.0460978886995128E-002  0.14508533677618790        0.0000000000000000     
   9.2162536730922645E-002  0.15246070530589129        0.0000000000000000     
   9.3779765583861863E-002  0.15994559429434813        0.0000000000000000     
   9.5312665445812808E-002  0.16754000374155847        0.0000000000000000     
   8.1802317443187902E-002  0.13728425464619892        0.0000000000000000     
   8.3468624678243758E-002  0.14457715045869260        0.0000000000000000     
   8.5055628936901592E-002  0.15197907252452839        0.0000000000000000     
   8.6563330219161336E-002  0.15949002084370625        0.0000000000000000     
   8.7991728525023044E-002  0.16710999541622623        0.0000000000000000     
   7.5124897633961296E-002  0.13679573153851890        0.0000000000000000     
   7.6670073427776347E-002  0.14411350021131902        0.0000000000000000     
   7.8140614456243554E-002  0.15153972443780045        0.0000000000000000     
   7.9536520719362902E-002  0.15907440421796329        0.0000000000000000     
   8.0857792217134378E-002  0.16671753955180754        0.0000000000000000     
   6.8642832624399533E-002  0.13635391938219821        0.0000000000000000     
   7.0065325135592910E-002  0.14369438603406715        0.0000000000000000     
   7.1417493288948572E-002  0.15114266104570753        0.0000000000000000     
   7.2699337084466534E-002  0.15869874441711926        0.0000000000000000     
   7.3910856522146795E-002  0.16636263614830243        0.0000000000000000     
  0.10282060297950366       0.16800756452780435        0.0000000000000000     
  0.10436740895053852       0.17567357716627111        0.0000000000000000     
  0.10582798734068341       0.18342879699592479        0.0000000000000000     
  0.10720233814993828       0.19127322401676541        0.0000000000000000     
  0.10849046137830320       0.19920685822879303        0.0000000000000000     
   9.5312665445812808E-002  0.16754000374155847        0.0000000000000000     
   9.6761281644748079E-002  0.17523367925617003        0.0000000000000000     
   9.8125659508640273E-002  0.18301636644683034        0.0000000000000000     
   9.9405799037489445E-002  0.19088806531353947        0.0000000000000000     
  0.10060170023129555       0.19884877585629740        0.0000000000000000     
   8.7991728525023044E-002  0.16710999541622623        0.0000000000000000     
   8.9339640975796178E-002  0.17482904276499939        0.0000000000000000     
   9.0605884692790212E-002  0.18263720941293693        0.0000000000000000     
   9.1790459676005132E-002  0.19053449536003875        0.0000000000000000     
   9.2893365925440979E-002  0.19852090060630495        0.0000000000000000     
   8.0857792217134378E-002  0.16671753955180754        0.0000000000000000     
   8.2102486943682856E-002  0.17445966769275922        0.0000000000000000     
   8.3268662893133186E-002  0.18229132589424452        0.0000000000000000     
   8.4356320065485380E-002  0.19021251415626331        0.0000000000000000     
   8.5365458460739424E-002  0.19822323247881576        0.0000000000000000     
   7.3910856522146795E-002  0.16636263614830243        0.0000000000000000     
   7.5049819548408100E-002  0.17412555403944954        0.0000000000000000     
   7.6113994109669209E-002  0.18197871589075315        0.0000000000000000     
   7.7103380205930161E-002  0.18992212170221323        0.0000000000000000     
   7.8017977837190916E-002  0.19795577147382976        0.0000000000000000     
  0.10849046137830320       0.19920685822879303        0.0000000000000000     
  0.10969796389275445       0.20722593647929555        0.0000000000000000     
  0.11083045256026833       0.21532669561556120        0.0000000000000000     
  0.11188792738084490       0.22350913563758976        0.0000000000000000     
  0.11287038835448407       0.23177325654538139        0.0000000000000000     
  0.10060170023129555       0.19884877585629740        0.0000000000000000     
  0.10171891827186497       0.20689286283538247        0.0000000000000000     
  0.10276300834100403       0.21501469101107318        0.0000000000000000     
  0.10373397043871271       0.22321426038336947        0.0000000000000000     
  0.10463180456499105       0.23149157095227135        0.0000000000000000     
   9.2893365925440979E-002  0.19852090060630495        0.0000000000000000     
   9.3919319680155461E-002  0.20658953708917566        0.0000000000000000     
   9.4873037179206393E-002  0.21473351674609120        0.0000000000000000     
   9.5754518422593748E-002  0.22295283957705148        0.0000000000000000     
   9.6563763410317555E-002  0.23124750558205648        0.0000000000000000     
   8.5365458460739424E-002  0.19822323247881576        0.0000000000000000     
   8.6299168117625918E-002  0.20631595924067520        0.0000000000000000     
   8.7160539074875421E-002  0.21448317282061516        0.0000000000000000     
   8.7949571332487986E-002  0.22272487321863571        0.0000000000000000     
   8.8666264890463559E-002  0.23104106043473674        0.0000000000000000     
   7.8017977837190916E-002  0.19795577147382976        0.0000000000000000     
   7.8858463584276312E-002  0.20607212928988100        0.0000000000000000     
   7.9625514028011116E-002  0.21426365923464516        0.0000000000000000     
   8.0319129168395384E-002  0.22253036130812220        0.0000000000000000     
   8.0939309005429089E-002  0.23087223551031219        0.0000000000000000     
  0.11287038835448407       0.23177325654538139        0.0000000000000000     
  0.11380571431955011       0.24013572687797261        0.0000000000000000     
  0.11472178411440720       0.24861321517439994        0.0000000000000000     
  0.11561859773905535       0.25720572143466347        0.0000000000000000     
  0.11649615519349450       0.26591324565876306        0.0000000000000000     
  0.10463180456499105       0.23149157095227135        0.0000000000000000     
  0.10546146696977297       0.23987001528461588        0.0000000000000000     
  0.10622791390299247       0.24837298594724000        0.0000000000000000     
  0.10693114536464950       0.25700048294014383        0.0000000000000000     
  0.10757116135474409       0.26575250626332725        0.0000000000000000     
   9.6563763410317555E-002  0.23124750558205648        0.0000000000000000     
   9.7291694209448568E-002  0.23964382218969574        0.0000000000000000     
   9.7929232887057557E-002  0.24816809682855873        0.0000000000000000     
   9.8476379443144565E-002  0.25682032949864542        0.0000000000000000     
   9.8933133877709523E-002  0.26560052019995584        0.0000000000000000     
   8.8666264890463559E-002  0.23104106043473674        0.0000000000000000     
   8.9296396038576836E-002  0.23945714759321224        0.0000000000000000     
   8.9825741066602488E-002  0.24799854781835606        0.0000000000000000     
   9.0254299974540472E-002  0.25666526111016830        0.0000000000000000     
   9.0582072762390817E-002  0.26545728746864888        0.0000000000000000     
   8.0939309005429089E-002  0.23087223551031219        0.0000000000000000     
   8.1475572457157835E-002  0.23930999149516535        0.0000000000000000     
   8.1917438441627216E-002  0.24786433891663212        0.0000000000000000     
   8.2264906958837272E-002  0.25653527777471247        0.0000000000000000     
   8.2517978008787962E-002  0.26532280806940634        0.0000000000000000     
  0.11649615519349450       0.26591324565876306        0.0000000000000000     
  0.11729495964425396       0.27490022391389424        0.0000000000000000     
  0.11795551425786294       0.28433109226725228        0.0000000000000000     
  0.11847781903432140       0.29420585071883715        0.0000000000000000     
  0.11886187397362943       0.30452449926864883        0.0000000000000000     
  0.10757116135474409       0.26575250626332725        0.0000000000000000     
  0.10812903177055340       0.27476114369577442        0.0000000000000000     
  0.10858582650935464       0.28415848301646934        0.0000000000000000     
  0.10894154557114774       0.29394452422541212        0.0000000000000000     
  0.10919618895593278       0.30411926732260275        0.0000000000000000     
   9.8933133877709523E-002  0.26560052019995584        0.0000000000000000     
   9.9310491962115457E-002  0.27460695931842333        0.0000000000000000     
   9.9619449467725260E-002  0.28393793723998129        0.0000000000000000     
   9.9860006394538972E-002  0.29359345396462960        0.0000000000000000     
  0.10003216274255658       0.30357350949236833        0.0000000000000000     
   9.0582072762390817E-002  0.26545728746864888        0.0000000000000000     
   9.0839340218940093E-002  0.27443767078184100        0.0000000000000000     
   9.1056383132974858E-002  0.28366945493778783        0.0000000000000000     
   9.1233201504495112E-002  0.29315263993648938        0.0000000000000000     
   9.1369795333500842E-002  0.30288722577794569        0.0000000000000000     
   8.2517978008787962E-002  0.26532280806940634        0.0000000000000000     
   8.2715576541027333E-002  0.27425327808602740        0.0000000000000000     
   8.2896627505103390E-002  0.28335303610988916        0.0000000000000000     
   8.3061130901016120E-002  0.29262208214099161        0.0000000000000000     
   8.3209086728765563E-002  0.30206041617933482        0.0000000000000000     
   4.5754800907784554E-002   5.9542198690470574E-002   0.0000000000000000     
   4.8133745849323298E-002   6.5012598813951022E-002   0.0000000000000000     
   5.0402002375041416E-002   7.0671944436621711E-002   0.0000000000000000     
   5.2559570484938908E-002   7.6520235558482655E-002   0.0000000000000000     
   5.4606450179015775E-002   8.2557472179533853E-002   0.0000000000000000     
   4.1384502214297292E-002   5.9025238376019112E-002   0.0000000000000000     
   4.3562700128391432E-002   6.4478960000820484E-002   0.0000000000000000     
   4.5639269444983761E-002   7.0129202515215858E-002   0.0000000000000000     
   4.7614210164074279E-002   7.5975965919205218E-002   0.0000000000000000     
   4.9487522285662985E-002   8.2019250212788580E-002   0.0000000000000000     
   3.7131440836955000E-002   5.8466684337801667E-002   0.0000000000000000     
   3.9111269906579087E-002   6.3927290982426069E-002   0.0000000000000000     
   4.0998623197540711E-002   6.9586774858962933E-002   0.0000000000000000     
   4.2793500709839880E-002   7.5445135967412258E-002   0.0000000000000000     
   4.4495902443476565E-002   8.1502374307774073E-002   0.0000000000000000     
   3.2995616775757672E-002   5.7866536575818264E-002   0.0000000000000000     
   3.4779455183886261E-002   6.3357591758767776E-002   0.0000000000000000     
   3.6480063632712272E-002   6.9044661467862950E-002   0.0000000000000000     
   3.8097442122235696E-002   7.4927745703103787E-002   0.0000000000000000     
   3.9631590652456535E-002   8.1006844464490316E-002   0.0000000000000000     
   2.8977030030705318E-002   5.7224795090068892E-002   0.0000000000000000     
   3.0567255960312956E-002   6.2769862329845591E-002   0.0000000000000000     
   3.2083590750498429E-002   6.8502862341915896E-002   0.0000000000000000     
   3.3526034401261735E-002   7.4423795126279821E-002   0.0000000000000000     
   3.4894586912602887E-002   8.0532660682937351E-002   0.0000000000000000     
   5.4606450179015775E-002   8.2557472179533853E-002   0.0000000000000000     
   5.6572106294812338E-002   8.8765214863768316E-002   0.0000000000000000     
   5.8486003669868891E-002   9.5125024175179013E-002   0.0000000000000000     
   6.0348142304185441E-002  0.10163690011376593        0.0000000000000000     
   6.2158522197761981E-002  0.10830084267952909        0.0000000000000000     
   4.9487522285662985E-002   8.2019250212788580E-002   0.0000000000000000     
   5.1286298906096241E-002   8.8237865073336419E-002   0.0000000000000000     
   5.3037633121720440E-002   9.4610620178219237E-002   0.0000000000000000     
   5.4741524932535555E-002  0.10113751552743704        0.0000000000000000     
   5.6397974338541608E-002  0.10781855112098980        0.0000000000000000     
   4.4495902443476565E-002   8.1502374307774073E-002   0.0000000000000000     
   4.6130345760778090E-002   8.7736518678045106E-002   0.0000000000000000     
   4.7721348024071748E-002   9.4125597876222156E-002   0.0000000000000000     
   4.9268909233357534E-002  0.10066961190230522        0.0000000000000000     
   5.0773029388635454E-002  0.10736856075629431        0.0000000000000000     
   3.9631590652456535E-002   8.1006844464490316E-002   0.0000000000000000     
   4.1104246858857885E-002   8.7261175677894362E-002   0.0000000000000000     
   4.2537148376922823E-002   9.3669957269187754E-002   0.0000000000000000     
   4.3930295206651357E-002  0.10023318923837050        0.0000000000000000     
   4.5283687348043486E-002  0.10695087158544260        0.0000000000000000     
   3.4894586912602887E-002   8.0532660682937351E-002   0.0000000000000000     
   3.6208002200335619E-002   8.6811836072884216E-002   0.0000000000000000     
   3.7485034180273671E-002   9.3243698357116059E-002   0.0000000000000000     
   3.8725682852417037E-002   9.9828247535632894E-002   0.0000000000000000     
   3.9929948216765737E-002  0.10656548360843474        0.0000000000000000     
   6.2158522197761981E-002  0.10830084267952909        0.0000000000000000     
   6.3902166991831738E-002  0.11510914188295938        0.0000000000000000     
   6.5564100327627911E-002  0.12205408773454766        0.0000000000000000     
   6.7144322205150514E-002  0.12913568023429392        0.0000000000000000     
   6.8642832624399533E-002  0.13635391938219821        0.0000000000000000     
   5.6397974338541608E-002  0.10781855112098980        0.0000000000000000     
   5.7993171733559140E-002  0.11464539288268494        0.0000000000000000     
   5.9513307511408695E-002  0.12160970673632975        0.0000000000000000     
   6.0958381672090250E-002  0.12871149268192431        0.0000000000000000     
   6.2328394215603836E-002  0.13595075071946855        0.0000000000000000     
   5.0773029388635454E-002  0.10736856075629431        0.0000000000000000     
   5.2221130661093441E-002  0.11421397279076760        0.0000000000000000     
   5.3600635221919428E-002  0.12119737635830330        0.0000000000000000     
   5.4911543071113442E-002  0.12831877145890142        0.0000000000000000     
   5.6153854208675441E-002  0.13557815809256193        0.0000000000000000     
   4.5283687348043486E-002  0.10695087158544260        0.0000000000000000     
   4.6586043774434607E-002  0.11381488160720744        0.0000000000000000     
   4.7826083459160125E-002  0.12081709660046831        0.0000000000000000     
   4.9003806402220039E-002  0.12795751656522528        0.0000000000000000     
   5.0119212603614356E-002  0.13523614150147831        0.0000000000000000     
   3.9929948216765737E-002  0.10656548360843474        0.0000000000000000     
   4.1087911073582679E-002  0.11344811933200442        0.0000000000000000     
   4.2189652223130800E-002  0.12046886746282481        0.0000000000000000     
   4.3235171665410098E-002  0.12762772800089589        0.0000000000000000     
   4.4224469400420574E-002  0.13492470094621772        0.0000000000000000     
   6.8642832624399533E-002  0.13635391938219821        0.0000000000000000     
   7.0065325135592910E-002  0.14369438603406715        0.0000000000000000     
   7.1417493288948572E-002  0.15114266104570753        0.0000000000000000     
   7.2699337084466534E-002  0.15869874441711926        0.0000000000000000     
   7.3910856522146795E-002  0.16636263614830243        0.0000000000000000     
   6.2328394215603836E-002  0.13595075071946855        0.0000000000000000     
   6.3627866556604101E-002  0.14331242842337708        0.0000000000000000     
   6.4861320109745713E-002  0.15078147336806438        0.0000000000000000     
   6.6028754875028670E-002  0.15835788555353053        0.0000000000000000     
   6.7130170852452986E-002  0.16604166497977543        0.0000000000000000     
   5.6153854208675441E-002  0.13557815809256193        0.0000000000000000     
   5.7331184445720593E-002  0.14296024787568878        0.0000000000000000     
   5.8447149593364021E-002  0.15044975242468589        0.0000000000000000     
   5.9501749651605693E-002  0.15804667173955331        0.0000000000000000     
   6.0494984620445648E-002  0.16575100582029098        0.0000000000000000     
   5.0119212603614356E-002  0.13523614150147831        0.0000000000000000     
   5.1175278802942391E-002  0.14263784439100230        0.0000000000000000     
   5.2174981739803471E-002  0.15014749821557205        0.0000000000000000     
   5.3118321414197603E-002  0.15776510297518770        0.0000000000000000     
   5.4005297826124794E-002  0.16549065866984913        0.0000000000000000     
   4.4224469400420574E-002  0.13492470094621772        0.0000000000000000     
   4.5160149628269489E-002  0.14234521796931757        0.0000000000000000     
   4.6044816549064095E-002  0.14987471074072287        0.0000000000000000     
   4.6878470162804414E-002  0.15751317926043365        0.0000000000000000     
   4.7661110469490418E-002  0.16526062352844981        0.0000000000000000     
   7.3910856522146795E-002  0.16636263614830243        0.0000000000000000     
   7.5049819548408100E-002  0.17412555403944954        0.0000000000000000     
   7.6113994109669209E-002  0.18197871589075315        0.0000000000000000     
   7.7103380205930161E-002  0.18992212170221323        0.0000000000000000     
   7.8017977837190916E-002  0.19795577147382976        0.0000000000000000     
   6.7130170852452986E-002  0.16604166497977543        0.0000000000000000     
   6.8163269369126631E-002  0.17382456154279785        0.0000000000000000     
   6.9125751752157613E-002  0.18169832513859654        0.0000000000000000     
   7.0017618001545920E-002  0.18966295576717140        0.0000000000000000     
   7.0838868117291565E-002  0.19771845342852257        0.0000000000000000     
   6.0494984620445648E-002  0.16575100582029098        0.0000000000000000     
   6.1424466984993216E-002  0.17355454994053174        0.0000000000000000     
   6.2287809230357698E-002  0.18144909937390857        0.0000000000000000     
   6.3085011356539114E-002  0.18943465412042118        0.0000000000000000     
   6.3816073363537465E-002  0.19751121418006981        0.0000000000000000     
   5.4005297826124794E-002  0.16549065866984913        0.0000000000000000     
   5.4833412396007815E-002  0.17331551923265126        0.0000000000000000     
   5.5600166544269462E-002  0.18123103859668901        0.0000000000000000     
   5.6305560270909723E-002  0.18923721676196242        0.0000000000000000     
   5.6949593575928617E-002  0.19733405372847140        0.0000000000000000     
   4.7661110469490418E-002  0.16526062352844981        0.0000000000000000     
   4.8390105602170462E-002  0.17310746941915633        0.0000000000000000     
   4.9062823693892914E-002  0.18104414280693815        0.0000000000000000     
   4.9679264744657760E-002  0.18907064369179516        0.0000000000000000     
   5.0239428754465007E-002  0.19718697207372743        0.0000000000000000     
   7.8017977837190916E-002  0.19795577147382976        0.0000000000000000     
   7.8858463584276312E-002  0.20607212928988100        0.0000000000000000     
   7.9625514028011116E-002  0.21426365923464516        0.0000000000000000     
   8.0319129168395384E-002  0.22253036130812220        0.0000000000000000     
   8.0939309005429089E-002  0.23087223551031219        0.0000000000000000     
   7.0838868117291565E-002  0.19771845342852257        0.0000000000000000     
   7.1587901964877035E-002  0.20585739686558394        0.0000000000000000     
   7.2263119409784846E-002  0.21407236482128963        0.0000000000000000     
   7.2864520452014983E-002  0.22236335729563952        0.0000000000000000     
   7.3392105091567433E-002  0.23073037428863374        0.0000000000000000     
   6.3816073363537465E-002  0.19751121418006981        0.0000000000000000     
   6.4478179144198483E-002  0.20567111159657492        0.0000000000000000     
   6.5068512591367880E-002  0.21390667841365707        0.0000000000000000     
   6.5587073705045712E-002  0.22221791463131629        0.0000000000000000     
   6.6033862485231895E-002  0.23060482024955251        0.0000000000000000     
   5.6949593575928617E-002  0.19733405372847140        0.0000000000000000     
   5.7529295122240628E-002  0.20551327348285381        0.0000000000000000     
   5.8041693572760282E-002  0.21376660001174752        0.0000000000000000     
   5.8486788927487571E-002  0.22209403331515234        0.0000000000000000     
   5.8864581186422495E-002  0.23049557339306850        0.0000000000000000     
   5.0239428754465007E-002  0.19718697207372743        0.0000000000000000     
   5.0741249899003485E-002  0.20538388252442075        0.0000000000000000     
   5.1182662353962009E-002  0.21365212961556090        0.0000000000000000     
   5.1563666119340580E-002  0.22199171334714779        0.0000000000000000     
   5.1884261195139204E-002  0.23040263371918160        0.0000000000000000     
   8.0939309005429089E-002  0.23087223551031219        0.0000000000000000     
   8.1475572457157835E-002  0.23930999149516535        0.0000000000000000     
   8.1917438441627216E-002  0.24786433891663212        0.0000000000000000     
   8.2264906958837272E-002  0.25653527777471247        0.0000000000000000     
   8.2517978008787962E-002  0.26532280806940634        0.0000000000000000     
   7.3392105091567433E-002  0.23073037428863374        0.0000000000000000     
   7.3842685315369763E-002  0.23918736421213119        0.0000000000000000     
   7.4213073110349484E-002  0.24774827547799089        0.0000000000000000     
   7.4503268476506623E-002  0.25641310808621282        0.0000000000000000     
   7.4713271413841154E-002  0.26518186203679689        0.0000000000000000     
   6.6033862485231895E-002  0.23060482024955251        0.0000000000000000     
   6.6411196463390873E-002  0.23907427606068590        0.0000000000000000     
   6.6721393170986965E-002  0.24763316285703643        0.0000000000000000     
   6.6964452608020197E-002  0.25628148063860418        0.0000000000000000     
   6.7140374774490558E-002  0.26501922940538908        0.0000000000000000     
   5.8864581186422495E-002  0.23049557339306850        0.0000000000000000     
   5.9181105901221165E-002  0.23897072704082944        0.0000000000000000     
   5.9442398623539658E-002  0.24751900105376878        0.0000000000000000     
   5.9648459353378015E-002  0.25614039543188666        0.0000000000000000     
   5.9799288090736202E-002  0.26483491017518285        0.0000000000000000     
   5.1884261195139204E-002  0.23040263371918160        0.0000000000000000     
   5.2152413628860625E-002  0.23887671715256178        0.0000000000000000     
   5.2376089468007571E-002  0.24740579006818797        0.0000000000000000     
   5.2555288712580063E-002  0.25598985246606021        0.0000000000000000     
   5.2690011362578074E-002  0.26462890434617836        0.0000000000000000     
   8.2517978008787962E-002  0.26532280806940634        0.0000000000000000     
   8.2715576541027333E-002  0.27425327808602740        0.0000000000000000     
   8.2896627505103390E-002  0.28335303610988916        0.0000000000000000     
   8.3061130901016120E-002  0.29262208214099161        0.0000000000000000     
   8.3209086728765563E-002  0.30206041617933482        0.0000000000000000     
   7.4713271413841154E-002  0.26518186203679689        0.0000000000000000     
   7.4883996320712659E-002  0.27404809304752265        0.0000000000000000     
   7.5056357595480766E-002  0.28300535683616940        0.0000000000000000     
   7.5230355238145447E-002  0.29205365340273726        0.0000000000000000     
   7.5405989248706701E-002  0.30119298274722600        0.0000000000000000     
   6.7140374774490558E-002  0.26501922940538908        0.0000000000000000     
   6.7289394950331594E-002  0.27381642748286672        0.0000000000000000     
   6.7451748415476909E-002  0.28264309319651271        0.0000000000000000     
   6.7627435169926475E-002  0.29149922654632704        0.0000000000000000     
   6.7816455213680280E-002  0.30038482753230966        0.0000000000000000     
   5.9799288090736202E-002  0.26483491017518285        0.0000000000000000     
   5.9931772429884157E-002  0.27355828139205973        0.0000000000000000     
   6.0082799965091825E-002  0.28226624519091914        0.0000000000000000     
   6.0252370696359206E-002  0.29095880157176113        0.0000000000000000     
   6.0440484623686293E-002  0.29963595053458580        0.0000000000000000     
   5.2690011362578074E-002  0.26462890434617836        0.0000000000000000     
   5.2811128759370315E-002  0.27327365477510152        0.0000000000000000     
   5.2949512244325515E-002  0.28187481281938853        0.0000000000000000     
   5.3105161817443645E-002  0.29043237847903947        0.0000000000000000     
   5.3278077478724720E-002  0.29894635175405432        0.0000000000000000     
   2.8977030030705318E-002   5.7224795090068892E-002   0.0000000000000000     
   3.0567255960312956E-002   6.2769862329845591E-002   0.0000000000000000     
   3.2083590750498429E-002   6.8502862341915896E-002   0.0000000000000000     
   3.3526034401261735E-002   7.4423795126279821E-002   0.0000000000000000     
   3.4894586912602887E-002   8.0532660682937351E-002   0.0000000000000000     
   2.5070616767938807E-002   5.6634810967484836E-002   0.0000000000000000     
   2.6466699078020000E-002   6.2230207811331983E-002   0.0000000000000000     
   2.7798399899800499E-002   6.8006597511559908E-002   0.0000000000000000     
   2.9065719233280309E-002   7.3963980068168608E-002   0.0000000000000000     
   3.0268657078459424E-002   8.0102355481158100E-002   0.0000000000000000     
   2.1271313153599022E-002   5.6189935294997377E-002   0.0000000000000000     
   2.2469811379168241E-002   6.1804733318899435E-002   0.0000000000000000     
   2.3613686429519803E-002   6.7601087007233121E-002   0.0000000000000000     
   2.4702938304653699E-002   7.3578996359998469E-002   0.0000000000000000     
   2.5737567004569938E-002   7.9738461377195480E-002   0.0000000000000000     
   1.7579119187685965E-002   5.5890168072606501E-002   0.0000000000000000     
   1.8576592863757676E-002   6.1493438852547926E-002   0.0000000000000000     
   1.9529450339656328E-002   6.7286330828935564E-002   0.0000000000000000     
   2.0437691615381910E-002   7.3268844001769418E-002   0.0000000000000000     
   2.1301316690934425E-002   7.9440978371049464E-002   0.0000000000000000     
   1.3994034870199634E-002   5.5735509300312222E-002   0.0000000000000000     
   1.4787043531788311E-002   6.1296324412277489E-002   0.0000000000000000     
   1.5545691630210079E-002   6.7062328976667224E-002   0.0000000000000000     
   1.6269979165464941E-002   7.3033522993481426E-002   0.0000000000000000     
   1.6959906137552890E-002   7.9209906462720109E-002   0.0000000000000000     
   3.4894586912602887E-002   8.0532660682937351E-002   0.0000000000000000     
   3.6208002200335619E-002   8.6811836072884216E-002   0.0000000000000000     
   3.7485034180273671E-002   9.3243698357116059E-002   0.0000000000000000     
   3.8725682852417037E-002   9.9828247535632894E-002   0.0000000000000000     
   3.9929948216765737E-002  0.10656548360843474        0.0000000000000000     
   3.0268657078459424E-002   8.0102355481158100E-002   0.0000000000000000     
   3.1422935585425568E-002   8.6406466634073212E-002   0.0000000000000000     
   3.2544276904266457E-002   9.2861056410458817E-002   0.0000000000000000     
   3.3632681034982098E-002   9.9466124810314874E-002   0.0000000000000000     
   3.4688147977572484E-002  0.10622167183364145        0.0000000000000000     
   2.5737567004569938E-002   7.9738461377195480E-002   0.0000000000000000     
   2.6730370814341996E-002   8.6063034132519950E-002   0.0000000000000000     
   2.7694148019043362E-002   9.2536266699667802E-002   0.0000000000000000     
   2.8628898618674042E-002   9.9158159078639008E-002   0.0000000000000000     
   2.9534622613234029E-002  0.10592871126943358        0.0000000000000000     
   2.1301316690934425E-002   7.9440978371049464E-002   0.0000000000000000     
   2.2130307887084911E-002   8.5781538568224458E-002   0.0000000000000000     
   2.2934647524604390E-002   9.2269329224743041E-002   0.0000000000000000     
   2.3714335603492880E-002   9.8904350340605268E-002   0.0000000000000000     
   2.4469372123750371E-002  0.10568660191581111        0.0000000000000000     
   1.6959906137552890E-002   7.9209906462720109E-002   0.0000000000000000     
   1.7622746803654301E-002   8.5561979941186680E-002   0.0000000000000000     
   1.8265775420949537E-002   9.2060243985684534E-002   0.0000000000000000     
   1.8888991989438608E-002   9.8704698596213655E-002   0.0000000000000000     
   1.9492396509121504E-002  0.10549534377277406        0.0000000000000000     
   3.9929948216765737E-002  0.10656548360843474        0.0000000000000000     
   4.1087911073582679E-002  0.11344811933200442        0.0000000000000000     
   4.2189652223130800E-002  0.12046886746282481        0.0000000000000000     
   4.3235171665410098E-002  0.12762772800089589        0.0000000000000000     
   4.4224469400420574E-002  0.13492470094621772        0.0000000000000000     
   3.4688147977572484E-002  0.10622167183364145        0.0000000000000000     
   3.5702131186832131E-002  0.11312146558436435        0.0000000000000000     
   3.6666084117555550E-002  0.12015927416640951        0.0000000000000000     
   3.7580006769742748E-002  0.12733509757977690        0.0000000000000000     
   3.8443899143393724E-002  0.13464893582446646        0.0000000000000000     
   2.9534622613234029E-002  0.10592871126943358        0.0000000000000000     
   3.0404102742477467E-002  0.11284269998349310        0.0000000000000000     
   3.1230121746158513E-002  0.11989490193225918        0.0000000000000000     
   3.2012679624277167E-002  0.12708531711573184        0.0000000000000000     
   3.2751776376833415E-002  0.13441394553391103        0.0000000000000000     
   2.4469372123750371E-002  0.10568660191581111        0.0000000000000000     
   2.5193825740518691E-002  0.11261182252939063        0.0000000000000000     
   2.5881765108939678E-002  0.11967575076037383        0.0000000000000000     
   2.6533190229013331E-002  0.12687838660876075        0.0000000000000000     
   2.7148101100739657E-002  0.13421973007455135        0.0000000000000000     
   1.9492396509121504E-002  0.10549534377277406        0.0000000000000000     
   2.0071300180955796E-002  0.11242883322205693        0.0000000000000000     
   2.0621014205899048E-002  0.11950182065075345        0.0000000000000000     
   2.1141538583951260E-002  0.12671430605886361        0.0000000000000000     
   2.1632873315112433E-002  0.13406628944638740        0.0000000000000000     
   4.4224469400420574E-002  0.13492470094621772        0.0000000000000000     
   4.5160149628269489E-002  0.14234521796931757        0.0000000000000000     
   4.6044816549064095E-002  0.14987471074072287        0.0000000000000000     
   4.6878470162804414E-002  0.15751317926043365        0.0000000000000000     
   4.7661110469490418E-002  0.16526062352844981        0.0000000000000000     
   3.8443899143393724E-002  0.13464893582446646        0.0000000000000000     
   3.9260086611206571E-002  0.14208680956005659        0.0000000000000000     
   4.0030894545879395E-002  0.14963473944612546        0.0000000000000000     
   4.0756322947412167E-002  0.15729272548267312        0.0000000000000000     
   4.1436371815804930E-002  0.16506076766969954        0.0000000000000000     
   3.2751776376833415E-002  0.13441394553391103        0.0000000000000000     
   3.3449379441258295E-002  0.14186706011264125        0.0000000000000000     
   3.4107456254982807E-002  0.14943093377776692        0.0000000000000000     
   3.4726006818006971E-002  0.15710556652928814        0.0000000000000000     
   3.5305031130330775E-002  0.16489095836720480        0.0000000000000000     
   2.7148101100739657E-002  0.13421973007455135        0.0000000000000000     
   2.7728028118424661E-002  0.14168596962707156        0.0000000000000000     
   2.8274501676374377E-002  0.14926329373564734        0.0000000000000000     
   2.8787521774588803E-002  0.15695170240027864        0.0000000000000000     
   2.9267088413067938E-002  0.16475119562096546        0.0000000000000000     
   2.1632873315112433E-002  0.13406628944638740        0.0000000000000000     
   2.2096032642705675E-002  0.14154353810334749        0.0000000000000000     
   2.2532030810054088E-002  0.14913181931976657        0.0000000000000000     
   2.2940867817157672E-002  0.15683113309564467        0.0000000000000000     
   2.3322543664016433E-002  0.16464147943098170        0.0000000000000000     
   4.7661110469490418E-002  0.16526062352844981        0.0000000000000000     
   4.8390105602170462E-002  0.17310746941915633        0.0000000000000000     
   4.9062823693892914E-002  0.18104414280693815        0.0000000000000000     
   4.9679264744657760E-002  0.18907064369179516        0.0000000000000000     
   5.0239428754465007E-002  0.19718697207372743        0.0000000000000000     
   4.1436371815804930E-002  0.16506076766969954        0.0000000000000000     
   4.2068362362127673E-002  0.17292827339349506        0.0000000000000000     
   4.2649615797450420E-002  0.18088465004035006        0.0000000000000000     
   4.3180132121773171E-002  0.18892989761026449        0.0000000000000000     
   4.3659911335095926E-002  0.19706401610323840        0.0000000000000000     
   3.5305031130330775E-002  0.16489095836720480        0.0000000000000000     
   3.5841998434525978E-002  0.17277580404911555        0.0000000000000000     
   3.6334377973164356E-002  0.18074879833261917        0.0000000000000000     
   3.6782169746245916E-002  0.18880994121771558        0.0000000000000000     
   3.7185373753770644E-002  0.19695923270440482        0.0000000000000000     
   2.9267088413067938E-002  0.16475119562096546        0.0000000000000000     
   2.9711013819365379E-002  0.17265006138601777        0.0000000000000000     
   3.0117110221034728E-002  0.18063658768374541        0.0000000000000000     
   3.0485377618075991E-002  0.18871077451414836        0.0000000000000000     
   3.0815816010489154E-002  0.19687262187722671        0.0000000000000000     
   2.3322543664016433E-002  0.16464147943098170        0.0000000000000000     
   2.3675408516645874E-002  0.17255104540420177        0.0000000000000000     
   2.3997812541061533E-002  0.18054801809372886        0.0000000000000000     
   2.4289755737263392E-002  0.18863239749956295        0.0000000000000000     
   2.4551238105251463E-002  0.19680418362170410        0.0000000000000000     
   5.0239428754465007E-002  0.19718697207372743        0.0000000000000000     
   5.0741249899003485E-002  0.20538388252442075        0.0000000000000000     
   5.1182662353962009E-002  0.21365212961556090        0.0000000000000000     
   5.1563666119340580E-002  0.22199171334714779        0.0000000000000000     
   5.1884261195139204E-002  0.23040263371918160        0.0000000000000000     
   4.3659911335095926E-002  0.19706401610323840        0.0000000000000000     
   4.4088136506031432E-002  0.20527654178124075        0.0000000000000000     
   4.4463990703192437E-002  0.21355701090624052        0.0000000000000000     
   4.4787473926578940E-002  0.22190542347823772        0.0000000000000000     
   4.5058586176190935E-002  0.23032177949723234        0.0000000000000000     
   3.7185373753770644E-002  0.19695923270440482        0.0000000000000000     
   3.7544047974868877E-002  0.20518485431327887        0.0000000000000000     
   3.7858250388670939E-002  0.21347498756492950        0.0000000000000000     
   3.8127980995176836E-002  0.22182963245935700        0.0000000000000000     
   3.8353239794386568E-002  0.23024878899656109        0.0000000000000000     
   3.0815816010489154E-002  0.19687262187722671        0.0000000000000000     
   3.1108984305515806E-002  0.20510882012053505        0.0000000000000000     
   3.1365441410397515E-002  0.21340605959162803        0.0000000000000000     
   3.1585187325134288E-002  0.22176434029050568        0.0000000000000000     
   3.1768222049726111E-002  0.23018366221716788        0.0000000000000000     
   2.4551238105251463E-002  0.19680418362170410        0.0000000000000000     
   2.4782945497972220E-002  0.20504843920300936        0.0000000000000000     
   2.4985563768372156E-002  0.21335022698633591        0.0000000000000000     
   2.5159092916451270E-002  0.22170954697168371        0.0000000000000000     
   2.5303532942209557E-002  0.23012639915905272        0.0000000000000000     
   5.1884261195139204E-002  0.23040263371918160        0.0000000000000000     
   5.2152413628860625E-002  0.23887671715256178        0.0000000000000000     
   5.2376089468007571E-002  0.24740579006818797        0.0000000000000000     
   5.2555288712580063E-002  0.25598985246606021        0.0000000000000000     
   5.2690011362578074E-002  0.26462890434617836        0.0000000000000000     
   4.5058586176190935E-002  0.23032177949723234        0.0000000000000000     
   4.5285964182293734E-002  0.23879081857190132        0.0000000000000000     
   4.5478244675152636E-002  0.24729728031092155        0.0000000000000000     
   4.5635427654767642E-002  0.25584116471429302        0.0000000000000000     
   4.5757513121138751E-002  0.26442247178201572        0.0000000000000000     
   3.8353239794386568E-002  0.23024878899656109        0.0000000000000000     
   3.8542602097504951E-002  0.23871160347486642        0.0000000000000000     
   3.8704643215736780E-002  0.24719722219259718        0.0000000000000000     
   3.8839363149082068E-002  0.25570564514975352        0.0000000000000000     
   3.8946761897540823E-002  0.26423687234633542        0.0000000000000000     
   3.1768222049726111E-002  0.23018366221716788        0.0000000000000000     
   3.1922327374494262E-002  0.23863907186145694        0.0000000000000000     
   3.2055285089760008E-002  0.24710561571321485        0.0000000000000000     
   3.2167095195523347E-002  0.25558329377244166        0.0000000000000000     
   3.2257757691784274E-002  0.26407210603913728        0.0000000000000000     
   2.5303532942209557E-002  0.23012639915905272        0.0000000000000000     
   2.5425140013261686E-002  0.23857322373167306        0.0000000000000000     
   2.5530170297222324E-002  0.24702246087277457        0.0000000000000000     
   2.5618623794091466E-002  0.25547411058235731        0.0000000000000000     
   2.5690500503869118E-002  0.26392817286042136        0.0000000000000000     
   5.2690011362578074E-002  0.26462890434617836        0.0000000000000000     
   5.2811128759370315E-002  0.27327365477510152        0.0000000000000000     
   5.2949512244325515E-002  0.28187481281938853        0.0000000000000000     
   5.3105161817443645E-002  0.29043237847903947        0.0000000000000000     
   5.3278077478724720E-002  0.29894635175405432        0.0000000000000000     
   4.5757513121138751E-002  0.26442247178201572        0.0000000000000000     
   4.5868692301006764E-002  0.27299124655478213        0.0000000000000000     
   4.5993156421112485E-002  0.28149753407328454        0.0000000000000000     
   4.6130905481455903E-002  0.28994133433752306        0.0000000000000000     
   4.6281939482037029E-002  0.29832264734749764        0.0000000000000000     
   3.8946761897540823E-002  0.26423687234633542        0.0000000000000000     
   3.9045691417010156E-002  0.27273975565389152        0.0000000000000000     
   3.9155003663387249E-002  0.28116314694397071        0.0000000000000000     
   3.9274698636672080E-002  0.28950704621657292        0.0000000000000000     
   3.9404776336864657E-002  0.29777145347169809        0.0000000000000000     
   3.2257757691784274E-002  0.26407210603913728        0.0000000000000000     
   3.2342126107380527E-002  0.27251918207242964        0.0000000000000000     
   3.2435053971149826E-002  0.28087165143144688        0.0000000000000000     
   3.2536541283092184E-002  0.28912951411618887        0.0000000000000000     
   3.2646588043207601E-002  0.29729277012665561        0.0000000000000000     
   2.5690500503869118E-002  0.26392817286042136        0.0000000000000000     
   2.5757996372117842E-002  0.27232952581039666        0.0000000000000000     
   2.5833307344400210E-002  0.28062304753571321        0.0000000000000000     
   2.5916433420716218E-002  0.28880873803637103        0.0000000000000000     
   2.6007374601065864E-002  0.29688659731237022        0.0000000000000000     
   1.3994034870199634E-002   5.5735509300312222E-002   0.0000000000000000     
   1.4787043531788311E-002   6.1296324412277489E-002   0.0000000000000000     
   1.5545691630210079E-002   6.7062328976667224E-002   0.0000000000000000     
   1.6269979165464941E-002   7.3033522993481426E-002   0.0000000000000000     
   1.6959906137552890E-002   7.9209906462720109E-002   0.0000000000000000     
   1.0471850487455150E-002   5.5652067632339389E-002   0.0000000000000000     
   1.1060355561200020E-002   6.1169054532331610E-002   0.0000000000000000     
   1.1624502151235252E-002   6.6905838497720804E-002   0.0000000000000000     
   1.2164290257560842E-002   7.2862419528507000E-002   0.0000000000000000     
   1.2679719880176792E-002   7.9038797624690141E-002   0.0000000000000000     
   6.9683563257676379E-003   5.5565951722912857E-002   0.0000000000000000     
   7.3557211299326887E-003   6.1067293746953820E-002   0.0000000000000000     
   7.7279737527860297E-003   6.6793616439389039E-002   0.0000000000000000     
   8.0851141943276607E-003   7.2744919800218535E-002   0.0000000000000000     
   8.4271424545575829E-003   7.8921203829442302E-002   0.0000000000000000     
   3.4835523851370950E-003   5.5477161572032627E-002   0.0000000000000000     
   3.6731402379863148E-003   6.0991042056144133E-002   0.0000000000000000     
   3.8561064348624158E-003   6.6725662801671942E-002   0.0000000000000000     
   4.0324509757653998E-003   7.2681023808616088E-002   0.0000000000000000     
   4.2021738606952651E-003   7.8857125076976578E-002   0.0000000000000000     
   1.7438665563523827E-005   5.5385697179698698E-002   0.0000000000000000     
   1.2612885360898480E-005   6.0940299459902508E-002   0.0000000000000000     
   8.9001974644102198E-006   6.6701977584569500E-002   0.0000000000000000     
   6.3006018740573925E-006   7.2670731553699658E-002   0.0000000000000000     
   4.8140985898408387E-006   7.8846561367292997E-002   0.0000000000000000     
   1.6959906137552890E-002   7.9209906462720109E-002   0.0000000000000000     
   1.7622746803654301E-002   8.5561979941186680E-002   0.0000000000000000     
   1.8265775420949537E-002   9.2060243985684534E-002   0.0000000000000000     
   1.8888991989438608E-002   9.8704698596213655E-002   0.0000000000000000     
   1.9492396509121504E-002  0.10549534377277406        0.0000000000000000     
   1.2679719880176792E-002   7.9038797624690141E-002   0.0000000000000000     
   1.3175580674253787E-002   8.5397968097908145E-002   0.0000000000000000     
   1.3656662294962520E-002   9.1902926259798845E-002   0.0000000000000000     
   1.4122964742302985E-002   9.8553672110362284E-002   0.0000000000000000     
   1.4574488016275190E-002  0.10535020564959841        0.0000000000000000     
   8.4271424545575829E-003   7.8921203829442302E-002   0.0000000000000000     
   8.7567026090869839E-003   8.5283112884890322E-002   0.0000000000000000     
   9.0764387335270490E-003   9.1791291324392649E-002   0.0000000000000000     
   9.3863508278777801E-003   9.8445739147949268E-002   0.0000000000000000     
   9.6864388921391806E-003  0.10524645635556018        0.0000000000000000     
   4.2021738606952651E-003   7.8857125076976578E-002   0.0000000000000000     
   4.3661126081538850E-003   8.5217414302133240E-002   0.0000000000000000     
   4.5251047366431261E-003   9.1725339179465917E-002   0.0000000000000000     
   4.6791502461629919E-003   9.8380899708974609E-002   0.0000000000000000     
   4.8282491367134771E-003  0.10518409589065934        0.0000000000000000     
   4.8140985898408387E-006   7.8846561367292997E-002   0.0000000000000000     
   3.8106714544939267E-006   8.5200872349636872E-002   0.0000000000000000     
   2.6603043107526272E-006   9.1705069825018651E-002   0.0000000000000000     
   1.3629971586130371E-006   9.8359153793438320E-002   0.0000000000000000     
  -8.1250001920940562E-008  0.10516312425489588        0.0000000000000000     
   1.9492396509121504E-002  0.10549534377277406        0.0000000000000000     
   2.0071300180955796E-002  0.11242883322205693        0.0000000000000000     
   2.0621014205899048E-002  0.11950182065075345        0.0000000000000000     
   2.1141538583951260E-002  0.12671430605886361        0.0000000000000000     
   2.1632873315112433E-002  0.13406628944638740        0.0000000000000000     
   1.4574488016275190E-002  0.10535020564959841        0.0000000000000000     
   1.5007775879991213E-002  0.11228976878094520        0.0000000000000000     
   1.5419372096563137E-002  0.11936960340784049        0.0000000000000000     
   1.5809276665990961E-002  0.12658970953028428        0.0000000000000000     
   1.6177489588274689E-002  0.13395008714827664        0.0000000000000000     
   9.6864388921391806E-003  0.10524645635556018        0.0000000000000000     
   9.9745026538273669E-003  0.11219066592550848        0.0000000000000000     
   1.0248341840458456E-002  0.11927559083607732        0.0000000000000000     
   1.0507956452032454E-002  0.12650123108726666        0.0000000000000000     
   1.0753346488549354E-002  0.13386758667907647        0.0000000000000000     
   4.8282491367134771E-003  0.10518409589065934        0.0000000000000000     
   4.9714805024642606E-003  0.11213152465574686        0.0000000000000000     
   5.1079234375850120E-003  0.11921978293546397        0.0000000000000000     
   5.2375779420757336E-003  0.12644887072981065        0.0000000000000000     
   5.3604440159364213E-003  0.13381878803878691        0.0000000000000000     
  -8.1250001920940562E-008  0.10516312425489588        0.0000000000000000     
  -1.2905740981064388E-006  0.11211234497166028        0.0000000000000000     
  -1.8831120571997234E-006  0.11920217970600044        0.0000000000000000     
  -1.8588638791983006E-006  0.12643262845791634        0.0000000000000000     
  -1.2178295641027126E-006  0.13380369122740796        0.0000000000000000     
   2.1632873315112433E-002  0.13406628944638740        0.0000000000000000     
   2.2096032642705675E-002  0.14154353810334749        0.0000000000000000     
   2.2532030810054088E-002  0.14913181931976657        0.0000000000000000     
   2.2940867817157672E-002  0.15683113309564467        0.0000000000000000     
   2.3322543664016433E-002  0.16464147943098170        0.0000000000000000     
   1.6177489588274689E-002  0.13395008714827664        0.0000000000000000     
   1.6524516155212731E-002  0.14143600619212218        0.0000000000000000     
   1.6850861658603486E-002  0.14903273659212560        0.0000000000000000     
   1.7156526098446957E-002  0.15674027834828688        0.0000000000000000     
   1.7441509474743148E-002  0.16455863146060604        0.0000000000000000     
   1.0753346488549354E-002  0.13386758667907647        0.0000000000000000     
   1.0984601797057219E-002  0.14135961454404872        0.0000000000000000     
   1.1201812224604115E-002  0.14896227161472525        0.0000000000000000     
   1.1404977771190037E-002  0.15667555789110602        0.0000000000000000     
   1.1594098436814989E-002  0.16449947337319110        0.0000000000000000     
   5.3604440159364213E-003  0.13381878803878691        0.0000000000000000     
   5.4762895682391481E-003  0.14131436315912710        0.0000000000000000     
   5.5848825080559777E-003  0.14892042438756548        0.0000000000000000     
   5.6862228353869136E-003  0.15663697172410207        0.0000000000000000     
   5.7803105502319523E-003  0.16446400516873691        0.0000000000000000     
  -1.2178295641027126E-006  0.13380369122740796        0.0000000000000000     
  -4.2053124148754006E-007  0.14130025203735730        0.0000000000000000     
   7.2508959074587750E-008  0.14890719491064633        0.0000000000000000     
   2.6129103758383348E-007  0.15662451984727507        0.0000000000000000     
   1.4581499404014292E-007  0.16445222684724345        0.0000000000000000     
   2.3322543664016433E-002  0.16464147943098170        0.0000000000000000     
   2.3675408516645874E-002  0.17255104540420177        0.0000000000000000     
   2.3997812541061533E-002  0.18054801809372886        0.0000000000000000     
   2.4289755737263392E-002  0.18863239749956295        0.0000000000000000     
   2.4551238105251463E-002  0.19680418362170410        0.0000000000000000     
   1.7441509474743148E-002  0.16455863146060604        0.0000000000000000     
   1.7704757201172722E-002  0.17247604775569819        0.0000000000000000     
   1.7945214691416352E-002  0.18048077906017848        0.0000000000000000     
   1.8162881945474031E-002  0.18857282537404682        0.0000000000000000     
   1.8357758963345763E-002  0.19675218669730338        0.0000000000000000     
   1.1594098436814989E-002  0.16449947337319110        0.0000000000000000     
   1.1768634547751166E-002  0.17242236009253775        0.0000000000000000     
   1.1928046430270773E-002  0.18043256008070330        0.0000000000000000     
   1.2072334084373804E-002  0.18853007333768773        0.0000000000000000     
   1.2201497510060262E-002  0.19671489986349100        0.0000000000000000     
   5.7803105502319523E-003  0.16446400516873691        0.0000000000000000     
   5.8670405563812098E-003  0.17238998241472051        0.0000000000000000     
   5.9463077576247941E-003  0.18040336115530339        0.0000000000000000     
   6.0181121539627106E-003  0.18850414139048552        0.0000000000000000     
   6.0824537453949522E-003  0.19669232312026699        0.0000000000000000     
   1.4581499404014292E-007  0.16445222684724345        0.0000000000000000     
  -2.4772937151293362E-008  0.17237891472224637        0.0000000000000000     
  -1.3265215807311409E-009  0.18039318228397866        0.0000000000000000     
   2.1615424074819750E-007  0.18849502953244029        0.0000000000000000     
   6.2766934983641415E-007  0.19668445646763130        0.0000000000000000     
   2.4551238105251463E-002  0.19680418362170410        0.0000000000000000     
   2.4782945497972220E-002  0.20504843920300936        0.0000000000000000     
   2.4985563768372156E-002  0.21335022698633591        0.0000000000000000     
   2.5159092916451270E-002  0.22170954697168371        0.0000000000000000     
   2.5303532942209557E-002  0.23012639915905272        0.0000000000000000     
   1.8357758963345763E-002  0.19675218669730338        0.0000000000000000     
   1.8530432798102750E-002  0.20500242285673920        0.0000000000000000     
   1.8681490502816180E-002  0.21330709367914555        0.0000000000000000     
   1.8810932077486051E-002  0.22166619916452235        0.0000000000000000     
   1.8918757522112379E-002  0.23007973931286968        0.0000000000000000     
   1.2201497510060262E-002  0.19671489986349100        0.0000000000000000     
   1.2315947451772001E-002  0.20496948237776191        0.0000000000000000     
   1.2416094653950879E-002  0.21327626360014917        0.0000000000000000     
   1.2501939116596890E-002  0.22163524353065278        0.0000000000000000     
   1.2573480839710041E-002  0.23004642216927274        0.0000000000000000     
   6.0824537453949522E-003  0.19669232312026699        0.0000000000000000     
   6.1394894589799822E-003  0.20494961776607748        0.0000000000000000     
   6.1893762217762570E-003  0.21325773674934687        0.0000000000000000     
   6.2321140337837791E-003  0.22161668007007496        0.0000000000000000     
   6.2677028950025478E-003  0.23002644772826197        0.0000000000000000     
   6.2766934983641415E-007  0.19668445646763130        0.0000000000000000     
   1.0588197266914352E-006  0.20494282902168595        0.0000000000000000     
   1.3352062923203435E-006  0.21325151312673851        0.0000000000000000     
   1.4568290467225969E-006  0.22161050878278896        0.0000000000000000     
   1.4236879898972196E-006  0.23001981598983734        0.0000000000000000     
   2.5303532942209557E-002  0.23012639915905272        0.0000000000000000     
   2.5425140013261686E-002  0.23857322373167306        0.0000000000000000     
   2.5530170297222324E-002  0.24702246087277457        0.0000000000000000     
   2.5618623794091466E-002  0.25547411058235731        0.0000000000000000     
   2.5690500503869118E-002  0.26392817286042136        0.0000000000000000     
   1.8918757522112379E-002  0.23007973931286968        0.0000000000000000     
   1.9009419261248443E-002  0.23851853297811115        0.0000000000000000     
   1.9087369719447533E-002  0.24695339901417052        0.0000000000000000     
   1.9152608896709656E-002  0.25538433742104766        0.0000000000000000     
   1.9205136793034813E-002  0.26381134819874275        0.0000000000000000     
   1.2573480839710041E-002  0.23004642216927274        0.0000000000000000     
   1.2633544365895751E-002  0.23847947349336787        0.0000000000000000     
   1.2684954237759453E-002  0.24690407148029683        0.0000000000000000     
   1.2727710455301139E-002  0.25532021613005978        0.0000000000000000     
   1.2761813018520814E-002  0.26372790744265662        0.0000000000000000     
   6.2677028950025478E-003  0.23002644772826197        0.0000000000000000     
   6.2975153272036262E-003  0.23845604527744305        0.0000000000000000     
   6.3229238521580822E-003  0.24687447827115361        0.0000000000000000     
   6.3439284698659140E-003  0.25528174670939352        0.0000000000000000     
   6.3605291803271258E-003  0.26367785059216287        0.0000000000000000     
   1.4236879898972196E-006  0.23001981598983734        0.0000000000000000     
   1.3321451720589919E-006  0.23844824833033690        0.0000000000000000     
   1.2785626434196583E-006  0.24686461938674073        0.0000000000000000     
   1.2629404039814955E-006  0.25526892915904897        0.0000000000000000     
   1.2852784537428774E-006  0.26366117764726160        0.0000000000000000     
   2.5690500503869118E-002  0.26392817286042136        0.0000000000000000     
   2.5757996372117842E-002  0.27232952581039666        0.0000000000000000     
   2.5833307344400210E-002  0.28062304753571321        0.0000000000000000     
   2.5916433420716218E-002  0.28880873803637103        0.0000000000000000     
   2.6007374601065864E-002  0.29688659731237022        0.0000000000000000     
   1.9205136793034813E-002  0.26381134819874275        0.0000000000000000     
   1.9254894797475261E-002  0.27217710742092771        0.0000000000000000     
   1.9311824299083263E-002  0.28042429116127471        0.0000000000000000     
   1.9375925297858823E-002  0.28855289941978363        0.0000000000000000     
   1.9447197793801937E-002  0.29656293219645458        0.0000000000000000     
   1.2761813018520814E-002  0.26372790744265662        0.0000000000000000     
   1.2794413969705909E-002  0.27206824745715846        0.0000000000000000     
   1.2832665351143859E-002  0.28028233821263654        0.0000000000000000     
   1.2876567162834659E-002  0.28837017970909085        0.0000000000000000     
   1.2926119404778315E-002  0.29633177194652122        0.0000000000000000     
   6.3605291803271258E-003  0.26367785059216287        0.0000000000000000     
   6.3765538888097915E-003  0.27200294591908891        0.0000000000000000     
   6.3958305005819907E-003  0.28019718868979882        0.0000000000000000     
   6.4183590156437278E-003  0.28826057890429257        0.0000000000000000     
   6.4441394339949960E-003  0.29619311656257030        0.0000000000000000     
   1.2852784537428774E-006  0.26366117764726160        0.0000000000000000     
   1.3145547869031389E-006  0.27198120280671895        0.0000000000000000     
   1.3197473976631329E-006  0.28016884259276142        0.0000000000000000     
   1.3008562860212874E-006  0.28822409700538898        0.0000000000000000     
   1.2578814519810175E-006  0.29614696604460167        0.0000000000000000     
   1.7438665563523827E-005   5.5385697179698698E-002   0.0000000000000000     
   1.2612885360898480E-005   6.0940299459902508E-002   0.0000000000000000     
   8.9001974644102198E-006   6.6701977584569500E-002   0.0000000000000000     
   6.3006018740573925E-006   7.2670731553699658E-002   0.0000000000000000     
   4.8140985898408387E-006   7.8846561367292997E-002   0.0000000000000000     
  -3.4527126946022439E-003   5.5340146961576561E-002   0.0000000000000000     
  -3.6511842097094469E-003   6.0937077268005652E-002   0.0000000000000000     
  -3.8409015214273079E-003   6.6726695489050789E-002   0.0000000000000000     
  -4.0218646297558282E-003   7.2709001624711986E-002   0.0000000000000000     
  -4.1940735346950031E-003   7.8883995674989188E-002   0.0000000000000000     
  -6.9496295570093750E-003   5.5389099333331727E-002   0.0000000000000000     
  -7.3435743289906128E-003   6.1003386790230221E-002   0.0000000000000000     
  -7.7205552838320582E-003   6.6803951216084900E-002   0.0000000000000000     
  -8.0805724215337101E-003   7.2790792610895785E-002   0.0000000000000000     
  -8.4236257420955748E-003   7.8963910974662849E-002   0.0000000000000000     
  -1.0473311921657869E-002   5.5532554294964176E-002   0.0000000000000000     
  -1.1064557472482596E-002   6.1139228026576183E-002   0.0000000000000000     
  -1.1630061089749840E-002   6.6933744765671807E-002   0.0000000000000000     
  -1.2169822773459600E-002   7.2916104512251056E-002   0.0000000000000000     
  -1.2683842523611875E-002   7.9086307266313910E-002   0.0000000000000000     
  -1.4023759788547726E-002   5.5770511846473927E-002   0.0000000000000000     
  -1.4814133640185398E-002   6.1344600977043591E-002   0.0000000000000000     
  -1.5569418939180657E-002   6.7116076137811564E-002   0.0000000000000000     
  -1.6289615685533488E-002   7.3084937328777827E-002   0.0000000000000000     
  -1.6974723879243904E-002   7.9251184549942413E-002   0.0000000000000000     
   4.8140985898408387E-006   7.8846561367292997E-002   0.0000000000000000     
   3.8106714544939267E-006   8.5200872349636872E-002   0.0000000000000000     
   2.6603043107526272E-006   9.1705069825018651E-002   0.0000000000000000     
   1.3629971586130371E-006   9.8359153793438320E-002   0.0000000000000000     
  -8.1250001920940562E-008  0.10516312425489588        0.0000000000000000     
  -4.1940735346950031E-003   7.8883995674989188E-002   0.0000000000000000     
  -4.3595962172154369E-003   8.5231264048341415E-002   0.0000000000000000     
  -4.5205006582877275E-003   9.1730393153227535E-002   0.0000000000000000     
  -4.6767868579118783E-003   9.8381382989647576E-002   0.0000000000000000     
  -4.8284548160878850E-003  0.10518423355760154        0.0000000000000000     
  -8.4236257420955748E-003   7.8963910974662849E-002   0.0000000000000000     
  -8.7535010740601576E-003   8.5306366419187013E-002   0.0000000000000000     
  -9.0739842459699703E-003   9.1801219056269284E-002   0.0000000000000000     
  -9.3850752578250127E-003   9.8448468885909579E-002   0.0000000000000000     
  -9.6867741096252867E-003  0.10524811590810794        0.0000000000000000     
  -1.2683842523611875E-002   7.9086307266313910E-002   0.0000000000000000     
  -1.3177903899079666E-002   8.5426179462173721E-002   0.0000000000000000     
  -1.3657790458735972E-002   9.1917547534143856E-002   0.0000000000000000     
  -1.4123502202580790E-002   9.8560411482224317E-002   0.0000000000000000     
  -1.4575039130614127E-002  0.10535477130641509        0.0000000000000000     
  -1.6974723879243904E-002   7.9251184549942413E-002   0.0000000000000000     
  -1.7632804692273962E-002   8.5590703177301497E-002   0.0000000000000000     
  -1.8271919296585736E-002   9.2079378586851293E-002   0.0000000000000000     
  -1.8892067692179212E-002   9.8717210778591802E-002   0.0000000000000000     
  -1.9493249879054399E-002  0.10550419975252301        0.0000000000000000     
  -8.1250001920940562E-008  0.10516312425489588        0.0000000000000000     
  -1.2905740981064388E-006  0.11211234497166028        0.0000000000000000     
  -1.8831120571997234E-006  0.11920217970600044        0.0000000000000000     
  -1.8588638791983006E-006  0.12643262845791634        0.0000000000000000     
  -1.2178295641027126E-006  0.13380369122740796        0.0000000000000000     
  -4.8284548160878850E-003  0.10518423355760154        0.0000000000000000     
  -4.9738541596755599E-003  0.11213317262618880        0.0000000000000000     
  -5.1113345155347099E-003  0.11922242796450869        0.0000000000000000     
  -5.2408958836653377E-003  0.12645199957256129        0.0000000000000000     
  -5.3625382640674398E-003  0.13382188745034651        0.0000000000000000     
  -9.6867741096252867E-003  0.10524811590810794        0.0000000000000000     
  -9.9762538380839243E-003  0.11219405337227231        0.0000000000000000     
  -1.0250687479914058E-002  0.11928017452781070        0.0000000000000000     
  -1.0510075035115687E-002  0.12650647937472312        0.0000000000000000     
  -1.0754416503688810E-002  0.13387296791300951        0.0000000000000000     
  -1.4575039130614127E-002  0.10535477130641509        0.0000000000000000     
  -1.5008489609323199E-002  0.11229498720991091        0.0000000000000000     
  -1.5419942005195237E-002  0.11937541939590647        0.0000000000000000     
  -1.5809396318230248E-002  0.12659606786440183        0.0000000000000000     
  -1.6176852548428208E-002  0.13395693261539696        0.0000000000000000     
  -1.9493249879054399E-002  0.10550419975252301        0.0000000000000000     
  -2.0070561473393384E-002  0.11243597413910456        0.0000000000000000     
  -2.0619098091378255E-002  0.11950816256879604        0.0000000000000000     
  -2.1138859733009011E-002  0.12672076504159746        0.0000000000000000     
  -2.1629846398285649E-002  0.13407378155750885        0.0000000000000000     
  -1.2178295641027126E-006  0.13380369122740796        0.0000000000000000     
  -4.2053124148754006E-007  0.14130025203735730        0.0000000000000000     
   7.2508959074587750E-008  0.14890719491064633        0.0000000000000000     
   2.6129103758383348E-007  0.15662451984727507        0.0000000000000000     
   1.4581499404014292E-007  0.16445222684724345        0.0000000000000000     
  -5.3625382640674398E-003  0.13382188745034651        0.0000000000000000     
  -5.4768798213343179E-003  0.14131707367942753        0.0000000000000000     
  -5.5845387200592640E-003  0.14892254034136757        0.0000000000000000     
  -5.6855149602422859E-003  0.15663828743616648        0.0000000000000000     
  -5.7798085418833767E-003  0.16446431496382438        0.0000000000000000     
  -1.0754416503688810E-002  0.13387296791300951        0.0000000000000000     
  -1.0984439621988971E-002  0.14136462058602606        0.0000000000000000     
  -1.1200872126371709E-002  0.14896641783712891        0.0000000000000000     
  -1.1403714016837025E-002  0.15667835966631802        0.0000000000000000     
  -1.1592965293384919E-002  0.16450044607359343        0.0000000000000000     
  -1.6176852548428208E-002  0.13395693261539696        0.0000000000000000     
  -1.6523099933205450E-002  0.14144289275715280        0.0000000000000000     
  -1.6848927709978260E-002  0.14903882739793034        0.0000000000000000     
  -1.7154335878746634E-002  0.15674473653772961        0.0000000000000000     
  -1.7439324439510594E-002  0.16456062017655060        0.0000000000000000     
  -2.1629846398285649E-002  0.13407378155750885        0.0000000000000000     
  -2.2092860754983751E-002  0.14155189019280778        0.0000000000000000     
  -2.2528705470878912E-002  0.14913976902377193        0.0000000000000000     
  -2.2937380545971126E-002  0.15683741805040124        0.0000000000000000     
  -2.3318885980260395E-002  0.16464483727269583        0.0000000000000000     
   1.4581499404014292E-007  0.16445222684724345        0.0000000000000000     
  -2.4772937151293362E-008  0.17237891472224637        0.0000000000000000     
  -1.3265215807311409E-009  0.18039318228397866        0.0000000000000000     
   2.1615424074819750E-007  0.18849502953244029        0.0000000000000000     
   6.2766934983641415E-007  0.19668445646763130        0.0000000000000000     
  -5.7798085418833767E-003  0.16446431496382438        0.0000000000000000     
  -5.8668517174222390E-003  0.17238938671672496        0.0000000000000000     
  -5.9460767392985787E-003  0.18040226648725188        0.0000000000000000     
  -6.0174836075123960E-003  0.18850295427540520        0.0000000000000000     
  -6.0810723220636898E-003  0.19669145008118488        0.0000000000000000     
  -1.1592965293384919E-002  0.16450044607359343        0.0000000000000000     
  -1.1767730554292389E-002  0.17242162809976580        0.0000000000000000     
  -1.1927114397836430E-002  0.18043085678564583        0.0000000000000000     
  -1.2071116824017044E-002  0.18852813213123346        0.0000000000000000     
  -1.2199737832834231E-002  0.19671345413652869        0.0000000000000000     
  -1.7439324439510594E-002  0.16456062017655060        0.0000000000000000     
  -1.7702661283547597E-002  0.17247563887136894        0.0000000000000000     
  -1.7943114302135132E-002  0.18047895317916043        0.0000000000000000     
  -1.8160683495273194E-002  0.18857056309992498        0.0000000000000000     
  -1.8355368862961789E-002  0.19675046863366269        0.0000000000000000     
  -2.3318885980260395E-002  0.16464483727269583        0.0000000000000000     
  -2.3671643905187865E-002  0.17255141903153437        0.0000000000000000     
  -2.3994076452194681E-002  0.18054655566779573        0.0000000000000000     
  -2.4286183621280849E-002  0.18863024718147989        0.0000000000000000     
  -2.4547965412446356E-002  0.19680249357258689        0.0000000000000000     
   6.2766934983641415E-007  0.19668445646763130        0.0000000000000000     
   1.0588197266914352E-006  0.20494282902168595        0.0000000000000000     
   1.3352062923203435E-006  0.21325151312673851        0.0000000000000000     
   1.4568290467225969E-006  0.22161050878278896        0.0000000000000000     
   1.4236879898972196E-006  0.23001981598983734        0.0000000000000000     
  -6.0810723220636898E-003  0.19669145008118488        0.0000000000000000     
  -6.1373194158473284E-003  0.20494919178036827        0.0000000000000000     
  -6.1867014217581884E-003  0.21325761724873277        0.0000000000000000     
  -6.2292183397962631E-003  0.22161672648627823        0.0000000000000000     
  -6.2648701699615566E-003  0.23002651949300479        0.0000000000000000     
  -1.2199737832834231E-002  0.19671345413652869        0.0000000000000000     
  -1.2313620197601538E-002  0.20496878167790555        0.0000000000000000     
  -1.2413406691632512E-002  0.21327607363173817        0.0000000000000000     
  -1.2499097314927151E-002  0.22163532999802635        0.0000000000000000     
  -1.2570692067485460E-002  0.23004655077677025        0.0000000000000000     
  -1.8355368862961789E-002  0.19675046863366269        0.0000000000000000     
  -1.8527843525535933E-002  0.20500159871429779        0.0000000000000000     
  -1.8678780603330652E-002  0.21330688227575467        0.0000000000000000     
  -1.8808180096345946E-002  0.22166631931803332        0.0000000000000000     
  -1.8916042004581812E-002  0.23007990984113375        0.0000000000000000     
  -2.4547965412446356E-002  0.19680249357258689        0.0000000000000000     
  -2.4779989399650516E-002  0.20504764288954491        0.0000000000000000     
  -2.4982823156852609E-002  0.21335004318078232        0.0000000000000000     
  -2.5156466684052640E-002  0.22170969444629907        0.0000000000000000     
  -2.5300919981250610E-002  0.23012659668609520        0.0000000000000000     
   1.4236879898972196E-006  0.23001981598983734        0.0000000000000000     
   1.3321451720589919E-006  0.23844824833033690        0.0000000000000000     
   1.2785626434196583E-006  0.24686461938674073        0.0000000000000000     
   1.2629404039814955E-006  0.25526892915904897        0.0000000000000000     
   1.2852784537428774E-006  0.26366117764726160        0.0000000000000000     
  -6.2648701699615566E-003  0.23002651949300479        0.0000000000000000     
  -6.2948528509095955E-003  0.23845608171523353        0.0000000000000000     
  -6.3203623212959113E-003  0.24687449859928545        0.0000000000000000     
  -6.3413985811205031E-003  0.25528177014516079        0.0000000000000000     
  -6.3579616303833675E-003  0.26367789635285926        0.0000000000000000     
  -1.2570692067485460E-002  0.23004655077677025        0.0000000000000000     
  -1.2630887331751989E-002  0.23847954449531733        0.0000000000000000     
  -1.2682379490171295E-002  0.24690411968101500        0.0000000000000000     
  -1.2725168542743382E-002  0.25532027633386328        0.0000000000000000     
  -1.2759254489468248E-002  0.26372801445386240        0.0000000000000000     
  -1.8916042004581812E-002  0.23007990984113375        0.0000000000000000     
  -1.9006771297355118E-002  0.23851863667058826        0.0000000000000000     
  -1.9084772943982732E-002  0.24695348263192932        0.0000000000000000     
  -1.9150046944464660E-002  0.25538444772515684        0.0000000000000000     
  -1.9202593298800894E-002  0.26381153195027091        0.0000000000000000     
  -2.5300919981250610E-002  0.23012659668609520        0.0000000000000000     
  -2.5422504747718979E-002  0.23857335824104636        0.0000000000000000     
  -2.5527542682730223E-002  0.24702258745202835        0.0000000000000000     
  -2.5616033786284326E-002  0.25547428431904123        0.0000000000000000     
  -2.5687978058381303E-002  0.26392844884208494        0.0000000000000000     
   1.2852784537428774E-006  0.26366117764726160        0.0000000000000000     
   1.3145547869031389E-006  0.27198120280671895        0.0000000000000000     
   1.3197473976631329E-006  0.28016884259276142        0.0000000000000000     
   1.3008562860212874E-006  0.28822409700538898        0.0000000000000000     
   1.2578814519810175E-006  0.29614696604460167        0.0000000000000000     
  -6.3579616303833675E-003  0.26367789635285926        0.0000000000000000     
  -6.3739361826295002E-003  0.27200302523802605        0.0000000000000000     
  -6.3932069514038899E-003  0.28019730481630623        0.0000000000000000     
  -6.4157739367065340E-003  0.28826073508769967        0.0000000000000000     
  -6.4416371385374333E-003  0.29619331605220650        0.0000000000000000     
  -1.2759254489468248E-002  0.26372801445386240        0.0000000000000000     
  -1.2791830473706167E-002  0.27206842033098771        0.0000000000000000     
  -1.2830089638817427E-002  0.28028258025521502        0.0000000000000000     
  -1.2874031984802022E-002  0.28837049422654443        0.0000000000000000     
  -1.2923657511659956E-002  0.29633216224497588        0.0000000000000000     
  -1.9202593298800894E-002  0.26381153195027091        0.0000000000000000     
  -1.9252368318443104E-002  0.27217738808560388        0.0000000000000000     
  -1.9309328314842947E-002  0.28042466890948792        0.0000000000000000     
  -1.9373473288000449E-002  0.28855337442192325        0.0000000000000000     
  -1.9444803237915583E-002  0.29656350462290976        0.0000000000000000     
  -2.5687978058381303E-002  0.26392844884208494        0.0000000000000000     
  -2.5755549716840291E-002  0.27232992850187449        0.0000000000000000     
  -2.5830922979480465E-002  0.28062357077912492        0.0000000000000000     
  -2.5914097846301800E-002  0.28880937567383608        0.0000000000000000     
  -2.6005074317304314E-002  0.29688734318600823        0.0000000000000000     
  -1.4023759788547726E-002   5.5770511846473927E-002   0.0000000000000000     
  -1.4814133640185398E-002   6.1344600977043591E-002   0.0000000000000000     
  -1.5569418939180657E-002   6.7116076137811564E-002   0.0000000000000000     
  -1.6289615685533488E-002   7.3084937328777827E-002   0.0000000000000000     
  -1.6974723879243904E-002   7.9251184549942413E-002   0.0000000000000000     
  -1.7629317072245042E-002   5.6073546294118162E-002   0.0000000000000000     
  -1.8619665309167345E-002   6.1610698963775495E-002   0.0000000000000000     
  -1.9565361587712948E-002   6.7355469613589930E-002   0.0000000000000000     
  -2.0466405907881836E-002   7.3307858243561480E-002   0.0000000000000000     
  -2.1322798269674030E-002   7.9467864853690118E-002   0.0000000000000000     
  -2.1318327687315914E-002   5.6412231944154102E-002   0.0000000000000000     
  -2.2508514956496757E-002   6.1928715308914993E-002   0.0000000000000000     
  -2.3644621790935155E-002   6.7656449474092745E-002   0.0000000000000000     
  -2.4726648190631108E-002   7.3595434439687343E-002   0.0000000000000000     
  -2.5754594155584617E-002   7.9745670205698796E-002   0.0000000000000000     
  -2.5090791633760337E-002   5.6786568796581727E-002   0.0000000000000000     
  -2.6480682582173631E-002   6.2298650012462091E-002   0.0000000000000000     
  -2.7807199548847285E-002   6.8019015719319995E-002   0.0000000000000000     
  -2.9070342533781296E-002   7.3947665917155458E-002   0.0000000000000000     
  -3.0270111536975668E-002   8.0084600605968434E-002   0.0000000000000000     
  -2.8946708911578318E-002   5.7196556851401070E-002   0.0000000000000000     
  -3.0536168186197969E-002   6.2720503074416789E-002   0.0000000000000000     
  -3.2053094861449326E-002   6.8443168349271707E-002   0.0000000000000000     
  -3.3497488937332405E-002   7.4364552675965798E-002   0.0000000000000000     
  -3.4869350413847179E-002   8.0484656054499046E-002   0.0000000000000000     
  -1.6974723879243904E-002   7.9251184549942413E-002   0.0000000000000000     
  -1.7632804692273962E-002   8.5590703177301497E-002   0.0000000000000000     
  -1.8271919296585736E-002   9.2079378586851293E-002   0.0000000000000000     
  -1.8892067692179212E-002   9.8717210778591802E-002   0.0000000000000000     
  -1.9493249879054399E-002  0.10550419975252301        0.0000000000000000     
  -2.1322798269674030E-002   7.9467864853690118E-002   0.0000000000000000     
  -2.2145018533608216E-002   8.5805095967752279E-002   0.0000000000000000     
  -2.2943546560203101E-002   9.2289158109524344E-002   0.0000000000000000     
  -2.3718382349458684E-002   9.8920051279006299E-002   0.0000000000000000     
  -2.4469525901374967E-002  0.10569777547619814        0.0000000000000000     
  -2.5754594155584617E-002   7.9745670205698796E-002   0.0000000000000000     
  -2.6741360503047585E-002   8.6074516236707962E-002   0.0000000000000000     
  -2.7699848050271925E-002   9.2549331997295731E-002   0.0000000000000000     
  -2.8630056797257625E-002   9.9170117487462059E-002   0.0000000000000000     
  -2.9531986744004694E-002  0.10593687270720700        0.0000000000000000     
  -3.0270111536975668E-002   8.0084600605968434E-002   0.0000000000000000     
  -3.1421830600592074E-002   8.6398963984168589E-002   0.0000000000000000     
  -3.2540823766792203E-002   9.2859900250165467E-002   0.0000000000000000     
  -3.3627091035576033E-002   9.9467409403959109E-002   0.0000000000000000     
  -3.4680632406943565E-002  0.10622149144554950        0.0000000000000000     
  -3.4869350413847179E-002   8.0484656054499046E-002   0.0000000000000000     
  -3.6186428826241679E-002   8.6778439210134117E-002   0.0000000000000000     
  -3.7466473709763928E-002   9.3220862868133580E-002   0.0000000000000000     
  -3.8709485064413893E-002   9.9811927028497449E-002   0.0000000000000000     
  -3.9915462890191600E-002  0.10655163169122572        0.0000000000000000     
  -1.9493249879054399E-002  0.10550419975252301        0.0000000000000000     
  -2.0070561473393384E-002  0.11243597413910456        0.0000000000000000     
  -2.0619098091378255E-002  0.11950816256879604        0.0000000000000000     
  -2.1138859733009011E-002  0.12672076504159746        0.0000000000000000     
  -2.1629846398285649E-002  0.13407378155750885        0.0000000000000000     
  -2.4469525901374967E-002  0.10569777547619814        0.0000000000000000     
  -2.5191072084253252E-002  0.11261915573779473        0.0000000000000000     
  -2.5877115766394818E-002  0.11968101710049082        0.0000000000000000     
  -2.6527656947799679E-002  0.12688335956428642        0.0000000000000000     
  -2.7142695628467824E-002  0.13422618312918155        0.0000000000000000     
  -2.9531986744004694E-002  0.10593687270720700        0.0000000000000000     
  -3.0398624095861557E-002  0.11284667358392293        0.0000000000000000     
  -3.1222955058176637E-002  0.11989659604500233        0.0000000000000000     
  -3.2004979630949934E-002  0.12708664009044521        0.0000000000000000     
  -3.2744697814181455E-002  0.13441680572025153        0.0000000000000000     
  -3.4680632406943565E-002  0.10622149144554950        0.0000000000000000     
  -3.5693217508218300E-002  0.11311852767748916        0.0000000000000000     
  -3.6656615966723705E-002  0.12015489940233058        0.0000000000000000     
  -3.7570827782459792E-002  0.12733060662007381        0.0000000000000000     
  -3.8435852955426543E-002  0.13464564933071876        0.0000000000000000     
  -3.9915462890191600E-002  0.10655163169122572        0.0000000000000000     
  -4.1074852321323491E-002  0.11343471801849342        0.0000000000000000     
  -4.2178098492036048E-002  0.12045592717247557        0.0000000000000000     
  -4.3225201402329237E-002  0.12761525915317218        0.0000000000000000     
  -4.4216161052203093E-002  0.13491271396058324        0.0000000000000000     
  -2.1629846398285649E-002  0.13407378155750885        0.0000000000000000     
  -2.2092860754983751E-002  0.14155189019280778        0.0000000000000000     
  -2.2528705470878912E-002  0.14913976902377193        0.0000000000000000     
  -2.2937380545971126E-002  0.15683741805040124        0.0000000000000000     
  -2.3318885980260395E-002  0.16464483727269583        0.0000000000000000     
  -2.7142695628467824E-002  0.13422618312918155        0.0000000000000000     
  -2.7723123521889124E-002  0.14169404582081285        0.0000000000000000     
  -2.8269832341553440E-002  0.14927150566481695        0.0000000000000000     
  -2.8782822087460771E-002  0.15695856266119390        0.0000000000000000     
  -2.9262092759611120E-002  0.16475521680994368        0.0000000000000000     
  -3.2744697814181455E-002  0.13441680572025153        0.0000000000000000     
  -3.3443289668486809E-002  0.14187179256898988        0.0000000000000000     
  -3.4101935254481609E-002  0.14943630027122889        0.0000000000000000     
  -3.4720634572165870E-002  0.15711032882696849        0.0000000000000000     
  -3.5299387621539557E-002  0.16489387823620866        0.0000000000000000     
  -3.8435852955426543E-002  0.13464564933071876        0.0000000000000000     
  -3.9253359194776814E-002  0.14208513043733892        0.0000000000000000     
  -4.0025014209663437E-002  0.14963415284300766        0.0000000000000000     
  -4.0750818000086397E-002  0.15729271654772489        0.0000000000000000     
  -4.1430770566045716E-002  0.16506082155149077        0.0000000000000000     
  -4.4216161052203093E-002  0.13491271396058324        0.0000000000000000     
  -4.5153332100759128E-002  0.14233405942585986        0.0000000000000000     
  -4.6039069207098895E-002  0.14986506338015324        0.0000000000000000     
  -4.6873372371222383E-002  0.15750572582346326        0.0000000000000000     
  -4.7656241593129589E-002  0.16525604675579003        0.0000000000000000     
  -2.3318885980260395E-002  0.16464483727269583        0.0000000000000000     
  -2.3671643905187865E-002  0.17255141903153437        0.0000000000000000     
  -2.3994076452194681E-002  0.18054655566779573        0.0000000000000000     
  -2.4286183621280849E-002  0.18863024718147989        0.0000000000000000     
  -2.4547965412446356E-002  0.19680249357258689        0.0000000000000000     
  -2.9262092759611120E-002  0.16475521680994368        0.0000000000000000     
  -2.9705756735690401E-002  0.17265105594362035        0.0000000000000000     
  -3.0111926393384541E-002  0.18063566789477797        0.0000000000000000     
  -3.0480601732693537E-002  0.18870905266341667        0.0000000000000000     
  -3.0811782753617387E-002  0.19687121024953638        0.0000000000000000     
  -3.5299387621539557E-002  0.16489387823620866        0.0000000000000000     
  -3.5836078091532421E-002  0.17277663697098514        0.0000000000000000     
  -3.6328589671074170E-002  0.18074829350333355        0.0000000000000000     
  -3.6776922360164790E-002  0.18880884783325391        0.0000000000000000     
  -3.7181076158804303E-002  0.19695829996074629        0.0000000000000000     
  -4.1430770566045716E-002  0.16506082155149077        0.0000000000000000     
  -4.2062607972713925E-002  0.17292816211362871        0.0000000000000000     
  -4.2644066285263564E-002  0.18088443249346237        0.0000000000000000     
  -4.3175145503694626E-002  0.18892963269099167        0.0000000000000000     
  -4.3655845628007117E-002  0.19706376270621664        0.0000000000000000     
  -4.7656241593129589E-002  0.16525604675579003        0.0000000000000000     
  -4.8385346379234917E-002  0.17310563137155116        0.0000000000000000     
  -4.9058356235952727E-002  0.18104408486516446        0.0000000000000000     
  -4.9675271163283033E-002  0.18907140723662985        0.0000000000000000     
  -5.0236091161225828E-002  0.19718759848594741        0.0000000000000000     
  -2.4547965412446356E-002  0.19680249357258689        0.0000000000000000     
  -2.4779989399650516E-002  0.20504764288954491        0.0000000000000000     
  -2.4982823156852609E-002  0.21335004318078232        0.0000000000000000     
  -2.5156466684052640E-002  0.22170969444629907        0.0000000000000000     
  -2.5300919981250610E-002  0.23012659668609520        0.0000000000000000     
  -3.0811782753617387E-002  0.19687121024953638        0.0000000000000000     
  -3.1105730352167241E-002  0.20510815909583799        0.0000000000000000     
  -3.1362705424354244E-002  0.21340591764502242        0.0000000000000000     
  -3.1582707970178404E-002  0.22176448589708966        0.0000000000000000     
  -3.1765737989639713E-002  0.23018386385203976        0.0000000000000000     
  -3.7181076158804303E-002  0.19695829996074629        0.0000000000000000     
  -3.7540738915308063E-002  0.20518439222536797        0.0000000000000000     
  -3.7855598477991421E-002  0.21347486696667622        0.0000000000000000     
  -3.8125654846854394E-002  0.22182972418467112        0.0000000000000000     
  -3.8350908021896966E-002  0.23024896387935256        0.0000000000000000     
  -4.3655845628007117E-002  0.19706376270621664        0.0000000000000000     
  -4.4085015089072976E-002  0.20527634227813482        0.0000000000000000     
  -4.4461502317764134E-002  0.21355689114574372        0.0000000000000000     
  -4.4785307314080612E-002  0.22190540930904334        0.0000000000000000     
  -4.5056430078022368E-002  0.23032189676803366        0.0000000000000000     
  -5.0236091161225828E-002  0.19718759848594741        0.0000000000000000     
  -5.0738558873461986E-002  0.20538400925413861        0.0000000000000000     
  -5.1180416943672410E-002  0.21365199018222494        0.0000000000000000     
  -5.1561665371857038E-002  0.22199154127020643        0.0000000000000000     
  -5.1882304158015931E-002  0.23040266251808300        0.0000000000000000     
  -2.5300919981250610E-002  0.23012659668609520        0.0000000000000000     
  -2.5422504747718979E-002  0.23857335824104636        0.0000000000000000     
  -2.5527542682730223E-002  0.24702258745202835        0.0000000000000000     
  -2.5616033786284326E-002  0.25547428431904123        0.0000000000000000     
  -2.5687978058381303E-002  0.26392844884208494        0.0000000000000000     
  -3.1765737989639713E-002  0.23018386385203976        0.0000000000000000     
  -3.1919743205454272E-002  0.23863924006697232        0.0000000000000000     
  -3.2052671340338179E-002  0.24710580309898700        0.0000000000000000     
  -3.2164522394291427E-002  0.25558355294808388        0.0000000000000000     
  -3.2255296367314036E-002  0.26407248961426294        0.0000000000000000     
  -3.8350908021896966E-002  0.23024896387935256        0.0000000000000000     
  -3.8540142193171659E-002  0.23871181300864686        0.0000000000000000     
  -3.8702141550731012E-002  0.24719749853048009        0.0000000000000000     
  -3.8836906094574991E-002  0.25570602044485224        0.0000000000000000     
  -3.8944435824703631E-002  0.26423737875176340        0.0000000000000000     
  -4.5056430078022368E-002  0.23032189676803366        0.0000000000000000     
  -4.5283701710871170E-002  0.23879107706607000        0.0000000000000000     
  -4.5475953313908718E-002  0.24729767374650752        0.0000000000000000     
  -4.5633184887135025E-002  0.25584168680934632        0.0000000000000000     
  -4.5755396430550113E-002  0.26442311625458631        0.0000000000000000     
  -5.1882304158015931E-002  0.23040266251808300        0.0000000000000000     
  -5.2150421758552772E-002  0.23887703223924173        0.0000000000000000     
  -5.2374106629871318E-002  0.24740632874706939        0.0000000000000000     
  -5.2553358771971544E-002  0.25599055204156607        0.0000000000000000     
  -5.2688178184853461E-002  0.26462970212273168        0.0000000000000000     
  -2.5687978058381303E-002  0.26392844884208494        0.0000000000000000     
  -2.5755549716840291E-002  0.27232992850187449        0.0000000000000000     
  -2.5830922979480465E-002  0.28062357077912492        0.0000000000000000     
  -2.5914097846301800E-002  0.28880937567383608        0.0000000000000000     
  -2.6005074317304314E-002  0.29688734318600823        0.0000000000000000     
  -3.2255296367314036E-002  0.26407248961426294        0.0000000000000000     
  -3.2339792688055209E-002  0.27251971175968887        0.0000000000000000     
  -3.2432810785164197E-002  0.28087231804652646        0.0000000000000000     
  -3.2534350658640986E-002  0.28913030847477561        0.0000000000000000     
  -3.2644412308485582E-002  0.29729368304443649        0.0000000000000000     
  -3.8944435824703631E-002  0.26423737875176340        0.0000000000000000     
  -3.9043515251245296E-002  0.27274040803893612        0.0000000000000000     
  -3.9152928884328392E-002  0.28116394289409308        0.0000000000000000     
  -3.9272676723952897E-002  0.28950798331723437        0.0000000000000000     
  -3.9402758770118826E-002  0.29777252930835985        0.0000000000000000     
  -4.5755396430550113E-002  0.26442311625458631        0.0000000000000000     
  -4.5866717406410580E-002  0.27299201733961620        0.0000000000000000     
  -4.5991277276973046E-002  0.28149844532182489        0.0000000000000000     
  -4.6129076042237531E-002  0.28994240020121220        0.0000000000000000     
  -4.6280113702204043E-002  0.29832388197777826        0.0000000000000000     
  -5.2688178184853461E-002  0.26462970212273168        0.0000000000000000     
  -5.2809399153551019E-002  0.27327453966172932        0.0000000000000000     
  -5.2947855963098159E-002  0.28187582532972189        0.0000000000000000     
  -5.3103548613494894E-002  0.29043355912670932        0.0000000000000000     
  -5.3276477104741218E-002  0.29894774105269173        0.0000000000000000     
  -2.8946708911578318E-002   5.7196556851401070E-002   0.0000000000000000     
  -3.0536168186197969E-002   6.2720503074416789E-002   0.0000000000000000     
  -3.2053094861449326E-002   6.8443168349271707E-002   0.0000000000000000     
  -3.3497488937332405E-002   7.4364552675965798E-002   0.0000000000000000     
  -3.4869350413847179E-002   8.0484656054499046E-002   0.0000000000000000     
  -3.2919896494478650E-002   5.7663153412138998E-002   0.0000000000000000     
  -3.4708334400775392E-002   6.3198385751200764E-002   0.0000000000000000     
  -3.6415073150905558E-002   6.8922276284590953E-002   0.0000000000000000     
  -3.8040112744869140E-002   7.4834825012309564E-002   0.0000000000000000     
  -3.9583453182666123E-002   8.0936031934356611E-002   0.0000000000000000     
  -3.7044171356170129E-002   5.8207315782322452E-002   0.0000000000000000     
  -3.9030543858111541E-002   6.3736409299235672E-002   0.0000000000000000     
  -4.0925899839380241E-002   6.9449708445920855E-002   0.0000000000000000     
  -4.2730239299976214E-002   7.5347213222378001E-002   0.0000000000000000     
  -4.4443562239899481E-002   8.1428923628607111E-002   0.0000000000000000     
  -4.1319533496652766E-002   5.8829043961951412E-002   0.0000000000000000     
  -4.3502796558206394E-002   6.4334573718521540E-002   0.0000000000000000     
  -4.5585574926873360E-002   7.0025464833261414E-002   0.0000000000000000     
  -4.7567868602653642E-002   7.5901717306171096E-002   0.0000000000000000     
  -4.9449677585547240E-002   8.1963331137250545E-002   0.0000000000000000     
  -4.5745982915926547E-002   5.9528337951025898E-002   0.0000000000000000     
  -4.8125092501059973E-002   6.4992879009058341E-002   0.0000000000000000     
  -5.0394098413384922E-002   7.0649545446612644E-002   0.0000000000000000     
  -5.2553000652901395E-002   7.6498337263688862E-002   0.0000000000000000     
  -5.4601799219609393E-002   8.2539254460286926E-002   0.0000000000000000     
  -3.4869350413847179E-002   8.0484656054499046E-002   0.0000000000000000     
  -3.6186428826241679E-002   8.6778439210134117E-002   0.0000000000000000     
  -3.7466473709763928E-002   9.3220862868133580E-002   0.0000000000000000     
  -3.8709485064413893E-002   9.9811927028497449E-002   0.0000000000000000     
  -3.9915462890191600E-002  0.10655163169122572        0.0000000000000000     
  -3.9583453182666123E-002   8.0936031934356611E-002   0.0000000000000000     
  -4.1065367262360243E-002   8.7207016263945322E-002   0.0000000000000000     
  -4.2506127782015159E-002   9.3628897214288923E-002   0.0000000000000000     
  -4.3905734741630911E-002  0.10020167478538744        0.0000000000000000     
  -4.5264188141207473E-002  0.10692534897724083        0.0000000000000000     
  -4.4443562239899481E-002   8.1428923628607111E-002   0.0000000000000000     
  -4.6088857991311558E-002   8.7678769494942993E-002   0.0000000000000000     
  -4.7689115886373985E-002   9.4080680651720455E-002   0.0000000000000000     
  -4.9244335925086764E-002  0.10063465709893948        0.0000000000000000     
  -5.0754518107449909E-002  0.10734069883660009        0.0000000000000000     
  -4.9449677585547240E-002   8.1963331137250545E-002   0.0000000000000000     
  -5.1256901013095657E-002   8.8193698903127130E-002   0.0000000000000000     
  -5.3015438022840401E-002   9.4576213180428123E-002   0.0000000000000000     
  -5.4725288614781480E-002  0.10111087396915357        0.0000000000000000     
  -5.6386452788918871E-002  0.10779768126930346        0.0000000000000000     
  -5.4601799219609393E-002   8.2539254460286926E-002   0.0000000000000000     
  -5.6569496327712535E-002   8.8751804488497690E-002   0.0000000000000000     
  -5.8485094191414413E-002   9.5115494800411968E-002   0.0000000000000000     
  -6.0348592810715015E-002  0.10163032539602972        0.0000000000000000     
  -6.2159992185614389E-002  0.10829629627535099        0.0000000000000000     
  -3.9915462890191600E-002  0.10655163169122572        0.0000000000000000     
  -4.1074852321323491E-002  0.11343471801849342        0.0000000000000000     
  -4.2178098492036048E-002  0.12045592717247557        0.0000000000000000     
  -4.3225201402329237E-002  0.12761525915317218        0.0000000000000000     
  -4.4216161052203093E-002  0.13491271396058324        0.0000000000000000     
  -4.5264188141207473E-002  0.10692534897724083        0.0000000000000000     
  -4.6570562287327165E-002  0.11379293218822389        0.0000000000000000     
  -4.7813931486572300E-002  0.12079743681671141        0.0000000000000000     
  -4.8994295738942858E-002  0.12793886286270337        0.0000000000000000     
  -5.0111655044438860E-002  0.13521721032619977        0.0000000000000000     
  -5.0754518107449909E-002  0.10734069883660009        0.0000000000000000     
  -5.2207381158379355E-002  0.11419085776796881        0.0000000000000000     
  -5.3590643802791132E-002  0.12117718579631223        0.0000000000000000     
  -5.4904306040685226E-002  0.12829968292163035        0.0000000000000000     
  -5.6148367872061622E-002  0.13555834914392312        0.0000000000000000     
  -5.6386452788918871E-002  0.10779768126930346        0.0000000000000000     
  -5.7985308934480062E-002  0.11462849475772817        0.0000000000000000     
  -5.9508235440692551E-002  0.12159517411127803        0.0000000000000000     
  -6.0955232307556319E-002  0.12869771932995308        0.0000000000000000     
  -6.2326299535071378E-002  0.13593613041375324        0.0000000000000000     
  -6.2159992185614389E-002  0.10829629627535099        0.0000000000000000     
  -6.3904345615629299E-002  0.11510584315750196        0.0000000000000000     
  -6.5566706400276564E-002  0.12205140176160881        0.0000000000000000     
  -6.7147074539556165E-002  0.12913297208767158        0.0000000000000000     
  -6.8645450033468114E-002  0.13635055413569025        0.0000000000000000     
  -4.4216161052203093E-002  0.13491271396058324        0.0000000000000000     
  -4.5153332100759128E-002  0.14233405942585986        0.0000000000000000     
  -4.6039069207098895E-002  0.14986506338015324        0.0000000000000000     
  -4.6873372371222383E-002  0.15750572582346326        0.0000000000000000     
  -4.7656241593129589E-002  0.16525604675579003        0.0000000000000000     
  -5.0111655044438860E-002  0.13521721032619977        0.0000000000000000     
  -5.1169173490955920E-002  0.14261886978181232        0.0000000000000000     
  -5.2170015166389631E-002  0.15013023180415278        0.0000000000000000     
  -5.3114180070740008E-002  0.15775129639322114        0.0000000000000000     
  -5.4001668204007036E-002  0.16548206354901734        0.0000000000000000     
  -5.6148367872061622E-002  0.13555834914392312        0.0000000000000000     
  -5.7326848469889315E-002  0.14293985175245574        0.0000000000000000     
  -5.8443767007137243E-002  0.15043085803649336        0.0000000000000000     
  -5.9499123483805462E-002  0.15803136799603604        0.0000000000000000     
  -6.0492917899893917E-002  0.16574138163108373        0.0000000000000000     
  -6.2326299535071378E-002  0.13593613041375324        0.0000000000000000     
  -6.3626357037559325E-002  0.14329700533779008        0.0000000000000000     
  -6.4860324729341792E-002  0.15076694207717500        0.0000000000000000     
  -6.6028202610418738E-002  0.15834594063190804        0.0000000000000000     
  -6.7129990680790216E-002  0.16603400100198915        0.0000000000000000     
  -6.8645450033468114E-002  0.13635055413569025        0.0000000000000000     
  -7.0067699193965965E-002  0.14369033053781544        0.0000000000000000     
  -7.1419688333003217E-002  0.15113848392619772        0.0000000000000000     
  -7.2701417450579883E-002  0.15869501430083710        0.0000000000000000     
  -7.3912886546695963E-002  0.16635992166173358        0.0000000000000000     
  -4.7656241593129589E-002  0.16525604675579003        0.0000000000000000     
  -4.8385346379234917E-002  0.17310563137155116        0.0000000000000000     
  -4.9058356235952727E-002  0.18104408486516446        0.0000000000000000     
  -4.9675271163283033E-002  0.18907140723662985        0.0000000000000000     
  -5.0236091161225828E-002  0.19718759848594741        0.0000000000000000     
  -5.4001668204007036E-002  0.16548206354901734        0.0000000000000000     
  -5.4830127785444834E-002  0.17331210917378889        0.0000000000000000     
  -5.5597207034307469E-002  0.18123100916978324        0.0000000000000000     
  -5.6302905950594950E-002  0.18923876353700025        0.0000000000000000     
  -5.6947224534307284E-002  0.19733537227544012        0.0000000000000000     
  -6.0492917899893917E-002  0.16574138163108373        0.0000000000000000     
  -6.1422786665693133E-002  0.17355065994937841        0.0000000000000000     
  -6.2286366191493615E-002  0.18144896395866206        0.0000000000000000     
  -6.3083656477295330E-002  0.18943629365893466        0.0000000000000000     
  -6.3814657523098325E-002  0.19751264905019628        0.0000000000000000     
  -6.7129990680790216E-002  0.16603400100198915        0.0000000000000000     
  -6.8163323019979821E-002  0.17382128369831965        0.0000000000000000     
  -6.9125833707511117E-002  0.18169794923180096        0.0000000000000000     
  -7.0017522743384186E-002  0.18966399760243302        0.0000000000000000     
  -7.0838390127598946E-002  0.19771942881021587        0.0000000000000000     
  -7.3912886546695963E-002  0.16635992166173358        0.0000000000000000     
  -7.5051736848304879E-002  0.17412398042061270        0.0000000000000000     
  -7.6115609582360050E-002  0.18197796498919994        0.0000000000000000     
  -7.7104504748861477E-002  0.18992187536749536        0.0000000000000000     
  -7.8018422347809174E-002  0.19795571155549893        0.0000000000000000     
  -5.0236091161225828E-002  0.19718759848594741        0.0000000000000000     
  -5.0738558873461986E-002  0.20538400925413861        0.0000000000000000     
  -5.1180416943672410E-002  0.21365199018222494        0.0000000000000000     
  -5.1561665371857038E-002  0.22199154127020643        0.0000000000000000     
  -5.1882304158015931E-002  0.23040266251808300        0.0000000000000000     
  -5.6947224534307284E-002  0.19733537227544012        0.0000000000000000     
  -5.7527173171752669E-002  0.20551366020559991        0.0000000000000000     
  -5.8039762249239325E-002  0.21376645214797685        0.0000000000000000     
  -5.8484991766767261E-002  0.22209374810257096        0.0000000000000000     
  -5.8862861724336454E-002  0.23049554806938222        0.0000000000000000     
  -6.3814657523098325E-002  0.19751264905019628        0.0000000000000000     
  -6.4476660887222578E-002  0.20567156218473934        0.0000000000000000     
  -6.5066958127988045E-002  0.21390656511485648        0.0000000000000000     
  -6.5585549245394809E-002  0.22221765784054759        0.0000000000000000     
  -6.6032434239442800E-002  0.23060484036181278        0.0000000000000000     
  -7.0838390127598946E-002  0.19771942881021587        0.0000000000000000     
  -7.1587022019871660E-002  0.20585771519155699        0.0000000000000000     
  -7.2262004579918590E-002  0.21407232908286383        0.0000000000000000     
  -7.2863337807739681E-002  0.22236327048413645        0.0000000000000000     
  -7.3391021703334947E-002  0.23073053939537480        0.0000000000000000     
  -7.8018422347809174E-002  0.19795571155549893        0.0000000000000000     
  -7.8858256569700025E-002  0.20607211922605276        0.0000000000000000     
  -7.9624901605030926E-002  0.21426374405199888        0.0000000000000000     
  -8.0318357453801892E-002  0.22253058603333736        0.0000000000000000     
  -8.0938624116012881E-002  0.23087264517006820        0.0000000000000000     
  -5.1882304158015931E-002  0.23040266251808300        0.0000000000000000     
  -5.2150421758552772E-002  0.23887703223924173        0.0000000000000000     
  -5.2374106629871318E-002  0.24740632874706939        0.0000000000000000     
  -5.2553358771971544E-002  0.25599055204156607        0.0000000000000000     
  -5.2688178184853461E-002  0.26462970212273168        0.0000000000000000     
  -5.8862861724336454E-002  0.23049554806938222        0.0000000000000000     
  -5.9179436732446633E-002  0.23897110546808903        0.0000000000000000     
  -5.9440781401597476E-002  0.24751967371836975        0.0000000000000000     
  -5.9646895731788982E-002  0.25614125282022449        0.0000000000000000     
  -5.9797779723021159E-002  0.26483584277365302        0.0000000000000000     
  -6.6032434239442800E-002  0.23060484036181278        0.0000000000000000     
  -6.6409881028782883E-002  0.23907472369253885        0.0000000000000000     
  -6.6720157532065907E-002  0.24763391884661273        0.0000000000000000     
  -6.6963263749291832E-002  0.25628242582403432        0.0000000000000000     
  -6.7139199680460698E-002  0.26502024462480378        0.0000000000000000     
  -7.3391021703334947E-002  0.23073053939537480        0.0000000000000000     
  -7.3841754647561542E-002  0.23918788691259130        0.0000000000000000     
  -7.4212235021276579E-002  0.24774906413179831        0.0000000000000000     
  -7.4502462824480115E-002  0.25641407105299591        0.0000000000000000     
  -7.4712438057172093E-002  0.26518290767618397        0.0000000000000000     
  -8.0938624116012881E-002  0.23087264517006820        0.0000000000000000     
  -8.1475057588782568E-002  0.23931059512824626        0.0000000000000000     
  -8.1917013869229532E-002  0.24786510957392652        0.0000000000000000     
  -8.2264492957353760E-002  0.25653618850710891        0.0000000000000000     
  -8.2517494853155293E-002  0.26532383192779352        0.0000000000000000     
  -5.2688178184853461E-002  0.26462970212273168        0.0000000000000000     
  -5.2809399153551019E-002  0.27327453966172932        0.0000000000000000     
  -5.2947855963098159E-002  0.28187582532972189        0.0000000000000000     
  -5.3103548613494894E-002  0.29043355912670932        0.0000000000000000     
  -5.3276477104741218E-002  0.29894774105269173        0.0000000000000000     
  -5.9797779723021159E-002  0.26483584277365302        0.0000000000000000     
  -5.9930315755480343E-002  0.27355926644553663        0.0000000000000000     
  -6.0081386209352834E-002  0.28226734670275611        0.0000000000000000     
  -6.0250991084638654E-002  0.29096008354531167        0.0000000000000000     
  -6.0439130381337788E-002  0.29963747697320309        0.0000000000000000     
  -6.7139199680460698E-002  0.26502024462480378        0.0000000000000000     
  -6.7288222475012233E-002  0.27381748913129955        0.0000000000000000     
  -6.7450589282386161E-002  0.28264427322589997        0.0000000000000000     
  -6.7626300102582484E-002  0.29150059690860514        0.0000000000000000     
  -6.7815354935601202E-002  0.30038646017941506        0.0000000000000000     
  -7.4712438057172093E-002  0.26518290767618397        0.0000000000000000     
  -7.4883119312146695E-002  0.27404920771901792        0.0000000000000000     
  -7.5055465182198119E-002  0.28300660489915325        0.0000000000000000     
  -7.5229475667326379E-002  0.29205509921658984        0.0000000000000000     
  -7.5405150767531431E-002  0.30119469067132776        0.0000000000000000     
  -8.2517494853155293E-002  0.26532383192779352        0.0000000000000000     
  -8.2715006266883731E-002  0.27425442220869201        0.0000000000000000     
  -8.2896013908788743E-002  0.28335434172251606        0.0000000000000000     
  -8.3060517778870330E-002  0.29262359046926578        0.0000000000000000     
  -8.3208517877128491E-002  0.30206216844894107        0.0000000000000000     
  -4.5745982915926547E-002   5.9528337951025898E-002   0.0000000000000000     
  -4.8125092501059973E-002   6.4992879009058341E-002   0.0000000000000000     
  -5.0394098413384922E-002   7.0649545446612644E-002   0.0000000000000000     
  -5.2553000652901395E-002   7.6498337263688862E-002   0.0000000000000000     
  -5.4601799219609393E-002   8.2539254460286926E-002   0.0000000000000000     
  -5.0343620814555783E-002   6.0281777604242012E-002   0.0000000000000000     
  -5.2916521651303609E-002   6.5706352689726605E-002   0.0000000000000000     
  -5.5370499766500048E-002   7.1328791786768070E-002   0.0000000000000000     
  -5.7705555160145111E-002   7.7149094895366421E-002   0.0000000000000000     
  -5.9921687832238779E-002   8.3167262015521645E-002   0.0000000000000000     
  -5.5132548393104816E-002   6.1065942776295901E-002   0.0000000000000000     
  -5.7896173973568672E-002   6.6470022279406876E-002   0.0000000000000000     
  -6.0533808453803843E-002   7.2070045354521245E-002   0.0000000000000000     
  -6.3045451833810356E-002   7.7866012001638979E-002   0.0000000000000000     
  -6.5431104113588212E-002   8.3857922220760092E-002   0.0000000000000000     
  -6.0112765651573613E-002   6.1880833467187542E-002   0.0000000000000000     
  -6.3064049467855141E-002   6.7283887778099141E-002   0.0000000000000000     
  -6.5884024475296302E-002   7.2873306149872127E-002   0.0000000000000000     
  -6.8572690673897180E-002   7.8649088582506507E-002   0.0000000000000000     
  -7.1130048063657678E-002   8.4611235076002295E-002   0.0000000000000000     
  -6.5284272589962208E-002   6.2726449676916957E-002   0.0000000000000000     
  -6.8420148134163028E-002   6.8147949185803414E-002   0.0000000000000000     
  -7.1421147830977458E-002   7.3738574172820759E-002   0.0000000000000000     
  -7.4287271680405512E-002   7.9498324637969034E-002   0.0000000000000000     
  -7.7018519682447176E-002   8.5427200581248225E-002   0.0000000000000000     
  -5.4601799219609393E-002   8.2539254460286926E-002   0.0000000000000000     
  -5.6569496327712535E-002   8.8751804488497690E-002   0.0000000000000000     
  -5.8485094191414413E-002   9.5115494800411968E-002   0.0000000000000000     
  -6.0348592810715015E-002  0.10163032539602972        0.0000000000000000     
  -6.2159992185614389E-002  0.10829629627535099        0.0000000000000000     
  -5.9921687832238779E-002   8.3167262015521645E-002   0.0000000000000000     
  -6.2050437814126162E-002   8.9359585449318768E-002   0.0000000000000000     
  -6.4123345137152343E-002   9.5702357498842774E-002   0.0000000000000000     
  -6.6140409801317315E-002  0.10219557816409372        0.0000000000000000     
  -6.8101631806621085E-002  0.10883924744507156        0.0000000000000000     
  -6.5431104113588212E-002   8.3857922220760092E-002   0.0000000000000000     
  -6.7723519351300554E-002   9.0023540983854330E-002   0.0000000000000000     
  -6.9955451605110575E-002   9.6340633262891398E-002   0.0000000000000000     
  -7.2126900875018274E-002  0.10280919905787134        0.0000000000000000     
  -7.4237867161023638E-002  0.10942923836879410        0.0000000000000000     
  -7.1130048063657678E-002   8.4611235076002295E-002   0.0000000000000000     
  -7.3588740939235703E-002   9.0743671092104405E-002   0.0000000000000000     
  -7.5981413595289107E-002   9.7030322092557852E-002   0.0000000000000000     
  -7.8308066031817877E-002  0.10347118807736262        0.0000000000000000     
  -8.0568698248822027E-002  0.11006626904651867        0.0000000000000000     
  -7.7018519682447176E-002   8.5427200581248225E-002   0.0000000000000000     
  -7.9646102577931602E-002   9.1519975774069007E-002   0.0000000000000000     
  -8.2201231107687914E-002   9.7771423987842110E-002   0.0000000000000000     
  -8.4683905271716126E-002  0.10418154522256751        0.0000000000000000     
  -8.7094125070016237E-002  0.11075033947824520        0.0000000000000000     
  -6.2159992185614389E-002  0.10829629627535099        0.0000000000000000     
  -6.3904345615629299E-002  0.11510584315750196        0.0000000000000000     
  -6.5566706400276564E-002  0.12205140176160881        0.0000000000000000     
  -6.7147074539556165E-002  0.12913297208767158        0.0000000000000000     
  -6.8645450033468114E-002  0.13635055413569025        0.0000000000000000     
  -6.8101631806621085E-002  0.10883924744507156        0.0000000000000000     
  -6.9990956356680248E-002  0.11562619098765244        0.0000000000000000     
  -7.1792328655111370E-002  0.12254923443771244        0.0000000000000000     
  -7.3505748701914439E-002  0.12960837779525164        0.0000000000000000     
  -7.5131216497089495E-002  0.13680362106027000        0.0000000000000000     
  -7.4237867161023638E-002  0.10942923836879410        0.0000000000000000     
  -7.6271606312486140E-002  0.11619282626854191        0.0000000000000000     
  -7.8211374178765211E-002  0.12309203782999691        0.0000000000000000     
  -8.0057170759860879E-002  0.13012687305315906        0.0000000000000000     
  -8.1808996055773103E-002  0.13729733193802840        0.0000000000000000     
  -8.0568698248822027E-002  0.11006626904651867        0.0000000000000000     
  -8.2746295483046961E-002  0.11680574900017038        0.0000000000000000     
  -8.4823842971238086E-002  0.12367981193846207        0.0000000000000000     
  -8.6801340713395417E-002  0.13068845786139380        0.0000000000000000     
  -8.8678788709518966E-002  0.13783168676896548        0.0000000000000000     
  -8.7094125070016237E-002  0.11075033947824520        0.0000000000000000     
  -8.9415023868362697E-002  0.11746495918253784        0.0000000000000000     
  -9.1629735032529996E-002  0.12431255676310807        0.0000000000000000     
  -9.3738258562518120E-002  0.13129313221995589        0.0000000000000000     
  -9.5740594458327083E-002  0.13840668555308128        0.0000000000000000     
  -6.8645450033468114E-002  0.13635055413569025        0.0000000000000000     
  -7.0067699193965965E-002  0.14369033053781544        0.0000000000000000     
  -7.1419688333003217E-002  0.15113848392619772        0.0000000000000000     
  -7.2701417450579883E-002  0.15869501430083710        0.0000000000000000     
  -7.3912886546695963E-002  0.16635992166173358        0.0000000000000000     
  -7.5131216497089495E-002  0.13680362106027000        0.0000000000000000     
  -7.6675473097683175E-002  0.14412085234217997        0.0000000000000000     
  -7.8145259560742239E-002  0.15154595975039403        0.0000000000000000     
  -7.9540575886266632E-002  0.15907894328491215        0.0000000000000000     
  -8.0861422074256395E-002  0.16671980294573441        0.0000000000000000     
  -8.1808996055773103E-002  0.13729733193802840        0.0000000000000000     
  -8.3474276907284969E-002  0.14458959574053193        0.0000000000000000     
  -8.5060440155179537E-002  0.15198984571659652        0.0000000000000000     
  -8.6567485799456820E-002  0.15949808186622225        0.0000000000000000     
  -8.7995413840116776E-002  0.16711430418940898        0.0000000000000000     
  -8.8678788709518966E-002  0.13783168676896548        0.0000000000000000     
  -9.0464110622771335E-002  0.14509656073287128        0.0000000000000000     
  -9.2165230116315139E-002  0.15247014182480514        0.0000000000000000     
  -9.3782147190150406E-002  0.15995243004476714        0.0000000000000000     
  -9.5314861844277121E-002  0.16754342539275727        0.0000000000000000     
  -9.5740594458327083E-002  0.13840668555308128        0.0000000000000000     
  -9.7644974244142257E-002  0.14564174731919807        0.0000000000000000     
  -9.9459629444149017E-002  0.15298684807502000        0.0000000000000000     
 -0.10118456005834742       0.16044198782054708        0.0000000000000000     
 -0.10281976608673743       0.16800716655577935        0.0000000000000000     
  -7.3912886546695963E-002  0.16635992166173358        0.0000000000000000     
  -7.5051736848304879E-002  0.17412398042061270        0.0000000000000000     
  -7.6115609582360050E-002  0.18197796498919994        0.0000000000000000     
  -7.7104504748861477E-002  0.18992187536749536        0.0000000000000000     
  -7.8018422347809174E-002  0.19795571155549893        0.0000000000000000     
  -8.0861422074256395E-002  0.16671980294573441        0.0000000000000000     
  -8.2105706505175485E-002  0.17445979404713607        0.0000000000000000     
  -8.3271337559487818E-002  0.18229017190339264        0.0000000000000000     
  -8.4358315237193462E-002  0.19021093651450402        0.0000000000000000     
  -8.5366639538292419E-002  0.19822208788047027        0.0000000000000000     
  -8.7995413840116776E-002  0.16711430418940898        0.0000000000000000     
  -8.9342910345098753E-002  0.17482976850876858        0.0000000000000000     
  -9.0608661382341915E-002  0.18263573064691266        0.0000000000000000     
  -9.1792666951846402E-002  0.19053219060384136        0.0000000000000000     
  -9.2894927053612145E-002  0.19851914837955456        0.0000000000000000     
  -9.5314861844277121E-002  0.16754342539275727        0.0000000000000000     
  -9.6763348368074653E-002  0.17523390380551010        0.0000000000000000     
  -9.8127581050922383E-002  0.18301464121976010        0.0000000000000000     
  -9.9407559892820269E-002  0.19088563763550739        0.0000000000000000     
 -0.10060328489376834       0.19884689305275194        0.0000000000000000     
 -0.10281976608673743       0.16800716655577935        0.0000000000000000     
 -0.10436702057410326       0.17567219993736066        0.0000000000000000     
 -0.10582809656522912       0.18342690362193492        0.0000000000000000     
 -0.10720299406011503       0.19127127760950219        0.0000000000000000     
 -0.10849171305876099       0.19920532190006235        0.0000000000000000     
  -7.8018422347809174E-002  0.19795571155549893        0.0000000000000000     
  -7.8858256569700025E-002  0.20607211922605276        0.0000000000000000     
  -7.9624901605030926E-002  0.21426374405199888        0.0000000000000000     
  -8.0318357453801892E-002  0.22253058603333736        0.0000000000000000     
  -8.0938624116012881E-002  0.23087264517006820        0.0000000000000000     
  -8.5366639538292419E-002  0.19822208788047027        0.0000000000000000     
  -8.6299599010612210E-002  0.20631557154821814        0.0000000000000000     
  -8.7160482201980430E-002  0.21448333306467460        0.0000000000000000     
  -8.7949289112397036E-002  0.22272537242983964        0.0000000000000000     
  -8.8666019741862070E-002  0.23104168964371330        0.0000000000000000     
  -9.2894927053612145E-002  0.19851914837955456        0.0000000000000000     
  -9.3920283816512920E-002  0.20658886941804469        0.0000000000000000     
  -9.4873579369422451E-002  0.21473361916330391        0.0000000000000000     
  -9.5754813712340778E-002  0.22295339761533245        0.0000000000000000     
  -9.6563986845267888E-002  0.23124820477413016        0.0000000000000000     
 -0.10060328489376834       0.19884689305275194        0.0000000000000000     
 -0.10172031098740208       0.20689201283553224        0.0000000000000000     
 -0.10276419310735700       0.21501460234788686        0.0000000000000000     
 -0.10373493125363310       0.22321466158981576        0.0000000000000000     
 -0.10463252542623035       0.23149219056131901        0.0000000000000000     
 -0.10849171305876099       0.19920532190006235        0.0000000000000000     
 -0.10969968052327973       0.20722500180068099        0.0000000000000000     
 -0.11083232341578408       0.21532628261842335        0.0000000000000000     
 -0.11188964173627398       0.22350916435328963        0.0000000000000000     
 -0.11287163548474946       0.23177364700527969        0.0000000000000000     
  -8.0938624116012881E-002  0.23087264517006820        0.0000000000000000     
  -8.1475057588782568E-002  0.23931059512824626        0.0000000000000000     
  -8.1917013869229532E-002  0.24786510957392652        0.0000000000000000     
  -8.2264492957353760E-002  0.25653618850710891        0.0000000000000000     
  -8.2517494853155293E-002  0.26532383192779352        0.0000000000000000     
  -8.8666019741862070E-002  0.23104168964371330        0.0000000000000000     
  -8.9296282023425252E-002  0.23945781839908836        0.0000000000000000     
  -8.9825683890136315E-002  0.24799929238875776        0.0000000000000000     
  -9.0254225341995273E-002  0.25666611161272168        0.0000000000000000     
  -9.0581906379002097E-002  0.26545827607097994        0.0000000000000000     
  -9.6563986845267888E-002  0.23124820477413016        0.0000000000000000     
  -9.7291920122468775E-002  0.23964452678470194        0.0000000000000000     
  -9.7929434898208489E-002  0.24816884979205261        0.0000000000000000     
  -9.8476531172487003E-002  0.25682117379618219        0.0000000000000000     
  -9.8933208945304302E-002  0.26560149879709061        0.0000000000000000     
 -0.10463252542623035       0.23149219056131901        0.0000000000000000     
 -0.10546197188591322       0.23987072028508719        0.0000000000000000     
 -0.10622826689344610       0.24837378178381100        0.0000000000000000     
 -0.10693141044882899       0.25700137505749054        0.0000000000000000     
 -0.10757140255206188       0.26575350010612564        0.0000000000000000     
 -0.11287163548474946       0.23177364700527969        0.0000000000000000     
 -0.11380643731375852       0.24013639890024402        0.0000000000000000     
 -0.11472217987584910       0.24861408836403301        0.0000000000000000     
 -0.11561886317102121       0.25720671539664663        0.0000000000000000     
 -0.11649648719927487       0.26591427999808492        0.0000000000000000     
  -8.2517494853155293E-002  0.26532383192779352        0.0000000000000000     
  -8.2715006266883731E-002  0.27425442220869201        0.0000000000000000     
  -8.2896013908788743E-002  0.28335434172251606        0.0000000000000000     
  -8.3060517778870330E-002  0.29262359046926578        0.0000000000000000     
  -8.3208517877128491E-002  0.30206216844894107        0.0000000000000000     
  -9.0581906379002097E-002  0.26545827607097994        0.0000000000000000     
  -9.0839068939982906E-002  0.27443882483521381        0.0000000000000000     
  -9.1056054963763775E-002  0.28367079697710473        0.0000000000000000     
  -9.1232864450344661E-002  0.29315419249665248        0.0000000000000000     
  -9.1369497399725608E-002  0.30288901139385710        0.0000000000000000     
  -9.8933208945304302E-002  0.26560149879709061        0.0000000000000000     
  -9.9310492932203814E-002  0.27460810783347578        0.0000000000000000     
  -9.9619407848728941E-002  0.28393928394403534        0.0000000000000000     
  -9.9859953694879683E-002  0.29359502712876945        0.0000000000000000     
 -0.10003213047065604       0.30357533738767795        0.0000000000000000     
 -0.10757140255206188       0.26575350010612564        0.0000000000000000     
 -0.10812927824354646       0.27476227120347774        0.0000000000000000     
 -0.10858607256368427       0.28415980262330814        0.0000000000000000     
 -0.10894178551247534       0.29394609436561681        0.0000000000000000     
 -0.10919641708991973       0.30412114643040361        0.0000000000000000     
 -0.11649648719927487       0.26591427999808492        0.0000000000000000     
 -0.11729542487401082       0.27490131494521974        0.0000000000000000     
 -0.11795604910862978       0.28433235301492288        0.0000000000000000     
 -0.11847835990313174       0.29420739420719433        0.0000000000000000     
 -0.11886235725751673       0.30452643852203409        0.0000000000000000     
 </DataArray>
 <DataArray  type="Float64" Name="stress" NumberOfComponents="3" format="ascii">
   6013268867.8489857       -507705173.34520817       -117607884.71851887     
   5792537809.1660881       -348408053.08969212       -93154253.488825217     
   5557949087.3124208       -235303143.40341330       -64587680.905448832     
   5309502702.2880116       -168390444.28629541       -31908166.968382005     
   5047198654.0928297       -147669955.73839426        4884288.3223521896     
   5734772112.3252439       -251491198.81022644        131476000.21212564     
   5503610424.9964314       -165363300.42003560        138534789.89051110     
   5263667169.0590811       -108507297.39162993        150342282.76419613     
   5014942344.5131979       -80923189.725011826        166898478.83318779     
   4757435951.3587742       -82610977.420176268        188203378.09747642     
   5443399631.2752361        860058.06686830521        350660355.64626211     
   5203623777.7051277        14363673.313137054        346246414.09593749     
   4960142450.0887108        15515708.405031443        347216937.58252805     
   4712955648.4259872        4316163.3425590992        353571926.10604489     
   4462063372.7169399       -19234961.874294758        365311379.66647238     
   5139151424.6989565        249348597.28608656        539945181.58390331     
   4892577867.2921772        190772868.10981154        529980619.12746036     
   4647374930.4013100        136765873.98658013        526036283.54955071     
   4403542614.0263672        87327614.916404009        528112174.85018283     
   4161080918.1673226        42458090.899259567        536208293.02934712     
   4822027492.5964088        493974418.84742427        699330478.02502871     
   4570472693.7575836        363864283.96999764        689737404.98506820     
   4325364609.9968977        255243199.35303688        686800320.66525650     
   4086703241.3143506        168111164.99653029        690519225.06560063     
   3854488587.7099400        102468180.90048790        700894118.18610132     
   5047198654.0928297       -147669955.73839426        4884288.3223521896     
   4927743462.7383165       -107857018.41280246        850170.70615145401     
   4806478544.4834757       -74076504.088331938       -329564.42782988277     
   4683403899.3282814       -46328412.765022516        1345082.9203889633     
   4558519527.2727537       -24612744.442828655        5874112.7508195220     
   4757435951.3587742       -82610977.420176268        188203378.09747642     
   4641413718.5369568       -56579641.605680704        180664988.47749048     
   4524463521.6268835       -33641519.418717861        176093323.28762662     
   4406585360.6285629       -13796610.859239817        174488382.52786684     
   4287779235.5419936        2955084.0727336407        175850166.19822276     
   4462063372.7169399       -19234961.874294758        365311379.66647238     
   4349795075.4218216       -6888934.4727101326        355297441.32347900     
   4237480576.8505416        5303088.6749980450        348362569.35849488     
   4125119877.0030951        17341107.568818331        344506763.77153838     
   4012712975.8794827        29225122.208757639        343730024.56259000     
   4161080918.1673226        42458090.899259567        536208293.02934712     
   4052887533.3929191        41215102.986146212        524747529.24410725     
   3945529710.1544304        42757320.192766666        516478173.78479034     
   3839007448.4518714        47084742.519149542        511400226.65139174     
   3733320748.2852345        54197369.965273619        509513687.84391308     
   3854488587.7099400        102468180.90048790        700894118.18610132     
   3750691092.4502435        87732470.770862579        689015252.23939073     
   3648610921.5385628        78721175.134613037        680440136.56650519     
   3548248074.9748974        75434293.991750479        675168771.16743338     
   3449602552.7592449        77871827.342270494        673201156.04219604     
   4558519527.2727537       -24612744.442828655        5874112.7508195220     
   4350766490.2930861       -30237005.597069263        613591.04689748469     
   4143188457.1373930       -35277920.671390772       -168220.53991706076     
   3935785427.8056593       -39735489.665846348        3528677.9903829307     
   3728557402.2979040       -43609712.580382586        11704286.637801943     
   4287779235.5419936        2955084.0727336407        175850166.19822276     
   4091259966.5291672       -4580682.6924507618        169407051.67712802     
   3895026781.2622461       -11162836.971320391        167567703.69286561     
   3699079679.7412009       -16791378.763930082        170332122.24543202     
   3503418661.9660397       -21466308.070248365        177700307.33482882     
   4012712975.8794827        29225122.208757639        343730024.56259000     
   3827784778.8898525        19885041.049550533        336233910.46655995     
   3643253745.5680308        11868838.783021927        333466619.32707357     
   3459119875.9140000        5176515.4091434479        335428151.14413977     
   3275383169.9277806       -191929.07203555107        342118505.91776025     
   3733320748.2852345        54197369.965273619        509513687.84391308     
   3560340927.3751216        43160165.628912449        501094167.41518509     
   3387869350.0547419        33817106.591635942        497528526.36272478     
   3215906016.3240705        26168192.853401542        498816764.68652755     
   3044450926.1831226        20213424.414245963        504958882.38660282     
   3449602552.7592449        77871827.342270494        673201156.04219604     
   3288928411.9849949        65244691.045673966        663987822.52300358     
   3128873594.7223883        54681966.454546452        659753424.79980075     
   2969438100.9714098        46183653.568854451        660497962.87258077     
   2810621930.7320690        39749752.388621807        666221436.74134839     
   3728557402.2979040       -43609712.580382586        11704286.637801943     
   3558458504.5075374       -36444060.189361095        6303424.2085057404     
   3388119418.4912453       -30079035.218110800        5010416.4748295732     
   3217540144.2490239       -24514637.666616321        7825263.4367663972     
   3046720681.7808752       -19750867.534877896        14747965.094301481     
   3503418661.9660397       -21466308.070248365        177700307.33482882     
   3343302400.6782718       -15481636.704411030        170845006.10455427     
   3182897532.8265705       -10458987.218343616        167833335.41724113     
   3022204058.4109235       -6398359.6120957136        168665295.27288616     
   2861221977.4313445       -3299753.8856210709        173340885.67149386     
   3275383169.9277806       -191929.07203555107        342118505.91776025     
   3124494618.9921808        4385283.4234951735        333752277.82549143     
   2973269043.1546364        7839079.5792182684        328965456.12353528     
   2821706442.4151430        10169459.395100594        327758040.81188202     
   2669806816.7737064        11376422.871183753        330130031.89055842     
   3044450926.1831226        20213424.414245963        504958882.38660282     
   2902035159.4492645        23156700.194351912        495025239.37132138     
   2759233949.4754572        24815165.174606800        488406778.59370762     
   2616047296.2616959        25188819.355020523        485103500.05376554     
   2472475199.8079720        24277662.735569596        485115403.75147527     
   2810621930.7320690        39749752.388621807        666221436.74134839     
   2675924022.0495338        40832613.608170867        654663890.74205589     
   2540792251.7890315        40469269.567829967        646157302.82777202     
   2405226619.9505677        38659720.267617941        640701672.99851191     
   2269227126.5341382        35403965.707518816        638297001.25426555     
   3046720681.7808752       -19750867.534877896        14747965.094301481     
   2883024727.3212743       -13547531.370966434        9042911.8895827793     
   2719109079.9642706       -8076504.8650540113        4592555.1563173421     
   2554973739.7098646       -3337788.0171537399        1396894.8945205421     
   2390618706.5580506        668619.17271947861       -544068.89583836519     
   2861221977.4313445       -3299753.8856210709        173340885.67149386     
   2700272959.0638661       -671137.50168979168        165634977.42628005     
   2539296124.3200121        1864757.6276288033        159612335.80661285     
   2378291473.1997690        4307931.5023300648        155272960.81250700     
   2217259005.7031317        6658384.1223866940        152616852.44395930     
   2669806816.7737064        11376422.871183753        330130031.89055842     
   2512829220.6529331        10797665.321529865        320647124.54602367     
   2356015684.6767969        10765774.920651197        313276053.98114938     
   2199366208.8452873        11280751.668538332        308016820.19593561     
   2042880793.1583984        12342595.565156102        304869423.19036430     
   2472475199.8079720        24277662.735569596        485115403.75147527     
   2320693512.0884595        20858877.098667026        474079353.24882102     
   2169267761.0346060        18626547.013954520        465583709.67992073     
   2018197946.6463926        17580672.481376052        459628473.04477537     
   1867484068.9238281        17721253.500964522        456213643.34338653     
   2269227126.5341382        35403965.707518816        638297001.25426555     
   2123865833.3704615        29512497.829770327        625931663.53466916     
   1979052353.3934557        25447073.907581568        616535302.90293407     
   1834786686.6031139        23207693.940938234        610107919.35904217     
   1691068832.9994290        22794357.929817557        606649512.90300906     
   2390618706.5580506        668619.17271947861       -544068.89583836519     
   2248322770.6078930        6437453.0712268353       -6535711.0858131293     
   2103045229.2351792        2267602.2278703451       -10767632.381955763     
   1954786082.4399652       -11840933.357154727       -13239832.784226554     
   1803545330.2222216       -35888153.683934331       -13952312.292667774     
   2217259005.7031317        6658384.1223866940        152616852.44395930     
   2078651385.6764815        12652001.187849402        142992347.88067886     
   1938037984.3587809        11959680.616478324        134393415.48002577     
   1795418801.7500157        4581422.4082255363        126820055.24198526     
   1650793837.8502100       -9482773.4368519783        120272267.16658619     
   2042880793.1583984        12342595.565156102        304869423.19036430     
   1905863921.2517679        17931725.456541538        292750517.74049038     
   1767817092.1855509        20087664.815971971        280923035.72203070     
   1628740305.9597640        18810413.643502057        269386977.13496917     
   1488633562.5743966        14099971.939103246        258142341.97931802     
   1867484068.9238281        17721253.500964522        456213643.34338653     
   1729960377.3337321        22276625.877233505        442738798.49364322     
   1592382552.7155311        26651554.826474488        428821228.34408766     
   1454750595.0692196        30846040.348697364        414460932.89471889     
   1317064504.3948085        34860082.443899393        399657912.14553350     
   1691068832.9994290        22794357.929817557        606649512.90300906     
   1550940753.9223697        25686702.449894190        592957190.14011812     
   1411734365.9486952        31651350.647918820        578087993.34620297     
   1273449669.0783720        40688302.523781717        562041922.52124178     
   1136086663.3114309        52797558.077585280        544818977.66525126     
   1803545330.2222216       -35888153.683934331       -13952312.292667774     
   1772427169.4538214       -16375866.907944560       -8496243.6880301554     
   1749250655.6472950        29608576.407635093       -41699099.674503863     
   1734015788.8026161        102065176.26269519       -113560880.25208634     
   1726722568.9197855        200993932.65726107       -224081585.42075965     
   1650793837.8502100       -9482773.4368519783        120272267.16658619     
   1528127927.7556252       -13790122.419105053        135653495.95092532     
   1409557335.6914103       -4446411.3001595736        124769142.71198475     
   1295082061.6575394        18548359.919938743        87619207.449777335     
   1184702105.6540260        55194191.241228878        24203690.164277431     
   1488633562.5743966        14099971.939103246        258142341.97931802     
   1309829453.3474324       -3404147.7432513833        278961347.18993682     
   1131274333.2193203       -20078303.762759149        285908112.94511533     
   952968202.19005287       -35922496.119459927        278982639.24483329     
   774911060.25962532       -50936724.813355803        258184926.08909491     
   1317064504.3948085        34860082.443899393        399657912.14553350     
   1117531746.2292466        14782057.119611263        421427310.02902877     
   914401648.23101735       -17287100.980224311        441717811.02488047     
   707674210.40012836       -61347391.855603635        460529415.13310558     
   497349432.73656678       -117398815.50654441        477862122.35370308     
   1136086663.3114309        52797558.077585280        544818977.66525126     
   951234806.40104580        40768492.169455945        563051384.46817172     
   758939280.72648609        3927197.0474170744        592198236.95128572     
   559200086.28776169       -57726327.288509637        632259535.11460030     
   352017223.08487129       -144192080.83831745        683235278.95809937     
   1726722568.9197855        200993932.65726107       -224081585.42075965     
   1456290652.7640359        184353169.90117347       -96515890.772135973     
   1153766819.1394870        60739348.915732801        60162683.463621952     
   819151068.04620576       -169847530.29876602        245954137.28652695     
   452443399.48416877       -507407467.74252826        460858470.69656110     
   1184702105.6540260        55194191.241228878        24203690.164277431     
   977602576.84669006        11746761.401913345        155634118.52441871     
   732730330.45772171       -157609727.04282078        312855042.27695537     
   450085366.48711360       -452875274.09307051        495866461.42187327     
   129667684.93484592       -874049879.74879718        704668375.95917380     
   774911060.25962532       -50936724.813355803        258184926.08909491     
   621651392.52998936       -124038579.61707333        386852488.02907735     
   424938207.10582566       -341985493.40255010        537988161.16669953     
   184771503.98715410       -704777466.16969621        711591945.50194693     
  -98848716.826008260       -1212414497.9185255        907663841.03483796     
   497349432.73656678       -117398815.50654441        477862122.35370308     
   388437099.81389081       -223002853.15594596        597139217.74184883     
   230390449.08383620       -492387950.16326588        735562040.13287735     
   23209480.546397448       -925554106.52851725        893130589.52677417     
  -233105805.79841793       -1522501322.2517071        1069844865.9235471     
   352017223.08487129       -144192080.83831745        683235278.95809937     
   277959698.69843370       -285146059.21457946        786494307.66272175     
   149087056.39174795       -608817097.32499635        905576679.17547035     
  -34600703.835194647       -1115205195.1695919        1040482393.4963586     
  -273103581.98239148       -1804310352.7483847        1191211450.6253409     
   4822027492.5964088        493974418.84742427        699330478.02502871     
   4570472693.7575836        363864283.96999764        689737404.98506820     
   4325364609.9968977        255243199.35303688        686800320.66525650     
   4086703241.3143506        168111164.99653029        690519225.06560063     
   3854488587.7099400        102468180.90048790        700894118.18610132     
   4362588258.3448858        276282698.94131446        770792229.85078764     
   4145063610.9668441        201623565.02611589        768549487.92094016     
   3930682193.2855005        137441863.43323755        773031412.01872027     
   3719444005.3008590        83737594.162693739        784238002.14413118     
   3511349047.0129075        40510757.214461327        802169258.29716635     
   3908068618.3916221        60066857.324679136        861581766.94033039     
   3724770343.3528595        40917590.635254145        862835289.84225368     
   3541311812.6293564        21234138.330018044        870882156.07927585     
   3357693026.2211099        1016500.4089729786        885722365.65140069     
   3173913984.1281180       -19735323.127886891        907355918.55862212     
   3458468572.7366266       -154673106.00247240        971699089.29365659     
   3309592890.9156389       -118253639.20257545        972594810.74900365     
   3157253468.0284672       -93379975.956626892        980352552.84692156     
   3001450304.0751109       -80052116.264619708        994972315.58741283     
   2842183399.0555687       -78270060.126564026        1016454098.9704744     
   3013788121.3798947       -367937191.04014814        1101144196.9107728     
   2899531253.6551743       -275890124.48737621        1097828050.6411886     
   2778507159.4828262       -206400479.42669678        1101442602.3216572     
   2650715838.8628569       -159468255.85808647        1111987851.9521670     
   2516157291.7952590       -135093453.78157282        1129463799.5327253     
   3854488587.7099400        102468180.90048790        700894118.18610132     
   3750691092.4502435        87732470.770862579        689015252.23939073     
   3648610921.5385628        78721175.134613037        680440136.56650519     
   3548248074.9748974        75434293.991750479        675168771.16743338     
   3449602552.7592449        77871827.342270494        673201156.04219604     
   3511349047.0129075        40510757.214461327        802169258.29716635     
   3419606484.7547984        38333607.132146120        793701943.90021491     
   3328771660.7496333        39182251.226301193        788305775.37358749     
   3238844574.9974117        43056689.496929288        785980752.71729195     
   3149825227.4981313        49956921.944036961        786726875.93131566     
   3173913984.1281180       -19735323.127886891        907355918.55862212     
   3093561770.8616056       -9553288.3658903837        901355638.60051286     
   3013307709.7529655        955920.25567102432        898193900.10923624     
   2933151800.8021932        11792302.736798286        897870703.08478665     
   2853094044.0092907        22955859.077490211        900386047.52716517     
   2842183399.0555687       -78270060.126564026        1016454098.9704744     
   2772556950.7706599       -55928215.723256707        1011976336.3402909     
   2702219068.5485506       -35957817.777288198        1010104510.7734426     
   2631169752.3892393       -18358866.288663387        1010838622.2699199     
   2559409002.2927222       -3131361.2573773861        1014178670.8297362     
   2516157291.7952590       -135093453.78157282        1129463799.5327253     
   2456592024.4819651       -100791174.93994069        1125564037.1195471     
   2395505737.1363978       -71558962.872560382        1124037607.3662066     
   2332898429.7585530       -47396817.579434395        1124884510.2726996     
   2268770102.3484325       -28304739.060557961        1128104745.8390288     
   3449602552.7592449        77871827.342270494        673201156.04219604     
   3288928411.9849949        65244691.045673966        663987822.52300358     
   3128873594.7223883        54681966.454546452        659753424.79980075     
   2969438100.9714098        46183653.568854451        660497962.87258077     
   2810621930.7320690        39749752.388621807        666221436.74134839     
   3149825227.4981313        49956921.944036961        786726875.93131566     
   3003199063.0781989        41597390.419357777        779120966.62214386     
   2856998532.5620856        34656638.574056864        776357425.30371284     
   2711223635.9497766        29134666.408120036        778436251.97601557     
   2565874373.2412839        25031473.921562910        785357446.63906014     
   2853094044.0092907        22955859.077490211        900386047.52716517     
   2720125662.2144017        18746874.205938816        894161591.21888030     
   2587389224.7155013        15311036.987686515        892642935.09609258     
   2454884731.5125914        12648347.422730088        895830079.15879774     
   2322612182.6056671        10758805.511067867        903723023.40699351     
   2559409002.2927222       -3131361.2573773861        1014178670.8297362     
   2439708209.3936014       -3306857.5945832729        1009109696.3132161     
   2320045671.1826463       -3354838.3045649529        1008609954.1769395     
   2200421387.6598577       -3275303.3873295784        1012679444.4209193     
   2080835358.8252308       -3068252.8428864479        1021318167.0451366     
   2268770102.3484325       -28304739.060557961        1128104745.8390288     
   2161946704.6158032       -24563804.982201576        1123965281.9051447     
   2054967871.9635148       -21340987.302701473        1124258482.5462589     
   1947833604.3915684       -18636286.022055387        1128984347.7623770     
   1840543901.8999667       -16449701.140272260        1138142877.5534997     
   2810621930.7320690        39749752.388621807        666221436.74134839     
   2675924022.0495338        40832613.608170867        654663890.74205589     
   2540792251.7890315        40469269.567829967        646157302.82777202     
   2405226619.9505677        38659720.267617941        640701672.99851191     
   2269227126.5341382        35403965.707518816        638297001.25426555     
   2565874373.2412839        25031473.921562910        785357446.63906014     
   2439755020.6189303        27153874.142427206        774122569.37483335     
   2313511102.0146861        28861054.423648715        766195729.68696880     
   2187142617.4285517        30153014.765228868        761576927.57546341     
   2060649566.8605182        31029755.167166948        760266163.04031503     
   2322612182.6056671        10758805.511067867        903723023.40699351     
   2205805898.8759189        14141098.582981229        893171659.73991346     
   2089184344.7603443        18139157.035474181        886185413.14054036     
   1972747520.2589507        22752980.868577600        882764283.60887325     
   1856495425.3717334        27982570.082255840        882908271.14491034     
   2080835358.8252308       -3068252.8428864479        1021318167.0451366     
   1974076656.8204937        1794286.9298079014        1011811161.8372898     
   1867811980.0260029        8303577.4033037424        1006126353.1884924     
   1762041328.4417636        16459618.577650547        1004263741.0987457     
   1656764702.0677686        26262410.452805340        1006223325.5680455     
   1840543901.8999667       -16449701.140272260        1138142877.5534997     
   1744567294.4526513       -9886560.8171074390        1130041075.6669612     
   1649394007.8116565       -645684.47287905216        1126018549.8308277     
   1555024041.9769881        11272927.892437458        1126075300.0450809     
   1461457396.9486284        25869276.278782547        1130211326.3097270     
   2269227126.5341382        35403965.707518816        638297001.25426555     
   2123865833.3704615        29512497.829770327        625931663.53466916     
   1979052353.3934557        25447073.907581568        616535302.90293407     
   1834786686.6031139        23207693.940938234        610107919.35904217     
   1691068832.9994290        22794357.929817557        606649512.90300906     
   2060649566.8605182        31029755.167166948        760266163.04031503     
   1924514816.7342103        29190510.059210658        750021265.99614036     
   1788621022.2761269        28154450.512021780        742969604.33060277     
   1652968183.4862583        27921576.525545299        739111178.04369116     
   1517556300.3646178        28491888.099818110        738445987.13540077     
   1856495425.3717334        27982570.082255840        882908271.14491034     
   1730227956.2564220        30387769.136191726        874425814.33798623     
   1603894585.2908907        32573295.356064141        869360851.20046389     
   1477495312.4751427        34539148.741881371        867713381.73233998     
   1351030137.8091779        36285329.293639779        869483405.93361318     
   1656764702.0677686        26262410.452805340        1006223325.5680455     
   1541005251.9370933        33104275.060706317        999145308.56018853     
   1424873042.4377532        38703608.439735651        995709043.51250470     
   1308368073.5697629        43060410.589924872        995914530.42499018     
   1191490345.3331237        46174681.511275589        999761769.29765081     
   1461457396.9486284        25869276.278782547        1130211326.3097270     
   1356846703.7762287        37340027.832760215        1124179748.6627569     
   1251556393.7167251        46545389.763061702        1122014181.2667301     
   1145586466.7701316        53485362.069728196        1123714624.1216495     
   1038936922.9364376        58159944.752715290        1129281077.2275183     
   1691068832.9994290        22794357.929817557        606649512.90300906     
   1550940753.9223697        25686702.449894190        592957190.14011812     
   1411734365.9486952        31651350.647918820        578087993.34620297     
   1273449669.0783720        40688302.523781717        562041922.52124178     
   1136086663.3114309        52797558.077585280        544818977.66525126     
   1517556300.3646178        28491888.099818110        738445987.13540077     
   1375591368.2652566        27700424.905717611        728723797.91601396     
   1233783814.5141137        27433556.205661178        719615628.33686495     
   1092133639.1111736        27691281.999639332        711121478.39795053     
   950640842.05646253        28473602.287681401        703241348.09926367     
   1351030137.8091779        36285329.293639779        869483405.93361318     
   1212345191.7482736        33345110.103550076        862839652.04338861     
   1073053311.2804304        28381776.223679781        858600811.46466315     
   933154496.40564680        21395327.653991759        856766884.19743371     
   792648747.12391841        12385764.394504875        857337870.24170268     
   1191490345.3331237        46174681.511275589        999761769.29765081     
   1061202224.3714312        42620758.043439806        995304752.52223718     
   929542856.24765468        34496010.701973855        995043542.72959077     
   796512240.96177447        21800439.486837268        998978139.91970873     
   662110378.51380682        4534044.3980647326        1007108544.0925915     
   1038936922.9364376        58159944.752715290        1129281077.2275183     
   922162466.13472939        55527368.725368202        1126119099.3525627     
   803252449.41577494        45776259.640528500        1128943822.1316464     
   682206872.77957261        28906617.498198450        1137755245.5647614     
   559025736.22611272        4918442.2983431518        1152553369.6519053     
   1136086663.3114309        52797558.077585280        544818977.66525126     
   951234806.40104580        40768492.169455945        563051384.46817172     
   758939280.72648609        3927197.0474170744        592198236.95128572     
   559200086.28776169       -57726327.288509637        632259535.11460030     
   352017223.08487129       -144192080.83831745        683235278.95809937     
   950640842.05646253        28473602.287681401        703241348.09926367     
   791476102.08866370        11156013.526317269        721301610.67943716     
   623715526.95365429       -34814359.125760257        749427176.65525186     
   447359116.65143216       -109437515.66853547        787618046.02668095     
   262406871.18200958       -212713456.10199016        835874218.79373586     
   792648747.12391841        12385764.394504875        857337870.24170268     
   656745003.28565669       -10948183.464022249        873881794.46226656     
   511093257.87713927       -66775469.890050024        899641879.79388571     
   355693510.89837384       -155096094.88358682        934618126.23655891     
   190545762.34935585       -275910058.44463038        978810533.79029047     
   662110378.51380682        4534044.3980647326        1007108544.0925915     
   547041509.99201846       -25544098.801541060        1020791935.8166462     
   421072473.49694729       -91956135.245439142        1042842346.3671943     
   284203269.02857649       -194702064.93365639        1073259775.7442284     
   136433896.58691102       -333781887.86619961        1112044223.9477377     
   559025736.22611272        4918442.2983431518        1152553369.6519053     
   462365622.20775783       -32631732.486246675        1162032034.7425773     
   353653173.81307578       -110356355.19192715        1179028576.3751667     
   232888391.04205024       -228255425.81874675        1203542994.5496786     
   100071273.89468798       -386328944.36668903        1235575289.2661016     
   352017223.08487129       -144192080.83831745        683235278.95809937     
   277959698.69843370       -285146059.21457946        786494307.66272175     
   149087056.39174795       -608817097.32499635        905576679.17547035     
  -34600703.835194647       -1115205195.1695919        1040482393.4963586     
  -273103581.98239148       -1804310352.7483847        1191211450.6253409     
   262406871.18200958       -212713456.10199016        835874218.79373586     
   223681055.67446014       -352272262.33193153        885161800.12681448     
   140704397.45389649       -639333877.60523713        945482313.44791722     
   13476896.520320714       -1073898301.9219248        1016835758.7570319     
  -158001447.12627959       -1655965535.2820387        1099222136.0541821     
   190545762.34935585       -275910058.44463038        978810533.79029047     
   173464767.66327003       -418179758.94544530        986451655.49359286     
   122697205.47140482       -672738017.79887068        1000335298.3648131     
   38243075.773758829       -1039584835.0049044        1020461462.4039670     
  -79897621.429672718       -1518720210.5635443        1046830147.6110417     
   136433896.58691102       -333781887.86619961        1112044223.9477377     
   127310834.66487181       -482868549.05512309        1090363873.7630424     
   95065480.444276959       -709029517.90588808        1070135633.9261664     
   39697833.925128341       -1012264794.4184930        1051359504.4371303     
  -38792104.892550826       -1392574378.5928886        1034035485.2958881     
   100071273.89468798       -386328944.36668903        1235575289.2661016     
   85219256.679253668       -546338632.66097343        1196898454.9351835     
   57809222.372502238       -748208377.92630959        1154883320.1319771     
   17841170.974433362       -991938180.16268969        1109529884.8565164     
  -34684897.514933765       -1277528039.3700974        1060838149.1087492     
   3013788121.3798947       -367937191.04014814        1101144196.9107728     
   2899531253.6551743       -275890124.48737621        1097828050.6411886     
   2778507159.4828262       -206400479.42669678        1101442602.3216572     
   2650715838.8628569       -159468255.85808647        1111987851.9521670     
   2516157291.7952590       -135093453.78157282        1129463799.5327253     
   2685983124.3340182       -187670465.96845186        1219969460.0149658     
   2572213902.6755328       -154859679.70564640        1208987801.6973627     
   2456426431.4958920       -128776391.84668398        1205120468.6244938     
   2338620710.7950974       -109420602.39155853        1208367460.7963636     
   2218796740.5731573       -96792311.340264559        1218728778.2129712     
   2350656799.5350504       -9660139.2226879597        1313185034.9980135     
   2237899873.3561997       -35928238.425828099        1300078337.7132649     
   2127873674.5826683       -53093912.944565296        1294269592.9679537     
   2020578203.2144620       -61157162.778886795        1295758800.7620690     
   1916013459.2515790       -60117987.928802729        1304545961.0956182     
   2007809146.9829774        166093789.19714844        1380790921.8599093     
   1896589165.6971755        80904199.352088153        1371099658.6889117     
   1792848888.7431655        20646957.279678464        1368889975.3520353     
   1696588316.1209488       -14677937.020080209        1374161871.8492849     
   1607807447.8305347       -25070483.547175646        1386915348.1806588     
   1657440166.6778119        339591319.29105395        1422787120.6006598     
   1548281779.6984560        195637633.62808925        1422051764.6242909     
   1451352073.9773707        92446218.826026142        1428981615.7767434     
   1366651049.5145555        30017074.884860575        1443576674.0580111     
   1294178706.3100111        8350201.8046009541        1465836939.4680924     
   2516157291.7952590       -135093453.78157282        1129463799.5327253     
   2456592024.4819651       -100791174.93994069        1125564037.1195471     
   2395505737.1363978       -71558962.872560382        1124037607.3662066     
   2332898429.7585530       -47396817.579434395        1124884510.2726996     
   2268770102.3484325       -28304739.060557961        1128104745.8390288     
   2218796740.5731573       -96792311.340264559        1218728778.2129712     
   2163670410.9339018       -69748739.469503999        1211471831.3749294     
   2107269576.0760188       -46953518.327499866        1206931205.5426605     
   2049594235.9995058       -28406647.914260507        1205106900.7161727     
   1990644390.7043605       -14108128.229799986        1205998916.8954663     
   1916013459.2515790       -60117987.928802729        1304545961.0956182     
   1866306033.9890637       -40039133.018092871        1294219430.4486206     
   1815570618.3215652       -23386912.790661454        1286952209.1533504     
   1763807212.2490830       -10161327.246509552        1282744297.2098043     
   1711015815.7716179       -362376.38563132286        1281595694.6179786     
   1607807447.8305347       -25070483.547175646        1386915348.1806588     
   1564498893.6474538       -11662355.585720003        1373806834.3406305     
   1520408863.8730404       -859146.26204293966        1364100618.1982770     
   1475537358.5072865        7339144.4238344431        1357796699.7535851     
   1429884377.5501986        12932516.471931636        1354895079.0065689     
   1294178706.3100111        8350201.8046009541        1465836939.4680924     
   1258248989.9090719        15381592.827631235        1450234043.0509567     
   1221784312.7304406        20629781.258353055        1438376432.6774349     
   1184784674.7741146        24094767.096763194        1430264108.3475285     
   1147250076.0401032        25776550.342888474        1425897070.0612335     
   2268770102.3484325       -28304739.060557961        1128104745.8390288     
   2161946704.6158032       -24563804.982201576        1123965281.9051447     
   2054967871.9635148       -21340987.302701473        1124258482.5462589     
   1947833604.3915684       -18636286.022055387        1128984347.7623770     
   1840543901.8999667       -16449701.140272260        1138142877.5534997     
   1990644390.7043605       -14108128.229799986        1205998916.8954663     
   1895008705.5082281       -12699962.918401957        1201400862.1524322     
   1799404930.5398867       -11185430.181029439        1201514406.8086991     
   1703833065.7993298       -9564530.0177184343        1206339550.8642635     
   1608293111.2865615       -7837262.4284343123        1215876294.3191173     
   1711015815.7716179       -362376.38563132286        1281595694.6179786     
   1627364799.7528243       -1047892.8489428163        1276757618.4044909     
   1543933039.1092658       -1002558.0614725947        1276910076.4145901     
   1460720533.8409417       -226372.02321988344        1282053068.6482801     
   1377727283.9478507        1280665.2658101916        1292186595.1055613     
   1429884377.5501986        12932516.471931636        1354895079.0065689     
   1359014987.3495879        10392405.226162493        1350035550.6613078     
   1288552197.6716573        9207629.0560000539        1350445491.3639305     
   1218496008.5164080        9378187.9614385366        1356124901.1144369     
   1148846419.8838348        10904081.942464113        1367073779.9128330     
   1147250076.0401032        25776550.342888474        1425897070.0612335     
   1089959268.2985187        21620931.306919515        1421234658.9228828     
   1033262406.2270567        19445131.171366572        1422120651.6567168     
   977159489.82572496        19249149.936243355        1428555048.2627294     
   921650519.09451616        21032987.601530552        1440537848.7409232     
   1840543901.8999667       -16449701.140272260        1138142877.5534997     
   1744567294.4526513       -9886560.8171074390        1130041075.6669612     
   1649394007.8116565       -645684.47287905216        1126018549.8308277     
   1555024041.9769881        11272927.892437458        1126075300.0450809     
   1461457396.9486284        25869276.278782547        1130211326.3097270     
   1608293111.2865615       -7837262.4284343123        1215876294.3191173     
   1522863872.1576414       -2172380.7619764209        1209243114.3314898     
   1437999030.1385350        5373824.6038592458        1206851308.9976265     
   1353698585.2292442        14801353.669081271        1208700878.3175232     
   1269962537.4297671        26110206.433681965        1214791822.2911921     
   1377727283.9478507        1280665.2658101916        1292186595.1055613     
   1303308552.0040965        6186229.9355922341        1286743292.7042503     
   1229215293.4736500        12176705.983068883        1285703463.5600736     
   1155447508.3565142        19252093.408245921        1289067107.6730266     
   1082005196.6526861        27412392.211115360        1296834225.0431209     
   1148846419.8838348        10904081.942464113        1367073779.9128330     
   1085901333.9920151        15189271.275600791        1362541610.7852454     
   1023042797.8170028        19762959.664756358        1362575013.5181618     
   960270811.35878932        24625147.109910548        1367173988.1115811     
   897585374.61737978        29775833.611077964        1376338534.5655067     
   921650519.09451616        21032987.601530552        1440537848.7409232     
   870642218.12140167        24836743.258046538        1436638068.5744724     
   819481543.16858828        28132585.648899466        1437465958.8718963     
   768168494.23606920        30920514.774069637        1443021519.6331937     
   716703071.32385027        33200530.633573532        1453304750.8583624     
   1461457396.9486284        25869276.278782547        1130211326.3097270     
   1356846703.7762287        37340027.832760215        1124179748.6627569     
   1251556393.7167251        46545389.763061702        1122014181.2667301     
   1145586466.7701316        53485362.069728196        1123714624.1216495     
   1038936922.9364376        58159944.752715290        1129281077.2275183     
   1269962537.4297671        26110206.433681965        1214791822.2911921     
   1174939116.2724431        34082979.642573059        1209516998.0329971     
   1079384352.3690290        40284610.364498556        1208558213.9227858     
   983298245.71952796        44715098.599467278        1211915469.9605489     
   886680796.32393479        47374444.347466439        1219588766.1462815     
   1082005196.6526861        27412392.211115360        1296834225.0431209     
   997854847.21624935        32272926.986680269        1292489140.6715479     
   913321429.17472827        35856566.411966354        1292910126.3449860     
   828404942.52812719        38163310.486980528        1298097182.0634356     
   743105387.27644527        39193159.211728305        1308050307.8268967     
   897585374.61737978        29775833.611077964        1376338534.5655067     
   825593896.60763729        31909869.865060121        1373096176.5783956     
   753367624.13381255        33261257.905430228        1375069918.5333359     
   680906557.19592392        33829997.732253015        1382259760.4303169     
   608210695.79395902        33616089.345494449        1394665702.2693374     
   716703071.32385027        33200530.633573532        1453304750.8583624     
   658156264.44660866        32993808.277705103        1451338105.7535617     
   599522937.24629581        32498684.844935477        1455037590.4878390     
   540803089.72291708        31715160.335283220        1464403205.0611923     
   481996721.87647736        30643234.748755351        1479434949.4736142     
   1038936922.9364376        58159944.752715290        1129281077.2275183     
   922162466.13472939        55527368.725368202        1126119099.3525627     
   803252449.41577494        45776259.640528500        1128943822.1316464     
   682206872.77957261        28906617.498198450        1137755245.5647614     
   559025736.22611272        4918442.2983431518        1152553369.6519053     
   886680796.32393479        47374444.347466439        1219588766.1462815     
   785270405.01513648        44514038.808284104        1216908139.8895352     
   681700014.44370973        34453635.727018893        1220111900.9375656     
   575969624.60965943        17193235.103666306        1229200049.2903779     
   468079235.51298004       -7267163.0617777705        1244172584.9479659     
   743105387.27644527        39193159.211728305        1308050307.8268967     
   656766737.60554814        36017227.004203051        1305822520.6187444     
   568243649.32664597        25559832.769997120        1309376807.3661132     
   477536122.43974864        7820976.5091416538        1318713168.0690179     
   384644156.94484782       -17199341.778401852        1333831602.7274513     
   608210695.79395902        33616089.345494449        1394665702.2693374     
   536651463.90596366        30036933.313125610        1392862241.5401697     
   462883354.06458616        19094850.769486204        1396738541.4172869     
   386906366.26983929        789841.71461409330        1406294601.9006791     
   308720500.52171385       -24878093.851514831        1421530422.9903519     
   481996721.87647736        30643234.748755351        1479434949.4736142     
   424924583.91637909        26573157.735034868        1478027302.6538308     
   365619128.65752620        15058689.725465238        1482197103.0910845     
   304080356.09992939       -3900169.2799144983        1491944350.7853637     
   240308266.24357805       -30303419.281148344        1507269045.7366724     
   559025736.22611272        4918442.2983431518        1152553369.6519053     
   462365622.20775783       -32631732.486246675        1162032034.7425773     
   353653173.81307578       -110356355.19192715        1179028576.3751667     
   232888391.04205024       -228255425.81874675        1203542994.5496786     
   100071273.89468798       -386328944.36668903        1235575289.2661016     
   468079235.51298004       -7267163.0617777705        1244172584.9479659     
   390460900.90874320       -41370860.314962238        1242716042.7077672     
   302656467.47780764       -109428220.32380672        1247593805.5831087     
   204665935.22017223       -211439243.08831984        1258805873.5739942     
   96489304.135843456       -347403928.60847473        1276352246.6804130     
   384644156.94484782       -17199341.778401852        1333831602.7274513     
   322685969.10794002       -48871051.294211015        1323617127.9642859     
   252407917.99396837       -108275638.40023017        1318553386.8902836     
   173810003.60293508       -195413103.09646052        1318640379.5054471     
   86892225.934835330       -310283445.38290948        1323878105.8097789     
   308720500.52171385       -24878093.851514831        1421530422.9903519     
   259040826.80534688       -55132305.423985139        1404735290.5121305     
   202907525.36154318       -106898609.42124647        1391907320.2966971     
   140320596.19032264       -180177005.84323379        1383046512.3440459     
   71280039.291668385       -274967494.68999189        1378152866.6541922     
   240308266.24357805       -30303419.281148344        1507269045.7366724     
   199525474.00095642       -60154622.704331771        1486070530.3513048     
   154155289.58054218       -105297133.38682386        1467655605.8023458     
   104197712.98234114       -165730951.32860661        1452024272.0897996     
   49652744.206341386       -241456076.52971566        1439176529.2136586     
   100071273.89468798       -386328944.36668903        1235575289.2661016     
   85219256.679253668       -546338632.66097343        1196898454.9351835     
   57809222.372502238       -748208377.92630959        1154883320.1319771     
   17841170.974433362       -991938180.16268969        1109529884.8565164     
  -34684897.514933765       -1277528039.3700974        1060838149.1087492     
   96489304.135843456       -347403928.60847473        1276352246.6804130     
   79620462.710245013       -488657017.54845446        1222015365.7508888     
   51389979.242679209       -667782246.62832510        1165136936.0502231     
   11797853.733181477       -884779615.84797454        1105716957.5783997     
  -39155913.818279505       -1139649125.2074907        1043755430.3354272     
   86892225.934835330       -310283445.38290948        1323878105.8097789     
   70282993.730851680       -432097004.93908066        1255276949.1725812     
   43508494.534277588       -587794787.80388260        1184930995.4653614     
   6568728.3451181054       -777376793.97730994        1112840244.6881218     
  -40536304.836629272       -1000843023.4593582        1039004696.8408489     
   71280039.291668385       -274967494.68999189        1378152866.6541922     
   57206849.741087958       -376658594.83281636        1296683205.2002428     
   34164768.247284889       -508246001.45304650        1214265498.3773992     
   2153794.8102581203       -669729714.55068743        1130899746.1856503     
  -38826070.569993287       -861109734.12575006        1046585948.6250124     
   49652744.206341386       -241456076.52971566        1439176529.2136586     
   40392030.740956202       -322341787.22963583        1346234133.8338866     
   23358800.381711036       -429135887.57575315        1253140444.7863352     
  -1446946.8714024127       -561838377.56809378        1159895462.0710146     
  -34025211.018372059       -720449257.20663297        1066499185.6879183     
   1657440166.6778119        339591319.29105395        1422787120.6006598     
   1548281779.6984560        195637633.62808925        1422051764.6242909     
   1451352073.9773707        92446218.826026142        1428981615.7767434     
   1366651049.5145555        30017074.884860575        1443576674.0580111     
   1294178706.3100111        8350201.8046009541        1465836939.4680924     
   1213715718.3081214        201339441.18904591        1398830100.9804821     
   1143499742.4348156        123180484.01972711        1411365586.5326011     
   1079547360.1871145        65900172.269090533        1431008166.9235666     
   1021858571.5650164        29498505.937127769        1457757842.1533718     
   970433376.56852114        13975485.023845017        1491614612.2220213     
   777884805.15141964        65455623.650934368        1399165025.4903185     
   745016633.84138441        52613013.012427837        1418012083.6661506     
   712446968.52428854        40765422.350383133        1443408124.3908491     
   680175809.20012641        29912851.664786696        1475353147.6644180     
   648203155.86890376        20055300.955654204        1513847153.4868603     
   349947427.20771039       -68060133.323277742        1423791894.1301775     
   352832453.91816586       -16064779.393806040        1441991256.0249357     
   350050898.98889387        17041969.069907218        1466181488.1785934     
   341602762.41988999        31260112.067846537        1496362590.5911477     
   327488044.21115732        26589649.600026339        1532534563.2626004     
  -70096415.523009643       -199207829.73359641        1472710706.9000437     
  -33052797.334843069       -82852893.198980376        1483303103.6089580     
  -7640848.4190712739       -5270187.5723447977        1499328258.2867985     
   6139431.2243006127        33540287.146290038        1520786170.9335625     
   8288041.5952808904        33578530.956952833        1547676841.5492504     
   1294178706.3100111        8350201.8046009541        1465836939.4680924     
   1258248989.9090719        15381592.827631235        1450234043.0509567     
   1221784312.7304406        20629781.258353055        1438376432.6774349     
   1184784674.7741146        24094767.096763194        1430264108.3475285     
   1147250076.0401032        25776550.342888474        1425897070.0612335     
   970433376.56852114        13975485.023845017        1491614612.2220213     
   942363742.83620727        14996748.806359649        1476215793.4306686     
   914319053.70898151        16101161.272500515        1464504858.4732237     
   886299309.18683541        17288722.422238886        1456481807.3496914     
   858304509.26977301        18559432.255592585        1452146640.0600641     
   648203155.86890376        20055300.955654204        1513847153.4868603     
   627829598.49177539        15017235.603626192        1499305635.2678599     
   608040891.10250628        11928670.211129665        1488394598.6730642     
   588837033.70109785        10789604.778167069        1481114043.7024727     
   570218026.28754985        11600039.304740459        1477463970.3560874     
   327488044.21115732        26589649.600026339        1532534563.2626004     
   314646556.87576926        15443053.219412953        1519503568.5625274     
   302949824.91102159        8112308.0742659569        1510045653.2769501     
   292397848.31690502        4597414.1645569950        1504160817.4058785     
   282990627.09343010        4898371.4903201908        1501849060.9493017     
   8288041.5952808904        33578530.956952833        1547676841.5492504     
   2814617.9881960782        16274201.653737951        1536809593.3146720     
  -954144.86547888070        4652074.8618892441        1529458022.2848914     
  -3018246.9657391817       -1287849.4185772710        1525622128.4599054     
  -3377688.3125904528       -1545571.1876803529        1525301911.8397117     
   1147250076.0401032        25776550.342888474        1425897070.0612335     
   1089959268.2985187        21620931.306919515        1421234658.9228828     
   1033262406.2270567        19445131.171366572        1422120651.6567168     
   977159489.82572496        19249149.936243355        1428555048.2627294     
   921650519.09451616        21032987.601530552        1440537848.7409232     
   858304509.26977301        18559432.255592585        1452146640.0600641     
   815930258.97854161        16138473.007047236        1448344700.7188749     
   773941283.44289255        15001762.943772912        1450068326.3625314     
   732337582.66282034        15149302.065756410        1457317516.9910235     
   691119156.63833165        16581090.373021394        1470092272.6043594     
   570218026.28754985        11600039.304740459        1477463970.3560874     
   542695079.48284364        10894163.654461205        1474279053.4117589     
   515348736.51917249        10776967.474300027        1476596862.5649335     
   488178997.39653939        11248450.764266819        1484417397.8156097     
   461185862.11494243        12308613.524349123        1497740659.1637850     
   282990627.09343010        4898371.4903201908        1501849060.9493017     
   270253729.81142080        5888003.2491581291        1499037717.0015345     
   257484765.45590165        6770744.7629614770        1501706260.2639258     
   244683734.02688068        7546596.0317587852        1509854690.7364798     
   231850635.52434710        8215557.0555159003        1523483008.4191999     
  -3377688.3125904528       -1545571.1876803529        1525301911.8397117     
  -1393790.0357259328        1119991.7911362196        1522620691.4881997     
   349370.25308367878        2983094.8097704584        1525396519.4595089     
   1851792.5538425455        4043737.8682348533        1533629395.7536426     
   3113476.8665489745        4301920.9665251486        1547319320.3705945     
   921650519.09451616        21032987.601530552        1440537848.7409232     
   870642218.12140167        24836743.258046538        1436638068.5744724     
   819481543.16858828        28132585.648899466        1437465958.8718963     
   768168494.23606920        30920514.774069637        1443021519.6331937     
   716703071.32385027        33200530.633573532        1453304750.8583624     
   691119156.63833165        16581090.373021394        1470092272.6043594     
   652161760.92043006        19081911.349291921        1466296097.7971115     
   613076710.38785493        21157216.276652277        1467342856.8792839     
   573864005.04060543        22807005.155096024        1473232549.8508821     
   534523644.87867993        24031277.984622508        1483965176.7119036     
   461185862.11494243        12308613.524349123        1497740659.1637850     
   434608695.72525358        13605297.042274237        1494076928.7416008     
   407928593.68592280        14558861.728059173        1495371395.6343901     
   381145555.99694091        15169307.581672281        1501624059.8421543     
   354259582.65831095        15436634.603128508        1512834921.3648899     
   231850635.52434710        8215557.0555159003        1523483008.4191999     
   217983022.53587595        8406900.3370070532        1519980561.4079442     
   204037193.06278065        8337522.0030862093        1521551575.1372163     
   190013147.10506713        8007422.0537706912        1528196049.6070082     
   175910884.66273338        7416600.4890535846        1539913984.8173268     
   3113476.8665489745        4301920.9665251486        1547319320.3705945     
   2284741.3522871607        3486721.2334565083        1544006995.7961373     
   1402508.5184395942        2493197.1017693845        1545883395.3877556     
   466778.36499490560        1321348.5714251876        1552948519.1454468     
  -522449.10804207827       -28824.357560687349        1565202367.0692115     
   716703071.32385027        33200530.633573532        1453304750.8583624     
   658156264.44660866        32993808.277705103        1451338105.7535617     
   599522937.24629581        32498684.844935477        1455037590.4878390     
   540803089.72291708        31715160.335283220        1464403205.0611923     
   481996721.87647736        30643234.748755351        1479434949.4736142     
   534523644.87867993        24031277.984622508        1483965176.7119036     
   490654547.52422285        23658465.059826791        1482599494.4040804     
   446755875.58011049        23187070.169513509        1486896556.6367640     
   402827629.04633987        22617093.313672632        1496856363.4099658     
   358869807.92291254        21948534.492312074        1512478914.7236776     
   354259582.65831095        15436634.603128508        1512834921.3648899     
   325058522.54502738        14894829.424917221        1512136638.5430205     
   295884833.57549530        14444261.392548487        1517097714.9630976     
   266738515.74971950        14084930.506032199        1527718150.6251228     
   237619569.06770051        13816836.765371308        1543997945.5291028     
   175910884.66273338        7416600.4890535846        1539913984.8173268     
   161368189.50901136        6702901.3729423359        1539949538.1703894     
   146909811.23245943        6270258.5140642971        1545641065.4668355     
   132535749.83306843        6118671.9123910069        1556988566.7066705     
   118246005.31084362        6248141.5679354034        1573992041.8898780     
  -522449.10804207827       -28824.357560687349        1565202367.0692115     
  -416451.58381118765       -917319.09605118900        1566038193.2861857     
  -169191.44900041152       -1334938.4659420722        1572526608.1479809     
   219331.29638265562       -1281682.4672593463        1584667611.6545956     
   749116.65234213101       -757551.09998720442        1602461203.8060312     
   481996721.87647736        30643234.748755351        1479434949.4736142     
   424924583.91637909        26573157.735034868        1478027302.6538308     
   365619128.65752620        15058689.725465238        1482197103.0910845     
   304080356.09992939       -3900169.2799144983        1491944350.7853637     
   240308266.24357805       -30303419.281148344        1507269045.7366724     
   358869807.92291254        21948534.492312074        1512478914.7236776     
   316530452.98936707        19160583.659236401        1509381760.8524048     
   272503135.14966464        10746089.805633649        1511744194.4720738     
   226787854.40378886       -3294947.0685453713        1519566215.5826864     
   179384610.75174651       -22962526.963279352        1532847824.1842332     
   237619569.06770051        13816836.765371308        1543997945.5291028     
   209676254.97188985        12209989.456328399        1539847531.3976867     
   180590332.36249074        6794447.1019899920        1541038844.9911208     
   150361801.23951149       -2429790.2976168543        1547571886.3094027     
   118990661.60294601       -15462722.742507726        1559446655.3525338     
   118246005.31084362        6248141.5679354034        1573992041.8898780     
   104361989.86393051        5721375.1262540966        1569424614.2896726     
   89880720.296018764        3203761.6145760976        1570081054.6482246     
   74802196.607098430       -1304698.9671292566        1575961362.9655333     
   59126418.797179066       -7804006.6188326813        1587065539.2415998     
   749116.65234213101       -757551.09998720442        1602461203.8060312     
   587657.66549919685       -305259.33094847528        1598113009.5283740     
   374298.95023179497       -25966.656657278290        1598870823.4433823     
   109040.50655191195        80326.922927036299        1604734645.5510578     
  -208117.66555024285        13621.407766975550        1615704475.8514042     
   240308266.24357805       -30303419.281148344        1507269045.7366724     
   199525474.00095642       -60154622.704331771        1486070530.3513048     
   154155289.58054218       -105297133.38682386        1467655605.8023458     
   104197712.98234114       -165730951.32860661        1452024272.0897996     
   49652744.206341386       -241456076.52971566        1439176529.2136586     
   179384610.75174651       -22962526.963279352        1532847824.1842332     
   148206198.69214946       -45538369.165332466        1507223650.6836586     
   113588906.60349658       -79577144.797575980        1484524941.5902839     
   75532734.485813275       -125078853.85991734        1464751696.9040914     
   34037682.339079149       -182043496.35243097        1447903916.6250989     
   118990661.60294601       -15462722.742507726        1559446655.3525338     
   97821982.785744727       -30641597.805635817        1530736754.5769682     
   74362936.088242650       -53455032.469763145        1505094191.7793787     
   48613521.510446116       -83903026.734873012        1482518966.9597611     
   20573739.052352168       -121985580.60097569        1463011080.1181145     
   59126418.797179066       -7804006.6188326813        1587065539.2415998     
   48372826.281754531       -15464308.625196494        1556609842.0312364     
   36477378.034769237       -26930796.403426558        1529363356.3696327     
   23440074.056231238       -42203469.953499749        1505326082.2567818     
   9260914.3461512625       -61282329.275380887        1484498019.6926930     
  -208117.66555024285        13621.407766975550        1615704475.8514042     
  -141270.81983202806       -6501.6240493939986        1584842913.0464573     
  -67767.556920869014       -4436.5985566431082        1557332435.3610487     
   12392.123186162389        19816.484255682291        1533173042.7951741     
   99208.220493641245        66257.624403526410        1512364735.3488367     
   49652744.206341386       -241456076.52971566        1439176529.2136586     
   40392030.740956202       -322341787.22963583        1346234133.8338866     
   23358800.381711036       -429135887.57575315        1253140444.7863352     
  -1446946.8714024127       -561838377.56809378        1159895462.0710146     
  -34025211.018372059       -720449257.20663297        1066499185.6879183     
   34037682.339079149       -182043496.35243097        1447903916.6250989     
   29859164.916409016       -241869469.63368204        1347456206.8135333     
   19851643.211157694       -321125457.19020367        1246209232.8367541     
   4015117.2233158052       -419811459.02203202        1144162994.6947565     
  -17650413.047113925       -537927475.12914634        1041317492.3875544     
   20573739.052352168       -121985580.60097569        1463011080.1181145     
   19626073.393990830       -161307219.74710283        1357325487.2545793     
   14792916.064328685       -213580497.79756942        1250192659.7283833     
   6074267.0633596927       -278805414.75238907        1141612597.5395474     
  -6529873.6089195013       -356981970.61157882        1031585300.6880350     
   9260914.3461512625       -61282329.275380887        1484498019.6926930     
   9692756.1737091579       -80655037.569876045        1375841975.1570086     
   8182618.9412410855       -106501009.39778984        1265090725.4612367     
   4730502.6487390250       -138820244.75915053        1152244270.6053565     
  -663592.70378729701       -177612743.65392336        1037302610.5893991     
   99208.220493641245        66257.624403526410        1512364735.3488367     
   59213.255563081038        87076.897998091983        1403005670.5208337     
   20751.841878493833        113008.00908062200        1290903430.0352983     
  -16176.020541865742        144050.95770988357        1176058013.8922184     
  -51570.331724578988        180205.74379796625        1058469422.0916116     
  -70096415.523009643       -199207829.73359641        1472710706.9000437     
  -33052797.334843069       -82852893.198980376        1483303103.6089580     
  -7640848.4190712739       -5270187.5723447977        1499328258.2867985     
   6139431.2243006127        33540287.146290038        1520786170.9335625     
   8288041.5952808904        33578530.956952833        1547676841.5492504     
  -426911564.84976608       -124807401.96722485        1489515498.7086413     
  -389551783.09635365       -56301697.814308316        1488133407.9222331     
  -358774502.60229725       -9737664.5259111375        1492603892.4590218     
  -334579723.36759126        14884697.897984594        1502926952.3190038     
  -316967445.39223671        17565389.457374811        1519102587.5021870     
  -788182323.78301454       -51743657.082795858        1484934911.1822155     
  -749306900.30929780       -30727341.865072966        1477469028.9157009     
  -711964810.08188903       -14822137.468376368        1476275539.3266556     
  -676156053.10079145       -4028043.8927181363        1481354442.4150763     
  -641880629.36599958        1654938.8619198799        1492705738.1809664     
  -1153908692.3227572        19983404.919683158        1458968944.3207626     
  -1112318148.9736707       -6129825.3512612581        1451309966.5893643     
  -1067211770.8578509       -20523606.399759710        1450343198.8896995     
  -1018589557.9752959       -23197938.225806415        1456068641.2217770     
  -966451510.32600665       -14152820.829408288        1468486293.5855958     
  -1524090670.4689941        90373784.040212214        1411617598.1242902     
  -1478585529.0894761        17490851.727119088        1409656220.9432151     
  -1424515384.9301805       -26842071.320048451        1414806871.1481550     
  -1361880237.9911087       -42624985.101295948        1427069548.7391045     
  -1290680088.2722571       -29857889.616609454        1446444253.7160654     
   8288041.5952808904        33578530.956952833        1547676841.5492504     
   2814617.9881960782        16274201.653737951        1536809593.3146720     
  -954144.86547888070        4652074.8618892441        1529458022.2848914     
  -3018246.9657391817       -1287849.4185772710        1525622128.4599054     
  -3377688.3125904528       -1545571.1876803529        1525301911.8397117     
  -316967445.39223671        17565389.457374811        1519102587.5021870     
  -310975545.73469257        7981643.0477467775        1509816270.5441282     
  -304189051.06417847        1046546.6813516766        1504052082.8401647     
  -296607961.38069159       -3239899.6418000460        1501810024.3902895     
  -288232276.68423223       -4877695.9217116982        1503090095.1945074     
  -641880629.36599958        1654938.8619198799        1492705738.1809664     
  -624404972.01726639       -202694.32615906000        1483938609.1355846     
  -607044785.39600062       -2445229.9391293526        1478700061.3935881     
  -589800069.50220203       -5072667.9769902825        1476990094.9549818     
  -572670824.33587158       -8085008.4397439957        1478808709.8197646     
  -966451510.32600665       -14152820.829408288        1468486293.5855958     
  -937473660.85952306       -8278810.4679701924        1459176609.0890372     
  -909521347.86094308       -5823254.9995414615        1453401957.9451675     
  -882594571.33027327       -6786154.4241486788        1451162340.1539781     
  -856693331.26751006       -11167508.741778493        1452457755.7154758     
  -1290680088.2722571       -29857889.616609454        1446444253.7160654     
  -1250181612.2614589       -16246705.377673388        1435530270.4044909     
  -1211618738.4590063       -9087528.4998939633        1428157772.4948959     
  -1174991466.8649035       -8380358.9832783937        1424326759.9872823     
  -1140299797.4791448       -14125196.827808559        1424037232.8816514     
  -3377688.3125904528       -1545571.1876803529        1525301911.8397117     
  -1393790.0357259328        1119991.7911362196        1522620691.4881997     
   349370.25308367878        2983094.8097704584        1525396519.4595089     
   1851792.5538425455        4043737.8682348533        1533629395.7536426     
   3113476.8665489745        4301920.9665251486        1547319320.3705945     
  -288232276.68423223       -4877695.9217116982        1503090095.1945074     
  -272563178.12383181       -3328888.8495979309        1500269960.4632659     
  -257030270.71299651       -2234052.2760325968        1502777567.4519224     
  -241633554.45172125       -1593186.2010024786        1510612916.1604869     
  -226373029.34000939       -1406290.6245169044        1523776006.5889599     
  -572670824.33587158       -8085008.4397439957        1478808709.8197646     
  -543685972.92884183       -7763791.5054075122        1475971632.0203588     
  -514732765.83288550       -7548055.6079808176        1478332989.3379412     
  -485811203.04799855       -7437800.7474536300        1485892781.7725132     
  -456921284.57418370       -7433026.9238320887        1498651009.3240731     
  -856693331.26751006       -11167508.741778493        1452457755.7154758     
  -814762174.45075440       -12184716.176285803        1449725706.1594834     
  -772758115.10658360       -12958915.186073810        1452062785.1175604     
  -730681153.23499036       -13490105.771122605        1459468992.5897117     
  -688531288.83597684       -13778287.931435436        1471944328.5759325     
  -1140299797.4791448       -14125196.827808559        1424037232.8816514     
  -1085791782.6895707       -16591662.862236798        1421532182.8806393     
  -1031106318.5340881       -18466631.010302126        1423966954.7907841     
  -976243405.01269329       -19750101.271993279        1431341548.6120846     
  -921203042.12539101       -20442073.647328436        1443655964.3445380     
   3113476.8665489745        4301920.9665251486        1547319320.3705945     
   2284741.3522871607        3486721.2334565083        1544006995.7961373     
   1402508.5184395942        2493197.1017693845        1545883395.3877556     
   466778.36499490560        1321348.5714251876        1552948519.1454468     
  -522449.10804207827       -28824.357560687349        1565202367.0692115     
  -226373029.34000939       -1406290.6245169044        1523776006.5889599     
  -213826698.61049590       -2354202.8611473590        1519987864.7163930     
  -201355528.04908860       -3552648.9914671108        1521330137.1353202     
  -188959517.65578815       -5001629.0154763684        1527802823.8457437     
  -176638667.43059742       -6701142.9331826568        1539405924.8476729     
  -456921284.57418370       -7433026.9238320887        1498651009.3240731     
  -431166487.24254268       -8563631.5565303564        1494361776.8301246     
  -405508512.92752272       -10016979.577968314        1495144648.7530951     
  -379947361.62912637       -11793070.988151044        1500999625.0929945     
  -354483033.34734941       -13891905.787063628        1511926705.8498123     
  -688531288.83597684       -13778287.931435436        1471944328.5759325     
  -649734624.54385424       -15141564.852699429        1467128732.1373346     
  -611056446.11686635       -16899794.657745928        1467326930.2410872     
  -572496753.55501580       -19052977.346584469        1472538922.8871875     
  -534055546.85829931       -21601112.919200659        1482764710.0756304     
  -921203042.12539101       -20442073.647328436        1443655964.3445380     
  -869531110.51442742       -22088002.749637008        1438288730.6380279     
  -817999327.61711776       -24201094.230793327        1437876981.5992920     
  -766607693.43345892       -26781348.090786695        1442420717.2283230     
  -715356207.96344554       -29828764.329596519        1451919937.5251317     
  -522449.10804207827       -28824.357560687349        1565202367.0692115     
  -416451.58381118765       -917319.09605118900        1566038193.2861857     
  -169191.44900041152       -1334938.4659420722        1572526608.1479809     
   219331.29638265562       -1281682.4672593463        1584667611.6545956     
   749116.65234213101       -757551.09998720442        1602461203.8060312     
  -176638667.43059742       -6701142.9331826568        1539405924.8476729     
  -161885732.73955452       -7560877.4031914994        1539783043.2266822     
  -146985008.79825041       -7927981.0389975831        1545767810.7195344     
  -131936495.60668094       -7802453.8405838683        1557360227.3262372     
  -116740193.16484927       -7184295.8079654165        1574560293.0467834     
  -354483033.34734941       -13891905.787063628        1511926705.8498123     
  -325211560.14942658       -14761399.586588770        1511852730.8038204     
  -295785771.06154966       -15116507.086267039        1517341465.3407047     
  -266205666.08372310       -14957228.286111727        1528392909.4604628     
  -236471245.21594089       -14283563.186107039        1545007063.1630836     
  -534055546.85829931       -21601112.919200659        1482764710.0756304     
  -490393933.81342065       -22518885.646213442        1482247256.0176148     
  -446571478.23889971       -22900516.607752159        1487247572.0114963     
  -402588180.13474244       -22746005.803834513        1497765658.0572758     
  -358444039.50093472       -22055353.234419316        1513801514.1549530     
  -715356207.96344554       -29828764.329596519        1451919937.5251317     
  -657432853.73153806       -30833335.582078457        1450966618.8680549     
  -599342130.33029795       -31280009.603446722        1455486130.7319050     
  -541084037.75973272       -31168786.393734008        1465478473.1166806     
  -482658576.01983368       -30499665.952909797        1480943646.0223796     
   749116.65234213101       -757551.09998720442        1602461203.8060312     
   587657.66549919685       -305259.33094847528        1598113009.5283740     
   374298.95023179497       -25966.656657278290        1598870823.4433823     
   109040.50655191195        80326.922927036299        1604734645.5510578     
  -208117.66555024285        13621.407766975550        1615704475.8514042     
  -116740193.16484927       -7184295.8079654165        1574560293.0467834     
  -103219308.47853476       -6051242.5727223456        1569780240.0810940     
  -89175320.385803923       -3174511.3160942160        1570261959.8714294     
  -74608228.886660621        1445897.9619111381        1576005452.4177880     
  -59518033.981114388        7809985.2612575628        1587010717.7201755     
  -236471245.21594089       -14283563.186107039        1545007063.1630836     
  -208822975.24687353       -12336236.001747683        1540465988.5000043     
  -180076598.73656893       -6728553.6799307913        1541342451.1563039     
  -150232115.68502399        2539483.7793497816        1547636451.1319799     
  -119289526.09224531        15467876.376081444        1559347988.4270258     
  -358444039.50093472       -22055353.234419316        1513801514.1549530     
  -316223342.63953781       -19160239.618090659        1510170254.7851129     
  -272329536.10206658       -10688093.748186737        1512112297.2980011     
  -226762619.88853878        3361084.3752430975        1519627641.6936197     
  -179522593.99894845        22987294.752212018        1532716287.9719694     
  -482658576.01983368       -30499665.952909797        1480943646.0223796     
  -425420410.65651798       -26523253.421725079        1478893038.9364088     
  -365934132.48230529       -15053131.520881668        1482571498.2965212     
  -304199741.49720395        3910699.7495888174        1491979024.1027215     
  -240217237.70120817        30368240.389708906        1507115616.3550062     
  -208117.66555024285        13621.407766975550        1615704475.8514042     
  -141270.81983202806       -6501.6240493939986        1584842913.0464573     
  -67767.556920869014       -4436.5985566431082        1557332435.3610487     
   12392.123186162389        19816.484255682291        1533173042.7951741     
   99208.220493641245        66257.624403526410        1512364735.3488367     
  -59518033.981114388        7809985.2612575628        1587010717.7201755     
  -48636450.292983726        15453383.293323118        1556588170.8393731     
  -36601995.880751580        26939683.739059910        1529365062.3184636     
  -23414670.744422711        42268886.598453179        1505341392.1574354     
  -9074474.8839877397        61440991.871532388        1484517160.3562973     
  -119289526.09224531        15467876.376081444        1559347988.4270258     
  -98026482.017844811        30644812.535196140        1530701707.4950964     
  -74464352.912439525        53485365.464326799        1505103218.1634078     
  -48603138.776032716        83989535.163463891        1482552520.4319477     
  -20442839.608621538        122157321.63261555        1463049614.3007188     
  -179522593.99894845        22987294.752212018        1532716287.9719694     
  -148311365.99442428        45567786.101533666        1507183523.0136342     
  -113654838.65198624        79632608.577238947        1484546902.8958812     
  -75553011.971656144        125181762.17925045        1464806427.6187081     
  -34005885.953407928        182215246.90765291        1447962097.1821172     
  -240217237.70120817        30368240.389708906        1507115616.3550062     
  -199491102.22271064        60222303.992382437        1486033617.3949823     
  -154173453.09939584        105381413.07778224        1467696116.5158882     
  -104264290.33127895        165845567.64585471        1452103113.7177253     
  -49763613.918344662        241614767.69665185        1439254609.0004895     
   99208.220493641245        66257.624403526410        1512364735.3488367     
   59213.255563081038        87076.897998091983        1403005670.5208337     
   20751.841878493833        113008.00908062200        1290903430.0352983     
  -16176.020541865742        144050.95770988357        1176058013.8922184     
  -51570.331724578988        180205.74379796625        1058469422.0916116     
  -9074474.8839877397        61440991.871532388        1484517160.3562973     
  -9578968.3409851454        80855132.795714915        1375851114.4445117     
  -8140436.4036244303        106746025.03442347        1265095555.7385337     
  -4758879.0718984976        139113668.58768514        1152250484.2383764     
   565703.65419635177        177958063.45550606        1037315899.9440075     
  -20442839.608621538        122157321.63261555        1463049614.3007188     
  -19544223.376719363        161525066.66164595        1357341661.1221309     
  -14761089.907339856        213841202.48226923        1250197858.0126925     
  -6093439.2004819363        279105729.09448570        1141618204.9724019     
   6458728.7438587546        357318646.49830997        1031602702.0012586     
  -34005885.953407928        182215246.90765291        1447962097.1821172     
  -29836551.851629227        242096878.49582598        1347477310.5536866     
  -19841208.669248208        321398540.35268050        1246210336.8577440     
  -4019856.4062857926        420120232.47813678        1144161176.0943015     
   17627504.937278241        538261954.87226093        1041329828.2633278     
  -49763613.918344662        241614767.69665185        1439254609.0004895     
  -40455953.765716091        322570568.29825956        1346258062.7391875     
  -23380792.689365685        429418038.64560395        1253132992.2737103     
   1461869.3106812835        562157178.73860288        1159879397.6040785     
   34072032.234443128        720787988.57732224        1066497278.7302700     
  -1524090670.4689941        90373784.040212214        1411617598.1242902     
  -1478585529.0894761        17490851.727119088        1409656220.9432151     
  -1424515384.9301805       -26842071.320048451        1414806871.1481550     
  -1361880237.9911087       -42624985.101295948        1427069548.7391045     
  -1290680088.2722571       -29857889.616609454        1446444253.7160654     
  -1933537480.0006268        35990049.772779942        1318936416.1437671     
  -1857558029.9672790        3482349.6063638926        1324630893.4746130     
  -1777190608.6999288       -14398779.780045748        1337337758.0423939     
  -1692435216.1985769       -17653338.386449099        1357057009.8471041     
  -1603291852.4632206       -6281326.2128422260        1383788648.8887477     
  -2342556366.4510479       -18265307.570285797        1240704504.9561739     
  -2236387293.9041014       -10483181.432094574        1249181633.3288696     
  -2130007281.6689203       -1997922.9998099804        1264571508.7894187     
  -2023416329.7455165        7190467.7265599966        1286874131.3378215     
  -1916614438.1338890        17081990.747015357        1316089500.9740770     
  -2751147329.8202767       -72392287.988997102        1176921864.5615146     
  -2615073320.8999462       -24405741.388257504        1183308440.5059876     
  -2482965403.8371634        10360499.020650625        1196508123.3892353     
  -2354823578.6319323        31906433.237722516        1216520913.2112553     
  -2230647845.2842526        40232061.262963295        1243346809.9720485     
  -3159310370.1082907       -126390891.48334062        1127588494.9597859     
  -2993616110.9548073       -38285330.262132168        1127011315.0059662     
  -2836064975.2046537        22676486.281333089        1133147601.8418384     
  -2686656962.8578253        56494558.147040248        1145997355.4674051     
  -2545392073.9143209        63168885.334999919        1165560575.8826668     
  -1290680088.2722571       -29857889.616609454        1446444253.7160654     
  -1250181612.2614589       -16246705.377673388        1435530270.4044909     
  -1211618738.4590063       -9087528.4998939633        1428157772.4948959     
  -1174991466.8649035       -8380358.9832783937        1424326759.9872823     
  -1140299797.4791448       -14125196.827808559        1424037232.8816514     
  -1603291852.4632206       -6281326.2128422260        1383788648.8887477     
  -1556681536.0426884       -2543923.7825937867        1370856902.7916014     
  -1511079869.2400615       -2168686.7453659177        1361363652.0250425     
  -1466486852.0553365       -5155615.1011435390        1355308896.5890720     
  -1422902484.4885173       -11504708.849941373        1352692636.4836893     
  -1916614438.1338890        17081990.747015357        1316089500.9740770     
  -1864186538.6504602        10857334.164513946        1302221436.7802093     
  -1811840336.1944938        4360354.1571427584        1291688877.8455384     
  -1759575830.7659853       -2408949.2750866413        1284491824.1700613     
  -1707393022.3649340       -9450576.1321791410        1280630275.7537816     
  -2230647845.2842526        40232061.262963295        1243346809.9720485     
  -2172696620.0847669        23957068.463665724        1229623872.3703146     
  -2113900139.3223011        10499594.207638621        1219133449.9563825     
  -2054258402.9968452       -140361.50508987904        1211875542.7302525     
  -1993771411.1084061       -7962798.6745408773        1207850150.6919239     
  -2545392073.9143209        63168885.334999919        1165560575.8826668     
  -2482211780.3456125        36755279.114855886        1153064209.5619168     
  -2417259278.6234813        16249033.406129360        1143697368.3575757     
  -2350534568.7479172        1650148.2088433504        1137460052.2696443     
  -2282037650.7189212       -7041376.4770056009        1134352261.2981212     
  -1140299797.4791448       -14125196.827808559        1424037232.8816514     
  -1085791782.6895707       -16591662.862236798        1421532182.8806393     
  -1031106318.5340881       -18466631.010302126        1423966954.7907841     
  -976243405.01269329       -19750101.271993279        1431341548.6120846     
  -921203042.12539101       -20442073.647328436        1443655964.3445380     
  -1422902484.4885173       -11504708.849941373        1352692636.4836893     
  -1354950362.9795136       -12213641.868207097        1349604554.5198135     
  -1287090799.8430254       -13231102.794854045        1351512686.6559968     
  -1219323795.0790501       -14557091.629875898        1358417032.8922408     
  -1151649348.6875851       -16191608.373271585        1370317593.2285430     
  -1707393022.3649340       -9450576.1321791410        1280630275.7537816     
  -1625835673.5967748       -8353639.9723720551        1276644152.7988775     
  -1544640890.9395509       -8465257.5156823993        1277710636.1329417     
  -1463808674.3932595       -9785428.7621044517        1283829725.7559729     
  -1383339023.9579060       -12314153.711647809        1295001421.6679685     
  -1993771411.1084061       -7962798.6745408773        1207850150.6919239     
  -1898447714.5413561       -5011657.1747335196        1202650977.7178376     
  -1803756591.8236670       -4169095.1727913618        1202560803.2216222     
  -1709698042.9553318       -5435112.6686899662        1207579627.2032769     
  -1616272067.9363546       -8809709.6624647975        1217707449.6628070     
  -2282037650.7189212       -7041376.4770056009        1134352261.2981212     
  -2172786485.8132544       -2187693.4752867222        1127625029.2766922     
  -2064437902.4953678       -342615.76616561413        1126063187.9220350     
  -1956991900.7652597       -1506143.3496415615        1129666737.2341590     
  -1850448480.6229312       -5678276.2257168293        1138435677.2130587     
  -921203042.12539101       -20442073.647328436        1443655964.3445380     
  -869531110.51442742       -22088002.749637008        1438288730.6380279     
  -817999327.61711776       -24201094.230793327        1437876981.5992920     
  -766607693.43345892       -26781348.090786695        1442420717.2283230     
  -715356207.96344554       -29828764.329596519        1451919937.5251317     
  -1151649348.6875851       -16191608.373271585        1370317593.2285430     
  -1087823472.7711399       -19240760.696492970        1364268414.3257935     
  -1024076509.5397559       -22552955.303246498        1362936759.4258533     
  -960408458.99342537       -26128192.193515420        1366322628.5287189     
  -896819321.13215721       -29966471.367322743        1374426021.6343937     
  -1383339023.9579060       -12314153.711647809        1295001421.6679685     
  -1308039091.3501592       -16970495.540032506        1288341739.6023343     
  -1232756835.3988814       -21685759.556638837        1286161620.8745480     
  -1157492256.1040673       -26459945.761460006        1288461065.4846032     
  -1082245353.4657156       -31293054.154492974        1295240073.4325113     
  -1616272067.9363546       -8809709.6624647975        1217707449.6628070     
  -1530177966.2514837       -15277207.280254543        1210508706.4676466     
  -1444040305.1944942       -21599506.990970850        1207551565.9453740     
  -1357859084.7653756       -27776608.794597864        1208836028.0959802     
  -1271634304.9641299       -33808512.691131651        1214362092.9194689     
  -1850448480.6229312       -5678276.2257168293        1138435677.2130587     
  -1754240097.4751225       -14160895.917187572        1130769314.9217334     
  -1657926918.9265988       -22294197.606262803        1127106594.6383328     
  -1561508944.9773543       -30078181.292936683        1127447516.3628461     
  -1464986175.6273842       -37512846.977202296        1131792080.0952823     
  -715356207.96344554       -29828764.329596519        1451919937.5251317     
  -657432853.73153806       -30833335.582078457        1450966618.8680549     
  -599342130.33029795       -31280009.603446722        1455486130.7319050     
  -541084037.75973272       -31168786.393734008        1465478473.1166806     
  -482658576.01983368       -30499665.952909797        1480943646.0223796     
  -896819321.13215721       -29966471.367322743        1374426021.6343937     
  -825250024.02271104       -31365785.334093690        1372067777.9039207     
  -753572198.33858800       -32403337.385265946        1374824677.2616143     
  -681785844.07978690       -33079127.520851642        1382696719.7074807     
  -609890961.24630809       -33393155.740840018        1395683905.2415221     
  -1082245353.4657156       -31293054.154492974        1295240073.4325113     
  -998052077.57231331       -33393700.063629389        1291408257.2682016     
  -913809113.69888222       -35328719.372678846        1292333896.7593119     
  -829516461.84542501       -37098112.081637532        1298016991.9058418     
  -745174122.01194715       -38701878.190526307        1308457542.7077913     
  -1271634304.9641299       -33808512.691131651        1214362092.9194689     
  -1175839014.3803358       -36917079.770685315        1208988056.9609056     
  -1080052876.4111805       -40056155.565690160        1208013789.2250028     
  -984275891.05664718       -43225740.076108754        1211439289.7117712     
  -888508058.31674302       -46425833.301956296        1219264558.4212048     
  -1464986175.6273842       -37512846.977202296        1131792080.0952823     
  -1358610834.4467969       -41935924.455292761        1124807176.9820247     
  -1252303486.4754879       -46585645.964314222        1121864354.6586843     
  -1146064131.7134545       -51462011.504248083        1122963613.1252592     
  -1039892770.1607050       -56565021.075136065        1128104952.3817477     
  -482658576.01983368       -30499665.952909797        1480943646.0223796     
  -425420410.65651798       -26523253.421725079        1478893038.9364088     
  -365934132.48230529       -15053131.520881668        1482571498.2965212     
  -304199741.49720395        3910699.7495888174        1491979024.1027215     
  -240217237.70120817        30368240.389708906        1507115616.3550062     
  -609890961.24630809       -33393155.740840018        1395683905.2415221     
  -537914236.47291613       -30094908.551768333        1393461371.0135999     
  -463680508.73986900       -19273318.163841799        1397003623.4262908     
  -387189778.04714978       -928384.57700698078        1406310662.4795990     
  -308442044.39477235        24939892.208686918        1421382488.1735158     
  -745174122.01194715       -38701878.190526307        1308457542.7077913     
  -658356780.12983084       -36051179.033994853        1306073453.1781552     
  -569273545.13927889       -25847502.849344105        1309489870.4836581     
  -477924417.04028922       -8090849.6365679502        1318706794.6243076     
  -384309395.83286959        17218780.604308337        1333724225.6001008     
  -888508058.31674302       -46425833.301956296        1219264558.4212048     
  -786748041.62724423       -44392064.868350148        1216729285.4300818     
  -682713241.68053663       -34775685.577389896        1220030239.4686320     
  -576403658.47662950       -17576695.429092258        1229167420.5368521     
  -467819292.01551044        7204905.5765750110        1244140828.6347551     
  -1039892770.1607050       -56565021.075136065        1128104952.3817477     
  -923088020.96516776       -55117566.054878503        1125428867.7693737     
  -803999598.36365569       -46057866.348029077        1128624730.3812006     
  -682627502.35615242       -29385921.954548478        1137692540.2172322     
  -558971732.94268966       -5101732.8745331466        1152632297.2774663     
  -240217237.70120817        30368240.389708906        1507115616.3550062     
  -199491102.22271064        60222303.992382437        1486033617.3949823     
  -154173453.09939584        105381413.07778224        1467696116.5158882     
  -104264290.33127895        165845567.64585471        1452103113.7177253     
  -49763613.918344662        241614767.69665185        1439254609.0004895     
  -308442044.39477235        24939892.208686918        1421382488.1735158     
  -258880267.69404244        55252496.588277444        1404665280.5518520     
  -202872121.63690385        107052998.82256398        1391894404.8409104     
  -140417606.22333884        180341398.91160187        1383069861.0406971     
  -71516721.453377858        275117696.85529876        1378191649.1512117     
  -384309395.83286959        17218780.604308337        1333724225.6001008     
  -322478166.96763802        49020069.043481648        1323535807.6469936     
  -252345713.03438699        108492107.70937820        1318495555.4344087     
  -173912034.03312600        195634896.60197717        1318603468.9623511     
  -87177129.963852063        310448435.72128332        1323859548.2308152     
  -467819292.01551044        7204905.5765750110        1244140828.6347551     
  -390284800.04349792        41525021.358005747        1242645198.6804008     
  -302594227.29186040        109698739.73818614        1247499568.2963722     
  -204747573.76061979        211726060.71704072        1258703937.4826655     
  -96744839.449750736        347606984.29466224        1276258306.2392805     
  -558971732.94268966       -5101732.8745331466        1152632297.2774663     
  -462300166.92161191        32767353.531870276        1161993453.6520805     
  -353617664.40931571        110672894.90900451        1178906443.4268095     
  -232924225.40580717        228614891.25684237        1203371266.6016576     
  -100219849.91108966        386593342.57538247        1235387923.1766272     
  -49763613.918344662        241614767.69665185        1439254609.0004895     
  -40455953.765716091        322570568.29825956        1346258062.7391875     
  -23380792.689365685        429418038.64560395        1253132992.2737103     
   1461869.3106812835        562157178.73860288        1159879397.6040785     
   34072032.234443128        720787988.57732224        1066497278.7302700     
  -71516721.453377858        275117696.85529876        1378191649.1512117     
  -57357949.958689228        376852970.59155762        1296687839.2092874     
  -34229101.814831734        508488499.82504642        1214248914.5497239     
  -2130177.0218193531        670024284.55572212        1130874875.1725399     
   38938824.420363188        861460324.78362894        1046565721.0777284     
  -87177129.963852063        310448435.72128332        1323859548.2308152     
  -70471791.451287597        432271819.29492486        1255251479.6212997     
  -43593800.564094752        588004044.11732233        1184901705.7806947     
  -6543157.3022795916        777645110.18844998        1112810226.7089918     
   40680138.334154367        1001195017.5083237        1038977042.4062041     
  -96744839.449750736        347606984.29466224        1276258306.2392805     
  -79797478.243489921        488827114.40841925        1221948983.9752188     
  -51474888.937144756        667964671.52246249        1165091365.9665945     
  -11777071.530713558        885019655.63678074        1105685452.2134206     
   39295973.975787580        1139992066.7513509        1043731242.7156867     
  -100219849.91108966        386593342.57538247        1235387923.1766272     
  -85335010.335296243        546518855.93205893        1196780352.2710404     
  -57872366.933975399        748370382.04048514        1154817895.1074405     
  -17831919.707111657        992147920.90071976        1109500551.6858137     
   34786331.345287919        1277851472.5127513        1060828322.0061815     
  -3159310370.1082907       -126390891.48334062        1127588494.9597859     
  -2993616110.9548073       -38285330.262132168        1127011315.0059662     
  -2836064975.2046537        22676486.281333089        1133147601.8418384     
  -2686656962.8578253        56494558.147040248        1145997355.4674051     
  -2545392073.9143209        63168885.334999919        1165560575.8826668     
  -3539707030.6640840       -91583535.514694929        1028065491.3981292     
  -3365701755.4087853       -34440550.796508193        1020829735.5833982     
  -3196289739.0055265        7391571.0815408230        1020418812.2503004     
  -3031470981.4543157        33912830.119434118        1026832721.3988376     
  -2871245482.7551417        45123226.317200184        1040071463.0290073     
  -3918059983.7663083       -56163067.309973955        913604086.84813535     
  -3735425504.7179294       -29887202.787435770        903851263.81565619     
  -3553834419.9703164       -7089319.2674341202        901034638.95675182     
  -3373286729.5234632        12230583.250032663        905154212.27141702     
  -3193782433.3773675        28072504.764972210        916209983.75965655     
  -4294369229.4149442       -20129486.869179964        784204281.30980027     
  -4102787358.8822446       -24625286.234916925        776075899.70273435     
  -3908699018.0990210       -20766184.765583992        774995081.96118450     
  -3712104207.0652742       -8552182.4611654282        780961828.08514702     
  -3513002925.7810030        12016720.678321362        793976138.07461917     
  -4668634767.6100140        16517205.807686806        639866074.78312206     
  -4467787317.9017277       -18654801.138948441        637503643.24464214     
  -4260883533.3916392       -33639025.412901163        642300141.26360714     
  -4047923414.0797477       -28435467.014170408        654255568.84002805     
  -3828906959.9660439       -3044125.9427478313        673369925.97389638     
  -2545392073.9143209        63168885.334999919        1165560575.8826668     
  -2482211780.3456125        36755279.114855886        1153064209.5619168     
  -2417259278.6234813        16249033.406129360        1143697368.3575757     
  -2350534568.7479172        1650148.2088433504        1137460052.2696443     
  -2282037650.7189212       -7041376.4770056009        1134352261.2981212     
  -2871245482.7551417        45123226.317200184        1040071463.0290073     
  -2798321421.2638626        24820647.037370086        1030314873.1799783     
  -2724313470.7987099        8131031.0037869215        1023513727.3226000     
  -2649221631.3596845       -4945621.7835502625        1019668025.4568725     
  -2573045902.9467788       -14409311.324632049        1018777767.5827919     
  -3193782433.3773675        28072504.764972210        916209983.75965655     
  -3111611978.6056881        13731740.032811880        908390131.33953643     
  -3029045954.0396848        709541.28172051907        903351641.78630579     
  -2946084359.6793642       -10994091.488310933        901094515.09996676     
  -2862727195.5247302       -21379158.277291656        901618751.28051829     
  -3513002925.7810030        12016720.678321362        793976138.07461917     
  -3422083452.3710871        3488558.1011850834        787289984.04059148     
  -3331456728.3464046       -6015435.7600712776        783211111.74869514     
  -3241122753.7069635       -16495260.905464172        781739521.19892919     
  -3151081528.4527559       -27950917.334964395        782875212.39129162     
  -3828906959.9660439       -3044125.9427478313        673369925.97389638     
  -3729735842.5600634       -5908898.7575218678        667014431.28314614     
  -3631545793.7188683       -12043900.121580601        663092137.20976186     
  -3534336813.4424729       -21449130.034966707        661603043.75375390     
  -3438108901.7308702       -34124588.497673750        662547150.91511846     
  -2282037650.7189212       -7041376.4770056009        1134352261.2981212     
  -2172786485.8132544       -2187693.4752867222        1127625029.2766922     
  -2064437902.4953678       -342615.76616561413        1126063187.9220350     
  -1956991900.7652597       -1506143.3496415615        1129666737.2341590     
  -1850448480.6229312       -5678276.2257168293        1138435677.2130587     
  -2573045902.9467788       -14409311.324632049        1018777767.5827919     
  -2450533366.7047381       -9265850.5150296688        1011529477.8146665     
  -2328639153.7209964       -6183467.2331010103        1009249980.4520775     
  -2207363263.9955564       -5162161.4788435698        1011939275.4950315     
  -2086705697.5284200       -6201933.2522578239        1019597362.9435199     
  -2862727195.5247302       -21379158.277291656        901618751.28051829     
  -2727514997.2641325       -16114432.455147386        894181038.48341656     
  -2592636863.9323545       -11963256.395751953        891515519.83061826     
  -2458092795.5294018       -8925630.0991070271        893622195.32212102     
  -2323882792.0552807       -7001553.5652185678        900501064.95792437     
  -3151081528.4527559       -27950917.334964395        782875212.39129162     
  -3003731377.4914250       -22733439.295633674        775579711.28294206     
  -2856431033.1294422       -17681983.254126906        772859806.05765474     
  -2709180495.3668046       -12796549.210446000        774715496.71543157     
  -2561979764.2035208       -8077137.1645858288        781146783.25627208     
  -3438108901.7308702       -34124588.497673750        662547150.91511846     
  -3279182507.3866272       -29122871.036491394        655725496.21324074     
  -3120021661.3122554       -23339647.808208346        653282839.13319063     
  -2960626363.5077553       -16774918.812836409        655219179.67496336     
  -2800996613.9731283       -9428684.0503699780        661534517.83856559     
  -1850448480.6229312       -5678276.2257168293        1138435677.2130587     
  -1754240097.4751225       -14160895.917187572        1130769314.9217334     
  -1657926918.9265988       -22294197.606262803        1127106594.6383328     
  -1561508944.9773543       -30078181.292936683        1127447516.3628461     
  -1464986175.6273842       -37512846.977202296        1131792080.0952823     
  -2086705697.5284200       -6201933.2522578239        1019597362.9435199     
  -1979733546.1682768       -12359430.318477035        1011509578.6422746     
  -1872810390.7327096       -18680247.133281112        1007161407.2752355     
  -1765936231.2217133       -25164383.696652770        1006552848.8424001     
  -1659111067.6352971       -31811840.008631408        1009683903.3437644     
  -2323882792.0552807       -7001553.5652185678        900501064.95792437     
  -2206901241.2648458       -11060238.640785694        891812435.43391359     
  -2090122477.7242782       -15794881.215927005        886599389.77039158     
  -1973546501.4335861       -21205481.290636659        884861927.96735871     
  -1857173312.3927622       -27292038.864922762        886600050.02481246     
  -2561979764.2035208       -8077137.1645858288        781146783.25627208     
  -2435743182.7648320       -10263320.884122014        771677885.29665077     
  -2309863179.9013128       -13638099.854217649        765420542.12380505     
  -2184339755.6129589       -18201474.074866891        762374753.73773050     
  -2059172909.8997693       -23953443.546065092        762540520.13842750     
  -2800996613.9731283       -9428684.0503699780        661534517.83856559     
  -2666259370.6682339       -9968677.0484931469        651105928.23048878     
  -2532032497.2638068       -12209903.048145771        643624864.33546972     
  -2398315993.7598405       -16152362.049340010        639091326.15351248     
  -2265109860.1563368       -21796054.052095413        637505313.68461049     
  -1464986175.6273842       -37512846.977202296        1131792080.0952823     
  -1358610834.4467969       -41935924.455292761        1124807176.9820247     
  -1252303486.4754879       -46585645.964314222        1121864354.6586843     
  -1146064131.7134545       -51462011.504248083        1122963613.1252592     
  -1039892770.1607050       -56565021.075136065        1128104952.3817477     
  -1659111067.6352971       -31811840.008631408        1009683903.3437644     
  -1542361589.7518365       -35481042.211409569        1001171200.3597479     
  -1425562483.0953908       -38984815.170923114        996422550.52449477     
  -1308713747.6659756       -42323158.887191832        995437953.83800519     
  -1191815383.4635727       -45496073.360176444        998217410.30028045     
  -1857173312.3927622       -27292038.864922762        886600050.02481246     
  -1730844062.4954355       -30445675.199107528        876696772.81600237     
  -1604347561.8428612       -33041809.015822351        870279521.11480880     
  -1477683810.4350526       -35080440.315082490        867348294.92122793     
  -1350852808.2720060       -36561569.096873105        867903094.23525596     
  -2059172909.8997693       -23953443.546065092        762540520.13842750     
  -1924058252.6775765       -26829823.418354750        751383894.35080147     
  -1788658722.7178845       -28756627.498987317        743435266.42963588     
  -1652974320.0206928       -29733855.787942111        738694636.37493026     
  -1517005044.5859978       -29761508.285237312        737162004.18668509     
  -2265109860.1563368       -21796054.052095413        637505313.68461049     
  -2122004160.2982817       -24633486.869184375        625232564.96413565     
  -1978495965.7204649       -26129270.620406270        615889786.46896279     
  -1834585276.4228981       -26283405.305789471        609476978.19910872     
  -1690272092.4055638       -25095890.925287187        605994140.15455663     
  -1039892770.1607050       -56565021.075136065        1128104952.3817477     
  -923088020.96516776       -55117566.054878503        1125428867.7693737     
  -803999598.36365569       -46057866.348029077        1128624730.3812006     
  -682627502.35615242       -29385921.954548478        1137692540.2172322     
  -558971732.94268966       -5101732.8745331466        1152632297.2774663     
  -1191815383.4635727       -45496073.360176444        998217410.30028045     
  -1061561497.0568618       -42417635.740319312        994330286.31735158     
  -929877220.45727205       -34571230.810886383        994540324.67276037     
  -796762553.66480994       -21956858.571867496        998847525.36649942     
  -662217496.67947066       -4574519.0232606828        1007251888.3985761     
  -1350852808.2720060       -36561569.096873105        867903094.23525596     
  -1212220598.6137459       -33373393.065333843        861809433.79982650     
  -1073011281.9757133       -28261527.101210356        858038150.81686473     
  -933224858.35790586       -21225971.204504430        856589245.28636646     
  -792861327.76031959       -12266725.375211895        857462717.20833170     
  -1517005044.5859978       -29761508.285237312        737162004.18668509     
  -1375065325.6358199       -27984838.029896975        727866310.21679866     
  -1233401782.9189692       -27128755.218975782        719118208.81351256     
  -1092014416.4354448       -27193259.852477729        710917699.97681582     
  -950903226.18524253       -28178351.930387020        703264783.70671976     
  -1690272092.4055638       -25095890.925287187        605994140.15455663     
  -1550095678.1230845       -26251970.634020746        592500915.56826746     
  -1411048723.2870388       -31172915.164176881        577780498.66270638     
  -1273131227.8974261       -39858724.515784979        561832889.43786836     
  -1136343191.9542279       -52309398.688780844        544658087.89375854     
  -558971732.94268966       -5101732.8745331466        1152632297.2774663     
  -462300166.92161191        32767353.531870276        1161993453.6520805     
  -353617664.40931571        110672894.90900451        1178906443.4268095     
  -232924225.40580717        228614891.25684237        1203371266.6016576     
  -100219849.91108966        386593342.57538247        1235387923.1766272     
  -662217496.67947066       -4574519.0232606828        1007251888.3985761     
  -547107419.36372268        25651569.356170177        1020799893.6950577     
  -421115044.72547090        92151982.143962085        1042743304.5935363     
  -284240372.76469010        194926719.34016889        1073082121.0940263     
  -136483403.48139763        333975780.94476324        1111816343.1965153     
  -792861327.76031959       -12266725.375211895        857462717.20833170     
  -656902532.85881686        11039426.864533424        873880825.72986066     
  -511190079.80347931        66857772.950377911        899537912.05528080     
  -355723968.59432924        155188312.88227543        934433976.18459308     
  -190504199.23135239        276031046.66025662        978569018.11779535     
  -950903226.18524253       -28178351.930387020        703264783.70671976     
  -791685507.40686083       -11069073.942967385        721236249.75648963     
  -623842769.64336181        34790267.328211099        749290265.81203711     
  -447375012.89472795        109399671.88315728        787426831.87336242     
  -262282237.16096926        212759139.72184813        835645947.94046903     
  -1136343191.9542279       -52309398.688780844        544658087.89375854     
  -951456343.00788069       -40673933.066361010        562866165.77495563     
  -759073114.24509490       -4050534.7224892676        592000365.86381555     
  -559193505.66588211        57560796.342807978        632060688.16034520     
  -351817517.27024388        144160060.12952900        683047132.66453135     
  -100219849.91108966        386593342.57538247        1235387923.1766272     
  -85335010.335296243        546518855.93205893        1196780352.2710404     
  -57872366.933975399        748370382.04048514        1154817895.1074405     
  -17831919.707111657        992147920.90071976        1109500551.6858137     
   34786331.345287919        1277851472.5127513        1060828322.0061815     
  -136483403.48139763        333975780.94476324        1111816343.1965153     
  -127354702.90351290        483025079.91629773        1090220532.0523841     
  -95093760.321641684        709181852.23445249        1070061703.5644476     
  -39700575.735789657        1012446097.8992225        1051339857.7326882     
   38824850.854064882        1392817816.9106441        1034054994.5571439     
  -190504199.23135239        276031046.66025662        978569018.11779535     
  -173440583.61077610        418311447.45885587        986298477.94329906     
  -122690287.80776948        672880782.19889295        1000256789.3392079     
  -38253311.822321653        1039739050.8803985        1020443952.3055172     
   79870344.345560253        1518886253.5033522        1046859966.8422310     
  -262282237.16096926        212759139.72184813        835645947.94046903     
  -223592652.45710316        352377958.55967152        885014189.94380319     
  -140661949.39234275        639467171.93381405        945403152.43175185     
  -13490127.966701210        1074026779.8442187        1016812835.4042970     
   157922811.81982213        1656056782.2908969        1099243238.8614888     
  -351817517.27024388        144160060.12952900        683047132.66453135     
  -277810909.44248068        285224613.21879864        786367668.05387866     
  -149008745.07539096        608941021.43916273        905500792.84205961     
   34588975.831041694        1115309284.7906582        1040446507.0290512     
   272982253.27679926        1804329403.2732427        1191204810.6148713     
  -4668634767.6100140        16517205.807686806        639866074.78312206     
  -4467787317.9017277       -18654801.138948441        637503643.24464214     
  -4260883533.3916392       -33639025.412901163        642300141.26360714     
  -4047923414.0797477       -28435467.014170408        654255568.84002805     
  -3828906959.9660439       -3044125.9427478313        673369925.97389638     
  -5067368384.1399794       -44109882.982790947        466973790.36333805     
  -4835589595.6111155       -32619339.148732185        471113616.00641674     
  -4602602412.0990829       -17100812.037481070        481119568.69694269     
  -4368406833.6038980        2445698.3509535789        496991648.43492866     
  -4133002860.1255593        26020192.016576767        518729855.22037083     
  -5457785145.2547283       -102241915.14871025        311287605.12027830     
  -5198768739.3623934       -45196936.971081257        316273758.15648615     
  -4943391878.3055620       -283774.91177916527        325833235.73015434     
  -4691654562.0842171        32497571.029220104        339966037.84128219     
  -4443556790.6983671        53147100.851915121        358672164.48986685     
  -5839885050.9542542       -157878890.69006085        172807519.05393752     
  -5557324749.1555910       -56387594.606020689        172984069.69485107     
  -5283251932.0110807        16812085.964215994        176441142.36323529     
  -5017666599.5207043        61720151.020647764        183178737.05907896     
  -4760568751.6844749        78336600.563271046        193196853.78239018     
  -6213668101.2385454       -211020809.60683799        51533532.164313659     
  -5911257624.9906960       -66191312.053498507        41244550.621519431     
  -5622182573.2156353        34186770.590497732        32943288.596188847     
  -5346442945.9133635        90113438.325218201        26629746.088332001     
  -5084038743.0838881        101588691.15061808        22303923.097937845     
  -3828906959.9660439       -3044125.9427478313        673369925.97389638     
  -3729735842.5600634       -5908898.7575218678        667014431.28314614     
  -3631545793.7188683       -12043900.121580601        663092137.20976186     
  -3534336813.4424729       -21449130.034966707        661603043.75375390     
  -3438108901.7308702       -34124588.497673750        662547150.91511846     
  -4133002860.1255593        26020192.016576767        518729855.22037083     
  -4030033958.3014364        11856848.051939964        509934446.67068797     
  -3926959593.9664030       -1954954.2096433640        504234572.70601153     
  -3823779767.1204572       -15415214.768180609        501630233.32634991     
  -3720494477.7635899       -28523933.623669386        502121428.53169924     
  -4443556790.6983671        53147100.851915121        358672164.48986685     
  -4334897721.6914368        28252900.566794157        348704461.66957730     
  -4225046659.0978732        7332012.2371101379        342494627.40193874     
  -4114003602.9176917       -9615564.1371695995        340042661.68694597     
  -4001768553.1508846       -22589828.556038857        341348564.52460480     
  -4760568751.6844749        78336600.563271046        193196853.78239018     
  -4644327132.7300415        43279258.787103415        183324476.27982578     
  -4525806989.1132832        15816999.218683720        177872301.29753926     
  -4405008320.8341818       -4050178.1419286728        176840328.83555055     
  -4281931127.8927579       -16322273.294784784        180228558.89384583     
  -5084038743.0838881        101588691.15061808        22303923.097937845     
  -4958322191.4172792        56935922.712776184        13794490.501417993     
  -4829240584.0126247        23500006.735080957        10367594.392823864     
  -4696793920.8699255        1280943.2175364494        12023234.772155456     
  -4560982201.9891949       -9721267.8398995399        18761411.639410209     
  -3438108901.7308702       -34124588.497673750        662547150.91511846     
  -3279182507.3866272       -29122871.036491394        655725496.21324074     
  -3120021661.3122554       -23339647.808208346        653282839.13319063     
  -2960626363.5077553       -16774918.812836409        655219179.67496336     
  -2800996613.9731283       -9428684.0503699780        661534517.83856559     
  -3720494477.7635899       -28523933.623669386        502121428.53169924     
  -3549470152.2759852       -21337259.084429026        495775863.05873728     
  -3378568641.4605045       -14559966.785592079        493853179.97928852     
  -3207789945.3171463       -8192056.7271614075        496353379.29335654     
  -3037134063.8459067       -2233528.9091413021        503276461.00093734     
  -4001768553.1508846       -22589828.556038857        341348564.52460480     
  -3818520911.4579554       -13180581.420161247        335062277.47793388     
  -3635753350.8393960       -5371604.5321786404        333242757.59646815     
  -3453465871.2952046        837102.10790348053        335890004.88020241     
  -3271658472.8253913        5445538.5000689030        343004019.32914209     
  -4281931127.8927579       -16322273.294784784        180228558.89384583     
  -4086334784.9325290       -4652838.0436675549        173584739.47084436     
  -3891575789.4489202        4225438.9520468712        171451571.98472366     
  -3697654141.4419332        10312557.692352533        173829056.43550333     
  -3504569840.9115586        13608518.177287579        180717192.82317752     
  -4560982201.9891949       -9721267.8398995399        18761411.639410209     
  -4352911772.6997013        4245971.0450468063        11343249.037450047     
  -4146035957.2890768        14231163.667087317        8479623.1440691631     
  -3940354755.7573161        20234310.026244640        10170533.959269639     
  -3735868168.1044407        22255410.122465611        16415981.483049072     
  -2800996613.9731283       -9428684.0503699780        661534517.83856559     
  -2666259370.6682339       -9968677.0484931469        651105928.23048878     
  -2532032497.2638068       -12209903.048145771        643624864.33546972     
  -2398315993.7598405       -16152362.049340010        639091326.15351248     
  -2265109860.1563368       -21796054.052095413        637505313.68461049     
  -3037134063.8459067       -2233528.9091413021        503276461.00093734     
  -2895047211.7849355       -5219568.9276610613        493204052.97416019     
  -2753084045.5002899       -8617894.8672451973        486402136.82062757     
  -2611244564.9919558       -12428506.727894068        482870712.54034752     
  -2469528770.2599416       -16651404.509590507        482609780.13331658     
  -3271658472.8253913        5445538.5000689030        343004019.32914209     
  -3121299251.5506482        290279.59846615791        333738924.36182743     
  -2970677031.9280853       -3988318.1437383890        328067287.42795306     
  -2819791813.9576998       -7390254.7265168428        325989108.52751672     
  -2668643597.6394777       -9915530.1498686075        327504387.66052318     
  -3504569840.9115586        13608518.177287579        180717192.82317752     
  -3345015489.9653726        6560868.5298705101        172710542.39349550     
  -3184811456.5471997        1678827.1223828793        168620316.15744185     
  -3023957740.6570711       -1037606.0452477932        168446514.11502159     
  -2862454342.2949724       -1588430.9729589224        172189136.26623175     
  -3735868168.1044407        22255410.122465611        16415981.483049072     
  -3566195927.0290937        13592197.866609335        10118907.069160366     
  -3395487319.3576345        8383540.9311065674        8061223.0090975324     
  -3223742345.0900712        6629439.3159605265        10242929.302854324     
  -3050961004.2263885        8329893.0212143660        16664025.950437948     
  -2265109860.1563368       -21796054.052095413        637505313.68461049     
  -2122004160.2982817       -24633486.869184375        625232564.96413565     
  -1978495965.7204649       -26129270.620406270        615889786.46896279     
  -1834585276.4228981       -26283405.305789471        609476978.19910872     
  -1690272092.4055638       -25095890.925287187        605994140.15455663     
  -2469528770.2599416       -16651404.509590507        482609780.13331658     
  -2318958127.9486632       -18130873.754943490        472318324.01146275     
  -2168206454.1934304       -19006904.853777528        464525784.88099504     
  -2017273748.9942436       -19279497.806089997        459232162.74190682     
  -1866160012.3511043       -18948652.611913443        456437457.59420282     
  -2668643597.6394777       -9915530.1498686075        327504387.66052318     
  -2511839593.5433407       -10406510.023971200        318935850.31552130     
  -2355076021.2790508       -11032262.670918465        312435176.72797114     
  -2198352880.8466187       -11792788.090712667        308002366.89788091     
  -2041670172.2460437       -12688086.283365965        305637420.82524139     
  -2862454342.2949724       -1588430.9729589224        172189136.26623175     
  -2700648557.0823298       -1460395.6763257980        165085143.87630352     
  -2539104666.9773397       -2205344.0718634129        159617962.00990361     
  -2377822671.9800234       -3823276.1596474648        155787590.66702113     
  -2216802572.0903668       -6314191.9396370649        153594029.84767929     
  -3050961004.2263885        8329893.0212143660        16664025.950437948     
  -2885385018.5656095        8707469.2880790234        10766204.693800885     
  -2720292391.2883034        7473850.9433559179        6074140.7267716182     
  -2555683122.3944454        4629037.9871456623        2587834.0493347738     
  -2391557211.8840857        173030.41927313805        307284.66151084780     
  -1690272092.4055638       -25095890.925287187        605994140.15455663     
  -1550095678.1230845       -26251970.634020746        592500915.56826746     
  -1411048723.2870388       -31172915.164176881        577780498.66270638     
  -1273131227.8974261       -39858724.515784979        561832889.43786836     
  -1136343191.9542279       -52309398.688780844        544658087.89375854     
  -1866160012.3511043       -18948652.611913443        456437457.59420282     
  -1728862529.5019910       -22578574.538362026        442788161.49840516     
  -1591624687.5357981       -26407299.407894611        428722381.74645704     
  -1454446486.4525244       -30434827.220487118        414240118.33836228     
  -1317327926.2521710       -34661157.976151943        399341371.27412218     
  -2041670172.2460437       -12688086.283365965        305637420.82524139     
  -1904935310.3642058       -18096957.287707448        293080174.87735945     
  -1767190270.8017969       -20138569.356798410        280917153.93645126     
  -1628435053.5587895       -18812922.490559399        269148358.00253320     
  -1488669658.6351891       -14120016.689028800        257773787.07558763     
  -2216802572.0903668       -6314191.9396370649        153594029.84767929     
  -2078314020.7097428       -12807118.882063627        143376955.70513177     
  -1937745473.0850246       -12366725.010847211        134364815.23270613     
  -1795096929.2162237       -4993010.3260090351        126557608.43036959     
  -1650368389.1032984        9314025.1725519896        119955335.29815437     
  -2391557211.8840857        173030.41927313805        307284.66151084780     
  -2248998660.5385785       -6709059.3213695288       -6321496.0182595300     
  -2103290294.3855038       -3091766.3701081276       -10934634.364802191     
  -1954432113.4247904        11024909.273280740       -13532130.378102725     
  -1802424117.6564927        35640967.608607173       -14113984.058178747     
  -1136343191.9542279       -52309398.688780844        544658087.89375854     
  -951456343.00788069       -40673933.066361010        562866165.77495563     
  -759073114.24509490       -4050534.7224892676        592000365.86381555     
  -559193505.66588211        57560796.342807978        632060688.16034520     
  -351817517.27024388        144160060.12952900        683047132.66453135     
  -1317327926.2521710       -34661157.976151943        399341371.27412218     
  -1117698093.7187068       -14735037.918125331        421196385.73230565     
  -914448794.51306486        17255971.047173917        441552806.64161307     
  -707580028.63523030        61311868.919763684        460410634.00205469     
  -497091796.08520049        117432655.69967145        477769867.81362408     
  -1488669658.6351891       -14120016.689028800        257773787.07558763     
  -1309796030.3904457        3447001.4417830706        278752672.77580780     
  -1131179848.6177440        20155864.665790200        285808249.17063057     
  -952821113.31708944        36006572.982972622        278940516.26004314     
  -774719824.48846900        50999126.393353701        258149474.04406068     
  -1650368389.1032984        9314025.1725519896        119955335.29815437     
  -1527750153.0230651        13872185.013457537        135535026.90547249     
  -1409266276.5591204        4649146.1333977580        124766693.45086142     
  -1294916759.7114403       -18355091.467542589        87650334.934302568     
  -1184701602.4800539       -55140527.789462328        24185951.355819408     
  -1802424117.6564927        35640967.608607173       -14113984.058178747     
  -1771560461.6165740        16540512.796871543       -8456551.8787036948     
  -1748708078.3371801       -29264184.549956441       -41571860.517700762     
  -1733866967.8183112       -101773124.43185788       -113459909.97516738     
  -1727037130.0599599       -200986306.84882790       -224120700.25108561     
  -351817517.27024388        144160060.12952900        683047132.66453135     
  -277810909.44248068        285224613.21879864        786367668.05387866     
  -149008745.07539096        608941021.43916273        905500792.84205961     
   34588975.831041694        1115309284.7906582        1040446507.0290512     
   272982253.27679926        1804329403.2732427        1191204810.6148713     
  -497091796.08520049        117432655.69967145        477769867.81362408     
  -388265034.54227495        223058689.42973933        597058796.60480547     
  -230308055.10959157        492452116.12564468        735497989.47633243     
  -23220857.787159681        925612935.78736150        893087446.42822206     
   232996557.42501098        1522541148.4149301        1069827167.4604584     
  -774719824.48846900        50999126.393353701        258149474.04406068     
  -621536695.85455871        124047504.77696651        386797234.47920984     
  -424888687.98048484        341978813.96113402        537932933.67624247     
  -184775800.86624655        704793053.94583285        711556571.63515949     
   98801965.488161504        1212490224.7310989        907668148.35597610     
  -1184701602.4800539       -55140527.789462328        24185951.355819408     
  -977625893.37936282       -11808940.739592493        155582981.67709574     
  -732750643.68809259        157521114.94556814        312805625.44177604     
  -450075853.40623182        452849639.26601779        495853882.64988768     
  -129601522.53378785        874176632.22174489        704727753.30141366     
  -1727037130.0599599       -200986306.84882790       -224120700.25108561     
  -1456532627.1166699       -184510647.11990237       -96583961.801544055     
  -1153893922.2323759       -60920980.920940399        60116064.772960939     
  -819121015.40710902        169782691.74794674        245979379.47241542     
  -452213906.64082009        507600370.88685232        461005982.29681891     
 </DataArray>
 <DataArray  type="Float64" Name="VM" NumberOfComponents="1" format="ascii">
   6285827676.3406277     
   5976544353.3404474     
   5680359427.2851667     
   5395952019.7705650     
   5122637195.8566685     
   5868983006.6809540     
   5593276640.6989698     
   5325121651.6678362     
   5064147087.0169573     
   4810332563.7016850     
   5476751473.3433981     
   5230948606.2132835     
   4988784676.0216990     
   4750438612.1370506     
   4516255568.1777725     
   5105510188.7383785     
   4887021560.4683371     
   4670261113.5505161     
   4455442761.3742790     
   4242909797.0256963     
   4751967065.3313446     
   4559144563.5031996     
   4368637343.6351156     
   4180051997.7661586     
   3993291532.2729087     
   5122637195.8566685     
   4982547807.7732410     
   4843941657.4136181     
   4706739689.2977057     
   4570886922.6311274     
   4810332563.7016850     
   4680432843.3800344     
   4551608321.6048670     
   4423835374.1213465     
   4297110494.2736158     
   4516255568.1777725     
   4396525778.8689728     
   4277600666.9472585     
   4159499404.6146202     
   4042264031.0608535     
   4242909797.0256963     
   4133598405.0593529     
   4024994623.2240410     
   3917145269.2573037     
   3810130915.4667168     
   3993291532.2729087     
   3894938935.8794532     
   3797411233.8782177     
   3700763942.0137305     
   3605106701.4165401     
   4570886922.6311274     
   4365963651.9060888     
   4160939591.2047787     
   3955807573.5259171     
   3750607203.7594934     
   4297110494.2736158     
   4104054837.3006639     
   3911403148.5644941     
   3719223597.8845706     
   3527653722.4296236     
   4042264031.0608535     
   3862042956.5897136     
   3682906120.3340545     
   3505020265.0848188     
   3328648194.7195158     
   3810130915.4667168     
   3643831981.4133997     
   3479488223.0643096     
   3317383958.1076512     
   3157926798.4688816     
   3605106701.4165401     
   3453890753.3587399     
   3305687655.0673094     
   3160906316.4992294     
   3020100521.9766293     
   3750607203.7594934     
   3576836447.6468558     
   3403269695.2267570     
   3229895676.7009640     
   3056750708.4459138     
   3527653722.4296236     
   3364109758.1602511     
   3201365343.8700275     
   3039480120.6055784     
   2878573363.4537830     
   3328648194.7195158     
   3175367035.3556681     
   3023530614.2783337     
   2873275384.6317978     
   2724808713.3640947     
   3157926798.4688816     
   3015011227.8641148     
   2874219977.3639121     
   2735766621.5198517     
   2599943838.7052221     
   3020100521.9766293     
   2887685255.0101848     
   2758078461.8951669     
   2631562307.8946400     
   2508500496.0426812     
   3056750708.4459138     
   2889864755.4263058     
   2723167932.9553866     
   2556645412.6676316     
   2390284652.8662457     
   2878573363.4537830     
   2715804042.1881905     
   2553374513.4069028     
   2391311868.0105033     
   2229662346.9130192     
   2724808713.3640947     
   2568216955.0580711     
   2412464949.3362517     
   2257687214.0554342     
   2104076024.9791994     
   2599943838.7052221     
   2451917639.0289745     
   2305638343.6130953     
   2161417533.5854135     
   2019680493.7993214     
   2508500496.0426812     
   2371574966.5853539     
   2237695693.9485083     
   2107390479.7920947     
   1981352428.7588289     
   2390284652.8662457     
   2245139504.7678947     
   2101995084.1766791     
   1960867462.8974502     
   1821914825.3371005     
   2229662346.9130192     
   2087101576.6285546     
   1946057737.5390279     
   1806536484.6614637     
   1668610372.9689975     
   2104076024.9791994     
   1963561051.1072922     
   1823957983.2044406     
   1685295098.0158186     
   1547627670.8366969     
   2019680493.7993214     
   1882225917.9417403     
   1745169323.1015370     
   1608636401.1778817     
   1472800223.0781956     
   1981352428.7588289     
   1849603515.1386395     
   1718100582.8277812     
   1587195155.0669286     
   1457388432.2233143     
   1821914825.3371005     
   1780732385.8279467     
   1736138861.7062092     
   1696742069.2217026     
   1680936138.5908694     
   1668610372.9689975     
   1552946816.5877290     
   1428230073.1184068     
   1294832543.7753575     
   1158850404.1321325     
   1547627670.8366969     
   1397705955.3904824     
   1244238390.3929780     
   1084972698.1163967     
   917895146.98443234     
   1472800223.0781956     
   1328675742.1779201     
   1198991428.4544284     
   1088228966.8323355     
   1002289278.7828301     
   1457388432.2233143     
   1348632604.8116684     
   1274801947.8132596     
   1244015269.9212587     
   1263288136.8283553     
   1680936138.5908694     
   1383561603.2402136     
   1129445324.7074335     
   1010182040.3393408     
   1152784506.1957929     
   1158850404.1321325     
   1008477593.6981579     
   985319655.26167119     
   1161531759.1064806     
   1543951257.4756608     
   917895146.98443234     
   963280499.80115020     
   1145051546.7197797     
   1476537797.8962882     
   1957405249.6013772     
   1002289278.7828301     
   1164887106.3985896     
   1425525053.4837825     
   1808788949.5390215     
   2334769540.4110880     
   1263288136.8283553     
   1446910111.1845376     
   1715767852.2747071     
   2110474777.1279662     
   2663514962.5046043     
   4751967065.3313446     
   4559144563.5031996     
   4368637343.6351156     
   4180051997.7661586     
   3993291532.2729087     
   4436841530.6378469     
   4261275260.3631215     
   4089210825.7131572     
   3921084815.7925582     
   3757577996.4680510     
   4155578464.7461958     
   3994575564.9400630     
   3839459692.1092429     
   3691097766.5618582     
   3550583327.9209146     
   3918221289.6781168     
   3767835244.2883444     
   3626991441.6553764     
   3496468853.6023674     
   3377295863.2100506     
   3736942196.5107470     
   3591521707.6557770     
   3460594720.8016095     
   3344245888.5810547     
   3242881367.0068316     
   3993291532.2729087     
   3894938935.8794532     
   3797411233.8782177     
   3700763942.0137305     
   3605106701.4165401     
   3757577996.4680510     
   3667966800.7947726     
   3579958831.7739921     
   3493681634.7847505     
   3409304418.3153019     
   3550583327.9209146     
   3469451735.4822140     
   3390781714.0217381     
   3314731562.1809931     
   3241490779.6202259     
   3377295863.2100506     
   3304171982.4740596     
   3234405683.8934803     
   3168135219.3907375     
   3105523113.7007861     
   3242881367.0068316     
   3176993742.0713243     
   3115344275.7175622     
   3057994275.2640252     
   3005028591.2204547     
   3605106701.4165401     
   3453890753.3587399     
   3305687655.0673094     
   3160906316.4992294     
   3020100521.9766293     
   3409304418.3153019     
   3273697932.5099974     
   3142104436.1354666     
   3015042426.2188473     
   2893176319.1097627     
   3241490779.6202259     
   3122021150.4006805     
   3007596389.9162502     
   2898810684.2145147     
   2796390616.3198352     
   3105523113.7007861     
   3002525934.5242195     
   2905561678.6421576     
   2815249727.8155899     
   2732314427.1345201     
   3005028591.2204547     
   2918495577.5420947     
   2838850972.2308412     
   2766680396.8304462     
   2702638798.2466035     
   3020100521.9766293     
   2887685255.0101848     
   2758078461.8951669     
   2631562307.8946400     
   2508500496.0426812     
   2893176319.1097627     
   2772127405.0797992     
   2654724825.3546600     
   2541368005.5199628     
   2432552558.0252719     
   2796390616.3198352     
   2688466841.3059635     
   2585168847.8498297     
   2487002800.8600473     
   2394575081.5280390     
   2732314427.1345201     
   2639076597.6342883     
   2551499899.3761516     
   2470160929.7884369     
   2395726299.1299152     
   2702638798.2466035     
   2625231238.9003763     
   2554470458.1778393     
   2490950405.0157967     
   2435334273.5107412     
   2508500496.0426812     
   2371574966.5853539     
   2237695693.9485083     
   2107390479.7920947     
   1981352428.7588289     
   2432552558.0252719     
   2309984306.2084661     
   2192170543.3731232     
   2079852387.2985382     
   1973944856.3518195     
   2394575081.5280390     
   2288208020.2155123     
   2188300618.5277891     
   2095694028.0801830     
   2011362887.3319566     
   2395726299.1299152     
   2306437352.4222121     
   2225066948.6689591     
   2152412507.9038749     
   2089338518.0632422     
   2435334273.5107412     
   2362859048.5794010     
   2299359295.2595215     
   2245475584.2003274     
   2201857227.2350373     
   1981352428.7588289     
   1849603515.1386395     
   1718100582.8277812     
   1587195155.0669286     
   1457388432.2233143     
   1973944856.3518195     
   1856887067.5234053     
   1744324505.6416428     
   1637180925.6498623     
   1536589004.3818889     
   2011362887.3319566     
   1914143090.7420919     
   1825754593.4374647     
   1747403333.3999453     
   1680390595.6946478     
   2089338518.0632422     
   2013611704.8644288     
   1950258785.8594308     
   1900372243.6318834     
   1864996389.2175763     
   2201857227.2350373     
   2146321114.1680014     
   2105726129.2355669     
   2080861002.8320444     
   2072419416.6960404     
   1457388432.2233143     
   1348632604.8116684     
   1274801947.8132596     
   1244015269.9212587     
   1263288136.8283553     
   1536589004.3818889     
   1475993631.2263875     
   1448057538.1663795     
   1456739914.5714085     
   1505316904.1290059     
   1680390595.6946478     
   1652159858.7681108     
   1651626564.8493659     
   1681152126.5277958     
   1743335229.8117836     
   1864996389.2175763     
   1854704592.5706332     
   1867361409.6358094     
   1905170594.5264776     
   1971164830.3537967     
   2072419416.6960404     
   2069031159.5438249     
   2084850622.8195660     
   2122508610.1479592     
   2185832479.6412425     
   1263288136.8283553     
   1446910111.1845376     
   1715767852.2747071     
   2110474777.1279662     
   2663514962.5046043     
   1505316904.1290059     
   1613524040.7910144     
   1788941876.5475297     
   2066343845.2396855     
   2475966331.2623372     
   1743335229.8117836     
   1787949774.7468319     
   1884724448.5824974     
   2060577800.6156633     
   2340750445.7513542     
   1971164830.3537967     
   1969143116.6692615     
   2003680453.4652047     
   2093444786.5767574     
   2257085618.7800274     
   2185832479.6412425     
   2156386915.5826473     
   2146550133.7840028     
   2166824103.4942594     
   2228251049.6323905     
   3736942196.5107470     
   3591521707.6557770     
   3460594720.8016095     
   3344245888.5810547     
   3242881367.0068316     
   3495537398.2606359     
   3379874645.0981932     
   3274735094.1452832     
   3180796872.6503782     
   3098885234.5578113     
   3274408830.2877874     
   3187554161.7800012     
   3109508613.2785249     
   3040891631.2823563     
   2982520597.8087044     
   3073296405.8130636     
   3014945562.8804789     
   2966360708.7061410     
   2927198715.9773254     
   2897686038.4917002     
   2893535458.4051771     
   2863431862.8668823     
   2847237698.0633111     
   2842420463.3871980     
   2847840479.3272882     
   3242881367.0068316     
   3176993742.0713243     
   3115344275.7175622     
   3057994275.2640252     
   3005028591.2204547     
   3098885234.5578113     
   3039776276.6761875     
   2985260830.2354727     
   2935423904.3413262     
   2890371699.0221148     
   2982520597.8087044     
   2929921231.4798570     
   2882367460.1709733     
   2839954322.3280077     
   2802794651.4602804     
   2897686038.4917002     
   2850977761.2980728     
   2809850813.6153684     
   2774395575.8326654     
   2744716124.7071509     
   2847840479.3272882     
   2805995292.0912623     
   2770335293.3964577     
   2740933131.5199952     
   2717870928.0258884     
   3005028591.2204547     
   2918495577.5420947     
   2838850972.2308412     
   2766680396.8304462     
   2702638798.2466035     
   2890371699.0221148     
   2818754675.0368195     
   2754817769.9122176     
   2699111019.3518906     
   2652232693.2097688     
   2802794651.4602804     
   2745970255.1105642     
   2697550026.7164493     
   2658009670.4080815     
   2627852410.4810462     
   2744716124.7071509     
   2701979694.1535964     
   2668275868.6720042     
   2643977577.5996385     
   2629469916.0014510     
   2717870928.0258884     
   2687868412.6876683     
   2667433004.5627103     
   2656823345.0023069     
   2656302859.7919626     
   2702638798.2466035     
   2625231238.9003763     
   2554470458.1778393     
   2490950405.0157967     
   2435334273.5107412     
   2652232693.2097688     
   2590218921.4841447     
   2535668113.1783810     
   2489087344.3769379     
   2451017160.2533498     
   2627852410.4810462     
   2580254597.6601295     
   2540718580.4985757     
   2509634799.8388491     
   2487400923.8027191     
   2629469916.0014510     
   2594701773.7209673     
   2568388753.5930829     
   2550798651.4677253     
   2542192564.9756927     
   2656302859.7919626     
   2632260936.6820178     
   2616908950.6543560     
   2610406111.4832835     
   2612901594.3979192     
   2435334273.5107412     
   2362859048.5794010     
   2299359295.2595215     
   2245475584.2003274     
   2201857227.2350373     
   2451017160.2533498     
   2393823772.9748340     
   2346284237.0913434     
   2308922675.4174604     
   2282242633.4721932     
   2487400923.8027191     
   2444613809.4928951     
   2411958320.5934906     
   2389825389.9155064     
   2378571818.5482163     
   2542192564.9756927     
   2512460598.3997192     
   2493203356.3454838     
   2484686957.5477285     
   2487143319.1735520     
   2612901594.3979192     
   2594550070.7918644     
   2586967989.5592384     
   2590318979.8804789     
   2604740528.0010009     
   2201857227.2350373     
   2146321114.1680014     
   2105726129.2355669     
   2080861002.8320444     
   2072419416.6960404     
   2282242633.4721932     
   2241934837.1770415     
   2215498605.5430179     
   2203391049.7604003     
   2206002913.3969874     
   2378571818.5482163     
   2350425969.4051700     
   2335044498.1641612     
   2332676654.8384619     
   2343540655.6002455     
   2487143319.1735520     
   2468394887.0807633     
   2461386313.3339953     
   2466249194.0854850     
   2483113745.8931103     
   2604740528.0010009     
   2593003966.2339683     
   2592127142.6369495     
   2602183674.6607337     
   2623266751.7623224     
   2072419416.6960404     
   2069031159.5438249     
   2084850622.8195660     
   2122508610.1479592     
   2185832479.6412425     
   2206002913.3969874     
   2191655642.4359593     
   2192296864.5927033     
   2209897235.3979235     
   2247386395.6981506     
   2343540655.6002455     
   2319088510.8557634     
   2306189953.5022287     
   2306252003.0894947     
   2321367487.4465942     
   2483113745.8931103     
   2450360575.1531086     
   2426212536.8016286     
   2411615461.4595251     
   2407945936.3873706     
   2623266751.7623224     
   2584694998.7478724     
   2552081969.9656086     
   2526007948.9050703     
   2507277933.4217734     
   2185832479.6412425     
   2156386915.5826473     
   2146550133.7840028     
   2166824103.4942594     
   2228251049.6323905     
   2247386395.6981506     
   2182658209.4132824     
   2134367263.1290290     
   2112165388.7174580     
   2126966268.2580369     
   2321367487.4465942     
   2224674638.9857588     
   2141297307.7137346     
   2079592372.4568007     
   2049719920.3541317     
   2407945936.3873706     
   2282729457.5359001     
   2167986955.1922574     
   2070455915.3809602     
   1998902292.3180368     
   2507277933.4217734     
   2357030931.6211939     
   2214906378.6474352     
   2085886850.8813555     
   1976854306.3182294     
   2893535458.4051771     
   2863431862.8668823     
   2847237698.0633111     
   2842420463.3871980     
   2847840479.3272882     
   2671975210.4365029     
   2675400287.3192282     
   2691091990.2502270     
   2718473023.6057463     
   2757374916.4017782     
   2536032448.4062095     
   2559471654.9040890     
   2594316931.6252089     
   2640679579.7671299     
   2698660639.9034839     
   2496490121.2465410     
   2523575507.2054358     
   2562406090.5391312     
   2612334991.6933346     
   2673057088.6172252     
   2556807382.4091601     
   2570171757.0939670     
   2596921555.8097253     
   2634260514.5087180     
   2680826127.6548734     
   2847840479.3272882     
   2805995292.0912623     
   2770335293.3964577     
   2740933131.5199952     
   2717870928.0258884     
   2757374916.4017782     
   2722458657.2203269     
   2693666724.4309111     
   2671052254.8371029     
   2654673432.1715002     
   2698660639.9034839     
   2669966183.4835887     
   2647368191.8536282     
   2630891214.0783901     
   2620566342.9875336     
   2673057088.6172252     
   2649727368.0033846     
   2632508387.1826544     
   2621387544.3675208     
   2616366431.0392585     
   2680826127.6548734     
   2661874930.2634773     
   2649104096.9997993     
   2642456341.7136846     
   2641902031.4721241     
   2717870928.0258884     
   2687868412.6876683     
   2667433004.5627103     
   2656823345.0023069     
   2656302859.7919626     
   2654673432.1715002     
   2635515487.6549244     
   2625965371.5922341     
   2626171447.0053711     
   2636280520.3446846     
   2620566342.9875336     
   2609448333.4743915     
   2607903650.5013518     
   2615996757.7465229     
   2633789776.9524121     
   2616366431.0392585     
   2610138449.0481606     
   2613420356.5723729     
   2626226211.3019915     
   2648569210.2099795     
   2641902031.4721241     
   2637257300.3993530     
   2642065783.3307600     
   2656326347.2975197     
   2680038440.7517638     
   2656302859.7919626     
   2632260936.6820178     
   2616908950.6543560     
   2610406111.4832835     
   2612901594.3979192     
   2636280520.3446846     
   2619791466.5265641     
   2612015479.0829039     
   2613043125.2209554     
   2622957430.0848465     
   2633789776.9524121     
   2622966726.6473131     
   2620894037.2811007     
   2627611991.8791132     
   2643156836.7700572     
   2648569210.2099795     
   2641359012.6515484     
   2642982616.9021835     
   2653450036.7482858     
   2672770140.9699183     
   2680038440.7517638     
   2674300323.4891291     
   2677549458.5046396     
   2689785987.1029277     
   2711010071.6083374     
   2612901594.3979192     
   2594550070.7918644     
   2586967989.5592384     
   2590318979.8804789     
   2604740528.0010009     
   2622957430.0848465     
   2612278173.7264972     
   2611963553.1851273     
   2622099875.9773264     
   2642758031.5455832     
   2643156836.7700572     
   2638316669.5165472     
   2643527768.6810246     
   2658826634.2209001     
   2684242869.2609630     
   2672770140.9699183     
   2671953728.4067645     
   2680992270.7937584     
   2699894888.8661890     
   2728669123.0455189     
   2711010071.6083374     
   2712457834.0281048     
   2723696272.4992781     
   2744725175.7162285     
   2775544528.8562741     
   2604740528.0010009     
   2593003966.2339683     
   2592127142.6369495     
   2602183674.6607337     
   2623266751.7623224     
   2642758031.5455832     
   2632336157.7489181     
   2632025194.1252251     
   2641862088.0315027     
   2661896428.5823164     
   2684242869.2609630     
   2674872769.0740285     
   2675039099.9962134     
   2684756255.7305632     
   2704045008.0616713     
   2728669123.0455189     
   2720222035.9344978     
   2720894045.3578277     
   2730688066.7490821     
   2749608942.4548025     
   2775544528.8562741     
   2768013040.3566179     
   2769325528.1148911     
   2779481940.4844127     
   2798482250.4693761     
   2623266751.7623224     
   2584694998.7478724     
   2552081969.9656086     
   2526007948.9050703     
   2507277933.4217734     
   2661896428.5823164     
   2616478031.3478985     
   2576764822.2444754     
   2543086719.3767600     
   2515903812.2350535     
   2704045008.0616713     
   2653859548.8691134     
   2609269617.7871718     
   2570422003.5142474     
   2537521964.7840886     
   2749608942.4548025     
   2696744283.0947032     
   2649508456.1410565     
   2607937818.3109870     
   2572083188.8243575     
   2798482250.4693761     
   2745028450.8875256     
   2697378903.1195064     
   2655533606.9728298     
   2619492562.6615763     
   2507277933.4217734     
   2357030931.6211939     
   2214906378.6474352     
   2085886850.8813555     
   1976854306.3182294     
   2515903812.2350535     
   2348090526.0005131     
   2183804677.8543801     
   2026146650.6151052     
   1879683277.3930414     
   2537521964.7840886     
   2357237464.5516281     
   2176680958.9598169     
   1997323424.7728894     
   1821442400.1952927     
   2572083188.8243575     
   2384576351.4789801     
   2194001939.0092525     
   2000737540.2522047     
   1805386103.3999100     
   2619492562.6615763     
   2430077105.8699622     
   2235910330.9137912     
   2036992238.4395187     
   1833322829.4372296     
   2556807382.4091601     
   2570171757.0939670     
   2596921555.8097253     
   2634260514.5087180     
   2680826127.6548734     
   2607780265.1276774     
   2603192494.8874073     
   2609390633.7366629     
   2625550139.6176066     
   2651294509.2985072     
   2682949946.8001537     
   2662353279.5849752     
   2652306383.1897354     
   2652868748.9604287     
   2664129692.1830459     
   2782217599.8304930     
   2747612196.1935730     
   2725425715.6715431     
   2715665906.9479017     
   2718438300.2799926     
   2906329362.5750012     
   2858981427.1369157     
   2827854855.3772745     
   2812128559.9962850     
   2811549846.1797767     
   2680826127.6548734     
   2661874930.2634773     
   2649104096.9997993     
   2642456341.7136846     
   2641902031.4721241     
   2651294509.2985072     
   2633986921.9251461     
   2622855014.2500610     
   2617885759.1105371     
   2619071444.3586855     
   2664129692.1830459     
   2644990819.2410760     
   2631859912.9206123     
   2624766125.9253550     
   2623740229.6483998     
   2718438300.2799926     
   2694207372.5474238     
   2675649149.6184611     
   2662826734.6228304     
   2655820333.3881373     
   2811549846.1797767     
   2779415074.8839340     
   2752452688.0866141     
   2730741380.0971737     
   2714410122.3164477     
   2641902031.4721241     
   2637257300.3993530     
   2642065783.3307600     
   2656326347.2975197     
   2680038440.7517638     
   2619071444.3586855     
   2612627852.9195118     
   2615438124.6172171     
   2627519456.2642660     
   2648888131.7574897     
   2623740229.6483998     
   2612835705.6398344     
   2611039418.3007340     
   2618412984.1812048     
   2635014334.9173737     
   2655820333.3881373     
   2638024278.0679636     
   2629214317.4041486     
   2629518812.5580902     
   2639060195.1940441     
   2714410122.3164477     
   2687650503.3824515     
   2669742658.3237281     
   2660897636.6191988     
   2661320960.1488280     
   2680038440.7517638     
   2674300323.4891291     
   2677549458.5046396     
   2689785987.1029277     
   2711010071.6083374     
   2648888131.7574897     
   2641271158.8436761     
   2642570241.8186827     
   2652796640.5008025     
   2671960749.6291270     
   2635014334.9173737     
   2623287419.3886766     
   2620467150.2480083     
   2626598170.9261780     
   2641721759.1299725     
   2639060195.1940441     
   2621058278.7018423     
   2611990393.4679737     
   2611957200.9038739     
   2621053089.3848104     
   2661320960.1488280     
   2635031203.7050023     
   2617705628.3652120     
   2609522252.2941666     
   2610651371.3368859     
   2711010071.6083374     
   2712457834.0281048     
   2723696272.4992781     
   2744725175.7162285     
   2775544528.8562741     
   2671960749.6291270     
   2671672813.0103106     
   2681174467.5238862     
   2700472425.6535068     
   2729571677.0300732     
   2641721759.1299725     
   2637854415.7894578     
   2643902768.7816978     
   2659898895.3494954     
   2685867735.7029290     
   2621053089.3848104     
   2611727583.3305917     
   2612554271.7129712     
   2623612633.3453960     
   2644966546.2775822     
   2610651371.3368859     
   2593995025.2757058     
   2587810199.9288831     
   2592249980.5911531     
   2607441438.1483235     
   2775544528.8562741     
   2768013040.3566179     
   2769325528.1148911     
   2779481940.4844127     
   2798482250.4693761     
   2729571677.0300732     
   2720789636.2182875     
   2721184869.6996155     
   2730761050.0511394     
   2749523100.7727594     
   2685867735.7029290     
   2675871729.6201439     
   2675531882.6348581     
   2684863758.9641585     
   2703888468.2826123     
   2644966546.2775822     
   2633656772.9124722     
   2632644626.0155950     
   2641968822.5191879     
   2661680141.2834697     
   2607441438.1483235     
   2594566695.4727364     
   2592813274.0603404     
   2602257987.8328595     
   2622997134.8281755     
   2798482250.4693761     
   2745028450.8875256     
   2697378903.1195064     
   2655533606.9728298     
   2619492562.6615763     
   2749523100.7727594     
   2696712092.5030007     
   2649513913.9805880     
   2607965248.7083173     
   2572117509.8527546     
   2703888468.2826123     
   2653807726.8073220     
   2609290223.2754116     
   2570483337.7531362     
   2537593364.8181930     
   2661680141.2834697     
   2616416905.0720410     
   2576809641.1396723     
   2543188982.6664667     
   2516016274.1958790     
   2622997134.8281755     
   2584632464.3264203     
   2552159356.9988956     
   2526158728.8940067     
   2507436784.0173764     
   2619492562.6615763     
   2430077105.8699622     
   2235910330.9137912     
   2036992238.4395187     
   1833322829.4372296     
   2572117509.8527546     
   2384596964.9493728     
   2194021475.5653129     
   2000770056.7848172     
   1805447742.1605442     
   2537593364.8181930     
   2357277743.6832895     
   2176714618.7336140     
   1997376837.1488202     
   1821544100.5993812     
   2516016274.1958790     
   2348150285.1911259     
   2183847119.6218600     
   2026208375.9168091     
   1879801021.2304273     
   2507436784.0173764     
   2357110661.4233069     
   2214952265.0599618     
   2085943834.6468129     
   1976964049.4693208     
   2906329362.5750012     
   2858981427.1369157     
   2827854855.3772745     
   2812128559.9962850     
   2811549846.1797767     
   3004701381.1497264     
   2953124386.0987649     
   2915208610.9858608     
   2891294286.9486847     
   2881861636.9413471     
   3172248326.4685707     
   3107966832.3218584     
   3054521684.9200740     
   3012797660.9528213     
   2983742115.6479907     
   3395633320.8675327     
   3313010399.4452395     
   3238185350.6611161     
   3171926153.7908044     
   3115266579.0900345     
   3662277441.6843700     
   3557956592.9406662     
   3458346601.7441869     
   3363484589.7367873     
   3274048726.9168472     
   2811549846.1797767     
   2779415074.8839340     
   2752452688.0866141     
   2730741380.0971737     
   2714410122.3164477     
   2881861636.9413471     
   2838494273.5219879     
   2800004106.1944952     
   2766520602.0159369     
   2738201209.9688735     
   2983742115.6479907     
   2929657222.2728720     
   2880289074.6488199     
   2835777127.5982933     
   2796280763.4420228     
   3115266579.0900345     
   3051091704.3321052     
   2991611311.7467947     
   2936939948.3793406     
   2887216272.6657200     
   3274048726.9168472     
   3200411203.8855376     
   3131583559.3373055     
   3067627800.7288136     
   3008644527.3884540     
   2714410122.3164477     
   2687650503.3824515     
   2669742658.3237281     
   2660897636.6191988     
   2661320960.1488280     
   2738201209.9688735     
   2698849410.6647086     
   2668240578.5496602     
   2646715535.0937362     
   2634619944.9279151     
   2796280763.4420228     
   2742132501.1012673     
   2696394772.4133458     
   2659542044.8912539     
   2632077105.7429690     
   2887216272.6657200     
   2816686456.6476884     
   2753995760.2249732     
   2699731506.1226602     
   2654544861.1418152     
   3008644527.3884540     
   2920764819.0278916     
   2839938656.2478390     
   2766823606.4902630     
   2702182791.3930697     
   2661320960.1488280     
   2635031203.7050023     
   2617705628.3652120     
   2609522252.2941666     
   2610651371.3368859     
   2634619944.9279151     
   2597399561.6087775     
   2568839273.2944627     
   2549212805.8327050     
   2538788892.4625111     
   2632077105.7429690     
   2582349609.3011465     
   2540878108.8627381     
   2508038480.7980747     
   2484211754.5326867     
   2654544861.1418152     
   2591195697.1251001     
   2535561227.0881062     
   2488109672.4117427     
   2449332691.7169485     
   2702182791.3930697     
   2624620919.2632565     
   2554087777.7462382     
   2491116464.4702706     
   2436287307.3463387     
   2610651371.3368859     
   2593995025.2757058     
   2587810199.9288831     
   2592249980.5911531     
   2607441438.1483235     
   2538788892.4625111     
   2510746255.8022995     
   2492976425.8448458     
   2485744142.3156133     
   2489280336.4942904     
   2484211754.5326867     
   2442764887.9590311     
   2411305084.6155720     
   2390239458.6204829     
   2379942455.7324166     
   2449332691.7169485     
   2392803393.8141823     
   2345793658.9306655     
   2308869181.7559891     
   2282579766.6138368     
   2436287307.3463387     
   2363510308.0142159     
   2299529031.8995733     
   2245055544.1474814     
   2200821975.8413877     
   2607441438.1483235     
   2594566695.4727364     
   2592813274.0603404     
   2602257987.8328595     
   2622997134.8281755     
   2489280336.4942904     
   2469670570.5593481     
   2461969086.8501067     
   2466310273.1236467     
   2482828132.8703856     
   2379942455.7324166     
   2351272505.3881116     
   2335447992.5095458     
   2332717991.1468449     
   2343302897.0151749     
   2282579766.6138368     
   2242165968.0760050     
   2215623220.0658092     
   2203401118.5678034     
   2205886805.5501075     
   2200821975.8413877     
   2145698367.6167421     
   2105442357.6199524     
   2080821267.9304457     
   2072512325.5659485     
   2622997134.8281755     
   2584632464.3264203     
   2552159356.9988956     
   2526158728.8940067     
   2507436784.0173764     
   2482828132.8703856     
   2450230451.1313939     
   2426199829.7698779     
   2411681976.0064592     
   2408052443.2897449     
   2343302897.0151749     
   2318931680.6928453     
   2306104508.4083791     
   2306227871.7040415     
   2321390617.1052232     
   2205886805.5501075     
   2191518744.2984939     
   2192158024.4077697     
   2209775259.5421152     
   2247292850.1003289     
   2072512325.5659485     
   2068968307.1017461     
   2084680080.9526451     
   2122280760.3130505     
   2185587499.9188023     
   2507436784.0173764     
   2357110661.4233069     
   2214952265.0599618     
   2085943834.6468129     
   1976964049.4693208     
   2408052443.2897449     
   2282788134.4434638     
   2168026422.7986493     
   2070506773.6602788     
   1998996072.1563544     
   2321390617.1052232     
   2224692563.0120010     
   2141321709.4733992     
   2079640061.7878935     
   2049814008.3598080     
   2247292850.1003289     
   2182614192.8100634     
   2134367247.4584763     
   2112212675.7921412     
   2127076328.7436471     
   2185587499.9188023     
   2156258739.3083410     
   2146515901.9916594     
   2166873738.5792732     
   2228392446.6372461     
   3662277441.6843700     
   3557956592.9406662     
   3458346601.7441869     
   3363484589.7367873     
   3274048726.9168472     
   3922306781.2406912     
   3786752947.1542902     
   3655641119.0078645     
   3529437414.8096724     
   3408943022.7194438     
   4199799440.7405424     
   4036520388.6434498     
   3878167781.0515671     
   3725370136.6301136     
   3578968283.3011413     
   4494496400.0704746     
   4305731019.2522297     
   4122989523.8415461     
   3946865632.6534805     
   3778193094.1282825     
   4806435476.9098186     
   4593186096.9389267     
   4387547893.0832567     
   4189933054.0471606     
   4001145244.9752731     
   3274048726.9168472     
   3200411203.8855376     
   3131583559.3373055     
   3067627800.7288136     
   3008644527.3884540     
   3408943022.7194438     
   3329462599.7607307     
   3253742849.1183815     
   3181896652.8545108     
   3114068311.1677008     
   3578968283.3011413     
   3492930489.5753527     
   3409604331.0677085     
   3329122764.1590748     
   3251647349.3553424     
   3778193094.1282825     
   3685387634.8210979     
   3594281415.1197133     
   3505001522.0814538     
   3417704087.2417021     
   4001145244.9752731     
   3901749670.7881837     
   3803104715.8695321     
   3705312954.2115264     
   3608509309.6425080     
   3008644527.3884540     
   2920764819.0278916     
   2839938656.2478390     
   2766823606.4902630     
   2702182791.3930697     
   3114068311.1677008     
   3008665653.5622368     
   2909287893.7520547     
   2816584412.6184578     
   2731331885.7628045     
   3251647349.3553424     
   3129588562.0621352     
   3012522599.8283987     
   2901041488.0144377     
   2795874812.4846678     
   3417704087.2417021     
   3280122790.0978565     
   3146575976.0922341     
   3017566378.5858617     
   2893731670.5837812     
   3608509309.6425080     
   3456633424.0489573     
   3307959356.3413463     
   3162888255.3067126     
   3021943906.5522466     
   2702182791.3930697     
   2624620919.2632565     
   2554087777.7462382     
   2491116464.4702706     
   2436287307.3463387     
   2731331885.7628045     
   2639030915.6173248     
   2552627166.5189571     
   2472685025.3480225     
   2399847267.2420235     
   2795874812.4846678     
   2689259158.7970428     
   2587281130.3996711     
   2490467296.9231091     
   2399443782.9506631     
   2893731670.5837812     
   2773880251.6029115     
   2657396767.8631773     
   2544711978.5129485     
   2436359311.1100993     
   3021943906.5522466     
   2890376466.2990203     
   2761010806.8601699     
   2634151705.1943040     
   2510192495.5134697     
   2436287307.3463387     
   2363510308.0142159     
   2299529031.8995733     
   2245055544.1474814     
   2200821975.8413877     
   2399847267.2420235     
   2309208716.9669862     
   2226375219.2041101     
   2152167322.2710581     
   2087482904.2446234     
   2399443782.9506631     
   2291253605.7942104     
   2189559693.0013628     
   2095190081.1874588     
   2009108783.1701007     
   2436359311.1100993     
   2311889081.6872487     
   2192436809.4615154     
   2078717922.7116156     
   1971614859.8854632     
   2510192495.5134697     
   2371493914.0243187     
   2236379452.5697045     
   2105364900.9941349     
   1979120349.9904523     
   2200821975.8413877     
   2145698367.6167421     
   2105442357.6199524     
   2080821267.9304457     
   2072512325.5659485     
   2087482904.2446234     
   2012401871.8489449     
   1949628474.1743762     
   1900238775.6929324     
   1865259422.3442795     
   2009108783.1701007     
   1912663888.1695507     
   1824969970.3029277     
   1747222361.2238586     
   1680708386.2609577     
   1971614859.8854632     
   1855390772.0889711     
   1743544741.9419527     
   1636994641.3218482     
   1536866990.7750654     
   1979120349.9904523     
   1848232863.0136762     
   1717420933.2283816     
   1587033409.0512204     
   1457576067.3601036     
   2072512325.5659485     
   2068968307.1017461     
   2084680080.9526451     
   2122280760.3130505     
   2185587499.9188023     
   1865259422.3442795     
   1854754960.6753647     
   1867237867.1752660     
   1904917524.3627064     
   1970826333.2784662     
   1680708386.2609577     
   1652240214.6253908     
   1651504664.0738502     
   1680871120.6901419     
   1742946365.1564891     
   1536866990.7750654     
   1476031986.6125422     
   1447895551.4766088     
   1456426591.5769558     
   1504916548.3627353     
   1457576067.3601036     
   1348584083.9905195     
   1274569357.5258276     
   1243664096.9745646     
   1262907708.0938106     
   2185587499.9188023     
   2156258739.3083410     
   2146515901.9916594     
   2166873738.5792732     
   2228392446.6372461     
   1970826333.2784662     
   1968956675.3113751     
   2003625873.3050399     
   2093505294.7688801     
   2257251003.1994357     
   1742946365.1564891     
   1787728264.4396791     
   1884653369.8430564     
   2060633798.4486556     
   2340903271.2671041     
   1504916548.3627353     
   1613289611.7991090     
   1788858325.5384383     
   2066380723.1010554     
   2476073834.0405326     
   1262907708.0938106     
   1446683385.7711406     
   1715676358.9449749     
   2110478759.4430771     
   2663546639.8126721     
   4806435476.9098186     
   4593186096.9389267     
   4387547893.0832567     
   4189933054.0471606     
   4001145244.9752731     
   5109876765.4965982     
   4887954698.9539061     
   4669042865.6256161     
   4453613156.3651886     
   4242307533.4439158     
   5434202573.9348345     
   5205224108.1185265     
   4975361537.1096983     
   4744668241.3084316     
   4513327031.3734789     
   5770335856.3264847     
   5537458281.4191837     
   5300495310.7365532     
   5058768819.6252890     
   4811865886.3471489     
   6111542759.0664043     
   5878875525.0970860     
   5639642335.1567249     
   5392261714.0184879     
   5135732025.7168112     
   4001145244.9752731     
   3901749670.7881837     
   3803104715.8695321     
   3705312954.2115264     
   3608509309.6425080     
   4242307533.4439158     
   4131488498.0960836     
   4021951760.1827917     
   3913755692.7982726     
   3806986659.1964722     
   4513327031.3734789     
   4390830709.8975048     
   4270123983.3477893     
   4151198221.4404616     
   4034082189.9552212     
   4811865886.3471489     
   4676908619.6688528     
   4544191834.9128141     
   4413625623.8894224     
   4285178730.3269396     
   5135732025.7168112     
   4987091152.7839918     
   4841066671.2906618     
   4697480684.0237761     
   4556245229.5735989     
   3608509309.6425080     
   3456633424.0489573     
   3307959356.3413463     
   3162888255.3067126     
   3021943906.5522466     
   3806986659.1964722     
   3641543463.3471956     
   3478134428.1981883     
   3317047644.7103000     
   3158681112.7881975     
   4034082189.9552212     
   3855871567.1760006     
   3678634754.8471551     
   3502539709.2162123     
   3327844652.4290185     
   4285178730.3269396     
   4095062338.3333769     
   3904998145.9525690     
   3715041640.7912035     
   3525317443.1990004     
   4556245229.5735989     
   4355080627.7751598     
   4153195795.2228880     
   3950550051.2645030     
   3747153320.0984092     
   3021943906.5522466     
   2890376466.2990203     
   2761010806.8601699     
   2634151705.1943040     
   2510192495.5134697     
   3158681112.7881975     
   3015951826.1244144     
   2874992409.8937011     
   2736017388.5454388     
   2599320121.4073339     
   3327844652.4290185     
   3174517311.4016690     
   3022577437.3607130     
   2872150449.8863878     
   2723430433.2439561     
   3525317443.1990004     
   3361637201.4727821     
   3199011099.2509599     
   3037483580.4373245     
   2877159687.8944082     
   3747153320.0984092     
   3573054401.3929935     
   3399715514.0613065     
   3227110939.2212801     
   3055270803.7893414     
   2510192495.5134697     
   2371493914.0243187     
   2236379452.5697045     
   2105364900.9941349     
   1979120349.9904523     
   2599320121.4073339     
   2450531490.9815869     
   2303827730.3474498     
   2159526705.2038870     
   2018057601.6127424     
   2723430433.2439561     
   2566800963.2777319     
   2411093150.1121206     
   2256449893.7377801     
   2103072963.9009695     
   2877159687.8944082     
   2715017506.4511728     
   2553016148.6704326     
   2391186635.1890364     
   2229580582.4702559     
   3055270803.7893414     
   2889808758.4316430     
   2724057322.8110490     
   2558004709.7291236     
   2391643791.0092268     
   1979120349.9904523     
   1848232863.0136762     
   1717420933.2283816     
   1587033409.0512204     
   1457576067.3601036     
   2018057601.6127424     
   1881123136.4120421     
   1744518450.3460417     
   1608371741.8769667     
   1472859376.2580183     
   2103072963.9009695     
   1962732908.5503128     
   1823327089.0008554     
   1684886210.7319062     
   1547468469.1126344     
   2229580582.4702559     
   2086769472.2985289     
   1945561255.6945875     
   1805958322.5215116     
   1668035368.6106002     
   2391643791.0092268     
   2245678339.6314330     
   2101831448.5140967     
   1960107963.0978446     
   1820670407.2165878     
   1457576067.3601036     
   1348584083.9905195     
   1274569357.5258276     
   1243664096.9745646     
   1262907708.0938106     
   1472859376.2580183     
   1328614320.3784873     
   1198833062.3588407     
   1088000713.1736243     
   1002026762.0541062     
   1547468469.1126344     
   1397569872.8828111     
   1244119400.4687169     
   1084848286.6610534     
   917728284.64885461     
   1668035368.6106002     
   1552583469.8691475     
   1428042408.7019103     
   1294768609.4585731     
   1158873666.0304668     
   1820670407.2165878     
   1779948627.3546054     
   1735755304.9238646     
   1696705874.8642161     
   1681259109.8423927     
   1262907708.0938106     
   1446683385.7711406     
   1715676358.9449749     
   2110478759.4430771     
   2663546639.8126721     
   1002026762.0541062     
   1164709588.5001354     
   1425425709.6024575     
   1808758580.4590371     
   2334793910.1726651     
   917728284.64885461     
   963136556.14640999     
   1144944697.0721757     
   1476496634.0548871     
   1957468354.4655526     
   1158873666.0304668     
   1008446976.6970333     
   985242195.48997307     
   1161495146.9020321     
   1544085353.9506161     
   1681259109.8423927     
   1383752535.7546022     
   1129481307.4112554     
   1010136395.0174181     
   1152943644.6571271     
 </DataArray>
 <DataArray  type="Float64" Name="strain" NumberOfComponents="3" format="ascii">
  0.10275967366420913       -3.8528097228331726E-002  -5.0963416711358178E-003
   9.8284337084883266E-002  -3.4769489930658648E-002  -4.0366843178490930E-003
   9.3809000505557405E-002  -3.1711464493285657E-002  -2.7987995059027826E-003
   8.9333663926231655E-002  -2.9354020916211643E-002  -1.3826872352965536E-003
   8.4858327346905793E-002  -2.7697159199437382E-002   2.1165249396859487E-004
   9.6836991199471867E-002  -3.2865380541796663E-002   5.6972933425254446E-003
   9.2553656918707372E-002  -3.0274107131982753E-002   6.0031742285888146E-003
   8.8270322637942822E-002  -2.8126790801822565E-002   6.5148322531151659E-003
   8.3986988357178355E-002  -2.6423431551316184E-002   7.2322674161048039E-003
   7.9703654076413777E-002  -2.5164029380463471E-002   8.1554797175573124E-003
   9.0719026897586263E-002  -2.7202663855261711E-002   1.5195282078004690E-002
   8.6655244595186448E-002  -2.5778724333306691E-002   1.5004011277490625E-002
   8.2591462292786688E-002  -2.4542117110359696E-002   1.5046067295242882E-002
   7.8527679990386984E-002  -2.3492842186420615E-002   1.5321450131261946E-002
   7.4463897687987141E-002  -2.2630899561489615E-002   1.5830159785547138E-002
   8.4405780758552179E-002  -2.1539947168726675E-002   2.3397624535302475E-002
   8.0589100114320578E-002  -2.1283341534630698E-002   2.2965826828856617E-002
   7.6772419470088935E-002  -2.0957443418896882E-002   2.2794905620480532E-002
   7.2955738825857430E-002  -2.0562252821525101E-002   2.2884860910174588E-002
   6.9139058181625745E-002  -2.0097769742515620E-002   2.3235692697938376E-002
   7.7897252782369697E-002  -1.5877230482191640E-002   3.0304320714417909E-002
   7.4355223476109733E-002  -1.6787958735954622E-002   2.9888620882686290E-002
   7.0813194169849769E-002  -1.7372769727433873E-002   2.9761347228827784E-002
   6.7271164863589861E-002  -1.7631663456629580E-002   2.9922499752842696E-002
   6.3729135557329897E-002  -1.7564639923541570E-002   3.0372078454731055E-002
   8.4858327346905793E-002  -2.7697159199437382E-002   2.1165249396859487E-004
   8.2668342804369299E-002  -2.6436334287238294E-002   3.6840730599896343E-005
   8.0478358261832916E-002  -2.5267001123889576E-002  -1.4281125205961587E-005
   7.8288373719296478E-002  -2.4189159709391783E-002   5.8286926550188412E-005
   7.6098389176760040E-002  -2.3202810043744249E-002   2.5454488586884594E-004
   7.9703654076413777E-002  -2.5164029380463471E-002   8.1554797175573124E-003
   7.7639793516977695E-002  -2.4150062619446133E-002   7.8288161673579215E-003
   7.5575932957541642E-002  -2.3183009598446380E-002   7.6307106757971532E-003
   7.3512072398105574E-002  -2.2262870317463476E-002   7.5611632428742304E-003
   7.1448211838669562E-002  -2.1389644776497740E-002   7.6201738685896525E-003
   7.4463897687987141E-002  -2.2630899561489615E-002   1.5830159785547138E-002
   7.2531029262727253E-002  -2.1863790951654277E-002   1.5396222457350756E-002
   7.0598160837467366E-002  -2.1099018073002740E-002   1.5095711338868112E-002
   6.8665292412207493E-002  -2.0336580925535169E-002   1.4928626430099998E-002
   6.6732423986947592E-002  -1.9576479509251454E-002   1.4894967731045566E-002
   6.9139058181625745E-002  -2.0097769742515620E-002   2.3235692697938376E-002
   6.7342050041617918E-002  -1.9577519283862158E-002   2.2739059600577982E-002
   6.5545041901610007E-002  -1.9015026547559377E-002   2.2380720864007581E-002
   6.3748033761602110E-002  -1.8410291533606862E-002   2.2160676488226977E-002
   6.1951025621594207E-002  -1.7763314242004946E-002   2.2078926473236234E-002
   6.3729135557329897E-002  -1.7564639923541570E-002   3.0372078454731055E-002
   6.2072855853649744E-002  -1.7291247616070177E-002   2.9857327597040267E-002
   6.0416576149969647E-002  -1.6931035022115931E-002   2.9485739251215226E-002
   5.8760296446289537E-002  -1.6484002141678646E-002   2.9257313417255446E-002
   5.7104016742609398E-002  -1.5950148974758382E-002   2.9172050095161828E-002
   7.6098389176760040E-002  -2.3202810043744249E-002   2.5454488586884594E-004
   7.2663959866203442E-002  -2.2257782544749916E-002   2.6588945365557670E-005
   6.9229530555646845E-002  -2.1303907630210145E-002  -7.2895567297392994E-006
   6.5795101245090221E-002  -2.0341185300125735E-002   1.5290937958326034E-004
   6.2360671934533651E-002  -1.9369615554495900E-002   5.0718575430475088E-004
   7.1448211838669562E-002  -2.1389644776497740E-002   7.6201738685896525E-003
   6.8210569522281717E-002  -2.0532644544186684E-002   7.3409722393422139E-003
   6.4972927205894038E-002  -1.9661181189166571E-002   7.2612671600241763E-003
   6.1735284889506331E-002  -1.8775254711438170E-002   7.3810586306353870E-003
   5.8497642573118569E-002  -1.7874865111001004E-002   7.7003466511759155E-003
   6.6732423986947592E-002  -1.9576479509251454E-002   1.4894967731045566E-002
   6.3696987776249797E-002  -1.8807506543623426E-002   1.4570136120217597E-002
   6.0661551565552072E-002  -1.8018454748123122E-002   1.4450220170839856E-002
   5.7626115354854283E-002  -1.7209324122750943E-002   1.4535219882912724E-002
   5.4590679144156523E-002  -1.6380114667506163E-002   1.4825135256436278E-002
   6.1951025621594207E-002  -1.7763314242004946E-002   2.2078926473236234E-002
   5.9123214628107469E-002  -1.7082368543060403E-002   2.1714080587991354E-002
   5.6295403634620850E-002  -1.6375728307079777E-002   2.1559569475718073E-002
   5.3467592641134168E-002  -1.5643393534063660E-002   2.1615393136416194E-002
   5.0639781647647486E-002  -1.4885364224011516E-002   2.1881551570086123E-002
   5.7104016742609398E-002  -1.5950148974758382E-002   2.9172050095161828E-002
   5.4489250077854878E-002  -1.5357230542497075E-002   2.8772805642663490E-002
   5.1874483413100414E-002  -1.4733001866036169E-002   2.8589315074658034E-002
   4.9259716748345894E-002  -1.4077462945376141E-002   2.8621578391145167E-002
   4.6644950083591374E-002  -1.3390613780516647E-002   2.8869595592125097E-002
   6.2360671934533651E-002  -1.9369615554495900E-002   5.0718575430475088E-004
   5.9489862042739095E-002  -1.8399693525693706E-002   2.7314838236858208E-004
   5.6619052150944649E-002  -1.7441914346091408E-002   2.1711804724261485E-004
   5.3748242259150147E-002  -1.6496278015688724E-002   3.3909474892654390E-004
   5.0877432367355646E-002  -1.5562784534485674E-002   6.3907848741973083E-004
   5.8497642573118569E-002  -1.7874865111001004E-002   7.7003466511759155E-003
   5.5799114861493249E-002  -1.6974539281798207E-002   7.4032835978640188E-003
   5.3100587149867901E-002  -1.6088804117771915E-002   7.2727778680804489E-003
   5.0402059438242539E-002  -1.5217659618922880E-002   7.3088294618250671E-003
   4.7703531726617177E-002  -1.4361105785250405E-002   7.5114383790980677E-003
   5.4590679144156523E-002  -1.6380114667506163E-002   1.4825135256436278E-002
   5.2052983899418870E-002  -1.5549385037902652E-002   1.4462598705771296E-002
   4.9515288654681189E-002  -1.4735693889452881E-002   1.4255169765353196E-002
   4.6977593409943549E-002  -1.3939041222157372E-002   1.4202848435181555E-002
   4.4439898165205854E-002  -1.3159427036015470E-002   1.4305634715257531E-002
   5.0639781647647486E-002  -1.4885364224011516E-002   2.1881551570086123E-002
   4.8251469156515986E-002  -1.4124230794007125E-002   2.1451093706090593E-002
   4.5863156665384583E-002  -1.3382583661133839E-002   2.1164293739060664E-002
   4.3474844174253166E-002  -1.2660422825391473E-002   2.1021151668996506E-002
   4.1086531683121687E-002  -1.1957748286780367E-002   2.1021667495897262E-002
   4.6644950083591374E-002  -1.3390613780516647E-002   2.8869595592125097E-002
   4.4394570632784708E-002  -1.2699076550111488E-002   2.8368768598822425E-002
   4.2144191181978041E-002  -1.2029473432814658E-002   2.8000149789203455E-002
   3.9893811731171375E-002  -1.1381804428625873E-002   2.7763739163268852E-002
   3.7643432280364708E-002  -1.0756069537545376E-002   2.7659536721018174E-002
   5.0877432367355646E-002  -1.5562784534485674E-002   6.3907848741973083E-004
   4.8118149778876074E-002  -1.4640915826122480E-002   3.9185951521525375E-004
   4.5358867190396446E-002  -1.3730153814238921E-002   1.9901072344041815E-004
   4.2599584601916846E-002  -1.2830498498835219E-002   6.0532112095890156E-005
   3.9840302013437245E-002  -1.1941949879911595E-002  -2.3576318819662490E-005
   4.7703531726617177E-002  -1.4361105785250405E-002   7.5114383790980677E-003
   4.5007905005239546E-002  -1.3512550420347491E-002   7.1775156884721358E-003
   4.2312278283862054E-002  -1.2665401327806247E-002   6.9165345516198906E-003
   3.9616651562484492E-002  -1.1819658507626674E-002   6.7284949685419704E-003
   3.6921024841106931E-002  -1.0975321959809214E-002   6.6133969392382363E-003
   4.4439898165205854E-002  -1.3159427036015470E-002   1.4305634715257531E-002
   4.1826498684274571E-002  -1.2384185014572502E-002   1.3894708730327693E-002
   3.9213099203343357E-002  -1.1600648841373129E-002   1.3575295672516474E-002
   3.6599699722412095E-002  -1.0808818516417462E-002   1.3347395541823875E-002
   3.3986300241480860E-002  -1.0008694039706056E-002   1.3211008338249119E-002
   4.1086531683121687E-002  -1.1957748286780367E-002   2.1021667495897262E-002
   3.8573930815980990E-002  -1.1255819608797846E-002   2.0543438640782244E-002
   3.6061329948840329E-002  -1.0535896354940455E-002   2.0175294086129898E-002
   3.3548729081699660E-002  -9.7979785252090279E-003   1.9917233831940266E-002
   3.1036128214558978E-002  -9.0420661196030649E-003   1.9769257878213417E-002
   3.7643432280364708E-002  -1.0756069537545376E-002   2.7659536721018174E-002
   3.5250201400358838E-002  -1.0127454203022801E-002   2.7123705419835664E-002
   3.2856970520353024E-002  -9.4711438685075866E-003   2.6716529792460475E-002
   3.0463739640347209E-002  -8.7871385339999344E-003   2.6438009838891829E-002
   2.8070508760341395E-002  -8.0754381995001845E-003   2.6288145559130394E-002
   3.9840302013437245E-002  -1.1941949879911595E-002  -2.3576318819662490E-005
   3.7439858911442081E-002  -1.1134322968519017E-002  -2.8321414705190229E-004
   3.5039415809446972E-002  -1.0477432775711393E-002  -4.6659740321808307E-004
   3.2638972707451863E-002  -9.9712793014857387E-003  -5.7372608731648400E-004
   3.0238529605456699E-002  -9.6158625458433455E-003  -6.0460019934893694E-004
   3.6921024841106931E-002  -1.0975321959809214E-002   6.6133969392382363E-003
   3.4580929755335443E-002  -1.0182390241918249E-002   6.1963350748294177E-003
   3.2240834669563956E-002  -9.4908619115192661E-003   5.8237146708011167E-003
   2.9900739583792468E-002  -8.9007369686129878E-003   5.4955357271526950E-003
   2.7560644498021092E-002  -8.4120154131985814E-003   5.2117982438854016E-003
   3.3986300241480860E-002  -1.0008694039706056E-002   1.3211008338249119E-002
   3.1674740060246759E-002  -9.2304575153164814E-003   1.2685855768754584E-002
   2.9363179879012657E-002  -8.5042910473282218E-003   1.2173331547954663E-002
   2.7051619697778556E-002  -7.8301946357404520E-003   1.1673435675848665E-002
   2.4740059516544427E-002  -7.2081682805535952E-003   1.1186168152437115E-002
   3.1036128214558978E-002  -9.0420661196030649E-003   1.9769257878213417E-002
   2.8721289826176034E-002  -8.2785247887147695E-003   1.9185347934724539E-002
   2.6406451437793146E-002  -7.5177201831364143E-003   1.8582253228243799E-002
   2.4091613049410175E-002  -6.7596523028678086E-003   1.7959973758771151E-002
   2.1776774661027315E-002  -6.0043211479090530E-003   1.7318509526306453E-002
   2.8070508760341395E-002  -8.0754381995001845E-003   2.6288145559130394E-002
   2.5720579053123360E-002  -7.3265920621136127E-003   2.5694811572738452E-002
   2.3370649345905326E-002  -6.5311493189448289E-003   2.5050479711668794E-002
   2.1020719638687291E-002  -5.6891099699954983E-003   2.4355149975920476E-002
   1.8670789931469256E-002  -4.8004740152640668E-003   2.3608822365494220E-002
   3.0238529605456699E-002  -9.6158625458433455E-003  -6.0460019934893694E-004
   2.9622332158770082E-002  -9.1350669624015168E-003  -3.6817055981464009E-004
   2.9006134712083409E-002  -8.2527770047758908E-003  -1.8069609858951674E-003
   2.8389937265396792E-002  -6.9689926729681606E-003  -4.9209714775904079E-003
   2.7773739818710119E-002  -5.2837139669779098E-003  -9.7102020348995843E-003
   2.7560644498021092E-002  -8.4120154131985814E-003   5.2117982438854016E-003
   2.5537749408022614E-002  -7.8704750124298783E-003   5.8783181578734300E-003
   2.3514854318024303E-002  -7.1218935334597111E-003   5.4066628508526726E-003
   2.1491959228025964E-002  -6.1662709762887180E-003   3.7968323228236844E-003
   1.9469064138027625E-002  -5.0036073409163162E-003   1.0488265737853553E-003
   2.4740059516544427E-002  -7.2081682805535952E-003   1.1186168152437115E-002
   2.1847511627840127E-002  -6.6058830624580178E-003   1.2088325044897263E-002
   1.8954963739135799E-002  -5.9910100621425877E-003   1.2389351560954998E-002
   1.6062415850431513E-002  -5.3635492796079293E-003   1.2089247700609443E-002
   1.3169867961727200E-002  -4.7235007148540564E-003   1.1188013463860780E-002
   2.1776774661027315E-002  -6.0043211479090530E-003   1.7318509526306453E-002
   1.8551618818222725E-002  -5.3412911124860463E-003   1.8261850101257915E-002
   1.5326462975418079E-002  -4.8601265908254920E-003   1.9141105144411488E-002
   1.2101307132613492E-002  -4.5608275829273695E-003   1.9956274655767908E-002
   8.8761512898088354E-003  -4.4433940887919077E-003   2.0707358635327133E-002
   1.8670789931469256E-002  -4.8004740152640668E-003   2.3608822365494220E-002
   1.5650070979170150E-002  -4.0766991625142968E-003   2.4398893326954108E-002
   1.2629352026871016E-002  -3.7292431195088127E-003   2.5661923601222381E-002
   9.6086330745719095E-003  -3.7581058862473024E-003   2.7397913188299344E-002
   6.5879141222727755E-003  -4.1632874627296479E-003   2.9606862088184305E-002
   2.7773739818710119E-002  -5.2837139669779098E-003  -9.7102020348995843E-003
   2.3349745029894731E-002  -4.2089004321339551E-003  -4.1823552667925590E-003
   1.8925750241079453E-002  -4.7565116137685548E-003   2.6070496167569512E-003
   1.4501755452263926E-002  -6.9265475118771291E-003   1.0658012615749501E-002
   1.0077760663448787E-002  -1.0719008126462981E-002   1.9970533730184314E-002
   1.9469064138027625E-002  -5.0036073409163162E-003   1.0488265737853553E-003
   1.6234642473768601E-002  -4.6922335275348948E-003   6.7441451360581439E-003
   1.3000220809509466E-002  -6.2904804363356215E-003   1.3557051832001399E-002
   9.7657991452505810E-003  -9.7983480673200785E-003   2.1487546661614509E-002
   6.5313774809914182E-003  -1.5215836420487516E-002   3.0535629624897531E-002
   1.3169867961727200E-002  -4.7235007148540564E-003   1.1188013463860780E-002
   1.0981049440251855E-002  -5.1755666229345021E-003   1.6763607814593351E-002
   8.7922309187765113E-003  -7.8244492589049641E-003   2.3312820317223648E-002
   6.6034123973010492E-003  -1.2670148622764041E-002   3.0835650971751033E-002
   4.4145938758258230E-003  -1.9712664714512051E-002   3.9332099778176310E-002
   8.8761512898088354E-003  -4.4433940887919077E-003   2.0707358635327133E-002
   7.5889659293445766E-003  -5.6588997183352197E-003   2.5876032768813451E-002
   6.3017805688802657E-003  -9.3584180814736129E-003   3.1874355072424684E-002
   5.0145952084158767E-003  -1.5541949178207275E-002   3.8702325546160217E-002
   3.7274098479515710E-003  -2.4209493008536365E-002   4.6359944190020375E-002
   6.5879141222727755E-003  -4.1632874627296479E-003   2.9606862088184305E-002
   6.0583919410467924E-003  -6.1422328137351601E-003   3.4081419998717943E-002
   5.5288697598207814E-003  -1.0892386904042012E-002   3.9241656097603717E-002
   4.9993475785947150E-003  -1.8413749733650557E-002   4.5087570384842207E-002
   4.4698253973687319E-003  -2.8706321302561122E-002   5.1619162860431445E-002
   7.7897252782369697E-002  -1.5877230482191640E-002   3.0304320714417909E-002
   7.4355223476109733E-002  -1.6787958735954622E-002   2.9888620882686290E-002
   7.0813194169849769E-002  -1.7372769727433873E-002   2.9761347228827784E-002
   6.7271164863589861E-002  -1.7631663456629580E-002   2.9922499752842696E-002
   6.3729135557329897E-002  -1.7564639923541570E-002   3.0372078454731055E-002
   7.1328390811041531E-002  -1.7208229642702522E-002   3.3400996626867463E-002
   6.8076275690983484E-002  -1.7364925304398954E-002   3.3303811143240741E-002
   6.4824160570925493E-002  -1.7362713242540212E-002   3.3498027854144546E-002
   6.1572045450867516E-002  -1.7201593457126067E-002   3.3983646759579017E-002
   5.8319930330809483E-002  -1.6881565948156846E-002   3.4760667859543876E-002
   6.4834142686570312E-002  -1.8539228803213459E-002   3.7335209900747651E-002
   6.1874917769371388E-002  -1.7941891872843396E-002   3.7389529226497659E-002
   5.8915692852172519E-002  -1.7352656757646481E-002   3.7738226763435287E-002
   5.5956467934973636E-002  -1.6771523457622669E-002   3.8381302511560696E-002
   5.2997243017774739E-002  -1.6198491972772039E-002   3.9318756470873628E-002
   5.8414508408956137E-002  -1.9870227963724341E-002   4.2106960536058453E-002
   5.5751149711273526E-002  -1.8518858441287783E-002   4.2145775132456827E-002
   5.3087791013590922E-002  -1.7342600272752785E-002   4.2481943956699936E-002
   5.0424432315908277E-002  -1.6341453458119215E-002   4.3115467008787892E-002
   4.7761073618225638E-002  -1.5515417997387246E-002   4.4046344288720556E-002
   5.2069487978198992E-002  -2.1201227124235278E-002   4.7716248532800154E-002
   4.9704971516689789E-002  -1.9095825009732142E-002   4.7572548861118169E-002
   4.7340455055180586E-002  -1.7332543787859075E-002   4.7729179433938479E-002
   4.4975938593671383E-002  -1.5911383458615726E-002   4.8186140251260570E-002
   4.2611422132162180E-002  -1.4832344022002508E-002   4.8943431313084762E-002
   6.3729135557329897E-002  -1.7564639923541570E-002   3.0372078454731055E-002
   6.2072855853649744E-002  -1.7291247616070177E-002   2.9857327597040267E-002
   6.0416576149969647E-002  -1.6931035022115931E-002   2.9485739251215226E-002
   5.8760296446289537E-002  -1.6484002141678646E-002   2.9257313417255446E-002
   5.7104016742609398E-002  -1.5950148974758382E-002   2.9172050095161828E-002
   5.8319930330809483E-002  -1.6881565948156846E-002   3.4760667859543876E-002
   5.6801773376919246E-002  -1.6459138971571557E-002   3.4393750902342646E-002
   5.5283616423029050E-002  -1.5990820783309816E-002   3.4159916932855458E-002
   5.3765459469138882E-002  -1.5476611383371570E-002   3.4059165951082652E-002
   5.2247302515248673E-002  -1.4916510771756708E-002   3.4091497957023681E-002
   5.2997243017774739E-002  -1.6198491972772039E-002   3.9318756470873628E-002
   5.1607129289522879E-002  -1.5627030327072869E-002   3.9058744339355557E-002
   5.0217015561271068E-002  -1.5050606544503645E-002   3.8921735671400240E-002
   4.8826901833019229E-002  -1.4469220625064328E-002   3.8907730467007420E-002
   4.7436788104767397E-002  -1.3882872568754950E-002   3.9016728726177161E-002
   4.7761073618225638E-002  -1.5515417997387246E-002   4.4046344288720556E-002
   4.6488923591460611E-002  -1.4794921682574243E-002   4.3852307908079272E-002
   4.5216773564695618E-002  -1.4110392305697557E-002   4.3771195466849183E-002
   4.3944623537930640E-002  -1.3461829866757253E-002   4.3803006965029860E-002
   4.2672473511165591E-002  -1.2849234365753234E-002   4.3947742402621906E-002
   4.2611422132162180E-002  -1.4832344022002508E-002   4.8943431313084762E-002
   4.1447156282732461E-002  -1.3962813038075506E-002   4.8774441608513713E-002
   4.0282890433302770E-002  -1.3170178066891330E-002   4.8708296319202288E-002
   3.9118624583873052E-002  -1.2454439108450004E-002   4.8744995445150319E-002
   3.7954358734443333E-002  -1.1815596162751463E-002   4.8884538986357917E-002
   5.7104016742609398E-002  -1.5950148974758382E-002   2.9172050095161828E-002
   5.4489250077854878E-002  -1.5357230542497075E-002   2.8772805642663490E-002
   5.1874483413100414E-002  -1.4733001866036169E-002   2.8589315074658034E-002
   4.9259716748345894E-002  -1.4077462945376141E-002   2.8621578391145167E-002
   4.6644950083591374E-002  -1.3390613780516647E-002   2.8869595592125097E-002
   5.2247302515248673E-002  -1.4916510771756708E-002   3.4091497957023681E-002
   4.9845330765873191E-002  -1.4322705475068365E-002   3.3761908553626235E-002
   4.7443359016497808E-002  -1.3707382019909481E-002   3.3642155096494222E-002
   4.5041387267122347E-002  -1.3070540406280216E-002   3.3732237585627343E-002
   4.2639415517746915E-002  -1.2412180634180370E-002   3.4032156021025939E-002
   4.7436788104767397E-002  -1.3882872568754950E-002   3.9016728726177161E-002
   4.5241693332543673E-002  -1.3288180407639696E-002   3.8747002286151480E-002
   4.3046598560319921E-002  -1.2681762173782730E-002   3.8681193854164013E-002
   4.0851503788096211E-002  -1.2063617867184124E-002   3.8819303430214572E-002
   3.8656409015872445E-002  -1.1433747487843871E-002   3.9161331014303052E-002
   4.2672473511165591E-002  -1.2849234365753234E-002   4.3947742402621906E-002
   4.0678337777866273E-002  -1.2253655340211063E-002   4.3728086840239364E-002
   3.8684202044566934E-002  -1.1656142327655983E-002   4.3706431347667378E-002
   3.6690066311267609E-002  -1.1056695328088114E-002   4.3882775924906504E-002
   3.4695930577968277E-002  -1.0455314341507593E-002   4.4257120571955917E-002
   3.7954358734443333E-002  -1.1815596162751463E-002   4.8884538986357917E-002
   3.6155264101841056E-002  -1.1219130272782374E-002   4.8705162215889608E-002
   3.4356169469238751E-002  -1.0630522481529264E-002   4.8717867577004553E-002
   3.2557074836636418E-002  -1.0049772788992099E-002   4.8922655069703003E-002
   3.0757980204034141E-002  -9.4768811951710386E-003   4.9319524693984984E-002
   4.6644950083591374E-002  -1.3390613780516647E-002   2.8869595592125097E-002
   4.4394570632784708E-002  -1.2699076550111488E-002   2.8368768598822425E-002
   4.2144191181978041E-002  -1.2029473432814658E-002   2.8000149789203455E-002
   3.9893811731171375E-002  -1.1381804428625873E-002   2.7763739163268852E-002
   3.7643432280364708E-002  -1.0756069537545376E-002   2.7659536721018174E-002
   4.2639415517746915E-002  -1.2412180634180370E-002   3.4032156021025939E-002
   4.0526814306270031E-002  -1.1746210534054197E-002   3.3545311339576112E-002
   3.8414213094793190E-002  -1.1086537936345953E-002   3.3201814953101982E-002
   3.6301611883316383E-002  -1.0433162841055610E-002   3.3001666861603413E-002
   3.4189010671839465E-002  -9.7860852481831406E-003   3.2944867065080319E-002
   3.8656409015872445E-002  -1.1433747487843871E-002   3.9161331014303052E-002
   3.6692726155017071E-002  -1.0793344517996573E-002   3.8704105255396248E-002
   3.4729043294161696E-002  -1.0143602439877150E-002   3.8401367902756750E-002
   3.2765360433306294E-002  -9.4845212534851280E-003   3.8253118956384509E-002
   3.0801677572450947E-002  -8.8161009588210715E-003   3.8259358416279449E-002
   3.4695930577968277E-002  -1.0455314341507593E-002   4.4257120571955917E-002
   3.2892306179025860E-002  -9.8404785019390040E-003   4.3845150346282558E-002
   3.1088681780083529E-002  -9.2006669434082852E-003   4.3598808638168007E-002
   2.9285057381141143E-002  -8.5358796659146443E-003   4.3518095447612315E-002
   2.7481432982198781E-002  -7.8461166694587525E-003   4.3603010774615307E-002
   3.0757980204034141E-002  -9.4768811951710386E-003   4.9319524693984984E-002
   2.9125554378296392E-002  -8.8876124858817129E-003   4.8968446612234984E-002
   2.7493128552558671E-002  -8.2577314469396007E-003   4.8794137159335865E-002
   2.5860702726820950E-002  -7.5872380783443168E-003   4.8796596335286838E-002
   2.4228276901083229E-002  -6.8761323800967666E-003   4.8975824140088164E-002
   3.7643432280364708E-002  -1.0756069537545376E-002   2.7659536721018174E-002
   3.5250201400358838E-002  -1.0127454203022801E-002   2.7123705419835664E-002
   3.2856970520353024E-002  -9.4711438685075866E-003   2.6716529792460475E-002
   3.0463739640347209E-002  -8.7871385339999344E-003   2.6438009838891829E-002
   2.8070508760341395E-002  -8.0754381995001845E-003   2.6288145559130394E-002
   3.4189010671839465E-002  -9.7860852481831406E-003   3.2944867065080319E-002
   3.1929294395274116E-002  -9.1360655826842052E-003   3.2500921526499416E-002
   2.9669578118708670E-002  -8.4738642695136035E-003   3.2195349520992789E-002
   2.7409861842143245E-002  -7.7994813086722029E-003   3.2028151048559952E-002
   2.5150145565577875E-002  -7.1129167001594551E-003   3.1999326109200699E-002
   3.0801677572450947E-002  -8.8161009588210715E-003   3.8259358416279449E-002
   2.8685193758592742E-002  -8.1446769623455817E-003   3.7891785287979401E-002
   2.6568709944734523E-002  -7.4765846705200506E-003   3.7672303552020101E-002
   2.4452226130876303E-002  -6.8118240833443568E-003   3.7600913208401400E-002
   2.2335742317018098E-002  -6.1503952008185592E-003   3.7677614257123238E-002
   2.7481432982198781E-002  -7.8461166694587525E-003   4.3603010774615307E-002
   2.5517899490314688E-002  -7.1532883420070276E-003   4.3296296704274838E-002
   2.3554365998430540E-002  -6.4793050715265046E-003   4.3147391885541869E-002
   2.1590832506546427E-002  -5.8241668580167345E-003   4.3156296318416242E-002
   1.9627299014662349E-002  -5.1878737014776910E-003   4.3323010002898205E-002
   2.4228276901083229E-002  -6.8761323800967666E-003   4.8975824140088164E-002
   2.2427411590440011E-002  -6.1618997216684734E-003   4.8714455775386134E-002
   2.0626546279796779E-002  -5.4820254725325979E-003   4.8620614521558303E-002
   1.8825680969153553E-002  -4.8365096326885224E-003   4.8694300378604810E-002
   1.7024815658510384E-002  -4.2253522021369339E-003   4.8935513346525794E-002
   2.8070508760341395E-002  -8.0754381995001845E-003   2.6288145559130394E-002
   2.5720579053123360E-002  -7.3265920621136127E-003   2.5694811572738452E-002
   2.3370649345905326E-002  -6.5311493189448289E-003   2.5050479711668794E-002
   2.1020719638687291E-002  -5.6891099699954983E-003   2.4355149975920476E-002
   1.8670789931469256E-002  -4.8004740152640668E-003   2.3608822365494220E-002
   2.5150145565577875E-002  -7.1129167001594551E-003   3.1999326109200699E-002
   2.2788020679892357E-002  -6.4162830928976566E-003   3.1578031243027271E-002
   2.0425895794206922E-002  -5.7116931358095480E-003   3.1183343894597482E-002
   1.8063770908521362E-002  -4.9991468288952123E-003   3.0815264063911191E-002
   1.5701646022835969E-002  -4.2786441721542889E-003   3.0473791750968093E-002
   2.2335742317018098E-002  -6.1503952008185592E-003   3.7677614257123238E-002
   2.0039027645286811E-002  -5.5059741236822002E-003   3.7389718255213505E-002
   1.7742312973555441E-002  -4.8922369526741560E-003   3.7206035163468737E-002
   1.5445598301824154E-002  -4.3091836877950374E-003   3.7126564981888793E-002
   1.3148883630092784E-002  -3.7568143290445111E-003   3.7151307710473785E-002
   1.9627299014662349E-002  -5.1878737014776910E-003   4.3323010002898205E-002
   1.7473599949306657E-002  -4.5956651544664939E-003   4.3129872609296946E-002
   1.5319900883951042E-002  -4.0727807695387086E-003   4.3118553518282268E-002
   1.3166201818595388E-002  -3.6192205466949179E-003   4.3289052729854047E-002
   1.1012502753239790E-002  -3.2349844859346222E-003   4.3641370244012302E-002
   1.7024815658510384E-002  -4.2253522021369339E-003   4.8935513346525794E-002
   1.5091737591951981E-002  -3.6853561852508432E-003   4.8798494305277718E-002
   1.3158659525393607E-002  -3.2533245864033999E-003   4.8920898959038006E-002
   1.1225581458835218E-002  -2.9292574055945556E-003   4.9302727307806327E-002
   9.2925033922768296E-003  -2.7131546428248443E-003   4.9943979351582568E-002
   1.8670789931469256E-002  -4.8004740152640668E-003   2.3608822365494220E-002
   1.5650070979170150E-002  -4.0766991625142968E-003   2.4398893326954108E-002
   1.2629352026871016E-002  -3.7292431195088127E-003   2.5661923601222381E-002
   9.6086330745719095E-003  -3.7581058862473024E-003   2.7397913188299344E-002
   6.5879141222727755E-003  -4.1632874627296479E-003   2.9606862088184305E-002
   1.5701646022835969E-002  -4.2786441721542889E-003   3.0473791750968093E-002
   1.3135488300512810E-002  -3.7714469516713645E-003   3.1256403129442278E-002
   1.0569330578189706E-002  -3.6988169535309423E-003   3.2475177655060916E-002
   8.0031728558665471E-003  -4.0607541777327519E-003   3.4130115327822841E-002
   5.4370151335434436E-003  -4.8572586242765503E-003   3.6221216147728552E-002
   1.3148883630092784E-002  -3.7568143290445111E-003   3.7151307710473785E-002
   1.1000490972081056E-002  -3.4661947408286542E-003   3.7868211093364884E-002
   8.8520983140692386E-003  -3.6683907875531968E-003   3.8984481457735046E-002
   6.7037056560574973E-003  -4.3634024692183158E-003   4.0500118803584222E-002
   4.5553129980457491E-003  -5.5512297858239523E-003   4.2415123130912585E-002
   1.1012502753239790E-002  -3.2349844859346222E-003   4.3641370244012302E-002
   9.2450789938746808E-003  -3.1609425299857774E-003   4.4234317218721335E-002
   7.4776552345096510E-003  -3.6379646215753889E-003   4.5189835009245088E-002
   5.7102314751445570E-003  -4.6660507607038226E-003   4.6507923615583230E-002
   3.9428077157795151E-003  -6.2452009473712156E-003   4.8188583037735301E-002
   9.2925033922768296E-003  -2.7131546428248443E-003   4.9943979351582568E-002
   7.8692523658938640E-003  -2.8556903191429006E-003   5.0354721505511679E-002
   6.4460013395108984E-003  -3.6075384555974976E-003   5.1091238309590559E-002
   5.0227503131279050E-003  -4.9686990521893640E-003   5.2153529763819401E-002
   3.5994992867449116E-003  -6.9391721089182568E-003   5.3541595868197733E-002
   6.5879141222727755E-003  -4.1632874627296479E-003   2.9606862088184305E-002
   6.0583919410467924E-003  -6.1422328137351601E-003   3.4081419998717943E-002
   5.5288697598207814E-003  -1.0892386904042012E-002   3.9241656097603717E-002
   4.9993475785947150E-003  -1.8413749733650557E-002   4.5087570384842207E-002
   4.4698253973687319E-003  -2.8706321302561122E-002   5.1619162860431445E-002
   5.4370151335434436E-003  -4.8572586242765503E-003   3.6221216147728552E-002
   5.4893789062339937E-003  -6.9896096505711602E-003   3.8357011338828628E-002
   5.5417426789244606E-003  -1.1359086614023434E-002   4.0970900249409747E-002
   5.5941064516149691E-003  -1.7965689514633683E-002   4.4062882879471382E-002
   5.6464702243055331E-003  -2.6809418352402581E-002   4.7632959229014560E-002
   4.5553129980457491E-003  -5.5512297858239523E-003   4.2415123130912585E-002
   4.9819782557817271E-003  -7.8369864874071049E-003   4.2746238404722359E-002
   5.4086435135177677E-003  -1.1825786324004869E-002   4.3347862929141903E-002
   5.8353087712538360E-003  -1.7517629295617201E-002   4.4219996704171906E-002
   6.2619740289898418E-003  -2.4912515402244040E-002   4.5362639729811804E-002
   3.9428077157795151E-003  -6.2452009473712156E-003   4.8188583037735301E-002
   4.5361899896901453E-003  -8.6843633242430773E-003   4.7249101196398503E-002
   5.1295722636007235E-003  -1.2292486033986187E-002   4.6372544136800545E-002
   5.7229545375112705E-003  -1.7069569076600524E-002   4.5558911858942314E-002
   6.3163368114219284E-003  -2.3015612452085388E-002   4.4808204362821819E-002
   3.5994992867449116E-003  -6.9391721089182568E-003   5.3541595868197733E-002
   4.1520141079590955E-003  -9.5317401610791608E-003   5.1865599713857957E-002
   4.7045289291732517E-003  -1.2759185743967671E-002   5.0044943872385672E-002
   5.2570437503873385E-003  -1.6621508857583664E-002   4.8079628343782377E-002
   5.8095585716015918E-003  -2.1118709501926958E-002   4.5969653128045795E-002
   5.2069487978198992E-002  -2.1201227124235278E-002   4.7716248532800154E-002
   4.9704971516689789E-002  -1.9095825009732142E-002   4.7572548861118169E-002
   4.7340455055180586E-002  -1.7332543787859075E-002   4.7729179433938479E-002
   4.4975938593671383E-002  -1.5911383458615726E-002   4.8186140251260570E-002
   4.2611422132162180E-002  -1.4832344022002508E-002   4.8943431313084762E-002
   4.5704737735409229E-002  -1.6557756721144290E-002   5.2865343267315179E-002
   4.3644530109787111E-002  -1.5442064175138437E-002   5.2389471406885713E-002
   4.1584322484164951E-002  -1.4428405354924193E-002   5.2221886973728066E-002
   3.9524114858542750E-002  -1.3516780260501463E-002   5.2362589967842418E-002
   3.7463907232920618E-002  -1.2707188891870197E-002   5.2811580389228757E-002
   3.9225914021697617E-002  -1.1914286318053385E-002   5.6904684849913914E-002
   3.7477972414732469E-002  -1.1788303340544801E-002   5.6336727967574815E-002
   3.5730030807767293E-002  -1.1524266921989428E-002   5.6085015695277997E-002
   3.3982089200802139E-002  -1.1122177062387091E-002   5.6149548033022995E-002
   3.2234147593836998E-002  -1.0582033761737941E-002   5.6530324980810120E-002
   3.2633016837063877E-002  -7.2708159149624113E-003   5.9834273280596068E-002
   3.1205298431525818E-002  -8.1345425059510743E-003   5.9414318543186170E-002
   2.9777580025987703E-002  -8.6201284890545203E-003   5.9318565598588197E-002
   2.8349861620449546E-002  -8.7275738642727460E-003   5.9547014446802347E-002
   2.6922143214911459E-002  -8.4568786316056022E-003   6.0099665087828553E-002
   2.5926046181508261E-002  -2.6273455118714928E-003   6.1654108559361931E-002
   2.4826508160167154E-002  -4.4807816713574589E-003   6.1622243133719279E-002
   2.3726970138826048E-002  -5.7159900561197519E-003   6.1922536683658880E-002
   2.2627432117484955E-002  -6.3329706661584342E-003   6.2554989209180484E-002
   2.1527894096143849E-002  -6.3317235014733741E-003   6.3519600710284008E-002
   4.2611422132162180E-002  -1.4832344022002508E-002   4.8943431313084762E-002
   4.1447156282732461E-002  -1.3962813038075506E-002   4.8774441608513713E-002
   4.0282890433302770E-002  -1.3170178066891330E-002   4.8708296319202288E-002
   3.9118624583873052E-002  -1.2454439108450004E-002   4.8744995445150319E-002
   3.7954358734443333E-002  -1.1815596162751463E-002   4.8884538986357917E-002
   3.7463907232920618E-002  -1.2707188891870197E-002   5.2811580389228757E-002
   3.6409917212912549E-002  -1.1980831045827908E-002   5.2497112692913614E-002
   3.5355927192904479E-002  -1.1318906519171758E-002   5.2300352240181952E-002
   3.4301937172896403E-002  -1.0721415311901872E-002   5.2221299031034146E-002
   3.3247947152888341E-002  -1.0188357424018468E-002   5.2259953065470210E-002
   3.2234147593836998E-002  -1.0582033761737941E-002   5.6530324980810120E-002
   3.1305296231574860E-002  -9.9988490535801999E-003   5.6082841986106892E-002
   3.0376444869312728E-002  -9.4676349714521851E-003   5.5767929063311850E-002
   2.9447593507050597E-002  -8.9883915153539072E-003   5.5585586212424855E-002
   2.8518742144788459E-002  -8.5611186852852794E-003   5.5535813433445741E-002
   2.6922143214911459E-002  -8.4568786316056022E-003   6.0099665087828553E-002
   2.6133293338719499E-002  -8.0168670613326026E-003   5.9531629488093991E-002
   2.5344443462527556E-002  -7.6163634237325847E-003   5.9111026788592008E-002
   2.4555593586335606E-002  -7.2553677188058590E-003   5.8837856989322021E-002
   2.3766743710143652E-002  -6.9338799465521322E-003   5.8712120090284654E-002
   2.1527894096143849E-002  -6.3317235014733741E-003   6.3519600710284008E-002
   2.0893908534346375E-002  -6.0348850690848388E-003   6.2843475198874788E-002
   2.0259922972548909E-002  -5.7650918760129843E-003   6.2329645416022178E-002
   1.9625937410751425E-002  -5.5223439222578524E-003   6.1978111361726235E-002
   1.8991951848953942E-002  -5.3066412078190406E-003   6.1788873035986791E-002
   3.7954358734443333E-002  -1.1815596162751463E-002   4.8884538986357917E-002
   3.6155264101841056E-002  -1.1219130272782374E-002   4.8705162215889608E-002
   3.4356169469238751E-002  -1.0630522481529264E-002   4.8717867577004553E-002
   3.2557074836636418E-002  -1.0049772788992099E-002   4.8922655069703003E-002
   3.0757980204034141E-002  -9.4768811951710386E-003   4.9319524693984984E-002
   3.3247947152888341E-002  -1.0188357424018468E-002   5.2259953065470210E-002
   3.1646978239729145E-002  -9.6867095761811739E-003   5.2060704026605398E-002
   3.0046009326569922E-002  -9.1834484890499224E-003   5.2065624295043633E-002
   2.8445040413410755E-002  -8.6785741626252896E-003   5.2274713870784750E-002
   2.6844071500251532E-002  -8.1720865969067136E-003   5.2687972753828416E-002
   2.8518742144788459E-002  -8.5611186852852794E-003   5.5535813433445741E-002
   2.7127986126791785E-002  -8.1542888795798352E-003   5.5326163464194611E-002
   2.5737230108795126E-002  -7.7363744965708720E-003   5.5332769977965574E-002
   2.4346474090798459E-002  -7.3073755362583724E-003   5.5555632974758802E-002
   2.2955718072801792E-002  -6.8672919986424164E-003   5.5994752454574317E-002
   2.3766743710143652E-002  -6.9338799465521322E-003   5.8712120090284654E-002
   2.2598287763028989E-002  -6.6218681829785658E-003   5.8501540528656672E-002
   2.1429831815914291E-002  -6.2893005040916203E-003   5.8519304625770319E-002
   2.0261375868799607E-002  -5.9361769098913979E-003   5.8765412381625595E-002
   1.9092919921684926E-002  -5.5624974003781053E-003   5.9239863796222758E-002
   1.8991951848953942E-002  -5.3066412078190406E-003   6.1788873035986791E-002
   1.8057883148440715E-002  -5.0894474863772687E-003   6.1586835219991587E-002
   1.7123814447927446E-002  -4.8422265116125074E-003   6.1625228238457730E-002
   1.6189745747414198E-002  -4.5649782835245692E-003   6.1904052091384942E-002
   1.5255677046900951E-002  -4.2577028021137386E-003   6.2423306778773335E-002
   3.0757980204034141E-002  -9.4768811951710386E-003   4.9319524693984984E-002
   2.9125554378296392E-002  -8.8876124858817129E-003   4.8968446612234984E-002
   2.7493128552558671E-002  -8.2577314469396007E-003   4.8794137159335865E-002
   2.5860702726820950E-002  -7.5872380783443168E-003   4.8796596335286838E-002
   2.4228276901083229E-002  -6.8761323800967666E-003   4.8975824140088164E-002
   2.6844071500251532E-002  -8.1720865969067136E-003   5.2687972753828416E-002
   2.5391926439770576E-002  -7.6505257068211485E-003   5.2400534954364558E-002
   2.3939781379289621E-002  -7.1004314072950214E-003   5.2296890056563822E-002
   2.2487636318808665E-002  -6.5218036983282004E-003   5.2377038060426012E-002
   2.1035491258327710E-002  -5.9146425799208036E-003   5.2640978965951657E-002
   2.2955718072801792E-002  -6.8672919986424164E-003   5.5994752454574317E-002
   2.1690878050390314E-002  -6.4134389277606119E-003   5.5758876017184184E-002
   2.0426038027978821E-002  -5.9431313676504352E-003   5.5713816754269861E-002
   1.9161198005567339E-002  -5.4563693183118048E-003   5.5859574665831149E-002
   1.7896357983155857E-002  -4.9531527797448405E-003   5.6196149751868568E-002
   1.9092919921684926E-002  -5.5624974003781053E-003   5.9239863796222758E-002
   1.8022409210155580E-002  -5.1763521487000613E-003   5.9043469800693964E-002
   1.6951898498626265E-002  -4.7858313280057414E-003   5.9044917252453678E-002
   1.5881387787096937E-002  -4.3909349382954379E-003   5.9244206151501846E-002
   1.4810877075567606E-002  -3.9916629795689329E-003   5.9641336497838628E-002
   1.5255677046900951E-002  -4.2577028021137386E-003   6.2423306778773335E-002
   1.4386519919066462E-002  -3.9392653696395663E-003   6.2254316304893809E-002
   1.3517362791231974E-002  -3.6285312883612836E-003   6.2290191551115509E-002
   1.2648205663397472E-002  -3.3255005582791854E-003   6.2530932517438395E-002
   1.1779048535562969E-002  -3.0301731793930253E-003   6.2976539203862369E-002
   2.4228276901083229E-002  -6.8761323800967666E-003   4.8975824140088164E-002
   2.2427411590440011E-002  -6.1618997216684734E-003   4.8714455775386134E-002
   2.0626546279796779E-002  -5.4820254725325979E-003   4.8620614521558303E-002
   1.8825680969153553E-002  -4.8365096326885224E-003   4.8694300378604810E-002
   1.7024815658510384E-002  -4.2253522021369339E-003   4.8935513346525794E-002
   2.1035491258327710E-002  -5.9146425799208036E-003   5.2640978965951657E-002
   1.9411903706327852E-002  -5.3066459206526639E-003   5.2412403248096540E-002
   1.7788316154327993E-002  -4.7255115891035038E-003   5.2370855936654054E-002
   1.6164728602328128E-002  -4.1712395852731843E-003   5.2516337031623783E-002
   1.4541141050328249E-002  -3.6438299091618997E-003   5.2848846533005533E-002
   1.7896357983155857E-002  -4.9531527797448405E-003   5.6196149751868568E-002
   1.6469549485337423E-002  -4.4513921196365769E-003   5.6007862762433747E-002
   1.5042740987518972E-002  -3.9689977056742015E-003   5.6026105474949392E-002
   1.3615932489700550E-002  -3.5059695378576276E-003   5.6250877889415539E-002
   1.2189123991882114E-002  -3.0623076161867546E-003   5.6682180005832195E-002
   1.4810877075567606E-002  -3.9916629795689329E-003   5.9641336497838628E-002
   1.3600348927468656E-002  -3.5961383186205176E-003   5.9500834318397144E-002
   1.2389820779369724E-002  -3.2124838222452254E-003   5.9586363136444553E-002
   1.1179292631270800E-002  -2.8406994904420692E-003   5.9897922951980397E-002
   9.9687644831718443E-003  -2.4807853232115540E-003   6.0435513765004618E-002
   1.1779048535562969E-002  -3.0301731793930253E-003   6.2976539203862369E-002
   1.0804302032721619E-002  -2.7408845176046248E-003   6.2891317915987677E-002
   9.8295555298802545E-003  -2.4559699388158884E-003   6.3051628921139691E-002
   8.8548090270388694E-003  -2.1754294430265317E-003   6.3457472219318328E-002
   7.8800625241975120E-003  -1.8992630302364644E-003   6.4108847810523284E-002
   1.7024815658510384E-002  -4.2253522021369339E-003   4.8935513346525794E-002
   1.5091737591951981E-002  -3.6853561852508432E-003   4.8798494305277718E-002
   1.3158659525393607E-002  -3.2533245864033999E-003   4.8920898959038006E-002
   1.1225581458835218E-002  -2.9292574055945556E-003   4.9302727307806327E-002
   9.2925033922768296E-003  -2.7131546428248443E-003   4.9943979351582568E-002
   1.4541141050328249E-002  -3.6438299091618997E-003   5.2848846533005533E-002
   1.2865269889544187E-002  -3.1844513782709472E-003   5.2732686061879863E-002
   1.1189398728760069E-002  -2.8342728101015680E-003   5.2871515707294509E-002
   9.5135275679759934E-003  -2.5932942046538593E-003   5.3265335469249706E-002
   7.8376564071918897E-003  -2.4615155619278628E-003   5.3914145347745190E-002
   1.2189123991882114E-002  -3.0623076161867546E-003   5.6682180005832195E-002
   1.0766026158404787E-002  -2.6835465712910234E-003   5.6585642560145588E-002
   9.3429283249274464E-003  -2.4152210337999441E-003   5.6739661652531567E-002
   7.9198304914501021E-003  -2.2573310037130485E-003   5.7144237282990777E-002
   6.4967326579728063E-003  -2.2098764810309368E-003   5.7799369451522892E-002
   9.9687644831718443E-003  -2.4807853232115540E-003   6.0435513765004618E-002
   8.7940063985337651E-003  -2.1826417643110579E-003   6.0357363800074018E-002
   7.6192483138956719E-003  -1.9961692574981607E-003   6.0525336794749099E-002
   6.4444902292575849E-003  -1.9213678027722950E-003   6.0939432749029430E-002
   5.2697321446194718E-003  -1.9582374001338165E-003   6.1599651662915249E-002
   7.8800625241975120E-003  -1.8992630302364644E-003   6.4108847810523284E-002
   6.9492106099311446E-003  -1.6817369573313146E-003   6.4047849781666000E-002
   6.0183586956647772E-003  -1.5771174811965438E-003   6.4228541133946992E-002
   5.0875067813983960E-003  -1.5854046018315554E-003   6.4650921867365763E-002
   4.1566548671320425E-003  -1.7065983192370293E-003   6.5314991981922477E-002
   9.2925033922768296E-003  -2.7131546428248443E-003   4.9943979351582568E-002
   7.8692523658938640E-003  -2.8556903191429006E-003   5.0354721505511679E-002
   6.4460013395108984E-003  -3.6075384555974976E-003   5.1091238309590559E-002
   5.0227503131279050E-003  -4.9686990521893640E-003   5.2153529763819401E-002
   3.5994992867449116E-003  -6.9391721089182568E-003   5.3541595868197733E-002
   7.8376564071918897E-003  -2.4615155619278628E-003   5.3914145347745190E-002
   6.7145359833871987E-003  -2.6418188431264200E-003   5.3851028517336585E-002
   5.5914155595824938E-003  -3.3370860094524835E-003   5.4062398241934706E-002
   4.4682951357778028E-003  -4.5473170609061919E-003   5.4548254521539746E-002
   3.3451747119730979E-003  -6.2725119974871291E-003   5.5308597356151235E-002
   6.4967326579728063E-003  -2.2098764810309368E-003   5.7799369451522892E-002
   5.6224547416033888E-003  -2.4279473671098839E-003   5.7356742211785716E-002
   4.7481768252339573E-003  -3.0666335633070113E-003   5.7137313431912293E-002
   3.8738989088645537E-003  -4.1259350696223503E-003   5.7141083111902712E-002
   2.9996209924951361E-003  -5.6058518860560014E-003   5.7368051251757091E-002
   5.2697321446194718E-003  -1.9582374001338165E-003   6.1599651662915249E-002
   4.5930086405423735E-003  -2.2140758910931535E-003   6.0871862588858988E-002
   3.9162851364652855E-003  -2.7961811171618237E-003   6.0315983879523541E-002
   3.2395616323882132E-003  -3.7045530783388434E-003   5.9932015534908657E-002
   2.5628381283110992E-003  -4.9391917746248737E-003   5.9719957555014996E-002
   4.1566548671320425E-003  -1.7065983192370293E-003   6.5314991981922477E-002
   3.6261976802042656E-003  -2.0002044150769782E-003   6.4396389648556540E-002
   3.0957404932764887E-003  -2.5257286710164417E-003   6.3598409584768312E-002
   2.5652833063487188E-003  -3.2831710870551492E-003   6.2921051790557986E-002
   2.0348261194209349E-003  -4.2725316631936350E-003   6.2364316265925201E-002
   3.5994992867449116E-003  -6.9391721089182568E-003   5.3541595868197733E-002
   4.1520141079590955E-003  -9.5317401610791608E-003   5.1865599713857957E-002
   4.7045289291732517E-003  -1.2759185743967671E-002   5.0044943872385672E-002
   5.2570437503873385E-003  -1.6621508857583664E-002   4.8079628343782377E-002
   5.8095585716015918E-003  -2.1118709501926958E-002   4.5969653128045795E-002
   3.3451747119730979E-003  -6.2725119974871291E-003   5.5308597356151235E-002
   3.7702927995796887E-003  -8.5423859393587986E-003   5.2953999182538514E-002
   4.1954108871862794E-003  -1.1386654006685482E-002   5.0489267228843004E-002
   4.6205289747928979E-003  -1.4805316199465485E-002   4.7914401495063985E-002
   5.0456470623994609E-003  -1.8798372517700113E-002   4.5229401981201844E-002
   2.9996209924951361E-003  -5.6058518860560014E-003   5.7368051251757091E-002
   3.3318682535429314E-003  -7.5530317176389361E-003   5.4395334464145184E-002
   3.6641155145907059E-003  -1.0014122269402764E-002   5.1347009803498989E-002
   3.9963627756385185E-003  -1.2989123541347423E-002   4.8223077269818615E-002
   4.3286100366863034E-003  -1.6478035533472823E-002   4.5023536863103453E-002
   2.5628381283110992E-003  -4.9391917746248737E-003   5.9719957555014996E-002
   2.8367404698488811E-003  -6.5636774959190458E-003   5.6189605558677191E-002
   3.1106428113866474E-003  -8.6415905321205327E-003   5.2618171596353965E-002
   3.3845451529244059E-003  -1.1172930883229414E-002   4.9005655668044851E-002
   3.6584474944621956E-003  -1.4157698549245867E-002   4.5352057773750537E-002
   2.0348261194209349E-003  -4.2725316631936350E-003   6.2364316265925201E-002
   2.2849094484974491E-003  -5.5743232741987114E-003   5.8336812466135091E-002
   2.5349927775739495E-003  -7.2690587948377738E-003   5.4302752607407856E-002
   2.7850761066504290E-003  -9.3567382251112177E-003   5.0262136689743969E-002
   3.0351594357269640E-003  -1.1837361565018689E-002   4.6214964713143125E-002
   2.5926046181508261E-002  -2.6273455118714928E-003   6.1654108559361931E-002
   2.4826508160167154E-002  -4.4807816713574589E-003   6.1622243133719279E-002
   2.3726970138826048E-002  -5.7159900561197519E-003   6.1922536683658880E-002
   2.2627432117484955E-002  -6.3329706661584342E-003   6.2554989209180484E-002
   2.1527894096143849E-002  -6.3317235014733741E-003   6.3519600710284008E-002
   1.9221898099190129E-002  -2.7129212383898427E-003   6.0615971042487560E-002
   1.8442426620481622E-002  -3.6644906451786252E-003   6.1159175416412720E-002
   1.7662955141773122E-002  -4.2994005964507309E-003   6.2010353900021215E-002
   1.6883483663064632E-002  -4.6176510922062847E-003   6.3169506493312780E-002
   1.6104012184356128E-002  -4.6192421324451893E-003   6.4636633196287596E-002
   1.2637468634268990E-002  -2.7984969649081926E-003   6.0630484437913801E-002
   1.2153878832294268E-002  -2.8481996189997916E-003   6.1447190292199860E-002
   1.1670289030319560E-002  -2.8828111367817238E-003   6.2547685390270127E-002
   1.1186699228344841E-002  -2.9023315182541871E-003   6.3931969732124783E-002
   1.0703109426370126E-002  -2.9067607634169490E-003   6.5600043317763951E-002
   6.1727577867448959E-003  -2.8840726914265147E-003   6.1697648745641022E-002
   5.9608647956051284E-003  -2.0319085928209302E-003   6.2486287761080547E-002
   5.7489718044653609E-003  -1.4662216771126821E-003   6.3534531154405716E-002
   5.5370788133256013E-003  -1.1870119443020081E-003   6.4842378925616395E-002
   5.3251858221858234E-003  -1.1942793943886809E-003   6.6409831074712683E-002
  -1.7223444338217847E-004  -2.9696484179448923E-003   6.3817463965668564E-002
  -1.3661548958581599E-004  -1.2156175666421243E-003   6.4276467823054850E-002
  -1.0099653578946391E-004  -4.9632217443723592E-005   6.4970891192427938E-002
  -6.5377581993106629E-005   5.2830762964999750E-004   6.5900734073787715E-002
  -2.9758628196749348E-005   5.1820197463947615E-004   6.7065996467134181E-002
   2.1527894096143849E-002  -6.3317235014733741E-003   6.3519600710284008E-002
   2.0893908534346375E-002  -6.0348850690848388E-003   6.2843475198874788E-002
   2.0259922972548909E-002  -5.7650918760129843E-003   6.2329645416022178E-002
   1.9625937410751425E-002  -5.5223439222578524E-003   6.1978111361726235E-002
   1.8991951848953942E-002  -5.3066412078190406E-003   6.1788873035986791E-002
   1.6104012184356128E-002  -4.6192421324451893E-003   6.4636633196287596E-002
   1.5631078636571656E-002  -4.4618729007417091E-003   6.3969351048662304E-002
   1.5158145088787191E-002  -4.3032425806698998E-003   6.3461877200506361E-002
   1.4685211541002729E-002  -4.1433511722301954E-003   6.3114211651819963E-002
   1.4212277993218253E-002  -3.9821986754223215E-003   6.2926354402602774E-002
   1.0703109426370126E-002  -2.9067607634169490E-003   6.5600043317763951E-002
   1.0388740463511459E-002  -2.8888607323984405E-003   6.4969910861607263E-002
   1.0074371500652790E-002  -2.8413932853270374E-003   6.4497099275832789E-002
   9.7600025377941289E-003  -2.7643584222027048E-003   6.4181608560440487E-002
   9.4456335749354622E-003  -2.6577561430254082E-003   6.4023438715430453E-002
   5.3251858221858234E-003  -1.1942793943886809E-003   6.6409831074712683E-002
   5.1668940151657558E-003  -1.3158485640552969E-003   6.5845154637709527E-002
   5.0086022081456960E-003  -1.3795439899840084E-003   6.5435311642001170E-002
   4.8503104011256327E-003  -1.3853656721752421E-003   6.5180302087588071E-002
   4.6920185941055677E-003  -1.3333136106284810E-003   6.5080125974469744E-002
  -2.9758628196749348E-005   5.1820197463947615E-004   6.7065996467134181E-002
  -3.4460708465421791E-005   2.5716360428798546E-004   6.6595082376969122E-002
  -3.9162788734094234E-005   8.2305305358881808E-005   6.6276514299011963E-002
  -4.3864869002766677E-005  -6.3729221475919418E-006   6.6110292233262563E-002
  -4.8566949271439119E-005  -8.8710782317202863E-006   6.6096416179720840E-002
   1.8991951848953942E-002  -5.3066412078190406E-003   6.1788873035986791E-002
   1.8057883148440715E-002  -5.0894474863772687E-003   6.1586835219991587E-002
   1.7123814447927446E-002  -4.8422265116125074E-003   6.1625228238457730E-002
   1.6189745747414198E-002  -4.5649782835245692E-003   6.1904052091384942E-002
   1.5255677046900951E-002  -4.2577028021137386E-003   6.2423306778773335E-002
   1.4212277993218253E-002  -3.9821986754223215E-003   6.2926354402602774E-002
   1.3518145284607125E-002  -3.8106767447752543E-003   6.2761603697817914E-002
   1.2824012575996011E-002  -3.6196770348182472E-003   6.2836294142376362E-002
   1.2129879867384889E-002  -3.4091995455514945E-003   6.3150425736277688E-002
   1.1435747158773754E-002  -3.1792442769746354E-003   6.3703998479522239E-002
   9.4456335749354622E-003  -2.6577561430254082E-003   6.4023438715430453E-002
   8.9904471731084221E-003  -2.5319060031731982E-003   6.3885425647842886E-002
   8.5352607712813749E-003  -2.3971275580241952E-003   6.3985864044480451E-002
   8.0800743694543226E-003  -2.2534208075782498E-003   6.4324753905343091E-002
   7.6248879676272946E-003  -2.1007857518355599E-003   6.4902095230430681E-002
   4.6920185941055677E-003  -1.3333136106284810E-003   6.5080125974469744E-002
   4.4747888139445562E-003  -1.2531352615711353E-003   6.4958301070066490E-002
   4.2575590337835534E-003  -1.1745780812301501E-003   6.5073937944770122E-002
   4.0403292536225505E-003  -1.0976420696050902E-003   6.5427036598580790E-002
   3.8230994734615390E-003  -1.0223272266964706E-003   6.6017597031498662E-002
  -4.8566949271439119E-005  -8.8710782317202863E-006   6.6096416179720840E-002
  -2.8829792884446648E-005   2.5635480030899993E-005   6.5980229964488657E-002
  -9.0926364974576457E-006   4.7971395564089248E-005   6.6100515843245389E-002
   1.0644519889534826E-005   5.8136668368034827E-005   6.6457273815991175E-002
   3.0381676276523828E-005   5.6131298442674282E-005   6.7050503882725765E-002
   1.5255677046900951E-002  -4.2577028021137386E-003   6.2423306778773335E-002
   1.4386519919066462E-002  -3.9392653696395663E-003   6.2254316304893809E-002
   1.3517362791231974E-002  -3.6285312883612836E-003   6.2290191551115509E-002
   1.2648205663397472E-002  -3.3255005582791854E-003   6.2530932517438395E-002
   1.1779048535562969E-002  -3.0301731793930253E-003   6.2976539203862369E-002
   1.1435747158773754E-002  -3.1792442769746354E-003   6.3703998479522239E-002
   1.0773953125260707E-002  -2.9427769487806177E-003   6.3539497571208164E-002
   1.0112159091747654E-002  -2.7127632806617369E-003   6.3584857131435635E-002
   9.4503650582346103E-003  -2.4892032726180936E-003   6.3840077160204886E-002
   8.7885710247215532E-003  -2.2720969246496914E-003   6.4305157657515821E-002
   7.6248879676272946E-003  -2.1007857518355599E-003   6.4902095230430681E-002
   7.1754517768761877E-003  -1.9462885279216968E-003   6.4743333578802700E-002
   6.7260155861250844E-003  -1.7969952729619612E-003   6.4799427144156901E-002
   6.2765793953739879E-003  -1.6529059869568336E-003   6.5070375926493354E-002
   5.8271432046228741E-003  -1.5140206699060799E-003   6.5556179925811892E-002
   3.8230994734615390E-003  -1.0223272266964706E-003   6.6017597031498662E-002
   3.5910158739128973E-003  -9.4980010706259554E-004   6.5865824327677583E-002
   3.3589322743642468E-003  -8.8122726526246656E-004   6.5933901589279378E-002
   3.1268486748155990E-003  -8.1660870129582428E-004   6.6221828816303688E-002
   2.8947650752669547E-003  -7.5594441516277366E-004   6.6729606008750830E-002
   3.0381676276523828E-005   5.6131298442674282E-005   6.7050503882725765E-002
   2.0645416370836805E-005   4.6688313796172665E-005   6.6906969817832618E-002
   1.0909156465146314E-005   3.4540742437291772E-005   6.6988280466802747E-002
   1.1728965594558216E-006   1.9688584365445266E-005   6.7294435829636026E-002
  -8.5633633462312009E-006   2.1318395808656021E-006   6.7825435906332499E-002
   1.1779048535562969E-002  -3.0301731793930253E-003   6.2976539203862369E-002
   1.0804302032721619E-002  -2.7408845176046248E-003   6.2891317915987677E-002
   9.8295555298802545E-003  -2.4559699388158884E-003   6.3051628921139691E-002
   8.8548090270388694E-003  -2.1754294430265317E-003   6.3457472219318328E-002
   7.8800625241975120E-003  -1.8992630302364644E-003   6.4108847810523284E-002
   8.7885710247215532E-003  -2.2720969246496914E-003   6.4305157657515821E-002
   8.0592834667712471E-003  -2.0589649866240012E-003   6.4245978090843481E-002
   7.3299959088209410E-003  -1.8473282084086606E-003   6.4432184120926439E-002
   6.6007083508706349E-003  -1.6371865900038224E-003   6.4863775747765182E-002
   5.8714207929203149E-003  -1.4285401314093615E-003   6.5540752971359362E-002
   5.8271432046228741E-003  -1.5140206699060799E-003   6.5556179925811892E-002
   5.3431678952925374E-003  -1.3770454556431833E-003   6.5525921003530885E-002
   4.8591925859621798E-003  -1.2386864780016688E-003   6.5740900981734227E-002
   4.3752172766318310E-003  -1.0989437369813941E-003   6.6201119860421986E-002
   3.8912419673014856E-003  -9.5781723258231422E-004   6.6906577639594456E-002
   2.8947650752669547E-003  -7.5594441516277366E-004   6.6729606008750830E-002
   2.6559553182854776E-003  -6.9512592466268452E-004   6.6731146654050208E-002
   2.4171455613040023E-003  -6.3004474759455892E-004   6.6977779503562873E-002
   2.1783358043225187E-003  -5.6070088395882532E-004   6.7469504557289062E-002
   1.9395260473410499E-003  -4.8709433375529465E-004   6.8206321815228052E-002
  -8.5633633462312009E-006   2.1318395808656021E-006   6.7825435906332499E-002
  -2.3542642499305155E-006  -1.3206393681797213E-005   6.7861655042401381E-002
   3.8548348463701698E-006  -2.1403017187365814E-005   6.8142819686412504E-002
   1.0063933942674325E-005  -2.2458030936235718E-005   6.8668929838365811E-002
   1.6273033038971541E-005  -1.6371434928164064E-005   6.9439985498261358E-002
   7.8800625241975120E-003  -1.8992630302364644E-003   6.4108847810523284E-002
   6.9492106099311446E-003  -1.6817369573313146E-003   6.4047849781666000E-002
   6.0183586956647772E-003  -1.5771174811965438E-003   6.4228541133946992E-002
   5.0875067813983960E-003  -1.5854046018315554E-003   6.4650921867365763E-002
   4.1566548671320425E-003  -1.7065983192370293E-003   6.5314991981922477E-002
   5.8714207929203149E-003  -1.4285401314093615E-003   6.5540752971359362E-002
   5.1797046315266021E-003  -1.2633092039595617E-003   6.5406542970270876E-002
   4.4879884701329101E-003  -1.1834141789877628E-003   6.5508915093789866E-002
   3.7962723087392077E-003  -1.1888550564947004E-003   6.5847869341916415E-002
   3.1045561473455052E-003  -1.2796318364800552E-003   6.6423405714650108E-002
   3.8912419673014856E-003  -9.5781723258231422E-004   6.6906577639594456E-002
   3.4335543022498555E-003  -8.4488145058730924E-004   6.6726726360566424E-002
   2.9758666371982288E-003  -7.8971087677928709E-004   6.6778349949615234E-002
   2.5181789721466091E-003  -7.9230551115783837E-004   6.7061448406740790E-002
   2.0604913070949721E-003  -8.5266535372319208E-004   6.7576021731943131E-002
   1.9395260473410499E-003  -4.8709433375529465E-004   6.8206321815228052E-002
   1.7107596221009047E-003  -4.2645369721541759E-004   6.8008399952552478E-002
   1.4819931968607656E-003  -3.9600757457049218E-004   6.8036845701423071E-002
   1.2532267716206203E-003  -3.9575596582097985E-004   6.8291659061839774E-002
   1.0244603463804812E-003  -4.2569887096643999E-004   6.8772840033802657E-002
   1.6273033038971541E-005  -1.6371434928164064E-005   6.9439985498261358E-002
   1.1320591079728992E-005  -8.0259438433039065E-006   6.9251563746229539E-002
   6.3681491204829743E-006  -2.3042723621136130E-006   6.9284402349213237E-002
   1.4157071612300176E-006   7.9357951602437860E-007   6.9538501307212508E-002
  -3.5367347980055919E-006   1.2676117905341400E-006   7.0013860620227519E-002
   4.1566548671320425E-003  -1.7065983192370293E-003   6.5314991981922477E-002
   3.6261976802042656E-003  -2.0002044150769782E-003   6.4396389648556540E-002
   3.0957404932764887E-003  -2.5257286710164417E-003   6.3598409584768312E-002
   2.5652833063487188E-003  -3.2831710870551492E-003   6.2921051790557986E-002
   2.0348261194209349E-003  -4.2725316631936350E-003   6.2364316265925201E-002
   3.1045561473455052E-003  -1.2796318364800552E-003   6.6423405714650108E-002
   2.6977951573624870E-003  -1.5000038128829551E-003   6.5313024862958535E-002
   2.2910341673794896E-003  -1.8942302796437493E-003   6.4329414135578966E-002
   1.8842731773964748E-003  -2.4623112367610223E-003   6.3472573532510623E-002
   1.4775121874134739E-003  -3.2042466842359119E-003   6.2742503053754284E-002
   2.0604913070949721E-003  -8.5266535372319208E-004   6.7576021731943131E-002
   1.7835743687905914E-003  -9.9980321068932065E-004   6.6331926031668625E-002
   1.5066574304861934E-003  -1.2627318882705990E-003   6.5220748310439738E-002
   1.2297404921818005E-003  -1.6414513864667808E-003   6.4242488568256317E-002
   9.5282355387741463E-004  -2.1359617052780222E-003   6.3397146805118293E-002
   1.0244603463804812E-003  -4.2569887096643999E-004   6.8772840033802657E-002
   8.8353531448855799E-004  -4.9960260849538085E-004   6.7453093154686908E-002
   7.4261028259662003E-004  -6.3123349689762215E-004   6.6272412109350753E-002
   6.0168525070468598E-004  -8.2059153617281867E-004   6.5230796897793875E-002
   4.6076021881275887E-004  -1.0676767263204379E-003   6.4328247520016701E-002
  -3.5367347980055919E-006   1.2676117905341400E-006   7.0013860620227519E-002
  -2.3220055436201648E-006   5.9799369833690719E-007   6.8676526232013146E-002
  -1.1072762892312682E-006   2.6489447532695998E-007   6.7484405532312108E-002
   1.0745296515762837E-007   2.6831412166389290E-007   6.6437498521124211E-002
   1.3221822195430555E-006   6.0825263759056725E-007   6.5535805198449593E-002
   2.0348261194209349E-003  -4.2725316631936350E-003   6.2364316265925201E-002
   2.2849094484974491E-003  -5.5743232741987114E-003   5.8336812466135091E-002
   2.5349927775739495E-003  -7.2690587948377738E-003   5.4302752607407856E-002
   2.7850761066504290E-003  -9.3567382251112177E-003   5.0262136689743969E-002
   3.0351594357269640E-003  -1.1837361565018689E-002   4.6214964713143125E-002
   1.4775121874134739E-003  -3.2042466842359119E-003   6.2742503053754284E-002
   1.7070000967752269E-003  -4.1804536518100788E-003   5.8389768961919775E-002
   1.9364880061369799E-003  -5.4513491692258498E-003   5.4002400089592673E-002
   2.1659759154987572E-003  -7.0169332364837800E-003   4.9580396436772783E-002
   2.3954638248604998E-003  -8.8772058535835363E-003   4.5123758003460690E-002
   9.5282355387741463E-004  -2.1359617052780222E-003   6.3397146805118293E-002
   1.1336373219686946E-003  -2.7865840294216682E-003   5.8817437781031767E-002
   1.3144510900599919E-003  -3.6336395436144669E-003   5.4175015254896611E-002
   1.4952648581512736E-003  -4.6771282478566163E-003   4.9469879226713719E-002
   1.6760786262425692E-003  -5.9170501421483834E-003   4.4702029696481516E-002
   4.6076021881275887E-004  -1.0676767263204379E-003   6.4328247520016701E-002
   5.6482112407786611E-004  -1.3927144070331465E-003   5.9619818923470375E-002
   6.6888202934296728E-004  -1.8159299180027025E-003   5.4820598103320253E-002
   7.7294293460806974E-004  -2.3373232592295377E-003   4.9930585059565442E-002
   8.7700383987316180E-004  -2.9568944307131195E-003   4.4949779792207295E-002
   1.3221822195430555E-006   6.0825263759056725E-007   6.5535805198449593E-002
   5.5150310272755743E-007   1.1552153554861277E-006   6.0796912389236124E-002
  -2.1917601409487952E-007   1.7797076086178976E-006   5.5939148634862934E-002
  -9.8985513091384703E-007   2.4817293978740551E-006   5.0962513935329468E-002
  -1.7605342477328145E-006   3.2612807219223328E-006   4.5867008290636502E-002
  -1.7223444338217847E-004  -2.9696484179448923E-003   6.3817463965668564E-002
  -1.3661548958581599E-004  -1.2156175666421243E-003   6.4276467823054850E-002
  -1.0099653578946391E-004  -4.9632217443723592E-005   6.4970891192427938E-002
  -6.5377581993106629E-005   5.2830762964999750E-004   6.5900734073787715E-002
  -2.9758628196749348E-005   5.1820197463947615E-004   6.7065996467134181E-002
  -6.4911557376599767E-003   5.4434458128416185E-005   6.4545671610707789E-002
  -6.2110212292010199E-003   1.0093972852432964E-003   6.4485781009963439E-002
  -5.9308867207420648E-003   1.6315781042463007E-003   6.4679502006557615E-002
  -5.6507522122831106E-003   1.9209769151376996E-003   6.5126834600490166E-002
  -5.3706177038241529E-003   1.8775937179174307E-003   6.5827778791761438E-002
  -1.2877653777636262E-002   3.0785173342018080E-003   6.4347179484562672E-002
  -1.2334811629162931E-002   3.2344121371286061E-003   6.4023657919680371E-002
  -1.1791969480689602E-002   3.3127884259365054E-003   6.3971940037488406E-002
  -1.1249127332216268E-002   3.3136462006253219E-003   6.4192025837986638E-002
  -1.0706285183742927E-002   3.2369854611953297E-003   6.4683915321175206E-002
  -1.9331728563311036E-002   6.1026002102751720E-003   6.3221987587233047E-002
  -1.8507986689471539E-002   5.4594269890139990E-003   6.2890098552205786E-002
  -1.7684244815632050E-002   4.9939987476265921E-003   6.2848205285220310E-002
  -1.6860502941792567E-002   4.7063154861130396E-003   6.3096307786277006E-002
  -1.6036761067953070E-002   4.5963772044732287E-003   6.3634406055375820E-002
  -2.5853380094684297E-002   9.1266830863485082E-003   6.1170095918719247E-002
  -2.4730546410126862E-002   7.6844418408993642E-003   6.1085102907539324E-002
  -2.3607712725569434E-002   6.6752090693167621E-003   6.1308297749753382E-002
  -2.2484879041011999E-002   6.0989847716006115E-003   6.1839680445361200E-002
  -2.1362045356454570E-002   5.9557689477511278E-003   6.2679250994362834E-002
  -2.9758628196749348E-005   5.1820197463947615E-004   6.7065996467134181E-002
  -3.4460708465421791E-005   2.5716360428798546E-004   6.6595082376969122E-002
  -3.9162788734094234E-005   8.2305305358881808E-005   6.6276514299011963E-002
  -4.3864869002766677E-005  -6.3729221475919418E-006   6.6110292233262563E-002
  -4.8566949271439119E-005  -8.8710782317202863E-006   6.6096416179720840E-002
  -5.3706177038241529E-003   1.8775937179174307E-003   6.5827778791761438E-002
  -5.2228339774836111E-003   1.6879051128025763E-003   6.5425371723578887E-002
  -5.0750502511430658E-003   1.5383877000100868E-003   6.5175590256407137E-002
  -4.9272665248025257E-003   1.4290414795401236E-003   6.5078434390245882E-002
  -4.7794827984619787E-003   1.3598664513926328E-003   6.5133904125095315E-002
  -1.0706285183742927E-002   3.2369854611953297E-003   6.4683915321175206E-002
  -1.0405736061990311E-002   3.1186466213170144E-003   6.4304006395875329E-002
  -1.0105186940237697E-002   2.9944700946611807E-003   6.4077002660388821E-002
  -9.8046378184850833E-003   2.8644558812278391E-003   6.4002904114715875E-002
  -9.5040886967324746E-003   2.7286039810169582E-003   6.4081710758856464E-002
  -1.6036761067953070E-002   4.5963772044732287E-003   6.3634406055375820E-002
  -1.5583166961985534E-002   4.5493881298314456E-003   6.3230986393858282E-002
  -1.5129572856018011E-002   4.4505524893123580E-003   6.2980751510957264E-002
  -1.4675978750050478E-002   4.2998702829155546E-003   6.2883701406672390E-002
  -1.4222384644082943E-002   4.0973415106412420E-003   6.2939836081003953E-002
  -2.1362045356454570E-002   5.9557689477511278E-003   6.2679250994362834E-002
  -2.0755126677469281E-002   5.9801296383460711E-003   6.2206311717527940E-002
  -2.0148207998483970E-002   5.9066348839634658E-003   6.1886836808112161E-002
  -1.9541289319498667E-002   5.7352846846032111E-003   6.1720826266115567E-002
  -1.8934370640513370E-002   5.4660790402655812E-003   6.1708280091538226E-002
  -4.8566949271439119E-005  -8.8710782317202863E-006   6.6096416179720840E-002
  -2.8829792884446648E-005   2.5635480030899993E-005   6.5980229964488657E-002
  -9.0926364974576457E-006   4.7971395564089248E-005   6.6100515843245389E-002
   1.0644519889534826E-005   5.8136668368034827E-005   6.6457273815991175E-002
   3.0381676276523828E-005   5.6131298442674282E-005   6.7050503882725765E-002
  -4.7794827984619787E-003   1.3598664513926328E-003   6.5133904125095315E-002
  -4.5260751911492068E-003   1.3073344097925266E-003   6.5011698286741526E-002
  -4.2726675838364453E-003   1.2479171489644392E-003   6.5120361256249967E-002
  -4.0192599765236751E-003   1.1816146689085649E-003   6.5459893033621097E-002
  -3.7658523692109050E-003   1.1084269696247651E-003   6.6030293618854929E-002
  -9.5040886967324746E-003   2.7286039810169582E-003   6.4081710758856464E-002
  -9.0226139246203270E-003   2.5890333395540838E-003   6.3958770720882213E-002
  -8.5411391525081880E-003   2.4478629023647475E-003   6.4061096204644119E-002
  -8.0596643803960404E-003   2.3050926694490985E-003   6.4388687210142237E-002
  -7.5781896082839015E-003   2.1607226408070501E-003   6.4941543737376498E-002
  -1.4222384644082943E-002   4.0973415106412420E-003   6.2939836081003953E-002
  -1.3518445993297813E-002   3.8707322693156757E-003   6.2821447266910954E-002
  -1.2814507342512691E-002   3.6478086557650211E-003   6.2922720688427622E-002
  -1.2110568691727559E-002   3.4285706699895748E-003   6.3243656345554178E-002
  -1.1406630040942438E-002   3.2130183119892936E-003   6.3784254238290414E-002
  -1.8934370640513370E-002   5.4660790402655812E-003   6.1708280091538226E-002
  -1.8013571397181658E-002   5.1524311990772398E-003   6.1599727924827707E-002
  -1.7092772153849960E-002   4.8477544091654057E-003   6.1705234707600642E-002
  -1.6171972910518254E-002   4.5520486705302454E-003   6.2024800439857003E-002
  -1.5251173667186542E-002   4.2653139831714815E-003   6.2558425121596650E-002
   3.0381676276523828E-005   5.6131298442674282E-005   6.7050503882725765E-002
   2.0645416370836805E-005   4.6688313796172665E-005   6.6906969817832618E-002
   1.0909156465146314E-005   3.4540742437291772E-005   6.6988280466802747E-002
   1.1728965594558216E-006   1.9688584365445266E-005   6.7294435829636026E-002
  -8.5633633462312009E-006   2.1318395808656021E-006   6.7825435906332499E-002
  -3.7658523692109050E-003   1.1084269696247651E-003   6.6030293618854929E-002
  -3.5520072958691949E-003   1.0298967787000235E-003   6.5866140804377027E-002
  -3.3381622225274743E-003   9.4756682372099110E-004   6.5924305942530542E-002
  -3.1243171491857537E-003   8.6143710468766788E-004   6.6204789033315559E-002
  -2.9104720758440436E-003   7.7150762159994279E-004   6.6707590076732493E-002
  -7.5781896082839015E-003   2.1607226408070501E-003   6.4941543737376498E-002
  -7.1432899629263929E-003   2.0131052436038743E-003   6.4755676995972067E-002
  -6.7083903175688703E-003   1.8605929050048084E-003   6.4789601445967460E-002
  -6.2734906722113513E-003   1.7031856250097812E-003   6.5043317087363092E-002
  -5.8385910268538392E-003   1.5408834036190200E-003   6.5516823920158535E-002
  -1.1406630040942438E-002   3.2130183119892936E-003   6.3784254238290414E-002
  -1.0753202584800741E-002   2.9963137085076141E-003   6.3575578392617835E-002
  -1.0099775128659044E-002   2.7736189862885667E-003   6.3584166977113776E-002
  -9.4463476725173412E-003   2.5449341453320047E-003   6.3810019991778127E-002
  -8.7929202163756527E-003   2.3102591856381527E-003   6.4253137436610652E-002
  -1.5251173667186542E-002   4.2653139831714815E-003   6.2558425121596650E-002
  -1.4381745161492272E-002   3.9795221734115205E-003   6.2325844994314539E-002
  -1.3512316655797996E-002   3.6866450675723667E-003   6.2308002535969326E-002
  -1.2642888150103716E-002   3.3866826656541830E-003   6.2504897746560664E-002
  -1.1773459644409442E-002   3.0796349676572854E-003   6.2916530626089040E-002
  -8.5633633462312009E-006   2.1318395808656021E-006   6.7825435906332499E-002
  -2.3542642499305155E-006  -1.3206393681797213E-005   6.7861655042401381E-002
   3.8548348463701698E-006  -2.1403017187365814E-005   6.8142819686412504E-002
   1.0063933942674325E-005  -2.2458030936235718E-005   6.8668929838365811E-002
   1.6273033038971541E-005  -1.6371434928164064E-005   6.9439985498261358E-002
  -2.9104720758440436E-003   7.7150762159994279E-004   6.6707590076732493E-002
  -2.6602911586432847E-003   6.8341404031124764E-004   6.6723931873156228E-002
  -2.4101102414425188E-003   6.0279202667462561E-004   6.6983271797846494E-002
  -2.1599293242417633E-003   5.2964158069034040E-004   6.7485609850803610E-002
  -1.9097484070409940E-003   4.6396270235815606E-004   6.8230946032027284E-002
  -5.8385910268538392E-003   1.5408834036190200E-003   6.5516823920158535E-002
  -5.3463856712241669E-003   1.3800344743039872E-003   6.5513618334832213E-002
  -4.8541803155944929E-003   1.2269870705366309E-003   6.5751463498097198E-002
  -4.3619749599648266E-003   1.0817411923167534E-003   6.6230359409953393E-002
  -3.8697696043351465E-003   9.4429683964458722E-004   6.6950306070400284E-002
  -8.7929202163756527E-003   2.3102591856381527E-003   6.4253137436610652E-002
  -8.0606378019926102E-003   2.0766549082968794E-003   6.4230714427429975E-002
  -7.3283553876095676E-003   1.8511821143986293E-003   6.4447394787164838E-002
  -6.5960729732265347E-003   1.6338408039431370E-003   6.4903178515815285E-002
  -5.8637905588434826E-003   1.4246309769310184E-003   6.5598065613381301E-002
  -1.1773459644409442E-002   3.0796349676572854E-003   6.2916530626089040E-002
  -1.0803047550948575E-002   2.7732753422897161E-003   6.2875220150949040E-002
  -9.8326354574877310E-003   2.4753771582607109E-003   6.3071065665049220E-002
  -8.8622233640268753E-003   2.1859404155697634E-003   6.3504067168389494E-002
  -7.8918112705660126E-003   1.9049651142173385E-003   6.4174224660969781E-002
   1.6273033038971541E-005  -1.6371434928164064E-005   6.9439985498261358E-002
   1.1320591079728992E-005  -8.0259438433039065E-006   6.9251563746229539E-002
   6.3681491204829743E-006  -2.3042723621136130E-006   6.9284402349213237E-002
   1.4157071612300176E-006   7.9357951602437860E-007   6.9538501307212508E-002
  -3.5367347980055919E-006   1.2676117905341400E-006   7.0013860620227519E-002
  -1.9097484070409940E-003   4.6396270235815606E-004   6.8230946032027284E-002
  -1.6900655951119677E-003   4.1524249951396808E-004   6.8023810403514073E-002
  -1.4703827831829275E-003   3.9296807999411598E-004   6.8044684927761945E-002
  -1.2506999712538994E-003   3.9713944379848876E-004   6.8293569604770815E-002
  -1.0310171593248610E-003   4.2775659092653129E-004   6.8770464434540934E-002
  -3.8697696043351465E-003   9.4429683964458722E-004   6.6950306070400284E-002
  -3.4187017407724873E-003   8.3851094287190620E-004   6.6753526168333521E-002
  -2.9676338772098281E-003   7.8824043235066477E-004   6.6791506216773169E-002
  -2.5165660136471490E-003   7.9348530808094966E-004   6.7064246215719131E-002
  -2.0654981500844959E-003   8.5424557006258395E-004   6.7571746165171115E-002
  -5.8637905588434826E-003   1.4246309769310184E-003   6.5598065613381301E-002
  -5.1745878459018430E-003   1.2617793862295112E-003   6.5440711040688229E-002
  -4.4853851329601756E-003   1.1835127847072205E-003   6.5524866216246716E-002
  -3.7961824200185286E-003   1.1898311723634123E-003   6.5850531140056859E-002
  -3.1069797070768677E-003   1.2807345491982758E-003   6.6417705812118671E-002
  -7.8918112705660126E-003   1.9049651142173385E-003   6.4174224660969781E-002
  -6.9577239105000077E-003   1.6850478295871718E-003   6.4085365020577711E-002
  -6.0236365504340132E-003   1.5787851370634987E-003   6.4244764926182585E-002
  -5.0895491903680101E-003   1.5861770366458333E-003   6.4652424377784595E-002
  -4.1554618303020138E-003   1.7072235283345227E-003   6.5308343375383604E-002
  -3.5367347980055919E-006   1.2676117905341400E-006   7.0013860620227519E-002
  -2.3220055436201648E-006   5.9799369833690719E-007   6.8676526232013146E-002
  -1.1072762892312682E-006   2.6489447532695998E-007   6.7484405532312108E-002
   1.0745296515762837E-007   2.6831412166389290E-007   6.6437498521124211E-002
   1.3221822195430555E-006   6.0825263759056725E-007   6.5535805198449593E-002
  -1.0310171593248610E-003   4.2775659092653129E-004   6.8770464434540934E-002
  -8.8787442134967767E-004   5.0073863968697063E-004   6.7452154069706172E-002
  -7.4473168337449262E-004   6.3200470838808975E-004   6.6272486033800093E-002
  -6.0158894539931104E-004   8.2155479702966661E-004   6.5231460326822199E-002
  -4.5844620742412426E-004   1.0693889056121453E-003   6.4329076948772879E-002
  -2.0654981500844959E-003   8.5424557006258395E-004   6.7571746165171115E-002
  -1.7869987629733942E-003   1.0008792856758264E-003   6.6330407324787510E-002
  -1.5084993758622926E-003   1.2637445223009774E-003   6.5221139453747676E-002
  -1.2299999887511980E-003   1.6428412799378948E-003   6.4243942552051070E-002
  -9.5150060164010328E-004   2.1381695585867000E-003   6.3398816619697818E-002
  -3.1069797070768677E-003   1.2807345491982758E-003   6.6417705812118671E-002
  -2.6996950304147395E-003   1.5010199316643491E-003   6.5311285997257482E-002
  -2.2924103537526322E-003   1.8954843362139137E-003   6.4330365792154856E-002
  -1.8851256770905213E-003   2.4641277628457883E-003   6.3474945196810684E-002
  -1.4778410004283966E-003   3.2069502115612547E-003   6.2745024211225076E-002
  -4.1554618303020138E-003   1.7072235283345227E-003   6.5308343375383604E-002
  -3.6259632236737560E-003   2.0011605776532604E-003   6.4394790087115905E-002
  -3.0964646170455086E-003   2.5272241501266834E-003   6.3600165049021828E-002
  -2.5669660104172560E-003   3.2854142457539731E-003   6.2924468261101429E-002
  -2.0374674037890034E-003   4.2757308645359204E-003   6.2367699723354542E-002
   1.3221822195430555E-006   6.0825263759056725E-007   6.5535805198449593E-002
   5.5150310272755743E-007   1.1552153554861277E-006   6.0796912389236124E-002
  -2.1917601409487952E-007   1.7797076086178976E-006   5.5939148634862934E-002
  -9.8985513091384703E-007   2.4817293978740551E-006   5.0962513935329468E-002
  -1.7605342477328145E-006   3.2612807219223328E-006   4.5867008290636502E-002
  -4.5844620742412426E-004   1.0693889056121453E-003   6.4329076948772879E-002
  -5.6392513632832694E-004   1.3954803883001743E-003   5.9620214959262174E-002
  -6.6940406523252442E-004   1.8198025992585132E-003   5.4820807415336459E-002
  -7.7488299413673405E-004   2.3423555384875783E-003   4.9930854316996315E-002
  -8.8036192304092459E-004   2.9631392059874528E-003   4.4950355664240327E-002
  -9.5150060164010328E-004   2.1381695585867000E-003   6.3398816619697818E-002
  -1.1333623895868859E-003   2.7898055612443629E-003   5.8818138648625673E-002
  -1.3152241775336772E-003   3.6378254909078533E-003   5.4175240513883338E-002
  -1.4970859654804608E-003   4.6822293475771715E-003   4.9470122215470744E-002
  -1.6789477534272373E-003   5.9230171312525393E-003   4.4702783753387876E-002
  -1.4778410004283966E-003   3.2069502115612547E-003   6.2745024211225076E-002
  -1.7077602566729503E-003   4.1841307341885792E-003   5.8390683457326426E-002
  -1.9376795129175390E-003   5.4558483825575821E-003   5.4002447930502240E-002
  -2.1675987691621140E-003   7.0221031566670422E-003   4.9580317630753060E-002
  -2.3975180254066676E-003   8.8828950565179587E-003   4.5124292558077539E-002
  -2.0374674037890034E-003   4.2757308645359204E-003   6.2367699723354542E-002
  -2.2871187375865659E-003   5.5784559071329065E-003   5.8337849385364793E-002
  -2.5367700713841146E-003   7.2738712742068945E-003   5.4302429665194107E-002
  -2.7864214051816598E-003   9.3619769657566423E-003   5.0261440562843401E-002
  -3.0360727389792258E-003   1.1842772981783156E-002   4.6214882078311703E-002
  -2.5853380094684297E-002   9.1266830863485082E-003   6.1170095918719247E-002
  -2.4730546410126862E-002   7.6844418408993642E-003   6.1085102907539324E-002
  -2.3607712725569434E-002   6.6752090693167621E-003   6.1308297749753382E-002
  -2.2484879041011999E-002   6.0989847716006115E-003   6.1839680445361200E-002
  -2.1362045356454570E-002   5.9557689477511278E-003   6.2679250994362834E-002
  -3.2405574915541011E-002   1.0267521562882798E-002   5.7153911366229909E-002
  -3.0976712247486469E-002   9.3458293099424605E-003   5.7400672050566565E-002
  -2.9547849579431920E-002   8.6459733804988836E-003   5.7951302848503736E-002
  -2.8118986911377371E-002   8.1679537745520669E-003   5.8805803760041180E-002
  -2.6690124243322802E-002   7.9117704921020660E-003   5.9964174785179070E-002
  -3.8951279569666035E-002   1.1408360039417142E-002   5.3763861881434200E-002
  -3.7220705657907888E-002   1.1007216778985598E-002   5.4131204110917680E-002
  -3.5490131746149622E-002   1.0616737691681102E-002   5.4798098714208140E-002
  -3.3759557834391406E-002   1.0236922777503581E-002   5.5764545691305602E-002
  -3.2028983922633224E-002   9.8677720364530319E-003   5.7030545042210001E-002
  -4.5490494057059627E-002   1.2549198515951432E-002   5.0999947464332306E-002
  -4.3462526641391143E-002   1.2668604248028771E-002   5.1276699088592795E-002
  -4.1434559225722645E-002   1.2587502002863328E-002   5.1848685346866860E-002
  -3.9406591810054153E-002   1.2305891780455038E-002   5.2715906239154398E-002
  -3.7378624394385690E-002   1.1823773580803984E-002   5.3878361765455435E-002
  -5.2023218377721475E-002   1.3690036992485777E-002   4.8862168114924054E-002
  -4.9702175197936127E-002   1.4329991717071833E-002   4.8837156983591867E-002
  -4.7381132018150890E-002   1.4558266314045484E-002   4.9103062746479659E-002
  -4.5060088838365625E-002   1.4374860783406464E-002   4.9659885403587553E-002
  -4.2739045658580346E-002   1.3779775125154936E-002   5.0507624954915564E-002
  -2.1362045356454570E-002   5.9557689477511278E-003   6.2679250994362834E-002
  -2.0755126677469281E-002   5.9801296383460711E-003   6.2206311717527940E-002
  -2.0148207998483970E-002   5.9066348839634658E-003   6.1886836808112161E-002
  -1.9541289319498667E-002   5.7352846846032111E-003   6.1720826266115567E-002
  -1.8934370640513370E-002   5.4660790402655812E-003   6.1708280091538226E-002
  -2.6690124243322802E-002   7.9117704921020660E-003   5.9964174785179070E-002
  -2.5931972648465168E-002   7.7410089505035445E-003   5.9403799120969394E-002
  -2.5173821053607527E-002   7.5192545671108751E-003   5.8992424921085182E-002
  -2.4415669458749890E-002   7.2465073419242902E-003   5.8730052185526453E-002
  -2.3657517863892249E-002   6.9227672749435643E-003   5.8616680914293201E-002
  -3.2028983922633224E-002   9.8677720364530319E-003   5.7030545042210001E-002
  -3.1124062314996905E-002   9.5018882626608653E-003   5.6429595593809070E-002
  -3.0219140707360610E-002   9.1318742502581804E-003   5.5973184706639999E-002
  -2.9314219099724322E-002   8.7577299992451490E-003   5.5661312380702654E-002
  -2.8409297492088006E-002   8.3794555096216861E-003   5.5493978615997197E-002
  -3.7378624394385690E-002   1.1823773580803984E-002   5.3878361765455435E-002
  -3.6331395677064442E-002   1.1262767574818262E-002   5.3283701136046968E-002
  -3.5284166959743214E-002   1.0744493933405482E-002   5.2829116164776577E-002
  -3.4236938242421973E-002   1.0268952656566063E-002   5.2514606851644274E-002
  -3.3189709525100732E-002   9.8361437442996830E-003   5.2340173196650033E-002
  -4.2739045658580346E-002   1.3779775125154936E-002   5.0507624954915564E-002
  -4.1553972734667821E-002   1.3023646886975659E-002   4.9966115747683060E-002
  -4.0368899810755331E-002   1.2357113616552895E-002   4.9560219295494951E-002
  -3.9183826886842840E-002   1.1780175313886976E-002   4.9289935598351250E-002
  -3.7998753962930329E-002   1.1292831978977846E-002   4.9155264656251918E-002
  -1.8934370640513370E-002   5.4660790402655812E-003   6.1708280091538226E-002
  -1.8013571397181658E-002   5.1524311990772398E-003   6.1599727924827707E-002
  -1.7092772153849960E-002   4.8477544091654057E-003   6.1705234707600642E-002
  -1.6171972910518254E-002   4.5520486705302454E-003   6.2024800439857003E-002
  -1.5251173667186542E-002   4.2653139831714815E-003   6.2558425121596650E-002
  -2.3657517863892249E-002   6.9227672749435643E-003   5.8616680914293201E-002
  -2.2521437840317526E-002   6.5711911170941162E-003   5.8482864029191922E-002
  -2.1385357816742820E-002   6.2149356193008931E-003   5.8565549755093191E-002
  -2.0249277793168121E-002   5.8540007815639852E-003   5.8864738091997097E-002
  -1.9113197769593394E-002   5.4883866038833995E-003   5.9380429039903537E-002
  -2.8409297492088006E-002   8.3794555096216861E-003   5.5493978615997197E-002
  -2.7055493026751053E-002   7.9899510351110065E-003   5.5321246621284695E-002
  -2.5701688561414103E-002   7.5821168294363805E-003   5.5367460899094140E-002
  -2.4347884096077139E-002   7.1559528925978916E-003   5.5632621449425490E-002
  -2.2994079630740197E-002   6.7114592245954008E-003   5.6116728272278635E-002
  -3.3189709525100732E-002   9.8361437442996830E-003   5.2340173196650033E-002
  -3.1615736956482267E-002   9.4087109531278898E-003   5.2114875701106296E-002
  -3.0041764387863826E-002   8.9492980395718125E-003   5.2110968139603628E-002
  -2.8467791819245414E-002   8.4579050036318257E-003   5.2328450512141994E-002
  -2.6893819250626921E-002   7.9345318453073604E-003   5.2767322818721638E-002
  -3.7998753962930329E-002   1.1292831978977846E-002   4.9155264656251918E-002
  -3.6202169629511144E-002   1.0827470871144829E-002   4.8863751268656663E-002
  -3.4405585296091966E-002   1.0316479249707411E-002   4.8796071476621516E-002
  -3.2609000962672788E-002   9.7598571146656071E-003   4.8952225280146894E-002
  -3.0812416629253603E-002   9.1576044660193756E-003   4.9332212679232545E-002
  -1.5251173667186542E-002   4.2653139831714815E-003   6.2558425121596650E-002
  -1.4381745161492272E-002   3.9795221734115205E-003   6.2325844994314539E-002
  -1.3512316655797996E-002   3.6866450675723667E-003   6.2308002535969326E-002
  -1.2642888150103716E-002   3.3866826656541830E-003   6.2504897746560664E-002
  -1.1773459644409442E-002   3.0796349676572854E-003   6.2916530626089040E-002
  -1.9113197769593394E-002   5.4883866038833995E-003   5.9380429039903537E-002
  -1.8034187409369868E-002   5.1184380189141510E-003   5.9118297954117716E-002
  -1.6955177049146366E-002   4.7444999593113379E-003   5.9060592908453641E-002
  -1.5876166688922846E-002   4.3665724250752033E-003   5.9207313902911160E-002
  -1.4797156328699341E-002   3.9846554162054071E-003   5.9558460937490398E-002
  -2.2994079630740197E-002   6.7114592245954008E-003   5.6116728272278635E-002
  -2.1715799044802489E-002   6.2573538644169202E-003   5.5828142049434482E-002
  -2.0437518458864830E-002   5.8023548510504272E-003   5.5733670237897083E-002
  -1.9159237872927157E-002   5.3464621844960033E-003   5.5833312837666141E-002
  -1.7880957286989463E-002   4.8896758647536953E-003   5.6127069848742162E-002
  -2.6893819250626921E-002   7.9345318453073604E-003   5.2767322818721638E-002
  -2.5426580067790121E-002   7.3962697099198421E-003   5.2455377280264691E-002
  -2.3959340884953384E-002   6.8602097427896240E-003   5.2327234524299542E-002
  -2.2492101702116605E-002   6.3263519439169134E-003   5.2382894550825808E-002
  -2.1024862519279843E-002   5.7946963133017892E-003   5.2622357359843656E-002
  -3.0812416629253603E-002   9.1576044660193756E-003   4.9332212679232545E-002
  -2.9166530478332772E-002   8.5351855554224865E-003   4.9000003646608448E-002
  -2.7520644327411997E-002   7.9180646345286126E-003   4.8841285767661086E-002
  -2.5874758176491222E-002   7.3062417033378270E-003   4.8856059042390002E-002
  -2.4228872025570392E-002   6.6997167618502163E-003   4.9044323470795570E-002
  -1.1773459644409442E-002   3.0796349676572854E-003   6.2916530626089040E-002
  -1.0803047550948575E-002   2.7732753422897161E-003   6.2875220150949040E-002
  -9.8326354574877310E-003   2.4753771582607109E-003   6.3071065665049220E-002
  -8.8622233640268753E-003   2.1859404155697634E-003   6.3504067168389494E-002
  -7.8918112705660126E-003   1.9049651142173385E-003   6.4174224660969781E-002
  -1.4797156328699341E-002   3.9846554162054071E-003   5.9558460937490398E-002
  -1.3597338140374716E-002   3.6034870312119938E-003   5.9456270375836562E-002
  -1.2397519952050138E-002   3.2278053686051744E-003   5.9575736014669950E-002
  -1.1197701763725525E-002   2.8576104283847409E-003   5.9916857853990826E-002
  -9.9978835754009343E-003   2.4929022105508736E-003   6.0479635893799288E-002
  -1.7880957286989463E-002   4.8896758647536953E-003   5.6127069848742162E-002
  -1.6467232792553743E-002   4.4336987201344102E-003   5.5961024481622074E-002
  -1.5053508298117975E-002   3.9802335789497628E-003   5.6001135526236853E-002
  -1.3639783803682229E-002   3.5292804411998328E-003   5.6247402982586479E-002
  -1.2226059309246489E-002   3.0808393068842976E-003   5.6699826850670959E-002
  -2.1024862519279843E-002   5.7946963133017892E-003   5.2622357359843656E-002
  -1.9412731507485504E-002   5.2639104090569239E-003   5.2389482468305909E-002
  -1.7800600495691224E-002   4.7326617892943998E-003   5.2347264199750124E-002
  -1.6188469483896909E-002   4.2009504540147565E-003   5.2495702554176751E-002
  -1.4576338472102603E-002   3.6687764032177772E-003   5.2834797531585542E-002
  -2.4228872025570392E-002   6.6997167618502163E-003   4.9044323470795570E-002
  -2.2433834285170151E-002   6.0941220979791044E-003   4.8741644335887735E-002
  -2.0638796544769897E-002   5.4850899996388702E-003   4.8614122035209650E-002
  -1.8843758804369670E-002   4.8726204668298051E-003   4.8661756568761233E-002
  -1.7048721063969402E-002   4.2567134995512568E-003   4.8884547936542400E-002
  -7.8918112705660126E-003   1.9049651142173385E-003   6.4174224660969781E-002
  -6.9577239105000077E-003   1.6850478295871718E-003   6.4085365020577711E-002
  -6.0236365504340132E-003   1.5787851370634987E-003   6.4244764926182585E-002
  -5.0895491903680101E-003   1.5861770366458333E-003   6.4652424377784595E-002
  -4.1554618303020138E-003   1.7072235283345227E-003   6.5308343375383604E-002
  -9.9978835754009343E-003   2.4929022105508736E-003   6.0479635893799288E-002
  -8.8147627317897610E-003   2.1879893731684419E-003   6.0383326077255994E-002
  -7.6316418881786086E-003   1.9971805743019821E-003   6.0536823681805935E-002
  -6.4485210445674613E-003   1.9204758139522993E-003   6.0940128707449290E-002
  -5.2654002009563071E-003   1.9578750921186439E-003   6.1593241154185685E-002
  -1.2226059309246489E-002   3.0808393068842976E-003   5.6699826850670959E-002
  -1.0792357106993875E-002   2.6909309167492401E-003   5.6596516304386724E-002
  -9.3586549047412620E-003   2.4155760115406599E-003   5.6744561054291848E-002
  -7.9249527024886478E-003   2.2547745912586473E-003   5.7143961100386664E-002
  -6.4912505002360354E-003   2.2085266559028205E-003   5.7794716442671035E-002
  -1.4576338472102603E-002   3.6687764032177772E-003   5.2834797531585542E-002
  -1.2890507036112320E-002   3.1938724603303853E-003   5.2724935701970219E-002
  -1.1204675600121995E-002   2.8339714487795181E-003   5.2867977043640720E-002
  -9.5188441641316963E-003   2.5890733685649432E-003   5.3263921556596927E-002
  -7.8330127281413826E-003   2.4591782196871359E-003   5.3912769240839389E-002
  -1.7048721063969402E-002   4.2567134995512568E-003   4.8884547936542400E-002
  -1.5109212519145071E-002   3.6968140039111974E-003   4.8768584270006188E-002
  -1.3169703974320782E-002   3.2523668860177934E-003   4.8907071649852030E-002
  -1.1230195429496465E-002   2.9233721458716208E-003   4.9300010076080064E-002
  -9.2906868846721613E-003   2.7098297834712293E-003   4.9947399548690208E-002
  -4.1554618303020138E-003   1.7072235283345227E-003   6.5308343375383604E-002
  -3.6259632236737560E-003   2.0011605776532604E-003   6.4394790087115905E-002
  -3.0964646170455086E-003   2.5272241501266834E-003   6.3600165049021828E-002
  -2.5669660104172560E-003   3.2854142457539731E-003   6.2924468261101429E-002
  -2.0374674037890034E-003   4.2757308645359204E-003   6.2367699723354542E-002
  -5.2654002009563071E-003   1.9578750921186439E-003   6.1593241154185685E-002
  -4.5909336111754281E-003   2.2152762816081695E-003   6.0868828823913590E-002
  -3.9164670213945509E-003   2.7985772552272525E-003   6.0315424209772789E-002
  -3.2420004316136572E-003   3.7077780129767257E-003   5.9933027311763545E-002
  -2.5675338418327913E-003   4.9428785548552012E-003   5.9721638129885846E-002
  -6.4912505002360354E-003   2.2085266559028205E-003   5.7794716442671035E-002
  -5.6197364613447091E-003   2.4293919855628843E-003   5.7353218331369721E-002
  -4.7482224224533404E-003   3.0699303603282380E-003   5.7134807402157706E-002
  -3.8767083835619860E-003   4.1301417801985832E-003   5.7139483655035211E-002
  -3.0051943446706177E-003   5.6100262451739824E-003   5.7367247090001988E-002
  -7.8330127281413826E-003   2.4591782196871359E-003   5.3912769240839389E-002
  -6.7123717741816606E-003   2.6435076895175852E-003   5.3847958609484034E-002
  -5.5917308202219369E-003   3.3412834654290707E-003   5.4058314626176128E-002
  -4.4710898662622001E-003   4.5525055474204441E-003   5.4543837290915512E-002
  -3.3504489123024903E-003   6.2771739354931244E-003   5.5304526603702157E-002
  -9.2906868846721613E-003   2.7098297834712293E-003   4.9947399548690208E-002
  -7.8688395496862157E-003   2.8576233934725637E-003   5.0353049658256821E-002
  -6.4469922147002839E-003   3.6126365705299868E-003   5.1085945881828410E-002
  -5.0251448797143314E-003   4.9748693146430753E-003   5.2146088219405168E-002
  -3.6032975447284066E-003   6.9443216258118223E-003   5.3533476670987179E-002
  -2.0374674037890034E-003   4.2757308645359204E-003   6.2367699723354542E-002
  -2.2871187375865659E-003   5.5784559071329065E-003   5.8337849385364793E-002
  -2.5367700713841146E-003   7.2738712742068945E-003   5.4302429665194107E-002
  -2.7864214051816598E-003   9.3619769657566423E-003   5.0261440562843401E-002
  -3.0360727389792258E-003   1.1842772981783156E-002   4.6214882078311703E-002
  -2.5675338418327913E-003   4.9428785548552012E-003   5.9721638129885846E-002
  -2.8402306856026086E-003   6.5676725929860735E-003   5.6189806365735784E-002
  -3.1129275293724275E-003   8.6459538394915991E-003   5.2617452963821365E-002
  -3.3856243731422665E-003   1.1177722294371133E-002   4.9004577924143394E-002
  -3.6583212169120916E-003   1.4162977957625333E-002   4.5351181246701566E-002
  -3.0051943446706177E-003   5.6100262451739824E-003   5.7367247090001988E-002
  -3.3358889539960839E-003   7.5568892788385189E-003   5.4394230783589653E-002
  -3.6665835633215241E-003   1.0018036404775846E-002   5.1345740583830110E-002
  -3.9972781726469097E-003   1.2993467622985564E-002   4.8221776490722977E-002
  -4.3279727819723786E-003   1.6483182933467955E-002   4.5022338504268844E-002
  -3.3504489123024903E-003   6.2771739354931244E-003   5.5304526603702157E-002
  -3.7740935427669278E-003   8.5461059646911031E-003   5.2951122638926144E-002
  -4.1977381732313922E-003   1.1390118970060099E-002   5.0487292525219093E-002
  -4.6213828036957968E-003   1.4809212951599914E-002   4.7913036262581560E-002
  -5.0450274341602951E-003   1.8803387909310243E-002   4.5228353851013092E-002
  -3.6032975447284066E-003   6.9443216258118223E-003   5.3533476670987179E-002
  -4.1548444519152322E-003   9.5353226505441313E-003   5.1860481931745084E-002
  -4.7063913591020162E-003   1.2762201535344631E-002   5.0042108787989092E-002
  -5.2579382662887933E-003   1.6624958280214222E-002   4.8078357239718594E-002
  -5.8094851734756259E-003   2.1123592885152753E-002   4.5969227286934533E-002
  -5.2023218377721475E-002   1.3690036992485777E-002   4.8862168114924054E-002
  -4.9702175197936127E-002   1.4329991717071833E-002   4.8837156983591867E-002
  -4.7381132018150890E-002   1.4558266314045484E-002   4.9103062746479659E-002
  -4.5060088838365625E-002   1.4374860783406464E-002   4.9659885403587553E-002
  -4.2739045658580346E-002   1.3779775125154936E-002   5.0507624954915564E-002
  -5.8537199500161258E-002   1.6172142894742170E-002   4.4549504627252268E-002
  -5.5922826502830550E-002   1.6254499597102123E-002   4.4235955208613925E-002
  -5.3308453505499814E-002   1.6104641546386647E-002   4.4218148530846352E-002
  -5.0694080508169100E-002   1.5722568742595481E-002   4.4496084593949631E-002
  -4.8079707510838364E-002   1.5108281185729044E-002   4.5069763397923651E-002
  -6.5020184392888605E-002   1.8654248796998646E-002   3.9589510430085864E-002
  -6.2107655731361650E-002   1.8179007477132386E-002   3.9166888098678437E-002
  -5.9195127069834770E-002   1.7651016778727678E-002   3.9044834354792578E-002
  -5.6282598408307891E-002   1.7070276701784529E-002   3.9223349198428070E-002
  -5.3370069746780990E-002   1.6436787246303042E-002   3.9702432629585116E-002
  -7.1472173055903171E-002   2.1136354699255053E-002   3.3982185523424677E-002
  -6.8256662883529495E-002   2.0103515357162607E-002   3.3629955653785154E-002
  -6.5041152711155764E-002   1.9197392011068706E-002   3.3583120218317997E-002
  -6.1825642538782075E-002   1.8417984660973614E-002   3.3841679217023038E-002
  -5.8610132366408330E-002   1.7765293306877039E-002   3.4405632649900167E-002
  -7.7893165489205329E-002   2.3618460601511515E-002   2.7727529907268622E-002
  -7.4369847959334046E-002   2.2028023237192829E-002   2.7625157873934492E-002
  -7.0846530429462817E-002   2.0743767243409844E-002   2.7833006121422976E-002
  -6.7323212899591617E-002   1.9765692620162569E-002   2.8351074649734548E-002
  -6.3799895369720333E-002   1.9093799367451092E-002   2.9179363458868846E-002
  -4.2739045658580346E-002   1.3779775125154936E-002   5.0507624954915564E-002
  -4.1553972734667821E-002   1.3023646886975659E-002   4.9966115747683060E-002
  -4.0368899810755331E-002   1.2357113616552895E-002   4.9560219295494951E-002
  -3.9183826886842840E-002   1.1780175313886976E-002   4.9289935598351250E-002
  -3.7998753962930329E-002   1.1292831978977846E-002   4.9155264656251918E-002
  -4.8079707510838364E-002   1.5108281185729044E-002   4.5069763397923651E-002
  -4.6762793589584566E-002   1.4405284556942149E-002   4.4646977837799057E-002
  -4.5445879668330760E-002   1.3757084537389996E-002   4.4352261517312669E-002
  -4.4128965747076990E-002   1.3163681127072585E-002   4.4185614436464474E-002
  -4.2812051825823150E-002   1.2625074325990027E-002   4.4147036595254319E-002
  -5.3370069746780990E-002   1.6436787246303042E-002   3.9702432629585116E-002
  -5.1928858343592198E-002   1.5786922226908640E-002   3.9363572358046578E-002
  -5.0487646940403350E-002   1.5157055458227098E-002   3.9145237810739919E-002
  -4.9046435537214515E-002   1.4547186940258305E-002   3.9047428987665229E-002
  -4.7605224134025709E-002   1.3957316673002124E-002   3.9070145888822461E-002
  -5.8610132366408330E-002   1.7765293306877039E-002   3.4405632649900167E-002
  -5.7052166996690704E-002   1.7168559896875185E-002   3.4115899308425630E-002
  -5.5494201626973057E-002   1.6557026379064171E-002   3.3939148175776791E-002
  -5.3936236257255403E-002   1.5930692753443748E-002   3.3875379251953601E-002
  -5.2378270887537777E-002   1.5289559020014373E-002   3.3924592536955969E-002
  -6.3799895369720333E-002   1.9093799367451092E-002   2.9179363458868846E-002
  -6.2132719548880111E-002   1.8550197566841620E-002   2.8903958688936332E-002
  -6.0465543728039903E-002   1.7956997299901328E-002   2.8733992612423015E-002
  -5.8798367907199715E-002   1.7314198566629586E-002   2.8669465229329338E-002
  -5.7131192086359472E-002   1.6621801367026456E-002   2.8710376539655136E-002
  -3.7998753962930329E-002   1.1292831978977846E-002   4.9155264656251918E-002
  -3.6202169629511144E-002   1.0827470871144829E-002   4.8863751268656663E-002
  -3.4405585296091966E-002   1.0316479249707411E-002   4.8796071476621516E-002
  -3.2609000962672788E-002   9.7598571146656071E-003   4.8952225280146894E-002
  -3.0812416629253603E-002   9.1576044660193756E-003   4.9332212679232545E-002
  -4.2812051825823150E-002   1.2625074325990027E-002   4.4147036595254319E-002
  -4.0795893525837158E-002   1.2098235991606532E-002   4.3832944038635552E-002
  -3.8779735225851097E-002   1.1540137981386631E-002   4.3734165819590026E-002
  -3.6763576925865050E-002   1.0950780295330389E-002   4.3850701938118034E-002
  -3.4747418625879045E-002   1.0330162933437803E-002   4.4182552394219199E-002
  -4.7605224134025709E-002   1.3957316673002124E-002   3.9070145888822461E-002
  -4.5378011125459805E-002   1.3369001112068207E-002   3.8747845000948050E-002
  -4.3150798116893811E-002   1.2763796713065906E-002   3.8632339192660126E-002
  -4.0923585108327831E-002   1.2141703475995226E-002   3.8723628463958576E-002
  -3.8696372099761914E-002   1.1502721400856092E-002   3.9021712814843387E-002
  -5.2378270887537777E-002   1.5289559020014373E-002   3.3924592536955969E-002
  -4.9948522428378911E-002   1.4639766232529897E-002   3.3608454155594158E-002
  -4.7518773969220073E-002   1.3987455444745098E-002   3.3490591595831704E-002
  -4.5089025510061186E-002   1.3332626656659925E-002   3.3571004857668701E-002
  -4.2659277050902417E-002   1.2675279868274505E-002   3.3849693941105125E-002
  -5.7131192086359472E-002   1.6621801367026456E-002   2.8710376539655136E-002
  -5.4507427434594663E-002   1.5910531352991614E-002   2.8414771502573766E-002
  -5.1883662782829881E-002   1.5211114176424470E-002   2.8308923029104927E-002
  -4.9259898131065072E-002   1.4523549837324835E-002   2.8392831119248410E-002
  -4.6636133479300290E-002   1.3847838335692808E-002   2.8666495773004508E-002
  -3.0812416629253603E-002   9.1576044660193756E-003   4.9332212679232545E-002
  -2.9166530478332772E-002   8.5351855554224865E-003   4.9000003646608448E-002
  -2.7520644327411997E-002   7.9180646345286126E-003   4.8841285767661086E-002
  -2.5874758176491222E-002   7.3062417033378270E-003   4.8856059042390002E-002
  -2.4228872025570392E-002   6.6997167618502163E-003   4.9044323470795570E-002
  -3.4747418625879045E-002   1.0330162933437803E-002   4.4182552394219199E-002
  -3.2933761951212233E-002   9.6926772255334359E-003   4.3832081741165235E-002
  -3.1120105276545421E-002   9.0527145014421967E-003   4.3643660981926874E-002
  -2.9306448601878622E-002   8.4102747611643526E-003   4.3617290116504004E-002
  -2.7492791927211796E-002   7.7653580046992965E-003   4.3752969144896459E-002
  -3.8696372099761914E-002   1.1502721400856092E-002   3.9021712814843387E-002
  -3.6726386161210170E-002   1.0850168895644469E-002   3.8645205535469587E-002
  -3.4756400222658336E-002   1.0187364368355940E-002   3.8419306890050305E-002
  -3.2786414284106585E-002   9.5143078189906544E-003   3.8344016878585546E-002
  -3.0816428345554758E-002   8.8309992475484322E-003   3.8419335501075208E-002
  -4.2659277050902417E-002   1.2675279868274505E-002   3.3849693941105125E-002
  -4.0544403108326590E-002   1.2007660565755460E-002   3.3439375029521531E-002
  -3.8429529165750792E-002   1.1322014235269604E-002   3.3168223492031551E-002
  -3.6314655223174980E-002   1.0618340876817012E-002   3.3036239328634989E-002
  -3.4199781280599167E-002   9.8966404903977623E-003   3.3043422539331860E-002
  -4.6636133479300290E-002   1.3847838335692808E-002   2.8666495773004508E-002
  -4.4387812792561432E-002   1.3165152235866284E-002   2.8214590223321179E-002
  -4.2139492105822712E-002   1.2456664102183268E-002   2.7890410787870357E-002
  -3.9891171419083979E-002   1.1722373934643537E-002   2.7693957466652208E-002
  -3.7642850732345134E-002   1.0962281733246759E-002   2.7625230259666456E-002
  -2.4228872025570392E-002   6.6997167618502163E-003   4.9044323470795570E-002
  -2.2433834285170151E-002   6.0941220979791044E-003   4.8741644335887735E-002
  -2.0638796544769897E-002   5.4850899996388702E-003   4.8614122035209650E-002
  -1.8843758804369670E-002   4.8726204668298051E-003   4.8661756568761233E-002
  -1.7048721063969402E-002   4.2567134995512568E-003   4.8884547936542400E-002
  -2.7492791927211796E-002   7.7653580046992965E-003   4.3752969144896459E-002
  -2.5528621284806895E-002   7.1204572452356896E-003   4.3384085348922408E-002
  -2.3564450642401896E-002   6.4780654959615686E-003   4.3178310522728108E-002
  -2.1600279999996967E-002   5.8381827568766802E-003   4.3135644666313561E-002
  -1.9636109357591996E-002   5.2008090279815899E-003   4.3256087779678820E-002
  -3.0816428345554758E-002   8.8309992475484322E-003   3.8419335501075208E-002
  -2.8695172665595056E-002   8.1467923924920527E-003   3.7990193488693438E-002
  -2.6573916985635243E-002   7.4710409922839338E-003   3.7712112581641713E-002
  -2.4452661305675465E-002   6.8037450469238883E-003   3.7585092779919879E-002
  -2.2331405625715735E-002   6.1449045564121452E-003   3.7609134083527757E-002
  -3.4199781280599167E-002   9.8966404903977623E-003   3.3043422539331860E-002
  -3.1933488427534504E-002   9.1731275397486378E-003   3.2559968755201396E-002
  -2.9667195574469805E-002   8.4640164886062991E-003   3.2215528211950888E-002
  -2.7400902721405170E-002   7.7693073369710965E-003   3.2010100909580314E-002
  -2.5134609868340443E-002   7.0890000848427004E-003   3.1943686848089688E-002
  -3.7642850732345134E-002   1.0962281733246759E-002   2.7625230259666456E-002
  -3.5243568570625439E-002   1.0199462687005001E-002   2.7093411148445878E-002
  -3.2844286408905715E-002   9.4569919849288864E-003   2.6688557413655056E-002
  -3.0445004247186019E-002   8.7348696270179993E-003   2.6410669055294711E-002
  -2.8045722085466296E-002   8.0330956132730336E-003   2.6259746073364121E-002
  -1.7048721063969402E-002   4.2567134995512568E-003   4.8884547936542400E-002
  -1.5109212519145071E-002   3.6968140039111974E-003   4.8768584270006188E-002
  -1.3169703974320782E-002   3.2523668860177934E-003   4.8907071649852030E-002
  -1.1230195429496465E-002   2.9233721458716208E-003   4.9300010076080064E-002
  -9.2906868846721613E-003   2.7098297834712293E-003   4.9947399548690208E-002
  -1.9636109357591996E-002   5.2008090279815899E-003   4.3256087779678820E-002
  -1.7480603438912765E-002   4.6008468896123200E-003   4.3087645740418568E-002
  -1.5325097520233436E-002   4.0731989221049203E-003   4.3096747402486285E-002
  -1.3169591601554162E-002   3.6178651254595920E-003   4.3283392765881640E-002
  -1.1014085682874875E-002   3.2348454996763421E-003   4.3647581830604965E-002
  -2.2331405625715735E-002   6.1449045564121452E-003   3.7609134083527757E-002
  -2.0036809678235762E-002   5.5048797753131651E-003   3.7345075464659150E-002
  -1.7742213730755838E-002   4.8940309581917280E-003   3.7181653202064138E-002
  -1.5447617783275910E-002   4.3123581050477887E-003   3.7118867295742548E-002
  -1.3153021835795933E-002   3.7598612158813993E-003   3.7156717745694373E-002
  -2.5134609868340443E-002   7.0890000848427004E-003   3.1943686848089688E-002
  -2.2777831237114177E-002   6.4089126610141489E-003   3.1540873442727942E-002
  -2.0421052605887943E-002   5.7148629942785842E-003   3.1161789048585544E-002
  -1.8064273974661690E-002   5.0068510846359281E-003   3.0806433665662020E-002
  -1.5707495343435442E-002   4.2848769320864288E-003   3.0474807293957858E-002
  -2.8045722085466296E-002   8.0330956132730336E-003   2.6259746073364121E-002
  -2.5703668115547973E-002   7.3129455467150772E-003   2.5675039674624922E-002
  -2.3361614145629761E-002   6.5356950303655792E-003   2.5037154942050610E-002
  -2.1019560175711507E-002   5.7013440642240468E-003   2.4346091875640963E-002
  -1.8677506205793226E-002   4.8098926482914584E-003   2.3601850475396202E-002
  -9.2906868846721613E-003   2.7098297834712293E-003   4.9947399548690208E-002
  -7.8688395496862157E-003   2.8576233934725637E-003   5.0353049658256821E-002
  -6.4469922147002839E-003   3.6126365705299868E-003   5.1085945881828410E-002
  -5.0251448797143314E-003   4.9748693146430753E-003   5.2146088219405168E-002
  -3.6032975447284066E-003   6.9443216258118223E-003   5.3533476670987179E-002
  -1.1014085682874875E-002   3.2348454996763421E-003   4.3647581830604965E-002
  -9.2467148361762286E-003   3.1630632527547831E-003   4.4234662060119168E-002
  -7.4793439894776589E-003   3.6414415926933896E-003   4.5185543199053241E-002
  -5.7119731427790130E-003   4.6699805194929320E-003   4.6500225247407809E-002
  -3.9446022960804433E-003   6.2486800331530423E-003   4.8178708205182330E-002
  -1.3153021835795933E-002   3.7598612158813993E-003   3.7156717745694373E-002
  -1.1003572681969616E-002   3.4685031120363086E-003   3.7868169114960631E-002
  -8.8541235281432117E-003   3.6702466148570284E-003   3.8979976189062168E-002
  -6.7046743743168647E-003   4.3650917243429031E-003   4.0492138967999032E-002
  -4.5552252204904900E-003   5.5530384404943733E-003   4.2404657451771133E-002
  -1.5707495343435442E-002   4.2848769320864288E-003   3.0474807293957858E-002
  -1.3139413087066178E-002   3.7739429713181810E-003   3.1253570822781220E-002
  -1.0571330830697084E-002   3.6990516370203272E-003   3.2469244851854942E-002
  -8.0032485743279196E-003   4.0602029291929281E-003   3.4121829381179039E-002
  -5.4351663179587287E-003   4.8573968478356488E-003   3.6211324410753656E-002
  -1.8677506205793226E-002   4.8098926482914584E-003   2.3601850475396202E-002
  -1.5654236051466208E-002   4.0793828306000535E-003   2.4390867183581411E-002
  -1.2630965897139135E-002   3.7278566591839868E-003   2.5653349187432006E-002
  -9.6076957428120752E-003   3.7553141340428767E-003   2.7389296486948295E-002
  -6.5844255884850433E-003   4.1617552551767023E-003   2.9598709082129693E-002
  -3.6032975447284066E-003   6.9443216258118223E-003   5.3533476670987179E-002
  -4.1548444519152322E-003   9.5353226505441313E-003   5.1860481931745084E-002
  -4.7063913591020162E-003   1.2762201535344631E-002   5.0042108787989092E-002
  -5.2579382662887933E-003   1.6624958280214222E-002   4.8078357239718594E-002
  -5.8094851734756259E-003   2.1123592885152753E-002   4.5969227286934533E-002
  -3.9446022960804433E-003   6.2486800331530423E-003   4.8178708205182330E-002
  -4.5377037813067039E-003   8.6871915131225275E-003   4.7242889722269976E-002
  -5.1308052665329576E-003   1.2295166338849084E-002   4.6369340487792732E-002
  -5.7239067517592737E-003   1.7072604510332656E-002   4.5558060501749820E-002
  -6.3170082369854719E-003   2.3019506027573744E-002   4.4809049764142905E-002
  -4.5552252204904900E-003   5.5530384404943733E-003   4.2404657451771133E-002
  -4.9822336308072146E-003   7.8390603757014787E-003   4.2739600710876291E-002
  -5.4092420411239565E-003   1.1828131142353732E-002   4.3344460871365675E-002
  -5.8362504514406863E-003   1.7520250740451583E-002   4.4219237933239078E-002
  -6.2632588617574231E-003   2.4915419169994735E-002   4.5363931896496679E-002
  -5.4351663179587287E-003   4.8573968478356488E-003   3.6211324410753656E-002
  -5.4884340004167434E-003   6.9909292382800414E-003   3.8350614897564805E-002
  -5.5417016828747832E-003   1.1361095945858615E-002   4.0967469938709249E-002
  -5.5949693653327814E-003   1.7967896970570486E-002   4.4061889534186202E-002
  -5.6482370477907821E-003   2.6811332312415836E-002   4.7633873683997852E-002
  -6.5844255884850433E-003   4.1617552551767023E-003   2.9598709082129693E-002
  -6.0563048901353389E-003   6.1427981008590482E-003   3.4075932282334742E-002
  -5.5281841917856622E-003   1.0894060749362999E-002   3.9238367689822584E-002
  -5.0000634934359300E-003   1.8415543200689097E-002   4.5086015304592220E-002
  -4.4719427950862256E-003   2.8707245454836716E-002   5.1618875126644426E-002
  -7.7893165489205329E-002   2.3618460601511515E-002   2.7727529907268622E-002
  -7.4369847959334046E-002   2.2028023237192829E-002   2.7625157873934492E-002
  -7.0846530429462817E-002   2.0743767243409844E-002   2.7833006121422976E-002
  -6.7323212899591617E-002   1.9765692620162569E-002   2.8351074649734548E-002
  -6.3799895369720333E-002   1.9093799367451092E-002   2.9179363458868846E-002
  -8.4235590320752368E-002   2.4601677204320049E-002   2.0235530915744648E-002
  -8.0430063231108254E-002   2.3634292325576706E-002   2.0414923360278059E-002
  -7.6624536141463973E-002   2.2727998526537396E-002   2.0848514643534183E-002
  -7.2819009051819747E-002   2.1882795807202052E-002   2.1536304765513575E-002
  -6.9013481962175535E-002   2.1098684167570741E-002   2.2478293726216070E-002
  -9.0451876178501922E-002   2.5584893807128473E-002   1.3489129555212059E-002
  -8.6420160971184476E-002   2.5240561413960610E-002   1.3705196186781066E-002
  -8.2388445763867141E-002   2.4712229809664824E-002   1.4119440214973356E-002
  -7.8356730556549722E-002   2.3999898994241421E-002   1.4731861639788894E-002
  -7.4325015349232360E-002   2.3103568967690419E-002   1.5542460461227564E-002
  -9.6542023062453936E-002   2.6568110409936924E-002   7.4883258256706262E-003
  -9.2340141179563087E-002   2.6846830502344279E-002   7.4959763534435467E-003
  -8.8138259296672433E-002   2.6696461092792341E-002   7.6457828357401961E-003
  -8.3936377413781640E-002   2.6117002181280984E-002   7.9377452725600886E-003
  -7.9734495530890931E-002   2.5108453767810221E-002   8.3718636639035747E-003
 -0.10250603097260824        2.7551327012745430E-002   2.2331197271202585E-003
  -9.8190003856244101E-002   2.8453099590728503E-002   1.7872638602658419E-003
  -9.3873976739879739E-002   2.8680692375919803E-002   1.4275425058348501E-003
  -8.9557949623515487E-002   2.8234105368320453E-002   1.1539556638277201E-003
  -8.5241922507151235E-002   2.7113338567929746E-002   9.6650333424397328E-004
  -6.3799895369720333E-002   1.9093799367451092E-002   2.9179363458868846E-002
  -6.2132719548880111E-002   1.8550197566841620E-002   2.8903958688936332E-002
  -6.0465543728039903E-002   1.7956997299901328E-002   2.8733992612423015E-002
  -5.8798367907199715E-002   1.7314198566629586E-002   2.8669465229329338E-002
  -5.7131192086359472E-002   1.6621801367026456E-002   2.8710376539655136E-002
  -6.9013481962175535E-002   2.1098684167570741E-002   2.2478293726216070E-002
  -6.7226516878616985E-002   2.0347783925706187E-002   2.2097159355729812E-002
  -6.5439551795058504E-002   1.9602215399671295E-002   2.1850164817260501E-002
  -6.3652586711500050E-002   1.8861978589465943E-002   2.1737310110808497E-002
  -6.1865621627941486E-002   1.8127073495090129E-002   2.1758595236373635E-002
  -7.4325015349232360E-002   2.3103568967690419E-002   1.5542460461227564E-002
  -7.2389559864357911E-002   2.2145370284570420E-002   1.5110526672348350E-002
  -7.0454104379483448E-002   2.1247433499441207E-002   1.4841433854084013E-002
  -6.8518648894609013E-002   2.0409758612302296E-002   1.4735182006434325E-002
  -6.6583193409734551E-002   1.9632345623153774E-002   1.4791771129399542E-002
  -7.9734495530890931E-002   2.5108453767810221E-002   8.3718636639035747E-003
  -7.7621848506102875E-002   2.3942956643435265E-002   7.9440606387924505E-003
  -7.5509201481314805E-002   2.2892651599211146E-002   7.7077997228933680E-003
  -7.3396554456526708E-002   2.1957538635138760E-002   7.6630809162071909E-003
  -7.1283907431738708E-002   2.1137617751217377E-002   7.8099042187333191E-003
  -8.5241922507151235E-002   2.7113338567929746E-002   9.6650333424397328E-004
  -8.2923382803851864E-002   2.5740543002299332E-002   5.9776125506144639E-004
  -8.0604843100552492E-002   2.4537869698981141E-002   4.4926242368903413E-004
  -7.8286303397253121E-002   2.3505318657975241E-002   5.2100684012673648E-004
  -7.5967763693953749E-002   2.2642889879280981E-002   8.1299450437444243E-004
  -5.7131192086359472E-002   1.6621801367026456E-002   2.8710376539655136E-002
  -5.4507427434594663E-002   1.5910531352991614E-002   2.8414771502573766E-002
  -5.1883662782829881E-002   1.5211114176424470E-002   2.8308923029104927E-002
  -4.9259898131065072E-002   1.4523549837324835E-002   2.8392831119248410E-002
  -4.6636133479300290E-002   1.3847838335692808E-002   2.8666495773004508E-002
  -6.1865621627941486E-002   1.8127073495090129E-002   2.1758595236373635E-002
  -5.9051149575844272E-002   1.7391729776639442E-002   2.1483620732545283E-002
  -5.6236677523747114E-002   1.6650177094209323E-002   2.1400304465769168E-002
  -5.3422205471649969E-002   1.5902415447799710E-002   2.1508646436045449E-002
  -5.0607733419552742E-002   1.5148444837410513E-002   2.1808646643373952E-002
  -6.6583193409734551E-002   1.9632345623153774E-002   1.4791771129399542E-002
  -6.3576112283865116E-002   1.8872928200287090E-002   1.4519365357377134E-002
  -6.0569031157995709E-002   1.8089240011994002E-002   1.4440519495846953E-002
  -5.7561950032126268E-002   1.7281281058274416E-002   1.4555233544808772E-002
  -5.4554868906256868E-002   1.6449051339128107E-002   1.4863507504262824E-002
  -7.1283907431738708E-002   2.1137617751217377E-002   7.8099042187333191E-003
  -6.8082315558657153E-002   2.0354126623934855E-002   7.5220053770699222E-003
  -6.4880723685575570E-002   1.9528302929778713E-002   7.4295681193380248E-003
  -6.1679131812493987E-002   1.8660146668748875E-002   7.5325924455384779E-003
  -5.8477539939412418E-002   1.7749657840845923E-002   7.8310783556710256E-003
  -7.5967763693953749E-002   2.2642889879280981E-002   8.1299450437444243E-004
  -7.2569759400220257E-002   2.1835325047582621E-002   4.9154079162283537E-004
  -6.9171755106486710E-002   2.0967365847563507E-002   3.6745033624299706E-004
  -6.5773750812753162E-002   2.0039012279223993E-002   4.4072313823501769E-004
  -6.2375746519019670E-002   1.9050264342563294E-002   7.1135919759879318E-004
  -4.6636133479300290E-002   1.3847838335692808E-002   2.8666495773004508E-002
  -4.4387812792561432E-002   1.3165152235866284E-002   2.8214590223321179E-002
  -4.2139492105822712E-002   1.2456664102183268E-002   2.7890410787870357E-002
  -3.9891171419083979E-002   1.1722373934643537E-002   2.7693957466652208E-002
  -3.7642850732345134E-002   1.0962281733246759E-002   2.7625230259666456E-002
  -5.0607733419552742E-002   1.5148444837410513E-002   2.1808646643373952E-002
  -4.8224689018443956E-002   1.4388243243463661E-002   2.1372175628880274E-002
  -4.5841644617335267E-002   1.3621788646380695E-002   2.1077425928893861E-002
  -4.3458600216226460E-002   1.2849081046161545E-002   2.0924397543415060E-002
  -4.1075555815117737E-002   1.2070120442806531E-002   2.0913090472443718E-002
  -5.4554868906256868E-002   1.6449051339128107E-002   1.4863507504262824E-002
  -5.2023105590503133E-002   1.5611334251061010E-002   1.4462020055679189E-002
  -4.9491342274749404E-002   1.4786913190578121E-002   1.4216249121877966E-002
  -4.6959578958995746E-002   1.3975788157679886E-002   1.4126194702859057E-002
  -4.4427815643241955E-002   1.3177959152366248E-002   1.4191856798622671E-002
  -5.8477539939412418E-002   1.7749657840845923E-002   7.8310783556710256E-003
  -5.5783062508738893E-002   1.6834425258658040E-002   7.4841235037181389E-003
  -5.3088585078065249E-002   1.5952037734775715E-002   7.3068803668224803E-003
  -5.0394107647391613E-002   1.5102495269197894E-002   7.2993489449842686E-003
  -4.7699630216718081E-002   1.4285797861925548E-002   7.4615292382033752E-003
  -6.2375746519019670E-002   1.9050264342563294E-002   7.1135919759879318E-004
  -5.9504559773151278E-002   1.8057516266255624E-002   4.3848597299694925E-004
  -5.6633373027282774E-002   1.7117162278973280E-002   3.4931966372755974E-004
  -5.3762186281414326E-002   1.6229202380716366E-002   4.4386026979035403E-004
  -5.0890999535545878E-002   1.5393636571485514E-002   7.2210779118564439E-004
  -3.7642850732345134E-002   1.0962281733246759E-002   2.7625230259666456E-002
  -3.5243568570625439E-002   1.0199462687005001E-002   2.7093411148445878E-002
  -3.2844286408905715E-002   9.4569919849288864E-003   2.6688557413655056E-002
  -3.0445004247186019E-002   8.7348696270179993E-003   2.6410669055294711E-002
  -2.8045722085466296E-002   8.0330956132730336E-003   2.6259746073364121E-002
  -4.1075555815117737E-002   1.2070120442806531E-002   2.0913090472443718E-002
  -3.8558647763703005E-002   1.1292609410494259E-002   2.0467127373830052E-002
  -3.6041739712288287E-002   1.0524250523404194E-002   2.0129450678176453E-002
  -3.3524831660873611E-002   9.7650437815363852E-003   1.9900060385482629E-002
  -3.1007923609458837E-002   9.0149891848902985E-003   1.9778956495748790E-002
  -4.4427815643241955E-002   1.3177959152366248E-002   1.4191856798622671E-002
  -4.1811960675602486E-002   1.2385756133983850E-002   1.3820553513672590E-002
  -3.9196105707962919E-002   1.1591509061879945E-002   1.3538857658212083E-002
  -3.6580250740323415E-002   1.0795217936054549E-002   1.3346769232241505E-002
  -3.3964395772683897E-002   9.9968827565074525E-003   1.3244288235760460E-002
  -4.7699630216718081E-002   1.4285797861925548E-002   7.4615292382033752E-003
  -4.5003507306323867E-002   1.3478902857472885E-002   7.1536895679731524E-003
  -4.2307384395929674E-002   1.2658767600355642E-002   6.9167783537624900E-003
  -3.9611261485535482E-002   1.1825392090572658E-002   6.7507955955709159E-003
  -3.6915138575141268E-002   1.0978776328124551E-002   6.6557412933994364E-003
  -5.0890999535545878E-002   1.5393636571485514E-002   7.2210779118564439E-004
  -4.8133287655867218E-002   1.4572049580962698E-002   4.6653553673137171E-004
  -4.5375575776188504E-002   1.3726026138830782E-002   2.6321276482677014E-004
  -4.2617863896509817E-002   1.2855566245091321E-002   1.1213947547117353E-004
  -3.9860152016831130E-002   1.1960669899741649E-002   1.3315668665470071E-005
  -2.8045722085466296E-002   8.0330956132730336E-003   2.6259746073364121E-002
  -2.5703668115547973E-002   7.3129455467150772E-003   2.5675039674624922E-002
  -2.3361614145629761E-002   6.5356950303655792E-003   2.5037154942050610E-002
  -2.1019560175711507E-002   5.7013440642240468E-003   2.4346091875640963E-002
  -1.8677506205793226E-002   4.8098926482914584E-003   2.3601850475396202E-002
  -3.1007923609458837E-002   9.0149891848902985E-003   1.9778956495748790E-002
  -2.8701482619008040E-002   8.2680030718705888E-003   1.9187486998264225E-002
  -2.6395041628557159E-002   7.5180017808807453E-003   1.8577969875679806E-002
  -2.4088600638106306E-002   6.7649853119211706E-003   1.7950405127995700E-002
  -2.1782159647655425E-002   6.0089536649916564E-003   1.7304792755211962E-002
  -3.3964395772683897E-002   9.9968827565074525E-003   1.3244288235760460E-002
  -3.1658437052964894E-002   9.2230605970259061E-003   1.2700140911352242E-002
  -2.9352478333245953E-002   8.5003085313956755E-003   1.2173076670579555E-002
  -2.7046519613527029E-002   7.8286265596179579E-003   1.1663095513443106E-002
  -2.4740560893808008E-002   7.2080146816921320E-003   1.1170197439942131E-002
  -3.6915138575141268E-002   1.0978776328124551E-002   6.6557412933994364E-003
  -3.4574531417418730E-002   1.0178118122180987E-002   6.2130014138890438E-003
  -3.2233924259696171E-002   9.4826152819110013E-003   5.8224753267505994E-003
  -2.9893317101973686E-002   8.8922678073143028E-003   5.4841630319826824E-003
  -2.7552709944251064E-002   8.4070756983923578E-003   5.1980645295866892E-003
  -3.9860152016831130E-002   1.1960669899741649E-002   1.3315668665470071E-005
  -3.7449765712369465E-002   1.1133175647336735E-002  -2.7393149412457962E-004
  -3.5039379407907856E-002   1.0464922032425716E-002  -4.7383415580809496E-004
  -3.2628993103446247E-002   9.9559090550119661E-003  -5.8639231638445144E-004
  -3.0218606798984582E-002   9.6061367150925836E-003  -6.1160597585441234E-004
  -1.8677506205793226E-002   4.8098926482914584E-003   2.3601850475396202E-002
  -1.5654236051466208E-002   4.0793828306000535E-003   2.4390867183581411E-002
  -1.2630965897139135E-002   3.7278566591839868E-003   2.5653349187432006E-002
  -9.6076957428120752E-003   3.7553141340428767E-003   2.7389296486948295E-002
  -6.5844255884850433E-003   4.1617552551767023E-003   2.9598709082129693E-002
  -2.1782159647655425E-002   6.0089536649916564E-003   1.7304792755211962E-002
  -1.8554626372387820E-002   5.3429065032914447E-003   1.8251843381733246E-002
  -1.5327093097120284E-002   4.8598434900182230E-003   1.9133954954469901E-002
  -1.2099559821852658E-002   4.5597646251722135E-003   1.9951127473422370E-002
  -8.8720265465850323E-003   4.4426699087538601E-003   2.0703360938590376E-002
  -2.4740560893808008E-002   7.2080146816921320E-003   1.1170197439942131E-002
  -2.1847168847049681E-002   6.6064301759819477E-003   1.2079282486951670E-002
  -1.8953776800291353E-002   5.9918303208518903E-003   1.2385024130727326E-002
  -1.6060384753533021E-002   5.3642151163016578E-003   1.2087422371268537E-002
  -1.3166992706774586E-002   4.7235845623315731E-003   1.1186477208575962E-002
  -2.7552709944251064E-002   8.4070756983923578E-003   5.1980645295866892E-003
  -2.5531863475451704E-002   7.8699538486729503E-003   5.8731844992371413E-003
  -2.3511017006652327E-002   7.1238171516855645E-003   5.4065567162039953E-003
  -2.1490170537852963E-002   6.1686656074314925E-003   3.7981811804864447E-003
  -1.9469324069053585E-002   5.0044992159092305E-003   1.0480578920855077E-003
  -3.0218606798984582E-002   9.6061367150925836E-003  -6.1160597585441234E-004
  -2.9608710257593929E-002   9.1334775213640640E-003  -3.6645058141049347E-004
  -2.8998813716203220E-002   8.2558039825199603E-003  -1.8014472891003663E-003
  -2.8388917174812567E-002   6.9731160985605917E-003  -4.9165960989239199E-003
  -2.7779020633421858E-002   5.2854138694859998E-003  -9.7118970108803770E-003
  -6.5844255884850433E-003   4.1617552551767023E-003   2.9598709082129693E-002
  -6.0563048901353389E-003   6.1427981008590482E-003   3.4075932282334742E-002
  -5.5281841917856622E-003   1.0894060749362999E-002   3.9238367689822584E-002
  -5.0000634934359300E-003   1.8415543200689097E-002   4.5086015304592220E-002
  -4.4719427950862256E-003   2.8707245454836716E-002   5.1618875126644426E-002
  -8.8720265465850323E-003   4.4426699087538601E-003   2.0703360938590376E-002
  -7.5863773561866132E-003   5.6589699965403639E-003   2.5872547852874905E-002
  -6.3007281657880831E-003   9.3590755443087037E-003   3.1871579543974404E-002
  -5.0150789753894698E-003   1.5542986552058491E-002   3.8700456011889622E-002
  -3.7294297849911340E-003   2.4210703019790447E-002   4.6359177256619866E-002
  -1.3166992706774586E-002   4.7235845623315731E-003   1.1186477208575962E-002
  -1.0979182454794144E-002   5.1751418922222348E-003   1.6761213494099092E-002
  -8.7913722028137506E-003   7.8240903392546579E-003   2.3310427125970506E-002
  -6.6035619508332741E-003   1.2670429903428447E-002   3.0834118104190247E-002
  -4.4157516988528045E-003   1.9714160584744178E-002   3.9332286428758967E-002
  -1.9469324069053585E-002   5.0044992159092305E-003   1.0480578920855077E-003
  -1.6234720185958083E-002   4.6913137879036060E-003   6.7419292060074826E-003
  -1.3000116302862717E-002   6.2891051341999321E-003   1.3554910435810294E-002
  -9.7655124197672857E-003   9.7978732547981222E-003   2.1487001581495132E-002
  -6.5309085366718547E-003   1.5217618149698020E-002   3.0538202643061257E-002
  -2.7779020633421858E-002   5.2854138694859998E-003  -9.7118970108803770E-003
  -2.3352990549678321E-002   4.2074856835849772E-003  -4.1853050114002421E-003
  -1.8926960465934894E-002   4.7541199291462055E-003   2.6050294734949742E-003
  -1.4500930382191551E-002   6.9253166061679916E-003   1.0659106443804668E-002
  -1.0074900298447931E-002   1.0721075714651640E-002   1.9976925899528819E-002
 </DataArray>
 </PointData>
 </Piece>
 </UnstructuredGrid>
 </VTKFile>
