 <VTKFile type="UnstructuredGrid"  version="0.1"   >
 <UnstructuredGrid>
 <Piece  NumberOfPoints="          1600 "  NumberOfCells="         1024 ">
 <Points>
 <DataArray  type="Float64" NumberOfComponents="3"  format="ascii" >
   0.0000000000000000        0.0000000000000000        0.0000000000000000     
   3.1250000000000000E-002   0.0000000000000000        0.0000000000000000     
   6.2500000000000000E-002   0.0000000000000000        0.0000000000000000     
   9.3750000000000000E-002   0.0000000000000000        0.0000000000000000     
  0.12500000000000000        0.0000000000000000        0.0000000000000000     
   0.0000000000000000        3.1250000000000000E-002   0.0000000000000000     
   3.1250000000000000E-002   3.1250000000000000E-002   0.0000000000000000     
   6.2500000000000000E-002   3.1250000000000000E-002   0.0000000000000000     
   9.3750000000000000E-002   3.1250000000000000E-002   0.0000000000000000     
  0.12500000000000000        3.1250000000000000E-002   0.0000000000000000     
   0.0000000000000000        6.2500000000000000E-002   0.0000000000000000     
   3.1250000000000000E-002   6.2500000000000000E-002   0.0000000000000000     
   6.2500000000000000E-002   6.2500000000000000E-002   0.0000000000000000     
   9.3750000000000000E-002   6.2500000000000000E-002   0.0000000000000000     
  0.12500000000000000        6.2500000000000000E-002   0.0000000000000000     
   0.0000000000000000        9.3750000000000000E-002   0.0000000000000000     
   3.1250000000000000E-002   9.3750000000000000E-002   0.0000000000000000     
   6.2500000000000000E-002   9.3750000000000000E-002   0.0000000000000000     
   9.3750000000000000E-002   9.3750000000000000E-002   0.0000000000000000     
  0.12500000000000000        9.3750000000000000E-002   0.0000000000000000     
   0.0000000000000000       0.12500000000000000        0.0000000000000000     
   3.1250000000000000E-002  0.12500000000000000        0.0000000000000000     
   6.2500000000000000E-002  0.12500000000000000        0.0000000000000000     
   9.3750000000000000E-002  0.12500000000000000        0.0000000000000000     
  0.12500000000000000       0.12500000000000000        0.0000000000000000     
  0.12500000000000000        0.0000000000000000        0.0000000000000000     
  0.15625000000000000        0.0000000000000000        0.0000000000000000     
  0.18750000000000000        0.0000000000000000        0.0000000000000000     
  0.21875000000000000        0.0000000000000000        0.0000000000000000     
  0.25000000000000000        0.0000000000000000        0.0000000000000000     
  0.12500000000000000        3.1250000000000000E-002   0.0000000000000000     
  0.15625000000000000        3.1250000000000000E-002   0.0000000000000000     
  0.18750000000000000        3.1250000000000000E-002   0.0000000000000000     
  0.21875000000000000        3.1250000000000000E-002   0.0000000000000000     
  0.25000000000000000        3.1250000000000000E-002   0.0000000000000000     
  0.12500000000000000        6.2500000000000000E-002   0.0000000000000000     
  0.15625000000000000        6.2500000000000000E-002   0.0000000000000000     
  0.18750000000000000        6.2500000000000000E-002   0.0000000000000000     
  0.21875000000000000        6.2500000000000000E-002   0.0000000000000000     
  0.25000000000000000        6.2500000000000000E-002   0.0000000000000000     
  0.12500000000000000        9.3750000000000000E-002   0.0000000000000000     
  0.15625000000000000        9.3750000000000000E-002   0.0000000000000000     
  0.18750000000000000        9.3750000000000000E-002   0.0000000000000000     
  0.21875000000000000        9.3750000000000000E-002   0.0000000000000000     
  0.25000000000000000        9.3750000000000000E-002   0.0000000000000000     
  0.12500000000000000       0.12500000000000000        0.0000000000000000     
  0.15625000000000000       0.12500000000000000        0.0000000000000000     
  0.18750000000000000       0.12500000000000000        0.0000000000000000     
  0.21875000000000000       0.12500000000000000        0.0000000000000000     
  0.25000000000000000       0.12500000000000000        0.0000000000000000     
  0.25000000000000000        0.0000000000000000        0.0000000000000000     
  0.28125000000000000        0.0000000000000000        0.0000000000000000     
  0.31250000000000000        0.0000000000000000        0.0000000000000000     
  0.34375000000000000        0.0000000000000000        0.0000000000000000     
  0.37500000000000000        0.0000000000000000        0.0000000000000000     
  0.25000000000000000        3.1250000000000000E-002   0.0000000000000000     
  0.28125000000000000        3.1250000000000000E-002   0.0000000000000000     
  0.31250000000000000        3.1250000000000000E-002   0.0000000000000000     
  0.34375000000000000        3.1250000000000000E-002   0.0000000000000000     
  0.37500000000000000        3.1250000000000000E-002   0.0000000000000000     
  0.25000000000000000        6.2500000000000000E-002   0.0000000000000000     
  0.28125000000000000        6.2500000000000000E-002   0.0000000000000000     
  0.31250000000000000        6.2500000000000000E-002   0.0000000000000000     
  0.34375000000000000        6.2500000000000000E-002   0.0000000000000000     
  0.37500000000000000        6.2500000000000000E-002   0.0000000000000000     
  0.25000000000000000        9.3750000000000000E-002   0.0000000000000000     
  0.28125000000000000        9.3750000000000000E-002   0.0000000000000000     
  0.31250000000000000        9.3750000000000000E-002   0.0000000000000000     
  0.34375000000000000        9.3750000000000000E-002   0.0000000000000000     
  0.37500000000000000        9.3750000000000000E-002   0.0000000000000000     
  0.25000000000000000       0.12500000000000000        0.0000000000000000     
  0.28125000000000000       0.12500000000000000        0.0000000000000000     
  0.31250000000000000       0.12500000000000000        0.0000000000000000     
  0.34375000000000000       0.12500000000000000        0.0000000000000000     
  0.37500000000000000       0.12500000000000000        0.0000000000000000     
  0.37500000000000000        0.0000000000000000        0.0000000000000000     
  0.40625000000000000        0.0000000000000000        0.0000000000000000     
  0.43750000000000000        0.0000000000000000        0.0000000000000000     
  0.46875000000000000        0.0000000000000000        0.0000000000000000     
  0.50000000000000000        0.0000000000000000        0.0000000000000000     
  0.37500000000000000        3.1250000000000000E-002   0.0000000000000000     
  0.40625000000000000        3.1250000000000000E-002   0.0000000000000000     
  0.43750000000000000        3.1250000000000000E-002   0.0000000000000000     
  0.46875000000000000        3.1250000000000000E-002   0.0000000000000000     
  0.50000000000000000        3.1250000000000000E-002   0.0000000000000000     
  0.37500000000000000        6.2500000000000000E-002   0.0000000000000000     
  0.40625000000000000        6.2500000000000000E-002   0.0000000000000000     
  0.43750000000000000        6.2500000000000000E-002   0.0000000000000000     
  0.46875000000000000        6.2500000000000000E-002   0.0000000000000000     
  0.50000000000000000        6.2500000000000000E-002   0.0000000000000000     
  0.37500000000000000        9.3750000000000000E-002   0.0000000000000000     
  0.40625000000000000        9.3750000000000000E-002   0.0000000000000000     
  0.43750000000000000        9.3750000000000000E-002   0.0000000000000000     
  0.46875000000000000        9.3750000000000000E-002   0.0000000000000000     
  0.50000000000000000        9.3750000000000000E-002   0.0000000000000000     
  0.37500000000000000       0.12500000000000000        0.0000000000000000     
  0.40625000000000000       0.12500000000000000        0.0000000000000000     
  0.43750000000000000       0.12500000000000000        0.0000000000000000     
  0.46875000000000000       0.12500000000000000        0.0000000000000000     
  0.50000000000000000       0.12500000000000000        0.0000000000000000     
  0.50000000000000000        0.0000000000000000        0.0000000000000000     
  0.53125000000000000        0.0000000000000000        0.0000000000000000     
  0.56250000000000000        0.0000000000000000        0.0000000000000000     
  0.59375000000000000        0.0000000000000000        0.0000000000000000     
  0.62500000000000000        0.0000000000000000        0.0000000000000000     
  0.50000000000000000        3.1250000000000000E-002   0.0000000000000000     
  0.53125000000000000        3.1250000000000000E-002   0.0000000000000000     
  0.56250000000000000        3.1250000000000000E-002   0.0000000000000000     
  0.59375000000000000        3.1250000000000000E-002   0.0000000000000000     
  0.62500000000000000        3.1250000000000000E-002   0.0000000000000000     
  0.50000000000000000        6.2500000000000000E-002   0.0000000000000000     
  0.53125000000000000        6.2500000000000000E-002   0.0000000000000000     
  0.56250000000000000        6.2500000000000000E-002   0.0000000000000000     
  0.59375000000000000        6.2500000000000000E-002   0.0000000000000000     
  0.62500000000000000        6.2500000000000000E-002   0.0000000000000000     
  0.50000000000000000        9.3750000000000000E-002   0.0000000000000000     
  0.53125000000000000        9.3750000000000000E-002   0.0000000000000000     
  0.56250000000000000        9.3750000000000000E-002   0.0000000000000000     
  0.59375000000000000        9.3750000000000000E-002   0.0000000000000000     
  0.62500000000000000        9.3750000000000000E-002   0.0000000000000000     
  0.50000000000000000       0.12500000000000000        0.0000000000000000     
  0.53125000000000000       0.12500000000000000        0.0000000000000000     
  0.56250000000000000       0.12500000000000000        0.0000000000000000     
  0.59375000000000000       0.12500000000000000        0.0000000000000000     
  0.62500000000000000       0.12500000000000000        0.0000000000000000     
  0.62500000000000000        0.0000000000000000        0.0000000000000000     
  0.65625000000000000        0.0000000000000000        0.0000000000000000     
  0.68750000000000000        0.0000000000000000        0.0000000000000000     
  0.71875000000000000        0.0000000000000000        0.0000000000000000     
  0.75000000000000000        0.0000000000000000        0.0000000000000000     
  0.62500000000000000        3.1250000000000000E-002   0.0000000000000000     
  0.65625000000000000        3.1250000000000000E-002   0.0000000000000000     
  0.68750000000000000        3.1250000000000000E-002   0.0000000000000000     
  0.71875000000000000        3.1250000000000000E-002   0.0000000000000000     
  0.75000000000000000        3.1250000000000000E-002   0.0000000000000000     
  0.62500000000000000        6.2500000000000000E-002   0.0000000000000000     
  0.65625000000000000        6.2500000000000000E-002   0.0000000000000000     
  0.68750000000000000        6.2500000000000000E-002   0.0000000000000000     
  0.71875000000000000        6.2500000000000000E-002   0.0000000000000000     
  0.75000000000000000        6.2500000000000000E-002   0.0000000000000000     
  0.62500000000000000        9.3750000000000000E-002   0.0000000000000000     
  0.65625000000000000        9.3750000000000000E-002   0.0000000000000000     
  0.68750000000000000        9.3750000000000000E-002   0.0000000000000000     
  0.71875000000000000        9.3750000000000000E-002   0.0000000000000000     
  0.75000000000000000        9.3750000000000000E-002   0.0000000000000000     
  0.62500000000000000       0.12500000000000000        0.0000000000000000     
  0.65625000000000000       0.12500000000000000        0.0000000000000000     
  0.68750000000000000       0.12500000000000000        0.0000000000000000     
  0.71875000000000000       0.12500000000000000        0.0000000000000000     
  0.75000000000000000       0.12500000000000000        0.0000000000000000     
  0.75000000000000000        0.0000000000000000        0.0000000000000000     
  0.78125000000000000        0.0000000000000000        0.0000000000000000     
  0.81250000000000000        0.0000000000000000        0.0000000000000000     
  0.84375000000000000        0.0000000000000000        0.0000000000000000     
  0.87500000000000000        0.0000000000000000        0.0000000000000000     
  0.75000000000000000        3.1250000000000000E-002   0.0000000000000000     
  0.78125000000000000        3.1250000000000000E-002   0.0000000000000000     
  0.81250000000000000        3.1250000000000000E-002   0.0000000000000000     
  0.84375000000000000        3.1250000000000000E-002   0.0000000000000000     
  0.87500000000000000        3.1250000000000000E-002   0.0000000000000000     
  0.75000000000000000        6.2500000000000000E-002   0.0000000000000000     
  0.78125000000000000        6.2500000000000000E-002   0.0000000000000000     
  0.81250000000000000        6.2500000000000000E-002   0.0000000000000000     
  0.84375000000000000        6.2500000000000000E-002   0.0000000000000000     
  0.87500000000000000        6.2500000000000000E-002   0.0000000000000000     
  0.75000000000000000        9.3750000000000000E-002   0.0000000000000000     
  0.78125000000000000        9.3750000000000000E-002   0.0000000000000000     
  0.81250000000000000        9.3750000000000000E-002   0.0000000000000000     
  0.84375000000000000        9.3750000000000000E-002   0.0000000000000000     
  0.87500000000000000        9.3750000000000000E-002   0.0000000000000000     
  0.75000000000000000       0.12500000000000000        0.0000000000000000     
  0.78125000000000000       0.12500000000000000        0.0000000000000000     
  0.81250000000000000       0.12500000000000000        0.0000000000000000     
  0.84375000000000000       0.12500000000000000        0.0000000000000000     
  0.87500000000000000       0.12500000000000000        0.0000000000000000     
  0.87500000000000000        0.0000000000000000        0.0000000000000000     
  0.90625000000000000        0.0000000000000000        0.0000000000000000     
  0.93750000000000000        0.0000000000000000        0.0000000000000000     
  0.96875000000000000        0.0000000000000000        0.0000000000000000     
   1.0000000000000000        0.0000000000000000        0.0000000000000000     
  0.87500000000000000        3.1250000000000000E-002   0.0000000000000000     
  0.90625000000000000        3.1250000000000000E-002   0.0000000000000000     
  0.93750000000000000        3.1250000000000000E-002   0.0000000000000000     
  0.96875000000000000        3.1250000000000000E-002   0.0000000000000000     
   1.0000000000000000        3.1250000000000000E-002   0.0000000000000000     
  0.87500000000000000        6.2500000000000000E-002   0.0000000000000000     
  0.90625000000000000        6.2500000000000000E-002   0.0000000000000000     
  0.93750000000000000        6.2500000000000000E-002   0.0000000000000000     
  0.96875000000000000        6.2500000000000000E-002   0.0000000000000000     
   1.0000000000000000        6.2500000000000000E-002   0.0000000000000000     
  0.87500000000000000        9.3750000000000000E-002   0.0000000000000000     
  0.90625000000000000        9.3750000000000000E-002   0.0000000000000000     
  0.93750000000000000        9.3750000000000000E-002   0.0000000000000000     
  0.96875000000000000        9.3750000000000000E-002   0.0000000000000000     
   1.0000000000000000        9.3750000000000000E-002   0.0000000000000000     
  0.87500000000000000       0.12500000000000000        0.0000000000000000     
  0.90625000000000000       0.12500000000000000        0.0000000000000000     
  0.93750000000000000       0.12500000000000000        0.0000000000000000     
  0.96875000000000000       0.12500000000000000        0.0000000000000000     
   1.0000000000000000       0.12500000000000000        0.0000000000000000     
   0.0000000000000000       0.12500000000000000        0.0000000000000000     
   3.1250000000000000E-002  0.12500000000000000        0.0000000000000000     
   6.2500000000000000E-002  0.12500000000000000        0.0000000000000000     
   9.3750000000000000E-002  0.12500000000000000        0.0000000000000000     
  0.12500000000000000       0.12500000000000000        0.0000000000000000     
   0.0000000000000000       0.15625000000000000        0.0000000000000000     
   3.1250000000000000E-002  0.15625000000000000        0.0000000000000000     
   6.2500000000000000E-002  0.15625000000000000        0.0000000000000000     
   9.3750000000000000E-002  0.15625000000000000        0.0000000000000000     
  0.12500000000000000       0.15625000000000000        0.0000000000000000     
   0.0000000000000000       0.18750000000000000        0.0000000000000000     
   3.1250000000000000E-002  0.18750000000000000        0.0000000000000000     
   6.2500000000000000E-002  0.18750000000000000        0.0000000000000000     
   9.3750000000000000E-002  0.18750000000000000        0.0000000000000000     
  0.12500000000000000       0.18750000000000000        0.0000000000000000     
   0.0000000000000000       0.21875000000000000        0.0000000000000000     
   3.1250000000000000E-002  0.21875000000000000        0.0000000000000000     
   6.2500000000000000E-002  0.21875000000000000        0.0000000000000000     
   9.3750000000000000E-002  0.21875000000000000        0.0000000000000000     
  0.12500000000000000       0.21875000000000000        0.0000000000000000     
   0.0000000000000000       0.25000000000000000        0.0000000000000000     
   3.1250000000000000E-002  0.25000000000000000        0.0000000000000000     
   6.2500000000000000E-002  0.25000000000000000        0.0000000000000000     
   9.3750000000000000E-002  0.25000000000000000        0.0000000000000000     
  0.12500000000000000       0.25000000000000000        0.0000000000000000     
  0.12500000000000000       0.12500000000000000        0.0000000000000000     
  0.15625000000000000       0.12500000000000000        0.0000000000000000     
  0.18750000000000000       0.12500000000000000        0.0000000000000000     
  0.21875000000000000       0.12500000000000000        0.0000000000000000     
  0.25000000000000000       0.12500000000000000        0.0000000000000000     
  0.12500000000000000       0.15625000000000000        0.0000000000000000     
  0.15625000000000000       0.15625000000000000        0.0000000000000000     
  0.18750000000000000       0.15625000000000000        0.0000000000000000     
  0.21875000000000000       0.15625000000000000        0.0000000000000000     
  0.25000000000000000       0.15625000000000000        0.0000000000000000     
  0.12500000000000000       0.18750000000000000        0.0000000000000000     
  0.15625000000000000       0.18750000000000000        0.0000000000000000     
  0.18750000000000000       0.18750000000000000        0.0000000000000000     
  0.21875000000000000       0.18750000000000000        0.0000000000000000     
  0.25000000000000000       0.18750000000000000        0.0000000000000000     
  0.12500000000000000       0.21875000000000000        0.0000000000000000     
  0.15625000000000000       0.21875000000000000        0.0000000000000000     
  0.18750000000000000       0.21875000000000000        0.0000000000000000     
  0.21875000000000000       0.21875000000000000        0.0000000000000000     
  0.25000000000000000       0.21875000000000000        0.0000000000000000     
  0.12500000000000000       0.25000000000000000        0.0000000000000000     
  0.15625000000000000       0.25000000000000000        0.0000000000000000     
  0.18750000000000000       0.25000000000000000        0.0000000000000000     
  0.21875000000000000       0.25000000000000000        0.0000000000000000     
  0.25000000000000000       0.25000000000000000        0.0000000000000000     
  0.25000000000000000       0.12500000000000000        0.0000000000000000     
  0.28125000000000000       0.12500000000000000        0.0000000000000000     
  0.31250000000000000       0.12500000000000000        0.0000000000000000     
  0.34375000000000000       0.12500000000000000        0.0000000000000000     
  0.37500000000000000       0.12500000000000000        0.0000000000000000     
  0.25000000000000000       0.15625000000000000        0.0000000000000000     
  0.28125000000000000       0.15625000000000000        0.0000000000000000     
  0.31250000000000000       0.15625000000000000        0.0000000000000000     
  0.34375000000000000       0.15625000000000000        0.0000000000000000     
  0.37500000000000000       0.15625000000000000        0.0000000000000000     
  0.25000000000000000       0.18750000000000000        0.0000000000000000     
  0.28125000000000000       0.18750000000000000        0.0000000000000000     
  0.31250000000000000       0.18750000000000000        0.0000000000000000     
  0.34375000000000000       0.18750000000000000        0.0000000000000000     
  0.37500000000000000       0.18750000000000000        0.0000000000000000     
  0.25000000000000000       0.21875000000000000        0.0000000000000000     
  0.28125000000000000       0.21875000000000000        0.0000000000000000     
  0.31250000000000000       0.21875000000000000        0.0000000000000000     
  0.34375000000000000       0.21875000000000000        0.0000000000000000     
  0.37500000000000000       0.21875000000000000        0.0000000000000000     
  0.25000000000000000       0.25000000000000000        0.0000000000000000     
  0.28125000000000000       0.25000000000000000        0.0000000000000000     
  0.31250000000000000       0.25000000000000000        0.0000000000000000     
  0.34375000000000000       0.25000000000000000        0.0000000000000000     
  0.37500000000000000       0.25000000000000000        0.0000000000000000     
  0.37500000000000000       0.12500000000000000        0.0000000000000000     
  0.40625000000000000       0.12500000000000000        0.0000000000000000     
  0.43750000000000000       0.12500000000000000        0.0000000000000000     
  0.46875000000000000       0.12500000000000000        0.0000000000000000     
  0.50000000000000000       0.12500000000000000        0.0000000000000000     
  0.37500000000000000       0.15625000000000000        0.0000000000000000     
  0.40625000000000000       0.15625000000000000        0.0000000000000000     
  0.43750000000000000       0.15625000000000000        0.0000000000000000     
  0.46875000000000000       0.15625000000000000        0.0000000000000000     
  0.50000000000000000       0.15625000000000000        0.0000000000000000     
  0.37500000000000000       0.18750000000000000        0.0000000000000000     
  0.40625000000000000       0.18750000000000000        0.0000000000000000     
  0.43750000000000000       0.18750000000000000        0.0000000000000000     
  0.46875000000000000       0.18750000000000000        0.0000000000000000     
  0.50000000000000000       0.18750000000000000        0.0000000000000000     
  0.37500000000000000       0.21875000000000000        0.0000000000000000     
  0.40625000000000000       0.21875000000000000        0.0000000000000000     
  0.43750000000000000       0.21875000000000000        0.0000000000000000     
  0.46875000000000000       0.21875000000000000        0.0000000000000000     
  0.50000000000000000       0.21875000000000000        0.0000000000000000     
  0.37500000000000000       0.25000000000000000        0.0000000000000000     
  0.40625000000000000       0.25000000000000000        0.0000000000000000     
  0.43750000000000000       0.25000000000000000        0.0000000000000000     
  0.46875000000000000       0.25000000000000000        0.0000000000000000     
  0.50000000000000000       0.25000000000000000        0.0000000000000000     
  0.50000000000000000       0.12500000000000000        0.0000000000000000     
  0.53125000000000000       0.12500000000000000        0.0000000000000000     
  0.56250000000000000       0.12500000000000000        0.0000000000000000     
  0.59375000000000000       0.12500000000000000        0.0000000000000000     
  0.62500000000000000       0.12500000000000000        0.0000000000000000     
  0.50000000000000000       0.15625000000000000        0.0000000000000000     
  0.53125000000000000       0.15625000000000000        0.0000000000000000     
  0.56250000000000000       0.15625000000000000        0.0000000000000000     
  0.59375000000000000       0.15625000000000000        0.0000000000000000     
  0.62500000000000000       0.15625000000000000        0.0000000000000000     
  0.50000000000000000       0.18750000000000000        0.0000000000000000     
  0.53125000000000000       0.18750000000000000        0.0000000000000000     
  0.56250000000000000       0.18750000000000000        0.0000000000000000     
  0.59375000000000000       0.18750000000000000        0.0000000000000000     
  0.62500000000000000       0.18750000000000000        0.0000000000000000     
  0.50000000000000000       0.21875000000000000        0.0000000000000000     
  0.53125000000000000       0.21875000000000000        0.0000000000000000     
  0.56250000000000000       0.21875000000000000        0.0000000000000000     
  0.59375000000000000       0.21875000000000000        0.0000000000000000     
  0.62500000000000000       0.21875000000000000        0.0000000000000000     
  0.50000000000000000       0.25000000000000000        0.0000000000000000     
  0.53125000000000000       0.25000000000000000        0.0000000000000000     
  0.56250000000000000       0.25000000000000000        0.0000000000000000     
  0.59375000000000000       0.25000000000000000        0.0000000000000000     
  0.62500000000000000       0.25000000000000000        0.0000000000000000     
  0.62500000000000000       0.12500000000000000        0.0000000000000000     
  0.65625000000000000       0.12500000000000000        0.0000000000000000     
  0.68750000000000000       0.12500000000000000        0.0000000000000000     
  0.71875000000000000       0.12500000000000000        0.0000000000000000     
  0.75000000000000000       0.12500000000000000        0.0000000000000000     
  0.62500000000000000       0.15625000000000000        0.0000000000000000     
  0.65625000000000000       0.15625000000000000        0.0000000000000000     
  0.68750000000000000       0.15625000000000000        0.0000000000000000     
  0.71875000000000000       0.15625000000000000        0.0000000000000000     
  0.75000000000000000       0.15625000000000000        0.0000000000000000     
  0.62500000000000000       0.18750000000000000        0.0000000000000000     
  0.65625000000000000       0.18750000000000000        0.0000000000000000     
  0.68750000000000000       0.18750000000000000        0.0000000000000000     
  0.71875000000000000       0.18750000000000000        0.0000000000000000     
  0.75000000000000000       0.18750000000000000        0.0000000000000000     
  0.62500000000000000       0.21875000000000000        0.0000000000000000     
  0.65625000000000000       0.21875000000000000        0.0000000000000000     
  0.68750000000000000       0.21875000000000000        0.0000000000000000     
  0.71875000000000000       0.21875000000000000        0.0000000000000000     
  0.75000000000000000       0.21875000000000000        0.0000000000000000     
  0.62500000000000000       0.25000000000000000        0.0000000000000000     
  0.65625000000000000       0.25000000000000000        0.0000000000000000     
  0.68750000000000000       0.25000000000000000        0.0000000000000000     
  0.71875000000000000       0.25000000000000000        0.0000000000000000     
  0.75000000000000000       0.25000000000000000        0.0000000000000000     
  0.75000000000000000       0.12500000000000000        0.0000000000000000     
  0.78125000000000000       0.12500000000000000        0.0000000000000000     
  0.81250000000000000       0.12500000000000000        0.0000000000000000     
  0.84375000000000000       0.12500000000000000        0.0000000000000000     
  0.87500000000000000       0.12500000000000000        0.0000000000000000     
  0.75000000000000000       0.15625000000000000        0.0000000000000000     
  0.78125000000000000       0.15625000000000000        0.0000000000000000     
  0.81250000000000000       0.15625000000000000        0.0000000000000000     
  0.84375000000000000       0.15625000000000000        0.0000000000000000     
  0.87500000000000000       0.15625000000000000        0.0000000000000000     
  0.75000000000000000       0.18750000000000000        0.0000000000000000     
  0.78125000000000000       0.18750000000000000        0.0000000000000000     
  0.81250000000000000       0.18750000000000000        0.0000000000000000     
  0.84375000000000000       0.18750000000000000        0.0000000000000000     
  0.87500000000000000       0.18750000000000000        0.0000000000000000     
  0.75000000000000000       0.21875000000000000        0.0000000000000000     
  0.78125000000000000       0.21875000000000000        0.0000000000000000     
  0.81250000000000000       0.21875000000000000        0.0000000000000000     
  0.84375000000000000       0.21875000000000000        0.0000000000000000     
  0.87500000000000000       0.21875000000000000        0.0000000000000000     
  0.75000000000000000       0.25000000000000000        0.0000000000000000     
  0.78125000000000000       0.25000000000000000        0.0000000000000000     
  0.81250000000000000       0.25000000000000000        0.0000000000000000     
  0.84375000000000000       0.25000000000000000        0.0000000000000000     
  0.87500000000000000       0.25000000000000000        0.0000000000000000     
  0.87500000000000000       0.12500000000000000        0.0000000000000000     
  0.90625000000000000       0.12500000000000000        0.0000000000000000     
  0.93750000000000000       0.12500000000000000        0.0000000000000000     
  0.96875000000000000       0.12500000000000000        0.0000000000000000     
   1.0000000000000000       0.12500000000000000        0.0000000000000000     
  0.87500000000000000       0.15625000000000000        0.0000000000000000     
  0.90625000000000000       0.15625000000000000        0.0000000000000000     
  0.93750000000000000       0.15625000000000000        0.0000000000000000     
  0.96875000000000000       0.15625000000000000        0.0000000000000000     
   1.0000000000000000       0.15625000000000000        0.0000000000000000     
  0.87500000000000000       0.18750000000000000        0.0000000000000000     
  0.90625000000000000       0.18750000000000000        0.0000000000000000     
  0.93750000000000000       0.18750000000000000        0.0000000000000000     
  0.96875000000000000       0.18750000000000000        0.0000000000000000     
   1.0000000000000000       0.18750000000000000        0.0000000000000000     
  0.87500000000000000       0.21875000000000000        0.0000000000000000     
  0.90625000000000000       0.21875000000000000        0.0000000000000000     
  0.93750000000000000       0.21875000000000000        0.0000000000000000     
  0.96875000000000000       0.21875000000000000        0.0000000000000000     
   1.0000000000000000       0.21875000000000000        0.0000000000000000     
  0.87500000000000000       0.25000000000000000        0.0000000000000000     
  0.90625000000000000       0.25000000000000000        0.0000000000000000     
  0.93750000000000000       0.25000000000000000        0.0000000000000000     
  0.96875000000000000       0.25000000000000000        0.0000000000000000     
   1.0000000000000000       0.25000000000000000        0.0000000000000000     
   0.0000000000000000       0.25000000000000000        0.0000000000000000     
   3.1250000000000000E-002  0.25000000000000000        0.0000000000000000     
   6.2500000000000000E-002  0.25000000000000000        0.0000000000000000     
   9.3750000000000000E-002  0.25000000000000000        0.0000000000000000     
  0.12500000000000000       0.25000000000000000        0.0000000000000000     
   0.0000000000000000       0.28125000000000000        0.0000000000000000     
   3.1250000000000000E-002  0.28125000000000000        0.0000000000000000     
   6.2500000000000000E-002  0.28125000000000000        0.0000000000000000     
   9.3750000000000000E-002  0.28125000000000000        0.0000000000000000     
  0.12500000000000000       0.28125000000000000        0.0000000000000000     
   0.0000000000000000       0.31250000000000000        0.0000000000000000     
   3.1250000000000000E-002  0.31250000000000000        0.0000000000000000     
   6.2500000000000000E-002  0.31250000000000000        0.0000000000000000     
   9.3750000000000000E-002  0.31250000000000000        0.0000000000000000     
  0.12500000000000000       0.31250000000000000        0.0000000000000000     
   0.0000000000000000       0.34375000000000000        0.0000000000000000     
   3.1250000000000000E-002  0.34375000000000000        0.0000000000000000     
   6.2500000000000000E-002  0.34375000000000000        0.0000000000000000     
   9.3750000000000000E-002  0.34375000000000000        0.0000000000000000     
  0.12500000000000000       0.34375000000000000        0.0000000000000000     
   0.0000000000000000       0.37500000000000000        0.0000000000000000     
   3.1250000000000000E-002  0.37500000000000000        0.0000000000000000     
   6.2500000000000000E-002  0.37500000000000000        0.0000000000000000     
   9.3750000000000000E-002  0.37500000000000000        0.0000000000000000     
  0.12500000000000000       0.37500000000000000        0.0000000000000000     
  0.12500000000000000       0.25000000000000000        0.0000000000000000     
  0.15625000000000000       0.25000000000000000        0.0000000000000000     
  0.18750000000000000       0.25000000000000000        0.0000000000000000     
  0.21875000000000000       0.25000000000000000        0.0000000000000000     
  0.25000000000000000       0.25000000000000000        0.0000000000000000     
  0.12500000000000000       0.28125000000000000        0.0000000000000000     
  0.15625000000000000       0.28125000000000000        0.0000000000000000     
  0.18750000000000000       0.28125000000000000        0.0000000000000000     
  0.21875000000000000       0.28125000000000000        0.0000000000000000     
  0.25000000000000000       0.28125000000000000        0.0000000000000000     
  0.12500000000000000       0.31250000000000000        0.0000000000000000     
  0.15625000000000000       0.31250000000000000        0.0000000000000000     
  0.18750000000000000       0.31250000000000000        0.0000000000000000     
  0.21875000000000000       0.31250000000000000        0.0000000000000000     
  0.25000000000000000       0.31250000000000000        0.0000000000000000     
  0.12500000000000000       0.34375000000000000        0.0000000000000000     
  0.15625000000000000       0.34375000000000000        0.0000000000000000     
  0.18750000000000000       0.34375000000000000        0.0000000000000000     
  0.21875000000000000       0.34375000000000000        0.0000000000000000     
  0.25000000000000000       0.34375000000000000        0.0000000000000000     
  0.12500000000000000       0.37500000000000000        0.0000000000000000     
  0.15625000000000000       0.37500000000000000        0.0000000000000000     
  0.18750000000000000       0.37500000000000000        0.0000000000000000     
  0.21875000000000000       0.37500000000000000        0.0000000000000000     
  0.25000000000000000       0.37500000000000000        0.0000000000000000     
  0.25000000000000000       0.25000000000000000        0.0000000000000000     
  0.28125000000000000       0.25000000000000000        0.0000000000000000     
  0.31250000000000000       0.25000000000000000        0.0000000000000000     
  0.34375000000000000       0.25000000000000000        0.0000000000000000     
  0.37500000000000000       0.25000000000000000        0.0000000000000000     
  0.25000000000000000       0.28125000000000000        0.0000000000000000     
  0.28125000000000000       0.28125000000000000        0.0000000000000000     
  0.31250000000000000       0.28125000000000000        0.0000000000000000     
  0.34375000000000000       0.28125000000000000        0.0000000000000000     
  0.37500000000000000       0.28125000000000000        0.0000000000000000     
  0.25000000000000000       0.31250000000000000        0.0000000000000000     
  0.28125000000000000       0.31250000000000000        0.0000000000000000     
  0.31250000000000000       0.31250000000000000        0.0000000000000000     
  0.34375000000000000       0.31250000000000000        0.0000000000000000     
  0.37500000000000000       0.31250000000000000        0.0000000000000000     
  0.25000000000000000       0.34375000000000000        0.0000000000000000     
  0.28125000000000000       0.34375000000000000        0.0000000000000000     
  0.31250000000000000       0.34375000000000000        0.0000000000000000     
  0.34375000000000000       0.34375000000000000        0.0000000000000000     
  0.37500000000000000       0.34375000000000000        0.0000000000000000     
  0.25000000000000000       0.37500000000000000        0.0000000000000000     
  0.28125000000000000       0.37500000000000000        0.0000000000000000     
  0.31250000000000000       0.37500000000000000        0.0000000000000000     
  0.34375000000000000       0.37500000000000000        0.0000000000000000     
  0.37500000000000000       0.37500000000000000        0.0000000000000000     
  0.37500000000000000       0.25000000000000000        0.0000000000000000     
  0.40625000000000000       0.25000000000000000        0.0000000000000000     
  0.43750000000000000       0.25000000000000000        0.0000000000000000     
  0.46875000000000000       0.25000000000000000        0.0000000000000000     
  0.50000000000000000       0.25000000000000000        0.0000000000000000     
  0.37500000000000000       0.28125000000000000        0.0000000000000000     
  0.40625000000000000       0.28125000000000000        0.0000000000000000     
  0.43750000000000000       0.28125000000000000        0.0000000000000000     
  0.46875000000000000       0.28125000000000000        0.0000000000000000     
  0.50000000000000000       0.28125000000000000        0.0000000000000000     
  0.37500000000000000       0.31250000000000000        0.0000000000000000     
  0.40625000000000000       0.31250000000000000        0.0000000000000000     
  0.43750000000000000       0.31250000000000000        0.0000000000000000     
  0.46875000000000000       0.31250000000000000        0.0000000000000000     
  0.50000000000000000       0.31250000000000000        0.0000000000000000     
  0.37500000000000000       0.34375000000000000        0.0000000000000000     
  0.40625000000000000       0.34375000000000000        0.0000000000000000     
  0.43750000000000000       0.34375000000000000        0.0000000000000000     
  0.46875000000000000       0.34375000000000000        0.0000000000000000     
  0.50000000000000000       0.34375000000000000        0.0000000000000000     
  0.37500000000000000       0.37500000000000000        0.0000000000000000     
  0.40625000000000000       0.37500000000000000        0.0000000000000000     
  0.43750000000000000       0.37500000000000000        0.0000000000000000     
  0.46875000000000000       0.37500000000000000        0.0000000000000000     
  0.50000000000000000       0.37500000000000000        0.0000000000000000     
  0.50000000000000000       0.25000000000000000        0.0000000000000000     
  0.53125000000000000       0.25000000000000000        0.0000000000000000     
  0.56250000000000000       0.25000000000000000        0.0000000000000000     
  0.59375000000000000       0.25000000000000000        0.0000000000000000     
  0.62500000000000000       0.25000000000000000        0.0000000000000000     
  0.50000000000000000       0.28125000000000000        0.0000000000000000     
  0.53125000000000000       0.28125000000000000        0.0000000000000000     
  0.56250000000000000       0.28125000000000000        0.0000000000000000     
  0.59375000000000000       0.28125000000000000        0.0000000000000000     
  0.62500000000000000       0.28125000000000000        0.0000000000000000     
  0.50000000000000000       0.31250000000000000        0.0000000000000000     
  0.53125000000000000       0.31250000000000000        0.0000000000000000     
  0.56250000000000000       0.31250000000000000        0.0000000000000000     
  0.59375000000000000       0.31250000000000000        0.0000000000000000     
  0.62500000000000000       0.31250000000000000        0.0000000000000000     
  0.50000000000000000       0.34375000000000000        0.0000000000000000     
  0.53125000000000000       0.34375000000000000        0.0000000000000000     
  0.56250000000000000       0.34375000000000000        0.0000000000000000     
  0.59375000000000000       0.34375000000000000        0.0000000000000000     
  0.62500000000000000       0.34375000000000000        0.0000000000000000     
  0.50000000000000000       0.37500000000000000        0.0000000000000000     
  0.53125000000000000       0.37500000000000000        0.0000000000000000     
  0.56250000000000000       0.37500000000000000        0.0000000000000000     
  0.59375000000000000       0.37500000000000000        0.0000000000000000     
  0.62500000000000000       0.37500000000000000        0.0000000000000000     
  0.62500000000000000       0.25000000000000000        0.0000000000000000     
  0.65625000000000000       0.25000000000000000        0.0000000000000000     
  0.68750000000000000       0.25000000000000000        0.0000000000000000     
  0.71875000000000000       0.25000000000000000        0.0000000000000000     
  0.75000000000000000       0.25000000000000000        0.0000000000000000     
  0.62500000000000000       0.28125000000000000        0.0000000000000000     
  0.65625000000000000       0.28125000000000000        0.0000000000000000     
  0.68750000000000000       0.28125000000000000        0.0000000000000000     
  0.71875000000000000       0.28125000000000000        0.0000000000000000     
  0.75000000000000000       0.28125000000000000        0.0000000000000000     
  0.62500000000000000       0.31250000000000000        0.0000000000000000     
  0.65625000000000000       0.31250000000000000        0.0000000000000000     
  0.68750000000000000       0.31250000000000000        0.0000000000000000     
  0.71875000000000000       0.31250000000000000        0.0000000000000000     
  0.75000000000000000       0.31250000000000000        0.0000000000000000     
  0.62500000000000000       0.34375000000000000        0.0000000000000000     
  0.65625000000000000       0.34375000000000000        0.0000000000000000     
  0.68750000000000000       0.34375000000000000        0.0000000000000000     
  0.71875000000000000       0.34375000000000000        0.0000000000000000     
  0.75000000000000000       0.34375000000000000        0.0000000000000000     
  0.62500000000000000       0.37500000000000000        0.0000000000000000     
  0.65625000000000000       0.37500000000000000        0.0000000000000000     
  0.68750000000000000       0.37500000000000000        0.0000000000000000     
  0.71875000000000000       0.37500000000000000        0.0000000000000000     
  0.75000000000000000       0.37500000000000000        0.0000000000000000     
  0.75000000000000000       0.25000000000000000        0.0000000000000000     
  0.78125000000000000       0.25000000000000000        0.0000000000000000     
  0.81250000000000000       0.25000000000000000        0.0000000000000000     
  0.84375000000000000       0.25000000000000000        0.0000000000000000     
  0.87500000000000000       0.25000000000000000        0.0000000000000000     
  0.75000000000000000       0.28125000000000000        0.0000000000000000     
  0.78125000000000000       0.28125000000000000        0.0000000000000000     
  0.81250000000000000       0.28125000000000000        0.0000000000000000     
  0.84375000000000000       0.28125000000000000        0.0000000000000000     
  0.87500000000000000       0.28125000000000000        0.0000000000000000     
  0.75000000000000000       0.31250000000000000        0.0000000000000000     
  0.78125000000000000       0.31250000000000000        0.0000000000000000     
  0.81250000000000000       0.31250000000000000        0.0000000000000000     
  0.84375000000000000       0.31250000000000000        0.0000000000000000     
  0.87500000000000000       0.31250000000000000        0.0000000000000000     
  0.75000000000000000       0.34375000000000000        0.0000000000000000     
  0.78125000000000000       0.34375000000000000        0.0000000000000000     
  0.81250000000000000       0.34375000000000000        0.0000000000000000     
  0.84375000000000000       0.34375000000000000        0.0000000000000000     
  0.87500000000000000       0.34375000000000000        0.0000000000000000     
  0.75000000000000000       0.37500000000000000        0.0000000000000000     
  0.78125000000000000       0.37500000000000000        0.0000000000000000     
  0.81250000000000000       0.37500000000000000        0.0000000000000000     
  0.84375000000000000       0.37500000000000000        0.0000000000000000     
  0.87500000000000000       0.37500000000000000        0.0000000000000000     
  0.87500000000000000       0.25000000000000000        0.0000000000000000     
  0.90625000000000000       0.25000000000000000        0.0000000000000000     
  0.93750000000000000       0.25000000000000000        0.0000000000000000     
  0.96875000000000000       0.25000000000000000        0.0000000000000000     
   1.0000000000000000       0.25000000000000000        0.0000000000000000     
  0.87500000000000000       0.28125000000000000        0.0000000000000000     
  0.90625000000000000       0.28125000000000000        0.0000000000000000     
  0.93750000000000000       0.28125000000000000        0.0000000000000000     
  0.96875000000000000       0.28125000000000000        0.0000000000000000     
   1.0000000000000000       0.28125000000000000        0.0000000000000000     
  0.87500000000000000       0.31250000000000000        0.0000000000000000     
  0.90625000000000000       0.31250000000000000        0.0000000000000000     
  0.93750000000000000       0.31250000000000000        0.0000000000000000     
  0.96875000000000000       0.31250000000000000        0.0000000000000000     
   1.0000000000000000       0.31250000000000000        0.0000000000000000     
  0.87500000000000000       0.34375000000000000        0.0000000000000000     
  0.90625000000000000       0.34375000000000000        0.0000000000000000     
  0.93750000000000000       0.34375000000000000        0.0000000000000000     
  0.96875000000000000       0.34375000000000000        0.0000000000000000     
   1.0000000000000000       0.34375000000000000        0.0000000000000000     
  0.87500000000000000       0.37500000000000000        0.0000000000000000     
  0.90625000000000000       0.37500000000000000        0.0000000000000000     
  0.93750000000000000       0.37500000000000000        0.0000000000000000     
  0.96875000000000000       0.37500000000000000        0.0000000000000000     
   1.0000000000000000       0.37500000000000000        0.0000000000000000     
   0.0000000000000000       0.37500000000000000        0.0000000000000000     
   3.1250000000000000E-002  0.37500000000000000        0.0000000000000000     
   6.2500000000000000E-002  0.37500000000000000        0.0000000000000000     
   9.3750000000000000E-002  0.37500000000000000        0.0000000000000000     
  0.12500000000000000       0.37500000000000000        0.0000000000000000     
   0.0000000000000000       0.40625000000000000        0.0000000000000000     
   3.1250000000000000E-002  0.40625000000000000        0.0000000000000000     
   6.2500000000000000E-002  0.40625000000000000        0.0000000000000000     
   9.3750000000000000E-002  0.40625000000000000        0.0000000000000000     
  0.12500000000000000       0.40625000000000000        0.0000000000000000     
   0.0000000000000000       0.43750000000000000        0.0000000000000000     
   3.1250000000000000E-002  0.43750000000000000        0.0000000000000000     
   6.2500000000000000E-002  0.43750000000000000        0.0000000000000000     
   9.3750000000000000E-002  0.43750000000000000        0.0000000000000000     
  0.12500000000000000       0.43750000000000000        0.0000000000000000     
   0.0000000000000000       0.46875000000000000        0.0000000000000000     
   3.1250000000000000E-002  0.46875000000000000        0.0000000000000000     
   6.2500000000000000E-002  0.46875000000000000        0.0000000000000000     
   9.3750000000000000E-002  0.46875000000000000        0.0000000000000000     
  0.12500000000000000       0.46875000000000000        0.0000000000000000     
   0.0000000000000000       0.50000000000000000        0.0000000000000000     
   3.1250000000000000E-002  0.50000000000000000        0.0000000000000000     
   6.2500000000000000E-002  0.50000000000000000        0.0000000000000000     
   9.3750000000000000E-002  0.50000000000000000        0.0000000000000000     
  0.12500000000000000       0.50000000000000000        0.0000000000000000     
  0.12500000000000000       0.37500000000000000        0.0000000000000000     
  0.15625000000000000       0.37500000000000000        0.0000000000000000     
  0.18750000000000000       0.37500000000000000        0.0000000000000000     
  0.21875000000000000       0.37500000000000000        0.0000000000000000     
  0.25000000000000000       0.37500000000000000        0.0000000000000000     
  0.12500000000000000       0.40625000000000000        0.0000000000000000     
  0.15625000000000000       0.40625000000000000        0.0000000000000000     
  0.18750000000000000       0.40625000000000000        0.0000000000000000     
  0.21875000000000000       0.40625000000000000        0.0000000000000000     
  0.25000000000000000       0.40625000000000000        0.0000000000000000     
  0.12500000000000000       0.43750000000000000        0.0000000000000000     
  0.15625000000000000       0.43750000000000000        0.0000000000000000     
  0.18750000000000000       0.43750000000000000        0.0000000000000000     
  0.21875000000000000       0.43750000000000000        0.0000000000000000     
  0.25000000000000000       0.43750000000000000        0.0000000000000000     
  0.12500000000000000       0.46875000000000000        0.0000000000000000     
  0.15625000000000000       0.46875000000000000        0.0000000000000000     
  0.18750000000000000       0.46875000000000000        0.0000000000000000     
  0.21875000000000000       0.46875000000000000        0.0000000000000000     
  0.25000000000000000       0.46875000000000000        0.0000000000000000     
  0.12500000000000000       0.50000000000000000        0.0000000000000000     
  0.15625000000000000       0.50000000000000000        0.0000000000000000     
  0.18750000000000000       0.50000000000000000        0.0000000000000000     
  0.21875000000000000       0.50000000000000000        0.0000000000000000     
  0.25000000000000000       0.50000000000000000        0.0000000000000000     
  0.25000000000000000       0.37500000000000000        0.0000000000000000     
  0.28125000000000000       0.37500000000000000        0.0000000000000000     
  0.31250000000000000       0.37500000000000000        0.0000000000000000     
  0.34375000000000000       0.37500000000000000        0.0000000000000000     
  0.37500000000000000       0.37500000000000000        0.0000000000000000     
  0.25000000000000000       0.40625000000000000        0.0000000000000000     
  0.28125000000000000       0.40625000000000000        0.0000000000000000     
  0.31250000000000000       0.40625000000000000        0.0000000000000000     
  0.34375000000000000       0.40625000000000000        0.0000000000000000     
  0.37500000000000000       0.40625000000000000        0.0000000000000000     
  0.25000000000000000       0.43750000000000000        0.0000000000000000     
  0.28125000000000000       0.43750000000000000        0.0000000000000000     
  0.31250000000000000       0.43750000000000000        0.0000000000000000     
  0.34375000000000000       0.43750000000000000        0.0000000000000000     
  0.37500000000000000       0.43750000000000000        0.0000000000000000     
  0.25000000000000000       0.46875000000000000        0.0000000000000000     
  0.28125000000000000       0.46875000000000000        0.0000000000000000     
  0.31250000000000000       0.46875000000000000        0.0000000000000000     
  0.34375000000000000       0.46875000000000000        0.0000000000000000     
  0.37500000000000000       0.46875000000000000        0.0000000000000000     
  0.25000000000000000       0.50000000000000000        0.0000000000000000     
  0.28125000000000000       0.50000000000000000        0.0000000000000000     
  0.31250000000000000       0.50000000000000000        0.0000000000000000     
  0.34375000000000000       0.50000000000000000        0.0000000000000000     
  0.37500000000000000       0.50000000000000000        0.0000000000000000     
  0.37500000000000000       0.37500000000000000        0.0000000000000000     
  0.40625000000000000       0.37500000000000000        0.0000000000000000     
  0.43750000000000000       0.37500000000000000        0.0000000000000000     
  0.46875000000000000       0.37500000000000000        0.0000000000000000     
  0.50000000000000000       0.37500000000000000        0.0000000000000000     
  0.37500000000000000       0.40625000000000000        0.0000000000000000     
  0.40625000000000000       0.40625000000000000        0.0000000000000000     
  0.43750000000000000       0.40625000000000000        0.0000000000000000     
  0.46875000000000000       0.40625000000000000        0.0000000000000000     
  0.50000000000000000       0.40625000000000000        0.0000000000000000     
  0.37500000000000000       0.43750000000000000        0.0000000000000000     
  0.40625000000000000       0.43750000000000000        0.0000000000000000     
  0.43750000000000000       0.43750000000000000        0.0000000000000000     
  0.46875000000000000       0.43750000000000000        0.0000000000000000     
  0.50000000000000000       0.43750000000000000        0.0000000000000000     
  0.37500000000000000       0.46875000000000000        0.0000000000000000     
  0.40625000000000000       0.46875000000000000        0.0000000000000000     
  0.43750000000000000       0.46875000000000000        0.0000000000000000     
  0.46875000000000000       0.46875000000000000        0.0000000000000000     
  0.50000000000000000       0.46875000000000000        0.0000000000000000     
  0.37500000000000000       0.50000000000000000        0.0000000000000000     
  0.40625000000000000       0.50000000000000000        0.0000000000000000     
  0.43750000000000000       0.50000000000000000        0.0000000000000000     
  0.46875000000000000       0.50000000000000000        0.0000000000000000     
  0.50000000000000000       0.50000000000000000        0.0000000000000000     
  0.50000000000000000       0.37500000000000000        0.0000000000000000     
  0.53125000000000000       0.37500000000000000        0.0000000000000000     
  0.56250000000000000       0.37500000000000000        0.0000000000000000     
  0.59375000000000000       0.37500000000000000        0.0000000000000000     
  0.62500000000000000       0.37500000000000000        0.0000000000000000     
  0.50000000000000000       0.40625000000000000        0.0000000000000000     
  0.53125000000000000       0.40625000000000000        0.0000000000000000     
  0.56250000000000000       0.40625000000000000        0.0000000000000000     
  0.59375000000000000       0.40625000000000000        0.0000000000000000     
  0.62500000000000000       0.40625000000000000        0.0000000000000000     
  0.50000000000000000       0.43750000000000000        0.0000000000000000     
  0.53125000000000000       0.43750000000000000        0.0000000000000000     
  0.56250000000000000       0.43750000000000000        0.0000000000000000     
  0.59375000000000000       0.43750000000000000        0.0000000000000000     
  0.62500000000000000       0.43750000000000000        0.0000000000000000     
  0.50000000000000000       0.46875000000000000        0.0000000000000000     
  0.53125000000000000       0.46875000000000000        0.0000000000000000     
  0.56250000000000000       0.46875000000000000        0.0000000000000000     
  0.59375000000000000       0.46875000000000000        0.0000000000000000     
  0.62500000000000000       0.46875000000000000        0.0000000000000000     
  0.50000000000000000       0.50000000000000000        0.0000000000000000     
  0.53125000000000000       0.50000000000000000        0.0000000000000000     
  0.56250000000000000       0.50000000000000000        0.0000000000000000     
  0.59375000000000000       0.50000000000000000        0.0000000000000000     
  0.62500000000000000       0.50000000000000000        0.0000000000000000     
  0.62500000000000000       0.37500000000000000        0.0000000000000000     
  0.65625000000000000       0.37500000000000000        0.0000000000000000     
  0.68750000000000000       0.37500000000000000        0.0000000000000000     
  0.71875000000000000       0.37500000000000000        0.0000000000000000     
  0.75000000000000000       0.37500000000000000        0.0000000000000000     
  0.62500000000000000       0.40625000000000000        0.0000000000000000     
  0.65625000000000000       0.40625000000000000        0.0000000000000000     
  0.68750000000000000       0.40625000000000000        0.0000000000000000     
  0.71875000000000000       0.40625000000000000        0.0000000000000000     
  0.75000000000000000       0.40625000000000000        0.0000000000000000     
  0.62500000000000000       0.43750000000000000        0.0000000000000000     
  0.65625000000000000       0.43750000000000000        0.0000000000000000     
  0.68750000000000000       0.43750000000000000        0.0000000000000000     
  0.71875000000000000       0.43750000000000000        0.0000000000000000     
  0.75000000000000000       0.43750000000000000        0.0000000000000000     
  0.62500000000000000       0.46875000000000000        0.0000000000000000     
  0.65625000000000000       0.46875000000000000        0.0000000000000000     
  0.68750000000000000       0.46875000000000000        0.0000000000000000     
  0.71875000000000000       0.46875000000000000        0.0000000000000000     
  0.75000000000000000       0.46875000000000000        0.0000000000000000     
  0.62500000000000000       0.50000000000000000        0.0000000000000000     
  0.65625000000000000       0.50000000000000000        0.0000000000000000     
  0.68750000000000000       0.50000000000000000        0.0000000000000000     
  0.71875000000000000       0.50000000000000000        0.0000000000000000     
  0.75000000000000000       0.50000000000000000        0.0000000000000000     
  0.75000000000000000       0.37500000000000000        0.0000000000000000     
  0.78125000000000000       0.37500000000000000        0.0000000000000000     
  0.81250000000000000       0.37500000000000000        0.0000000000000000     
  0.84375000000000000       0.37500000000000000        0.0000000000000000     
  0.87500000000000000       0.37500000000000000        0.0000000000000000     
  0.75000000000000000       0.40625000000000000        0.0000000000000000     
  0.78125000000000000       0.40625000000000000        0.0000000000000000     
  0.81250000000000000       0.40625000000000000        0.0000000000000000     
  0.84375000000000000       0.40625000000000000        0.0000000000000000     
  0.87500000000000000       0.40625000000000000        0.0000000000000000     
  0.75000000000000000       0.43750000000000000        0.0000000000000000     
  0.78125000000000000       0.43750000000000000        0.0000000000000000     
  0.81250000000000000       0.43750000000000000        0.0000000000000000     
  0.84375000000000000       0.43750000000000000        0.0000000000000000     
  0.87500000000000000       0.43750000000000000        0.0000000000000000     
  0.75000000000000000       0.46875000000000000        0.0000000000000000     
  0.78125000000000000       0.46875000000000000        0.0000000000000000     
  0.81250000000000000       0.46875000000000000        0.0000000000000000     
  0.84375000000000000       0.46875000000000000        0.0000000000000000     
  0.87500000000000000       0.46875000000000000        0.0000000000000000     
  0.75000000000000000       0.50000000000000000        0.0000000000000000     
  0.78125000000000000       0.50000000000000000        0.0000000000000000     
  0.81250000000000000       0.50000000000000000        0.0000000000000000     
  0.84375000000000000       0.50000000000000000        0.0000000000000000     
  0.87500000000000000       0.50000000000000000        0.0000000000000000     
  0.87500000000000000       0.37500000000000000        0.0000000000000000     
  0.90625000000000000       0.37500000000000000        0.0000000000000000     
  0.93750000000000000       0.37500000000000000        0.0000000000000000     
  0.96875000000000000       0.37500000000000000        0.0000000000000000     
   1.0000000000000000       0.37500000000000000        0.0000000000000000     
  0.87500000000000000       0.40625000000000000        0.0000000000000000     
  0.90625000000000000       0.40625000000000000        0.0000000000000000     
  0.93750000000000000       0.40625000000000000        0.0000000000000000     
  0.96875000000000000       0.40625000000000000        0.0000000000000000     
   1.0000000000000000       0.40625000000000000        0.0000000000000000     
  0.87500000000000000       0.43750000000000000        0.0000000000000000     
  0.90625000000000000       0.43750000000000000        0.0000000000000000     
  0.93750000000000000       0.43750000000000000        0.0000000000000000     
  0.96875000000000000       0.43750000000000000        0.0000000000000000     
   1.0000000000000000       0.43750000000000000        0.0000000000000000     
  0.87500000000000000       0.46875000000000000        0.0000000000000000     
  0.90625000000000000       0.46875000000000000        0.0000000000000000     
  0.93750000000000000       0.46875000000000000        0.0000000000000000     
  0.96875000000000000       0.46875000000000000        0.0000000000000000     
   1.0000000000000000       0.46875000000000000        0.0000000000000000     
  0.87500000000000000       0.50000000000000000        0.0000000000000000     
  0.90625000000000000       0.50000000000000000        0.0000000000000000     
  0.93750000000000000       0.50000000000000000        0.0000000000000000     
  0.96875000000000000       0.50000000000000000        0.0000000000000000     
   1.0000000000000000       0.50000000000000000        0.0000000000000000     
   0.0000000000000000       0.50000000000000000        0.0000000000000000     
   3.1250000000000000E-002  0.50000000000000000        0.0000000000000000     
   6.2500000000000000E-002  0.50000000000000000        0.0000000000000000     
   9.3750000000000000E-002  0.50000000000000000        0.0000000000000000     
  0.12500000000000000       0.50000000000000000        0.0000000000000000     
   0.0000000000000000       0.53125000000000000        0.0000000000000000     
   3.1250000000000000E-002  0.53125000000000000        0.0000000000000000     
   6.2500000000000000E-002  0.53125000000000000        0.0000000000000000     
   9.3750000000000000E-002  0.53125000000000000        0.0000000000000000     
  0.12500000000000000       0.53125000000000000        0.0000000000000000     
   0.0000000000000000       0.56250000000000000        0.0000000000000000     
   3.1250000000000000E-002  0.56250000000000000        0.0000000000000000     
   6.2500000000000000E-002  0.56250000000000000        0.0000000000000000     
   9.3750000000000000E-002  0.56250000000000000        0.0000000000000000     
  0.12500000000000000       0.56250000000000000        0.0000000000000000     
   0.0000000000000000       0.59375000000000000        0.0000000000000000     
   3.1250000000000000E-002  0.59375000000000000        0.0000000000000000     
   6.2500000000000000E-002  0.59375000000000000        0.0000000000000000     
   9.3750000000000000E-002  0.59375000000000000        0.0000000000000000     
  0.12500000000000000       0.59375000000000000        0.0000000000000000     
   0.0000000000000000       0.62500000000000000        0.0000000000000000     
   3.1250000000000000E-002  0.62500000000000000        0.0000000000000000     
   6.2500000000000000E-002  0.62500000000000000        0.0000000000000000     
   9.3750000000000000E-002  0.62500000000000000        0.0000000000000000     
  0.12500000000000000       0.62500000000000000        0.0000000000000000     
  0.12500000000000000       0.50000000000000000        0.0000000000000000     
  0.15625000000000000       0.50000000000000000        0.0000000000000000     
  0.18750000000000000       0.50000000000000000        0.0000000000000000     
  0.21875000000000000       0.50000000000000000        0.0000000000000000     
  0.25000000000000000       0.50000000000000000        0.0000000000000000     
  0.12500000000000000       0.53125000000000000        0.0000000000000000     
  0.15625000000000000       0.53125000000000000        0.0000000000000000     
  0.18750000000000000       0.53125000000000000        0.0000000000000000     
  0.21875000000000000       0.53125000000000000        0.0000000000000000     
  0.25000000000000000       0.53125000000000000        0.0000000000000000     
  0.12500000000000000       0.56250000000000000        0.0000000000000000     
  0.15625000000000000       0.56250000000000000        0.0000000000000000     
  0.18750000000000000       0.56250000000000000        0.0000000000000000     
  0.21875000000000000       0.56250000000000000        0.0000000000000000     
  0.25000000000000000       0.56250000000000000        0.0000000000000000     
  0.12500000000000000       0.59375000000000000        0.0000000000000000     
  0.15625000000000000       0.59375000000000000        0.0000000000000000     
  0.18750000000000000       0.59375000000000000        0.0000000000000000     
  0.21875000000000000       0.59375000000000000        0.0000000000000000     
  0.25000000000000000       0.59375000000000000        0.0000000000000000     
  0.12500000000000000       0.62500000000000000        0.0000000000000000     
  0.15625000000000000       0.62500000000000000        0.0000000000000000     
  0.18750000000000000       0.62500000000000000        0.0000000000000000     
  0.21875000000000000       0.62500000000000000        0.0000000000000000     
  0.25000000000000000       0.62500000000000000        0.0000000000000000     
  0.25000000000000000       0.50000000000000000        0.0000000000000000     
  0.28125000000000000       0.50000000000000000        0.0000000000000000     
  0.31250000000000000       0.50000000000000000        0.0000000000000000     
  0.34375000000000000       0.50000000000000000        0.0000000000000000     
  0.37500000000000000       0.50000000000000000        0.0000000000000000     
  0.25000000000000000       0.53125000000000000        0.0000000000000000     
  0.28125000000000000       0.53125000000000000        0.0000000000000000     
  0.31250000000000000       0.53125000000000000        0.0000000000000000     
  0.34375000000000000       0.53125000000000000        0.0000000000000000     
  0.37500000000000000       0.53125000000000000        0.0000000000000000     
  0.25000000000000000       0.56250000000000000        0.0000000000000000     
  0.28125000000000000       0.56250000000000000        0.0000000000000000     
  0.31250000000000000       0.56250000000000000        0.0000000000000000     
  0.34375000000000000       0.56250000000000000        0.0000000000000000     
  0.37500000000000000       0.56250000000000000        0.0000000000000000     
  0.25000000000000000       0.59375000000000000        0.0000000000000000     
  0.28125000000000000       0.59375000000000000        0.0000000000000000     
  0.31250000000000000       0.59375000000000000        0.0000000000000000     
  0.34375000000000000       0.59375000000000000        0.0000000000000000     
  0.37500000000000000       0.59375000000000000        0.0000000000000000     
  0.25000000000000000       0.62500000000000000        0.0000000000000000     
  0.28125000000000000       0.62500000000000000        0.0000000000000000     
  0.31250000000000000       0.62500000000000000        0.0000000000000000     
  0.34375000000000000       0.62500000000000000        0.0000000000000000     
  0.37500000000000000       0.62500000000000000        0.0000000000000000     
  0.37500000000000000       0.50000000000000000        0.0000000000000000     
  0.40625000000000000       0.50000000000000000        0.0000000000000000     
  0.43750000000000000       0.50000000000000000        0.0000000000000000     
  0.46875000000000000       0.50000000000000000        0.0000000000000000     
  0.50000000000000000       0.50000000000000000        0.0000000000000000     
  0.37500000000000000       0.53125000000000000        0.0000000000000000     
  0.40625000000000000       0.53125000000000000        0.0000000000000000     
  0.43750000000000000       0.53125000000000000        0.0000000000000000     
  0.46875000000000000       0.53125000000000000        0.0000000000000000     
  0.50000000000000000       0.53125000000000000        0.0000000000000000     
  0.37500000000000000       0.56250000000000000        0.0000000000000000     
  0.40625000000000000       0.56250000000000000        0.0000000000000000     
  0.43750000000000000       0.56250000000000000        0.0000000000000000     
  0.46875000000000000       0.56250000000000000        0.0000000000000000     
  0.50000000000000000       0.56250000000000000        0.0000000000000000     
  0.37500000000000000       0.59375000000000000        0.0000000000000000     
  0.40625000000000000       0.59375000000000000        0.0000000000000000     
  0.43750000000000000       0.59375000000000000        0.0000000000000000     
  0.46875000000000000       0.59375000000000000        0.0000000000000000     
  0.50000000000000000       0.59375000000000000        0.0000000000000000     
  0.37500000000000000       0.62500000000000000        0.0000000000000000     
  0.40625000000000000       0.62500000000000000        0.0000000000000000     
  0.43750000000000000       0.62500000000000000        0.0000000000000000     
  0.46875000000000000       0.62500000000000000        0.0000000000000000     
  0.50000000000000000       0.62500000000000000        0.0000000000000000     
  0.50000000000000000       0.50000000000000000        0.0000000000000000     
  0.53125000000000000       0.50000000000000000        0.0000000000000000     
  0.56250000000000000       0.50000000000000000        0.0000000000000000     
  0.59375000000000000       0.50000000000000000        0.0000000000000000     
  0.62500000000000000       0.50000000000000000        0.0000000000000000     
  0.50000000000000000       0.53125000000000000        0.0000000000000000     
  0.53125000000000000       0.53125000000000000        0.0000000000000000     
  0.56250000000000000       0.53125000000000000        0.0000000000000000     
  0.59375000000000000       0.53125000000000000        0.0000000000000000     
  0.62500000000000000       0.53125000000000000        0.0000000000000000     
  0.50000000000000000       0.56250000000000000        0.0000000000000000     
  0.53125000000000000       0.56250000000000000        0.0000000000000000     
  0.56250000000000000       0.56250000000000000        0.0000000000000000     
  0.59375000000000000       0.56250000000000000        0.0000000000000000     
  0.62500000000000000       0.56250000000000000        0.0000000000000000     
  0.50000000000000000       0.59375000000000000        0.0000000000000000     
  0.53125000000000000       0.59375000000000000        0.0000000000000000     
  0.56250000000000000       0.59375000000000000        0.0000000000000000     
  0.59375000000000000       0.59375000000000000        0.0000000000000000     
  0.62500000000000000       0.59375000000000000        0.0000000000000000     
  0.50000000000000000       0.62500000000000000        0.0000000000000000     
  0.53125000000000000       0.62500000000000000        0.0000000000000000     
  0.56250000000000000       0.62500000000000000        0.0000000000000000     
  0.59375000000000000       0.62500000000000000        0.0000000000000000     
  0.62500000000000000       0.62500000000000000        0.0000000000000000     
  0.62500000000000000       0.50000000000000000        0.0000000000000000     
  0.65625000000000000       0.50000000000000000        0.0000000000000000     
  0.68750000000000000       0.50000000000000000        0.0000000000000000     
  0.71875000000000000       0.50000000000000000        0.0000000000000000     
  0.75000000000000000       0.50000000000000000        0.0000000000000000     
  0.62500000000000000       0.53125000000000000        0.0000000000000000     
  0.65625000000000000       0.53125000000000000        0.0000000000000000     
  0.68750000000000000       0.53125000000000000        0.0000000000000000     
  0.71875000000000000       0.53125000000000000        0.0000000000000000     
  0.75000000000000000       0.53125000000000000        0.0000000000000000     
  0.62500000000000000       0.56250000000000000        0.0000000000000000     
  0.65625000000000000       0.56250000000000000        0.0000000000000000     
  0.68750000000000000       0.56250000000000000        0.0000000000000000     
  0.71875000000000000       0.56250000000000000        0.0000000000000000     
  0.75000000000000000       0.56250000000000000        0.0000000000000000     
  0.62500000000000000       0.59375000000000000        0.0000000000000000     
  0.65625000000000000       0.59375000000000000        0.0000000000000000     
  0.68750000000000000       0.59375000000000000        0.0000000000000000     
  0.71875000000000000       0.59375000000000000        0.0000000000000000     
  0.75000000000000000       0.59375000000000000        0.0000000000000000     
  0.62500000000000000       0.62500000000000000        0.0000000000000000     
  0.65625000000000000       0.62500000000000000        0.0000000000000000     
  0.68750000000000000       0.62500000000000000        0.0000000000000000     
  0.71875000000000000       0.62500000000000000        0.0000000000000000     
  0.75000000000000000       0.62500000000000000        0.0000000000000000     
  0.75000000000000000       0.50000000000000000        0.0000000000000000     
  0.78125000000000000       0.50000000000000000        0.0000000000000000     
  0.81250000000000000       0.50000000000000000        0.0000000000000000     
  0.84375000000000000       0.50000000000000000        0.0000000000000000     
  0.87500000000000000       0.50000000000000000        0.0000000000000000     
  0.75000000000000000       0.53125000000000000        0.0000000000000000     
  0.78125000000000000       0.53125000000000000        0.0000000000000000     
  0.81250000000000000       0.53125000000000000        0.0000000000000000     
  0.84375000000000000       0.53125000000000000        0.0000000000000000     
  0.87500000000000000       0.53125000000000000        0.0000000000000000     
  0.75000000000000000       0.56250000000000000        0.0000000000000000     
  0.78125000000000000       0.56250000000000000        0.0000000000000000     
  0.81250000000000000       0.56250000000000000        0.0000000000000000     
  0.84375000000000000       0.56250000000000000        0.0000000000000000     
  0.87500000000000000       0.56250000000000000        0.0000000000000000     
  0.75000000000000000       0.59375000000000000        0.0000000000000000     
  0.78125000000000000       0.59375000000000000        0.0000000000000000     
  0.81250000000000000       0.59375000000000000        0.0000000000000000     
  0.84375000000000000       0.59375000000000000        0.0000000000000000     
  0.87500000000000000       0.59375000000000000        0.0000000000000000     
  0.75000000000000000       0.62500000000000000        0.0000000000000000     
  0.78125000000000000       0.62500000000000000        0.0000000000000000     
  0.81250000000000000       0.62500000000000000        0.0000000000000000     
  0.84375000000000000       0.62500000000000000        0.0000000000000000     
  0.87500000000000000       0.62500000000000000        0.0000000000000000     
  0.87500000000000000       0.50000000000000000        0.0000000000000000     
  0.90625000000000000       0.50000000000000000        0.0000000000000000     
  0.93750000000000000       0.50000000000000000        0.0000000000000000     
  0.96875000000000000       0.50000000000000000        0.0000000000000000     
   1.0000000000000000       0.50000000000000000        0.0000000000000000     
  0.87500000000000000       0.53125000000000000        0.0000000000000000     
  0.90625000000000000       0.53125000000000000        0.0000000000000000     
  0.93750000000000000       0.53125000000000000        0.0000000000000000     
  0.96875000000000000       0.53125000000000000        0.0000000000000000     
   1.0000000000000000       0.53125000000000000        0.0000000000000000     
  0.87500000000000000       0.56250000000000000        0.0000000000000000     
  0.90625000000000000       0.56250000000000000        0.0000000000000000     
  0.93750000000000000       0.56250000000000000        0.0000000000000000     
  0.96875000000000000       0.56250000000000000        0.0000000000000000     
   1.0000000000000000       0.56250000000000000        0.0000000000000000     
  0.87500000000000000       0.59375000000000000        0.0000000000000000     
  0.90625000000000000       0.59375000000000000        0.0000000000000000     
  0.93750000000000000       0.59375000000000000        0.0000000000000000     
  0.96875000000000000       0.59375000000000000        0.0000000000000000     
   1.0000000000000000       0.59375000000000000        0.0000000000000000     
  0.87500000000000000       0.62500000000000000        0.0000000000000000     
  0.90625000000000000       0.62500000000000000        0.0000000000000000     
  0.93750000000000000       0.62500000000000000        0.0000000000000000     
  0.96875000000000000       0.62500000000000000        0.0000000000000000     
   1.0000000000000000       0.62500000000000000        0.0000000000000000     
   0.0000000000000000       0.62500000000000000        0.0000000000000000     
   3.1250000000000000E-002  0.62500000000000000        0.0000000000000000     
   6.2500000000000000E-002  0.62500000000000000        0.0000000000000000     
   9.3750000000000000E-002  0.62500000000000000        0.0000000000000000     
  0.12500000000000000       0.62500000000000000        0.0000000000000000     
   0.0000000000000000       0.65625000000000000        0.0000000000000000     
   3.1250000000000000E-002  0.65625000000000000        0.0000000000000000     
   6.2500000000000000E-002  0.65625000000000000        0.0000000000000000     
   9.3750000000000000E-002  0.65625000000000000        0.0000000000000000     
  0.12500000000000000       0.65625000000000000        0.0000000000000000     
   0.0000000000000000       0.68750000000000000        0.0000000000000000     
   3.1250000000000000E-002  0.68750000000000000        0.0000000000000000     
   6.2500000000000000E-002  0.68750000000000000        0.0000000000000000     
   9.3750000000000000E-002  0.68750000000000000        0.0000000000000000     
  0.12500000000000000       0.68750000000000000        0.0000000000000000     
   0.0000000000000000       0.71875000000000000        0.0000000000000000     
   3.1250000000000000E-002  0.71875000000000000        0.0000000000000000     
   6.2500000000000000E-002  0.71875000000000000        0.0000000000000000     
   9.3750000000000000E-002  0.71875000000000000        0.0000000000000000     
  0.12500000000000000       0.71875000000000000        0.0000000000000000     
   0.0000000000000000       0.75000000000000000        0.0000000000000000     
   3.1250000000000000E-002  0.75000000000000000        0.0000000000000000     
   6.2500000000000000E-002  0.75000000000000000        0.0000000000000000     
   9.3750000000000000E-002  0.75000000000000000        0.0000000000000000     
  0.12500000000000000       0.75000000000000000        0.0000000000000000     
  0.12500000000000000       0.62500000000000000        0.0000000000000000     
  0.15625000000000000       0.62500000000000000        0.0000000000000000     
  0.18750000000000000       0.62500000000000000        0.0000000000000000     
  0.21875000000000000       0.62500000000000000        0.0000000000000000     
  0.25000000000000000       0.62500000000000000        0.0000000000000000     
  0.12500000000000000       0.65625000000000000        0.0000000000000000     
  0.15625000000000000       0.65625000000000000        0.0000000000000000     
  0.18750000000000000       0.65625000000000000        0.0000000000000000     
  0.21875000000000000       0.65625000000000000        0.0000000000000000     
  0.25000000000000000       0.65625000000000000        0.0000000000000000     
  0.12500000000000000       0.68750000000000000        0.0000000000000000     
  0.15625000000000000       0.68750000000000000        0.0000000000000000     
  0.18750000000000000       0.68750000000000000        0.0000000000000000     
  0.21875000000000000       0.68750000000000000        0.0000000000000000     
  0.25000000000000000       0.68750000000000000        0.0000000000000000     
  0.12500000000000000       0.71875000000000000        0.0000000000000000     
  0.15625000000000000       0.71875000000000000        0.0000000000000000     
  0.18750000000000000       0.71875000000000000        0.0000000000000000     
  0.21875000000000000       0.71875000000000000        0.0000000000000000     
  0.25000000000000000       0.71875000000000000        0.0000000000000000     
  0.12500000000000000       0.75000000000000000        0.0000000000000000     
  0.15625000000000000       0.75000000000000000        0.0000000000000000     
  0.18750000000000000       0.75000000000000000        0.0000000000000000     
  0.21875000000000000       0.75000000000000000        0.0000000000000000     
  0.25000000000000000       0.75000000000000000        0.0000000000000000     
  0.25000000000000000       0.62500000000000000        0.0000000000000000     
  0.28125000000000000       0.62500000000000000        0.0000000000000000     
  0.31250000000000000       0.62500000000000000        0.0000000000000000     
  0.34375000000000000       0.62500000000000000        0.0000000000000000     
  0.37500000000000000       0.62500000000000000        0.0000000000000000     
  0.25000000000000000       0.65625000000000000        0.0000000000000000     
  0.28125000000000000       0.65625000000000000        0.0000000000000000     
  0.31250000000000000       0.65625000000000000        0.0000000000000000     
  0.34375000000000000       0.65625000000000000        0.0000000000000000     
  0.37500000000000000       0.65625000000000000        0.0000000000000000     
  0.25000000000000000       0.68750000000000000        0.0000000000000000     
  0.28125000000000000       0.68750000000000000        0.0000000000000000     
  0.31250000000000000       0.68750000000000000        0.0000000000000000     
  0.34375000000000000       0.68750000000000000        0.0000000000000000     
  0.37500000000000000       0.68750000000000000        0.0000000000000000     
  0.25000000000000000       0.71875000000000000        0.0000000000000000     
  0.28125000000000000       0.71875000000000000        0.0000000000000000     
  0.31250000000000000       0.71875000000000000        0.0000000000000000     
  0.34375000000000000       0.71875000000000000        0.0000000000000000     
  0.37500000000000000       0.71875000000000000        0.0000000000000000     
  0.25000000000000000       0.75000000000000000        0.0000000000000000     
  0.28125000000000000       0.75000000000000000        0.0000000000000000     
  0.31250000000000000       0.75000000000000000        0.0000000000000000     
  0.34375000000000000       0.75000000000000000        0.0000000000000000     
  0.37500000000000000       0.75000000000000000        0.0000000000000000     
  0.37500000000000000       0.62500000000000000        0.0000000000000000     
  0.40625000000000000       0.62500000000000000        0.0000000000000000     
  0.43750000000000000       0.62500000000000000        0.0000000000000000     
  0.46875000000000000       0.62500000000000000        0.0000000000000000     
  0.50000000000000000       0.62500000000000000        0.0000000000000000     
  0.37500000000000000       0.65625000000000000        0.0000000000000000     
  0.40625000000000000       0.65625000000000000        0.0000000000000000     
  0.43750000000000000       0.65625000000000000        0.0000000000000000     
  0.46875000000000000       0.65625000000000000        0.0000000000000000     
  0.50000000000000000       0.65625000000000000        0.0000000000000000     
  0.37500000000000000       0.68750000000000000        0.0000000000000000     
  0.40625000000000000       0.68750000000000000        0.0000000000000000     
  0.43750000000000000       0.68750000000000000        0.0000000000000000     
  0.46875000000000000       0.68750000000000000        0.0000000000000000     
  0.50000000000000000       0.68750000000000000        0.0000000000000000     
  0.37500000000000000       0.71875000000000000        0.0000000000000000     
  0.40625000000000000       0.71875000000000000        0.0000000000000000     
  0.43750000000000000       0.71875000000000000        0.0000000000000000     
  0.46875000000000000       0.71875000000000000        0.0000000000000000     
  0.50000000000000000       0.71875000000000000        0.0000000000000000     
  0.37500000000000000       0.75000000000000000        0.0000000000000000     
  0.40625000000000000       0.75000000000000000        0.0000000000000000     
  0.43750000000000000       0.75000000000000000        0.0000000000000000     
  0.46875000000000000       0.75000000000000000        0.0000000000000000     
  0.50000000000000000       0.75000000000000000        0.0000000000000000     
  0.50000000000000000       0.62500000000000000        0.0000000000000000     
  0.53125000000000000       0.62500000000000000        0.0000000000000000     
  0.56250000000000000       0.62500000000000000        0.0000000000000000     
  0.59375000000000000       0.62500000000000000        0.0000000000000000     
  0.62500000000000000       0.62500000000000000        0.0000000000000000     
  0.50000000000000000       0.65625000000000000        0.0000000000000000     
  0.53125000000000000       0.65625000000000000        0.0000000000000000     
  0.56250000000000000       0.65625000000000000        0.0000000000000000     
  0.59375000000000000       0.65625000000000000        0.0000000000000000     
  0.62500000000000000       0.65625000000000000        0.0000000000000000     
  0.50000000000000000       0.68750000000000000        0.0000000000000000     
  0.53125000000000000       0.68750000000000000        0.0000000000000000     
  0.56250000000000000       0.68750000000000000        0.0000000000000000     
  0.59375000000000000       0.68750000000000000        0.0000000000000000     
  0.62500000000000000       0.68750000000000000        0.0000000000000000     
  0.50000000000000000       0.71875000000000000        0.0000000000000000     
  0.53125000000000000       0.71875000000000000        0.0000000000000000     
  0.56250000000000000       0.71875000000000000        0.0000000000000000     
  0.59375000000000000       0.71875000000000000        0.0000000000000000     
  0.62500000000000000       0.71875000000000000        0.0000000000000000     
  0.50000000000000000       0.75000000000000000        0.0000000000000000     
  0.53125000000000000       0.75000000000000000        0.0000000000000000     
  0.56250000000000000       0.75000000000000000        0.0000000000000000     
  0.59375000000000000       0.75000000000000000        0.0000000000000000     
  0.62500000000000000       0.75000000000000000        0.0000000000000000     
  0.62500000000000000       0.62500000000000000        0.0000000000000000     
  0.65625000000000000       0.62500000000000000        0.0000000000000000     
  0.68750000000000000       0.62500000000000000        0.0000000000000000     
  0.71875000000000000       0.62500000000000000        0.0000000000000000     
  0.75000000000000000       0.62500000000000000        0.0000000000000000     
  0.62500000000000000       0.65625000000000000        0.0000000000000000     
  0.65625000000000000       0.65625000000000000        0.0000000000000000     
  0.68750000000000000       0.65625000000000000        0.0000000000000000     
  0.71875000000000000       0.65625000000000000        0.0000000000000000     
  0.75000000000000000       0.65625000000000000        0.0000000000000000     
  0.62500000000000000       0.68750000000000000        0.0000000000000000     
  0.65625000000000000       0.68750000000000000        0.0000000000000000     
  0.68750000000000000       0.68750000000000000        0.0000000000000000     
  0.71875000000000000       0.68750000000000000        0.0000000000000000     
  0.75000000000000000       0.68750000000000000        0.0000000000000000     
  0.62500000000000000       0.71875000000000000        0.0000000000000000     
  0.65625000000000000       0.71875000000000000        0.0000000000000000     
  0.68750000000000000       0.71875000000000000        0.0000000000000000     
  0.71875000000000000       0.71875000000000000        0.0000000000000000     
  0.75000000000000000       0.71875000000000000        0.0000000000000000     
  0.62500000000000000       0.75000000000000000        0.0000000000000000     
  0.65625000000000000       0.75000000000000000        0.0000000000000000     
  0.68750000000000000       0.75000000000000000        0.0000000000000000     
  0.71875000000000000       0.75000000000000000        0.0000000000000000     
  0.75000000000000000       0.75000000000000000        0.0000000000000000     
  0.75000000000000000       0.62500000000000000        0.0000000000000000     
  0.78125000000000000       0.62500000000000000        0.0000000000000000     
  0.81250000000000000       0.62500000000000000        0.0000000000000000     
  0.84375000000000000       0.62500000000000000        0.0000000000000000     
  0.87500000000000000       0.62500000000000000        0.0000000000000000     
  0.75000000000000000       0.65625000000000000        0.0000000000000000     
  0.78125000000000000       0.65625000000000000        0.0000000000000000     
  0.81250000000000000       0.65625000000000000        0.0000000000000000     
  0.84375000000000000       0.65625000000000000        0.0000000000000000     
  0.87500000000000000       0.65625000000000000        0.0000000000000000     
  0.75000000000000000       0.68750000000000000        0.0000000000000000     
  0.78125000000000000       0.68750000000000000        0.0000000000000000     
  0.81250000000000000       0.68750000000000000        0.0000000000000000     
  0.84375000000000000       0.68750000000000000        0.0000000000000000     
  0.87500000000000000       0.68750000000000000        0.0000000000000000     
  0.75000000000000000       0.71875000000000000        0.0000000000000000     
  0.78125000000000000       0.71875000000000000        0.0000000000000000     
  0.81250000000000000       0.71875000000000000        0.0000000000000000     
  0.84375000000000000       0.71875000000000000        0.0000000000000000     
  0.87500000000000000       0.71875000000000000        0.0000000000000000     
  0.75000000000000000       0.75000000000000000        0.0000000000000000     
  0.78125000000000000       0.75000000000000000        0.0000000000000000     
  0.81250000000000000       0.75000000000000000        0.0000000000000000     
  0.84375000000000000       0.75000000000000000        0.0000000000000000     
  0.87500000000000000       0.75000000000000000        0.0000000000000000     
  0.87500000000000000       0.62500000000000000        0.0000000000000000     
  0.90625000000000000       0.62500000000000000        0.0000000000000000     
  0.93750000000000000       0.62500000000000000        0.0000000000000000     
  0.96875000000000000       0.62500000000000000        0.0000000000000000     
   1.0000000000000000       0.62500000000000000        0.0000000000000000     
  0.87500000000000000       0.65625000000000000        0.0000000000000000     
  0.90625000000000000       0.65625000000000000        0.0000000000000000     
  0.93750000000000000       0.65625000000000000        0.0000000000000000     
  0.96875000000000000       0.65625000000000000        0.0000000000000000     
   1.0000000000000000       0.65625000000000000        0.0000000000000000     
  0.87500000000000000       0.68750000000000000        0.0000000000000000     
  0.90625000000000000       0.68750000000000000        0.0000000000000000     
  0.93750000000000000       0.68750000000000000        0.0000000000000000     
  0.96875000000000000       0.68750000000000000        0.0000000000000000     
   1.0000000000000000       0.68750000000000000        0.0000000000000000     
  0.87500000000000000       0.71875000000000000        0.0000000000000000     
  0.90625000000000000       0.71875000000000000        0.0000000000000000     
  0.93750000000000000       0.71875000000000000        0.0000000000000000     
  0.96875000000000000       0.71875000000000000        0.0000000000000000     
   1.0000000000000000       0.71875000000000000        0.0000000000000000     
  0.87500000000000000       0.75000000000000000        0.0000000000000000     
  0.90625000000000000       0.75000000000000000        0.0000000000000000     
  0.93750000000000000       0.75000000000000000        0.0000000000000000     
  0.96875000000000000       0.75000000000000000        0.0000000000000000     
   1.0000000000000000       0.75000000000000000        0.0000000000000000     
   0.0000000000000000       0.75000000000000000        0.0000000000000000     
   3.1250000000000000E-002  0.75000000000000000        0.0000000000000000     
   6.2500000000000000E-002  0.75000000000000000        0.0000000000000000     
   9.3750000000000000E-002  0.75000000000000000        0.0000000000000000     
  0.12500000000000000       0.75000000000000000        0.0000000000000000     
   0.0000000000000000       0.78125000000000000        0.0000000000000000     
   3.1250000000000000E-002  0.78125000000000000        0.0000000000000000     
   6.2500000000000000E-002  0.78125000000000000        0.0000000000000000     
   9.3750000000000000E-002  0.78125000000000000        0.0000000000000000     
  0.12500000000000000       0.78125000000000000        0.0000000000000000     
   0.0000000000000000       0.81250000000000000        0.0000000000000000     
   3.1250000000000000E-002  0.81250000000000000        0.0000000000000000     
   6.2500000000000000E-002  0.81250000000000000        0.0000000000000000     
   9.3750000000000000E-002  0.81250000000000000        0.0000000000000000     
  0.12500000000000000       0.81250000000000000        0.0000000000000000     
   0.0000000000000000       0.84375000000000000        0.0000000000000000     
   3.1250000000000000E-002  0.84375000000000000        0.0000000000000000     
   6.2500000000000000E-002  0.84375000000000000        0.0000000000000000     
   9.3750000000000000E-002  0.84375000000000000        0.0000000000000000     
  0.12500000000000000       0.84375000000000000        0.0000000000000000     
   0.0000000000000000       0.87500000000000000        0.0000000000000000     
   3.1250000000000000E-002  0.87500000000000000        0.0000000000000000     
   6.2500000000000000E-002  0.87500000000000000        0.0000000000000000     
   9.3750000000000000E-002  0.87500000000000000        0.0000000000000000     
  0.12500000000000000       0.87500000000000000        0.0000000000000000     
  0.12500000000000000       0.75000000000000000        0.0000000000000000     
  0.15625000000000000       0.75000000000000000        0.0000000000000000     
  0.18750000000000000       0.75000000000000000        0.0000000000000000     
  0.21875000000000000       0.75000000000000000        0.0000000000000000     
  0.25000000000000000       0.75000000000000000        0.0000000000000000     
  0.12500000000000000       0.78125000000000000        0.0000000000000000     
  0.15625000000000000       0.78125000000000000        0.0000000000000000     
  0.18750000000000000       0.78125000000000000        0.0000000000000000     
  0.21875000000000000       0.78125000000000000        0.0000000000000000     
  0.25000000000000000       0.78125000000000000        0.0000000000000000     
  0.12500000000000000       0.81250000000000000        0.0000000000000000     
  0.15625000000000000       0.81250000000000000        0.0000000000000000     
  0.18750000000000000       0.81250000000000000        0.0000000000000000     
  0.21875000000000000       0.81250000000000000        0.0000000000000000     
  0.25000000000000000       0.81250000000000000        0.0000000000000000     
  0.12500000000000000       0.84375000000000000        0.0000000000000000     
  0.15625000000000000       0.84375000000000000        0.0000000000000000     
  0.18750000000000000       0.84375000000000000        0.0000000000000000     
  0.21875000000000000       0.84375000000000000        0.0000000000000000     
  0.25000000000000000       0.84375000000000000        0.0000000000000000     
  0.12500000000000000       0.87500000000000000        0.0000000000000000     
  0.15625000000000000       0.87500000000000000        0.0000000000000000     
  0.18750000000000000       0.87500000000000000        0.0000000000000000     
  0.21875000000000000       0.87500000000000000        0.0000000000000000     
  0.25000000000000000       0.87500000000000000        0.0000000000000000     
  0.25000000000000000       0.75000000000000000        0.0000000000000000     
  0.28125000000000000       0.75000000000000000        0.0000000000000000     
  0.31250000000000000       0.75000000000000000        0.0000000000000000     
  0.34375000000000000       0.75000000000000000        0.0000000000000000     
  0.37500000000000000       0.75000000000000000        0.0000000000000000     
  0.25000000000000000       0.78125000000000000        0.0000000000000000     
  0.28125000000000000       0.78125000000000000        0.0000000000000000     
  0.31250000000000000       0.78125000000000000        0.0000000000000000     
  0.34375000000000000       0.78125000000000000        0.0000000000000000     
  0.37500000000000000       0.78125000000000000        0.0000000000000000     
  0.25000000000000000       0.81250000000000000        0.0000000000000000     
  0.28125000000000000       0.81250000000000000        0.0000000000000000     
  0.31250000000000000       0.81250000000000000        0.0000000000000000     
  0.34375000000000000       0.81250000000000000        0.0000000000000000     
  0.37500000000000000       0.81250000000000000        0.0000000000000000     
  0.25000000000000000       0.84375000000000000        0.0000000000000000     
  0.28125000000000000       0.84375000000000000        0.0000000000000000     
  0.31250000000000000       0.84375000000000000        0.0000000000000000     
  0.34375000000000000       0.84375000000000000        0.0000000000000000     
  0.37500000000000000       0.84375000000000000        0.0000000000000000     
  0.25000000000000000       0.87500000000000000        0.0000000000000000     
  0.28125000000000000       0.87500000000000000        0.0000000000000000     
  0.31250000000000000       0.87500000000000000        0.0000000000000000     
  0.34375000000000000       0.87500000000000000        0.0000000000000000     
  0.37500000000000000       0.87500000000000000        0.0000000000000000     
  0.37500000000000000       0.75000000000000000        0.0000000000000000     
  0.40625000000000000       0.75000000000000000        0.0000000000000000     
  0.43750000000000000       0.75000000000000000        0.0000000000000000     
  0.46875000000000000       0.75000000000000000        0.0000000000000000     
  0.50000000000000000       0.75000000000000000        0.0000000000000000     
  0.37500000000000000       0.78125000000000000        0.0000000000000000     
  0.40625000000000000       0.78125000000000000        0.0000000000000000     
  0.43750000000000000       0.78125000000000000        0.0000000000000000     
  0.46875000000000000       0.78125000000000000        0.0000000000000000     
  0.50000000000000000       0.78125000000000000        0.0000000000000000     
  0.37500000000000000       0.81250000000000000        0.0000000000000000     
  0.40625000000000000       0.81250000000000000        0.0000000000000000     
  0.43750000000000000       0.81250000000000000        0.0000000000000000     
  0.46875000000000000       0.81250000000000000        0.0000000000000000     
  0.50000000000000000       0.81250000000000000        0.0000000000000000     
  0.37500000000000000       0.84375000000000000        0.0000000000000000     
  0.40625000000000000       0.84375000000000000        0.0000000000000000     
  0.43750000000000000       0.84375000000000000        0.0000000000000000     
  0.46875000000000000       0.84375000000000000        0.0000000000000000     
  0.50000000000000000       0.84375000000000000        0.0000000000000000     
  0.37500000000000000       0.87500000000000000        0.0000000000000000     
  0.40625000000000000       0.87500000000000000        0.0000000000000000     
  0.43750000000000000       0.87500000000000000        0.0000000000000000     
  0.46875000000000000       0.87500000000000000        0.0000000000000000     
  0.50000000000000000       0.87500000000000000        0.0000000000000000     
  0.50000000000000000       0.75000000000000000        0.0000000000000000     
  0.53125000000000000       0.75000000000000000        0.0000000000000000     
  0.56250000000000000       0.75000000000000000        0.0000000000000000     
  0.59375000000000000       0.75000000000000000        0.0000000000000000     
  0.62500000000000000       0.75000000000000000        0.0000000000000000     
  0.50000000000000000       0.78125000000000000        0.0000000000000000     
  0.53125000000000000       0.78125000000000000        0.0000000000000000     
  0.56250000000000000       0.78125000000000000        0.0000000000000000     
  0.59375000000000000       0.78125000000000000        0.0000000000000000     
  0.62500000000000000       0.78125000000000000        0.0000000000000000     
  0.50000000000000000       0.81250000000000000        0.0000000000000000     
  0.53125000000000000       0.81250000000000000        0.0000000000000000     
  0.56250000000000000       0.81250000000000000        0.0000000000000000     
  0.59375000000000000       0.81250000000000000        0.0000000000000000     
  0.62500000000000000       0.81250000000000000        0.0000000000000000     
  0.50000000000000000       0.84375000000000000        0.0000000000000000     
  0.53125000000000000       0.84375000000000000        0.0000000000000000     
  0.56250000000000000       0.84375000000000000        0.0000000000000000     
  0.59375000000000000       0.84375000000000000        0.0000000000000000     
  0.62500000000000000       0.84375000000000000        0.0000000000000000     
  0.50000000000000000       0.87500000000000000        0.0000000000000000     
  0.53125000000000000       0.87500000000000000        0.0000000000000000     
  0.56250000000000000       0.87500000000000000        0.0000000000000000     
  0.59375000000000000       0.87500000000000000        0.0000000000000000     
  0.62500000000000000       0.87500000000000000        0.0000000000000000     
  0.62500000000000000       0.75000000000000000        0.0000000000000000     
  0.65625000000000000       0.75000000000000000        0.0000000000000000     
  0.68750000000000000       0.75000000000000000        0.0000000000000000     
  0.71875000000000000       0.75000000000000000        0.0000000000000000     
  0.75000000000000000       0.75000000000000000        0.0000000000000000     
  0.62500000000000000       0.78125000000000000        0.0000000000000000     
  0.65625000000000000       0.78125000000000000        0.0000000000000000     
  0.68750000000000000       0.78125000000000000        0.0000000000000000     
  0.71875000000000000       0.78125000000000000        0.0000000000000000     
  0.75000000000000000       0.78125000000000000        0.0000000000000000     
  0.62500000000000000       0.81250000000000000        0.0000000000000000     
  0.65625000000000000       0.81250000000000000        0.0000000000000000     
  0.68750000000000000       0.81250000000000000        0.0000000000000000     
  0.71875000000000000       0.81250000000000000        0.0000000000000000     
  0.75000000000000000       0.81250000000000000        0.0000000000000000     
  0.62500000000000000       0.84375000000000000        0.0000000000000000     
  0.65625000000000000       0.84375000000000000        0.0000000000000000     
  0.68750000000000000       0.84375000000000000        0.0000000000000000     
  0.71875000000000000       0.84375000000000000        0.0000000000000000     
  0.75000000000000000       0.84375000000000000        0.0000000000000000     
  0.62500000000000000       0.87500000000000000        0.0000000000000000     
  0.65625000000000000       0.87500000000000000        0.0000000000000000     
  0.68750000000000000       0.87500000000000000        0.0000000000000000     
  0.71875000000000000       0.87500000000000000        0.0000000000000000     
  0.75000000000000000       0.87500000000000000        0.0000000000000000     
  0.75000000000000000       0.75000000000000000        0.0000000000000000     
  0.78125000000000000       0.75000000000000000        0.0000000000000000     
  0.81250000000000000       0.75000000000000000        0.0000000000000000     
  0.84375000000000000       0.75000000000000000        0.0000000000000000     
  0.87500000000000000       0.75000000000000000        0.0000000000000000     
  0.75000000000000000       0.78125000000000000        0.0000000000000000     
  0.78125000000000000       0.78125000000000000        0.0000000000000000     
  0.81250000000000000       0.78125000000000000        0.0000000000000000     
  0.84375000000000000       0.78125000000000000        0.0000000000000000     
  0.87500000000000000       0.78125000000000000        0.0000000000000000     
  0.75000000000000000       0.81250000000000000        0.0000000000000000     
  0.78125000000000000       0.81250000000000000        0.0000000000000000     
  0.81250000000000000       0.81250000000000000        0.0000000000000000     
  0.84375000000000000       0.81250000000000000        0.0000000000000000     
  0.87500000000000000       0.81250000000000000        0.0000000000000000     
  0.75000000000000000       0.84375000000000000        0.0000000000000000     
  0.78125000000000000       0.84375000000000000        0.0000000000000000     
  0.81250000000000000       0.84375000000000000        0.0000000000000000     
  0.84375000000000000       0.84375000000000000        0.0000000000000000     
  0.87500000000000000       0.84375000000000000        0.0000000000000000     
  0.75000000000000000       0.87500000000000000        0.0000000000000000     
  0.78125000000000000       0.87500000000000000        0.0000000000000000     
  0.81250000000000000       0.87500000000000000        0.0000000000000000     
  0.84375000000000000       0.87500000000000000        0.0000000000000000     
  0.87500000000000000       0.87500000000000000        0.0000000000000000     
  0.87500000000000000       0.75000000000000000        0.0000000000000000     
  0.90625000000000000       0.75000000000000000        0.0000000000000000     
  0.93750000000000000       0.75000000000000000        0.0000000000000000     
  0.96875000000000000       0.75000000000000000        0.0000000000000000     
   1.0000000000000000       0.75000000000000000        0.0000000000000000     
  0.87500000000000000       0.78125000000000000        0.0000000000000000     
  0.90625000000000000       0.78125000000000000        0.0000000000000000     
  0.93750000000000000       0.78125000000000000        0.0000000000000000     
  0.96875000000000000       0.78125000000000000        0.0000000000000000     
   1.0000000000000000       0.78125000000000000        0.0000000000000000     
  0.87500000000000000       0.81250000000000000        0.0000000000000000     
  0.90625000000000000       0.81250000000000000        0.0000000000000000     
  0.93750000000000000       0.81250000000000000        0.0000000000000000     
  0.96875000000000000       0.81250000000000000        0.0000000000000000     
   1.0000000000000000       0.81250000000000000        0.0000000000000000     
  0.87500000000000000       0.84375000000000000        0.0000000000000000     
  0.90625000000000000       0.84375000000000000        0.0000000000000000     
  0.93750000000000000       0.84375000000000000        0.0000000000000000     
  0.96875000000000000       0.84375000000000000        0.0000000000000000     
   1.0000000000000000       0.84375000000000000        0.0000000000000000     
  0.87500000000000000       0.87500000000000000        0.0000000000000000     
  0.90625000000000000       0.87500000000000000        0.0000000000000000     
  0.93750000000000000       0.87500000000000000        0.0000000000000000     
  0.96875000000000000       0.87500000000000000        0.0000000000000000     
   1.0000000000000000       0.87500000000000000        0.0000000000000000     
   0.0000000000000000       0.87500000000000000        0.0000000000000000     
   3.1250000000000000E-002  0.87500000000000000        0.0000000000000000     
   6.2500000000000000E-002  0.87500000000000000        0.0000000000000000     
   9.3750000000000000E-002  0.87500000000000000        0.0000000000000000     
  0.12500000000000000       0.87500000000000000        0.0000000000000000     
   0.0000000000000000       0.90625000000000000        0.0000000000000000     
   3.1250000000000000E-002  0.90625000000000000        0.0000000000000000     
   6.2500000000000000E-002  0.90625000000000000        0.0000000000000000     
   9.3750000000000000E-002  0.90625000000000000        0.0000000000000000     
  0.12500000000000000       0.90625000000000000        0.0000000000000000     
   0.0000000000000000       0.93750000000000000        0.0000000000000000     
   3.1250000000000000E-002  0.93750000000000000        0.0000000000000000     
   6.2500000000000000E-002  0.93750000000000000        0.0000000000000000     
   9.3750000000000000E-002  0.93750000000000000        0.0000000000000000     
  0.12500000000000000       0.93750000000000000        0.0000000000000000     
   0.0000000000000000       0.96875000000000000        0.0000000000000000     
   3.1250000000000000E-002  0.96875000000000000        0.0000000000000000     
   6.2500000000000000E-002  0.96875000000000000        0.0000000000000000     
   9.3750000000000000E-002  0.96875000000000000        0.0000000000000000     
  0.12500000000000000       0.96875000000000000        0.0000000000000000     
   0.0000000000000000        1.0000000000000000        0.0000000000000000     
   3.1250000000000000E-002   1.0000000000000000        0.0000000000000000     
   6.2500000000000000E-002   1.0000000000000000        0.0000000000000000     
   9.3750000000000000E-002   1.0000000000000000        0.0000000000000000     
  0.12500000000000000        1.0000000000000000        0.0000000000000000     
  0.12500000000000000       0.87500000000000000        0.0000000000000000     
  0.15625000000000000       0.87500000000000000        0.0000000000000000     
  0.18750000000000000       0.87500000000000000        0.0000000000000000     
  0.21875000000000000       0.87500000000000000        0.0000000000000000     
  0.25000000000000000       0.87500000000000000        0.0000000000000000     
  0.12500000000000000       0.90625000000000000        0.0000000000000000     
  0.15625000000000000       0.90625000000000000        0.0000000000000000     
  0.18750000000000000       0.90625000000000000        0.0000000000000000     
  0.21875000000000000       0.90625000000000000        0.0000000000000000     
  0.25000000000000000       0.90625000000000000        0.0000000000000000     
  0.12500000000000000       0.93750000000000000        0.0000000000000000     
  0.15625000000000000       0.93750000000000000        0.0000000000000000     
  0.18750000000000000       0.93750000000000000        0.0000000000000000     
  0.21875000000000000       0.93750000000000000        0.0000000000000000     
  0.25000000000000000       0.93750000000000000        0.0000000000000000     
  0.12500000000000000       0.96875000000000000        0.0000000000000000     
  0.15625000000000000       0.96875000000000000        0.0000000000000000     
  0.18750000000000000       0.96875000000000000        0.0000000000000000     
  0.21875000000000000       0.96875000000000000        0.0000000000000000     
  0.25000000000000000       0.96875000000000000        0.0000000000000000     
  0.12500000000000000        1.0000000000000000        0.0000000000000000     
  0.15625000000000000        1.0000000000000000        0.0000000000000000     
  0.18750000000000000        1.0000000000000000        0.0000000000000000     
  0.21875000000000000        1.0000000000000000        0.0000000000000000     
  0.25000000000000000        1.0000000000000000        0.0000000000000000     
  0.25000000000000000       0.87500000000000000        0.0000000000000000     
  0.28125000000000000       0.87500000000000000        0.0000000000000000     
  0.31250000000000000       0.87500000000000000        0.0000000000000000     
  0.34375000000000000       0.87500000000000000        0.0000000000000000     
  0.37500000000000000       0.87500000000000000        0.0000000000000000     
  0.25000000000000000       0.90625000000000000        0.0000000000000000     
  0.28125000000000000       0.90625000000000000        0.0000000000000000     
  0.31250000000000000       0.90625000000000000        0.0000000000000000     
  0.34375000000000000       0.90625000000000000        0.0000000000000000     
  0.37500000000000000       0.90625000000000000        0.0000000000000000     
  0.25000000000000000       0.93750000000000000        0.0000000000000000     
  0.28125000000000000       0.93750000000000000        0.0000000000000000     
  0.31250000000000000       0.93750000000000000        0.0000000000000000     
  0.34375000000000000       0.93750000000000000        0.0000000000000000     
  0.37500000000000000       0.93750000000000000        0.0000000000000000     
  0.25000000000000000       0.96875000000000000        0.0000000000000000     
  0.28125000000000000       0.96875000000000000        0.0000000000000000     
  0.31250000000000000       0.96875000000000000        0.0000000000000000     
  0.34375000000000000       0.96875000000000000        0.0000000000000000     
  0.37500000000000000       0.96875000000000000        0.0000000000000000     
  0.25000000000000000        1.0000000000000000        0.0000000000000000     
  0.28125000000000000        1.0000000000000000        0.0000000000000000     
  0.31250000000000000        1.0000000000000000        0.0000000000000000     
  0.34375000000000000        1.0000000000000000        0.0000000000000000     
  0.37500000000000000        1.0000000000000000        0.0000000000000000     
  0.37500000000000000       0.87500000000000000        0.0000000000000000     
  0.40625000000000000       0.87500000000000000        0.0000000000000000     
  0.43750000000000000       0.87500000000000000        0.0000000000000000     
  0.46875000000000000       0.87500000000000000        0.0000000000000000     
  0.50000000000000000       0.87500000000000000        0.0000000000000000     
  0.37500000000000000       0.90625000000000000        0.0000000000000000     
  0.40625000000000000       0.90625000000000000        0.0000000000000000     
  0.43750000000000000       0.90625000000000000        0.0000000000000000     
  0.46875000000000000       0.90625000000000000        0.0000000000000000     
  0.50000000000000000       0.90625000000000000        0.0000000000000000     
  0.37500000000000000       0.93750000000000000        0.0000000000000000     
  0.40625000000000000       0.93750000000000000        0.0000000000000000     
  0.43750000000000000       0.93750000000000000        0.0000000000000000     
  0.46875000000000000       0.93750000000000000        0.0000000000000000     
  0.50000000000000000       0.93750000000000000        0.0000000000000000     
  0.37500000000000000       0.96875000000000000        0.0000000000000000     
  0.40625000000000000       0.96875000000000000        0.0000000000000000     
  0.43750000000000000       0.96875000000000000        0.0000000000000000     
  0.46875000000000000       0.96875000000000000        0.0000000000000000     
  0.50000000000000000       0.96875000000000000        0.0000000000000000     
  0.37500000000000000        1.0000000000000000        0.0000000000000000     
  0.40625000000000000        1.0000000000000000        0.0000000000000000     
  0.43750000000000000        1.0000000000000000        0.0000000000000000     
  0.46875000000000000        1.0000000000000000        0.0000000000000000     
  0.50000000000000000        1.0000000000000000        0.0000000000000000     
  0.50000000000000000       0.87500000000000000        0.0000000000000000     
  0.53125000000000000       0.87500000000000000        0.0000000000000000     
  0.56250000000000000       0.87500000000000000        0.0000000000000000     
  0.59375000000000000       0.87500000000000000        0.0000000000000000     
  0.62500000000000000       0.87500000000000000        0.0000000000000000     
  0.50000000000000000       0.90625000000000000        0.0000000000000000     
  0.53125000000000000       0.90625000000000000        0.0000000000000000     
  0.56250000000000000       0.90625000000000000        0.0000000000000000     
  0.59375000000000000       0.90625000000000000        0.0000000000000000     
  0.62500000000000000       0.90625000000000000        0.0000000000000000     
  0.50000000000000000       0.93750000000000000        0.0000000000000000     
  0.53125000000000000       0.93750000000000000        0.0000000000000000     
  0.56250000000000000       0.93750000000000000        0.0000000000000000     
  0.59375000000000000       0.93750000000000000        0.0000000000000000     
  0.62500000000000000       0.93750000000000000        0.0000000000000000     
  0.50000000000000000       0.96875000000000000        0.0000000000000000     
  0.53125000000000000       0.96875000000000000        0.0000000000000000     
  0.56250000000000000       0.96875000000000000        0.0000000000000000     
  0.59375000000000000       0.96875000000000000        0.0000000000000000     
  0.62500000000000000       0.96875000000000000        0.0000000000000000     
  0.50000000000000000        1.0000000000000000        0.0000000000000000     
  0.53125000000000000        1.0000000000000000        0.0000000000000000     
  0.56250000000000000        1.0000000000000000        0.0000000000000000     
  0.59375000000000000        1.0000000000000000        0.0000000000000000     
  0.62500000000000000        1.0000000000000000        0.0000000000000000     
  0.62500000000000000       0.87500000000000000        0.0000000000000000     
  0.65625000000000000       0.87500000000000000        0.0000000000000000     
  0.68750000000000000       0.87500000000000000        0.0000000000000000     
  0.71875000000000000       0.87500000000000000        0.0000000000000000     
  0.75000000000000000       0.87500000000000000        0.0000000000000000     
  0.62500000000000000       0.90625000000000000        0.0000000000000000     
  0.65625000000000000       0.90625000000000000        0.0000000000000000     
  0.68750000000000000       0.90625000000000000        0.0000000000000000     
  0.71875000000000000       0.90625000000000000        0.0000000000000000     
  0.75000000000000000       0.90625000000000000        0.0000000000000000     
  0.62500000000000000       0.93750000000000000        0.0000000000000000     
  0.65625000000000000       0.93750000000000000        0.0000000000000000     
  0.68750000000000000       0.93750000000000000        0.0000000000000000     
  0.71875000000000000       0.93750000000000000        0.0000000000000000     
  0.75000000000000000       0.93750000000000000        0.0000000000000000     
  0.62500000000000000       0.96875000000000000        0.0000000000000000     
  0.65625000000000000       0.96875000000000000        0.0000000000000000     
  0.68750000000000000       0.96875000000000000        0.0000000000000000     
  0.71875000000000000       0.96875000000000000        0.0000000000000000     
  0.75000000000000000       0.96875000000000000        0.0000000000000000     
  0.62500000000000000        1.0000000000000000        0.0000000000000000     
  0.65625000000000000        1.0000000000000000        0.0000000000000000     
  0.68750000000000000        1.0000000000000000        0.0000000000000000     
  0.71875000000000000        1.0000000000000000        0.0000000000000000     
  0.75000000000000000        1.0000000000000000        0.0000000000000000     
  0.75000000000000000       0.87500000000000000        0.0000000000000000     
  0.78125000000000000       0.87500000000000000        0.0000000000000000     
  0.81250000000000000       0.87500000000000000        0.0000000000000000     
  0.84375000000000000       0.87500000000000000        0.0000000000000000     
  0.87500000000000000       0.87500000000000000        0.0000000000000000     
  0.75000000000000000       0.90625000000000000        0.0000000000000000     
  0.78125000000000000       0.90625000000000000        0.0000000000000000     
  0.81250000000000000       0.90625000000000000        0.0000000000000000     
  0.84375000000000000       0.90625000000000000        0.0000000000000000     
  0.87500000000000000       0.90625000000000000        0.0000000000000000     
  0.75000000000000000       0.93750000000000000        0.0000000000000000     
  0.78125000000000000       0.93750000000000000        0.0000000000000000     
  0.81250000000000000       0.93750000000000000        0.0000000000000000     
  0.84375000000000000       0.93750000000000000        0.0000000000000000     
  0.87500000000000000       0.93750000000000000        0.0000000000000000     
  0.75000000000000000       0.96875000000000000        0.0000000000000000     
  0.78125000000000000       0.96875000000000000        0.0000000000000000     
  0.81250000000000000       0.96875000000000000        0.0000000000000000     
  0.84375000000000000       0.96875000000000000        0.0000000000000000     
  0.87500000000000000       0.96875000000000000        0.0000000000000000     
  0.75000000000000000        1.0000000000000000        0.0000000000000000     
  0.78125000000000000        1.0000000000000000        0.0000000000000000     
  0.81250000000000000        1.0000000000000000        0.0000000000000000     
  0.84375000000000000        1.0000000000000000        0.0000000000000000     
  0.87500000000000000        1.0000000000000000        0.0000000000000000     
  0.87500000000000000       0.87500000000000000        0.0000000000000000     
  0.90625000000000000       0.87500000000000000        0.0000000000000000     
  0.93750000000000000       0.87500000000000000        0.0000000000000000     
  0.96875000000000000       0.87500000000000000        0.0000000000000000     
   1.0000000000000000       0.87500000000000000        0.0000000000000000     
  0.87500000000000000       0.90625000000000000        0.0000000000000000     
  0.90625000000000000       0.90625000000000000        0.0000000000000000     
  0.93750000000000000       0.90625000000000000        0.0000000000000000     
  0.96875000000000000       0.90625000000000000        0.0000000000000000     
   1.0000000000000000       0.90625000000000000        0.0000000000000000     
  0.87500000000000000       0.93750000000000000        0.0000000000000000     
  0.90625000000000000       0.93750000000000000        0.0000000000000000     
  0.93750000000000000       0.93750000000000000        0.0000000000000000     
  0.96875000000000000       0.93750000000000000        0.0000000000000000     
   1.0000000000000000       0.93750000000000000        0.0000000000000000     
  0.87500000000000000       0.96875000000000000        0.0000000000000000     
  0.90625000000000000       0.96875000000000000        0.0000000000000000     
  0.93750000000000000       0.96875000000000000        0.0000000000000000     
  0.96875000000000000       0.96875000000000000        0.0000000000000000     
   1.0000000000000000       0.96875000000000000        0.0000000000000000     
  0.87500000000000000        1.0000000000000000        0.0000000000000000     
  0.90625000000000000        1.0000000000000000        0.0000000000000000     
  0.93750000000000000        1.0000000000000000        0.0000000000000000     
  0.96875000000000000        1.0000000000000000        0.0000000000000000     
   1.0000000000000000        1.0000000000000000        0.0000000000000000     
 </DataArray>
 </Points>
 <Cells>
 <DataArray  type="Int32"  Name="connectivity"  format="ascii">
           0           1           6           5
           1           2           7           6
           2           3           8           7
           3           4           9           8
           5           6          11          10
           6           7          12          11
           7           8          13          12
           8           9          14          13
          10          11          16          15
          11          12          17          16
          12          13          18          17
          13          14          19          18
          15          16          21          20
          16          17          22          21
          17          18          23          22
          18          19          24          23
          25          26          31          30
          26          27          32          31
          27          28          33          32
          28          29          34          33
          30          31          36          35
          31          32          37          36
          32          33          38          37
          33          34          39          38
          35          36          41          40
          36          37          42          41
          37          38          43          42
          38          39          44          43
          40          41          46          45
          41          42          47          46
          42          43          48          47
          43          44          49          48
          50          51          56          55
          51          52          57          56
          52          53          58          57
          53          54          59          58
          55          56          61          60
          56          57          62          61
          57          58          63          62
          58          59          64          63
          60          61          66          65
          61          62          67          66
          62          63          68          67
          63          64          69          68
          65          66          71          70
          66          67          72          71
          67          68          73          72
          68          69          74          73
          75          76          81          80
          76          77          82          81
          77          78          83          82
          78          79          84          83
          80          81          86          85
          81          82          87          86
          82          83          88          87
          83          84          89          88
          85          86          91          90
          86          87          92          91
          87          88          93          92
          88          89          94          93
          90          91          96          95
          91          92          97          96
          92          93          98          97
          93          94          99          98
         100         101         106         105
         101         102         107         106
         102         103         108         107
         103         104         109         108
         105         106         111         110
         106         107         112         111
         107         108         113         112
         108         109         114         113
         110         111         116         115
         111         112         117         116
         112         113         118         117
         113         114         119         118
         115         116         121         120
         116         117         122         121
         117         118         123         122
         118         119         124         123
         125         126         131         130
         126         127         132         131
         127         128         133         132
         128         129         134         133
         130         131         136         135
         131         132         137         136
         132         133         138         137
         133         134         139         138
         135         136         141         140
         136         137         142         141
         137         138         143         142
         138         139         144         143
         140         141         146         145
         141         142         147         146
         142         143         148         147
         143         144         149         148
         150         151         156         155
         151         152         157         156
         152         153         158         157
         153         154         159         158
         155         156         161         160
         156         157         162         161
         157         158         163         162
         158         159         164         163
         160         161         166         165
         161         162         167         166
         162         163         168         167
         163         164         169         168
         165         166         171         170
         166         167         172         171
         167         168         173         172
         168         169         174         173
         175         176         181         180
         176         177         182         181
         177         178         183         182
         178         179         184         183
         180         181         186         185
         181         182         187         186
         182         183         188         187
         183         184         189         188
         185         186         191         190
         186         187         192         191
         187         188         193         192
         188         189         194         193
         190         191         196         195
         191         192         197         196
         192         193         198         197
         193         194         199         198
         200         201         206         205
         201         202         207         206
         202         203         208         207
         203         204         209         208
         205         206         211         210
         206         207         212         211
         207         208         213         212
         208         209         214         213
         210         211         216         215
         211         212         217         216
         212         213         218         217
         213         214         219         218
         215         216         221         220
         216         217         222         221
         217         218         223         222
         218         219         224         223
         225         226         231         230
         226         227         232         231
         227         228         233         232
         228         229         234         233
         230         231         236         235
         231         232         237         236
         232         233         238         237
         233         234         239         238
         235         236         241         240
         236         237         242         241
         237         238         243         242
         238         239         244         243
         240         241         246         245
         241         242         247         246
         242         243         248         247
         243         244         249         248
         250         251         256         255
         251         252         257         256
         252         253         258         257
         253         254         259         258
         255         256         261         260
         256         257         262         261
         257         258         263         262
         258         259         264         263
         260         261         266         265
         261         262         267         266
         262         263         268         267
         263         264         269         268
         265         266         271         270
         266         267         272         271
         267         268         273         272
         268         269         274         273
         275         276         281         280
         276         277         282         281
         277         278         283         282
         278         279         284         283
         280         281         286         285
         281         282         287         286
         282         283         288         287
         283         284         289         288
         285         286         291         290
         286         287         292         291
         287         288         293         292
         288         289         294         293
         290         291         296         295
         291         292         297         296
         292         293         298         297
         293         294         299         298
         300         301         306         305
         301         302         307         306
         302         303         308         307
         303         304         309         308
         305         306         311         310
         306         307         312         311
         307         308         313         312
         308         309         314         313
         310         311         316         315
         311         312         317         316
         312         313         318         317
         313         314         319         318
         315         316         321         320
         316         317         322         321
         317         318         323         322
         318         319         324         323
         325         326         331         330
         326         327         332         331
         327         328         333         332
         328         329         334         333
         330         331         336         335
         331         332         337         336
         332         333         338         337
         333         334         339         338
         335         336         341         340
         336         337         342         341
         337         338         343         342
         338         339         344         343
         340         341         346         345
         341         342         347         346
         342         343         348         347
         343         344         349         348
         350         351         356         355
         351         352         357         356
         352         353         358         357
         353         354         359         358
         355         356         361         360
         356         357         362         361
         357         358         363         362
         358         359         364         363
         360         361         366         365
         361         362         367         366
         362         363         368         367
         363         364         369         368
         365         366         371         370
         366         367         372         371
         367         368         373         372
         368         369         374         373
         375         376         381         380
         376         377         382         381
         377         378         383         382
         378         379         384         383
         380         381         386         385
         381         382         387         386
         382         383         388         387
         383         384         389         388
         385         386         391         390
         386         387         392         391
         387         388         393         392
         388         389         394         393
         390         391         396         395
         391         392         397         396
         392         393         398         397
         393         394         399         398
         400         401         406         405
         401         402         407         406
         402         403         408         407
         403         404         409         408
         405         406         411         410
         406         407         412         411
         407         408         413         412
         408         409         414         413
         410         411         416         415
         411         412         417         416
         412         413         418         417
         413         414         419         418
         415         416         421         420
         416         417         422         421
         417         418         423         422
         418         419         424         423
         425         426         431         430
         426         427         432         431
         427         428         433         432
         428         429         434         433
         430         431         436         435
         431         432         437         436
         432         433         438         437
         433         434         439         438
         435         436         441         440
         436         437         442         441
         437         438         443         442
         438         439         444         443
         440         441         446         445
         441         442         447         446
         442         443         448         447
         443         444         449         448
         450         451         456         455
         451         452         457         456
         452         453         458         457
         453         454         459         458
         455         456         461         460
         456         457         462         461
         457         458         463         462
         458         459         464         463
         460         461         466         465
         461         462         467         466
         462         463         468         467
         463         464         469         468
         465         466         471         470
         466         467         472         471
         467         468         473         472
         468         469         474         473
         475         476         481         480
         476         477         482         481
         477         478         483         482
         478         479         484         483
         480         481         486         485
         481         482         487         486
         482         483         488         487
         483         484         489         488
         485         486         491         490
         486         487         492         491
         487         488         493         492
         488         489         494         493
         490         491         496         495
         491         492         497         496
         492         493         498         497
         493         494         499         498
         500         501         506         505
         501         502         507         506
         502         503         508         507
         503         504         509         508
         505         506         511         510
         506         507         512         511
         507         508         513         512
         508         509         514         513
         510         511         516         515
         511         512         517         516
         512         513         518         517
         513         514         519         518
         515         516         521         520
         516         517         522         521
         517         518         523         522
         518         519         524         523
         525         526         531         530
         526         527         532         531
         527         528         533         532
         528         529         534         533
         530         531         536         535
         531         532         537         536
         532         533         538         537
         533         534         539         538
         535         536         541         540
         536         537         542         541
         537         538         543         542
         538         539         544         543
         540         541         546         545
         541         542         547         546
         542         543         548         547
         543         544         549         548
         550         551         556         555
         551         552         557         556
         552         553         558         557
         553         554         559         558
         555         556         561         560
         556         557         562         561
         557         558         563         562
         558         559         564         563
         560         561         566         565
         561         562         567         566
         562         563         568         567
         563         564         569         568
         565         566         571         570
         566         567         572         571
         567         568         573         572
         568         569         574         573
         575         576         581         580
         576         577         582         581
         577         578         583         582
         578         579         584         583
         580         581         586         585
         581         582         587         586
         582         583         588         587
         583         584         589         588
         585         586         591         590
         586         587         592         591
         587         588         593         592
         588         589         594         593
         590         591         596         595
         591         592         597         596
         592         593         598         597
         593         594         599         598
         600         601         606         605
         601         602         607         606
         602         603         608         607
         603         604         609         608
         605         606         611         610
         606         607         612         611
         607         608         613         612
         608         609         614         613
         610         611         616         615
         611         612         617         616
         612         613         618         617
         613         614         619         618
         615         616         621         620
         616         617         622         621
         617         618         623         622
         618         619         624         623
         625         626         631         630
         626         627         632         631
         627         628         633         632
         628         629         634         633
         630         631         636         635
         631         632         637         636
         632         633         638         637
         633         634         639         638
         635         636         641         640
         636         637         642         641
         637         638         643         642
         638         639         644         643
         640         641         646         645
         641         642         647         646
         642         643         648         647
         643         644         649         648
         650         651         656         655
         651         652         657         656
         652         653         658         657
         653         654         659         658
         655         656         661         660
         656         657         662         661
         657         658         663         662
         658         659         664         663
         660         661         666         665
         661         662         667         666
         662         663         668         667
         663         664         669         668
         665         666         671         670
         666         667         672         671
         667         668         673         672
         668         669         674         673
         675         676         681         680
         676         677         682         681
         677         678         683         682
         678         679         684         683
         680         681         686         685
         681         682         687         686
         682         683         688         687
         683         684         689         688
         685         686         691         690
         686         687         692         691
         687         688         693         692
         688         689         694         693
         690         691         696         695
         691         692         697         696
         692         693         698         697
         693         694         699         698
         700         701         706         705
         701         702         707         706
         702         703         708         707
         703         704         709         708
         705         706         711         710
         706         707         712         711
         707         708         713         712
         708         709         714         713
         710         711         716         715
         711         712         717         716
         712         713         718         717
         713         714         719         718
         715         716         721         720
         716         717         722         721
         717         718         723         722
         718         719         724         723
         725         726         731         730
         726         727         732         731
         727         728         733         732
         728         729         734         733
         730         731         736         735
         731         732         737         736
         732         733         738         737
         733         734         739         738
         735         736         741         740
         736         737         742         741
         737         738         743         742
         738         739         744         743
         740         741         746         745
         741         742         747         746
         742         743         748         747
         743         744         749         748
         750         751         756         755
         751         752         757         756
         752         753         758         757
         753         754         759         758
         755         756         761         760
         756         757         762         761
         757         758         763         762
         758         759         764         763
         760         761         766         765
         761         762         767         766
         762         763         768         767
         763         764         769         768
         765         766         771         770
         766         767         772         771
         767         768         773         772
         768         769         774         773
         775         776         781         780
         776         777         782         781
         777         778         783         782
         778         779         784         783
         780         781         786         785
         781         782         787         786
         782         783         788         787
         783         784         789         788
         785         786         791         790
         786         787         792         791
         787         788         793         792
         788         789         794         793
         790         791         796         795
         791         792         797         796
         792         793         798         797
         793         794         799         798
         800         801         806         805
         801         802         807         806
         802         803         808         807
         803         804         809         808
         805         806         811         810
         806         807         812         811
         807         808         813         812
         808         809         814         813
         810         811         816         815
         811         812         817         816
         812         813         818         817
         813         814         819         818
         815         816         821         820
         816         817         822         821
         817         818         823         822
         818         819         824         823
         825         826         831         830
         826         827         832         831
         827         828         833         832
         828         829         834         833
         830         831         836         835
         831         832         837         836
         832         833         838         837
         833         834         839         838
         835         836         841         840
         836         837         842         841
         837         838         843         842
         838         839         844         843
         840         841         846         845
         841         842         847         846
         842         843         848         847
         843         844         849         848
         850         851         856         855
         851         852         857         856
         852         853         858         857
         853         854         859         858
         855         856         861         860
         856         857         862         861
         857         858         863         862
         858         859         864         863
         860         861         866         865
         861         862         867         866
         862         863         868         867
         863         864         869         868
         865         866         871         870
         866         867         872         871
         867         868         873         872
         868         869         874         873
         875         876         881         880
         876         877         882         881
         877         878         883         882
         878         879         884         883
         880         881         886         885
         881         882         887         886
         882         883         888         887
         883         884         889         888
         885         886         891         890
         886         887         892         891
         887         888         893         892
         888         889         894         893
         890         891         896         895
         891         892         897         896
         892         893         898         897
         893         894         899         898
         900         901         906         905
         901         902         907         906
         902         903         908         907
         903         904         909         908
         905         906         911         910
         906         907         912         911
         907         908         913         912
         908         909         914         913
         910         911         916         915
         911         912         917         916
         912         913         918         917
         913         914         919         918
         915         916         921         920
         916         917         922         921
         917         918         923         922
         918         919         924         923
         925         926         931         930
         926         927         932         931
         927         928         933         932
         928         929         934         933
         930         931         936         935
         931         932         937         936
         932         933         938         937
         933         934         939         938
         935         936         941         940
         936         937         942         941
         937         938         943         942
         938         939         944         943
         940         941         946         945
         941         942         947         946
         942         943         948         947
         943         944         949         948
         950         951         956         955
         951         952         957         956
         952         953         958         957
         953         954         959         958
         955         956         961         960
         956         957         962         961
         957         958         963         962
         958         959         964         963
         960         961         966         965
         961         962         967         966
         962         963         968         967
         963         964         969         968
         965         966         971         970
         966         967         972         971
         967         968         973         972
         968         969         974         973
         975         976         981         980
         976         977         982         981
         977         978         983         982
         978         979         984         983
         980         981         986         985
         981         982         987         986
         982         983         988         987
         983         984         989         988
         985         986         991         990
         986         987         992         991
         987         988         993         992
         988         989         994         993
         990         991         996         995
         991         992         997         996
         992         993         998         997
         993         994         999         998
        1000        1001        1006        1005
        1001        1002        1007        1006
        1002        1003        1008        1007
        1003        1004        1009        1008
        1005        1006        1011        1010
        1006        1007        1012        1011
        1007        1008        1013        1012
        1008        1009        1014        1013
        1010        1011        1016        1015
        1011        1012        1017        1016
        1012        1013        1018        1017
        1013        1014        1019        1018
        1015        1016        1021        1020
        1016        1017        1022        1021
        1017        1018        1023        1022
        1018        1019        1024        1023
        1025        1026        1031        1030
        1026        1027        1032        1031
        1027        1028        1033        1032
        1028        1029        1034        1033
        1030        1031        1036        1035
        1031        1032        1037        1036
        1032        1033        1038        1037
        1033        1034        1039        1038
        1035        1036        1041        1040
        1036        1037        1042        1041
        1037        1038        1043        1042
        1038        1039        1044        1043
        1040        1041        1046        1045
        1041        1042        1047        1046
        1042        1043        1048        1047
        1043        1044        1049        1048
        1050        1051        1056        1055
        1051        1052        1057        1056
        1052        1053        1058        1057
        1053        1054        1059        1058
        1055        1056        1061        1060
        1056        1057        1062        1061
        1057        1058        1063        1062
        1058        1059        1064        1063
        1060        1061        1066        1065
        1061        1062        1067        1066
        1062        1063        1068        1067
        1063        1064        1069        1068
        1065        1066        1071        1070
        1066        1067        1072        1071
        1067        1068        1073        1072
        1068        1069        1074        1073
        1075        1076        1081        1080
        1076        1077        1082        1081
        1077        1078        1083        1082
        1078        1079        1084        1083
        1080        1081        1086        1085
        1081        1082        1087        1086
        1082        1083        1088        1087
        1083        1084        1089        1088
        1085        1086        1091        1090
        1086        1087        1092        1091
        1087        1088        1093        1092
        1088        1089        1094        1093
        1090        1091        1096        1095
        1091        1092        1097        1096
        1092        1093        1098        1097
        1093        1094        1099        1098
        1100        1101        1106        1105
        1101        1102        1107        1106
        1102        1103        1108        1107
        1103        1104        1109        1108
        1105        1106        1111        1110
        1106        1107        1112        1111
        1107        1108        1113        1112
        1108        1109        1114        1113
        1110        1111        1116        1115
        1111        1112        1117        1116
        1112        1113        1118        1117
        1113        1114        1119        1118
        1115        1116        1121        1120
        1116        1117        1122        1121
        1117        1118        1123        1122
        1118        1119        1124        1123
        1125        1126        1131        1130
        1126        1127        1132        1131
        1127        1128        1133        1132
        1128        1129        1134        1133
        1130        1131        1136        1135
        1131        1132        1137        1136
        1132        1133        1138        1137
        1133        1134        1139        1138
        1135        1136        1141        1140
        1136        1137        1142        1141
        1137        1138        1143        1142
        1138        1139        1144        1143
        1140        1141        1146        1145
        1141        1142        1147        1146
        1142        1143        1148        1147
        1143        1144        1149        1148
        1150        1151        1156        1155
        1151        1152        1157        1156
        1152        1153        1158        1157
        1153        1154        1159        1158
        1155        1156        1161        1160
        1156        1157        1162        1161
        1157        1158        1163        1162
        1158        1159        1164        1163
        1160        1161        1166        1165
        1161        1162        1167        1166
        1162        1163        1168        1167
        1163        1164        1169        1168
        1165        1166        1171        1170
        1166        1167        1172        1171
        1167        1168        1173        1172
        1168        1169        1174        1173
        1175        1176        1181        1180
        1176        1177        1182        1181
        1177        1178        1183        1182
        1178        1179        1184        1183
        1180        1181        1186        1185
        1181        1182        1187        1186
        1182        1183        1188        1187
        1183        1184        1189        1188
        1185        1186        1191        1190
        1186        1187        1192        1191
        1187        1188        1193        1192
        1188        1189        1194        1193
        1190        1191        1196        1195
        1191        1192        1197        1196
        1192        1193        1198        1197
        1193        1194        1199        1198
        1200        1201        1206        1205
        1201        1202        1207        1206
        1202        1203        1208        1207
        1203        1204        1209        1208
        1205        1206        1211        1210
        1206        1207        1212        1211
        1207        1208        1213        1212
        1208        1209        1214        1213
        1210        1211        1216        1215
        1211        1212        1217        1216
        1212        1213        1218        1217
        1213        1214        1219        1218
        1215        1216        1221        1220
        1216        1217        1222        1221
        1217        1218        1223        1222
        1218        1219        1224        1223
        1225        1226        1231        1230
        1226        1227        1232        1231
        1227        1228        1233        1232
        1228        1229        1234        1233
        1230        1231        1236        1235
        1231        1232        1237        1236
        1232        1233        1238        1237
        1233        1234        1239        1238
        1235        1236        1241        1240
        1236        1237        1242        1241
        1237        1238        1243        1242
        1238        1239        1244        1243
        1240        1241        1246        1245
        1241        1242        1247        1246
        1242        1243        1248        1247
        1243        1244        1249        1248
        1250        1251        1256        1255
        1251        1252        1257        1256
        1252        1253        1258        1257
        1253        1254        1259        1258
        1255        1256        1261        1260
        1256        1257        1262        1261
        1257        1258        1263        1262
        1258        1259        1264        1263
        1260        1261        1266        1265
        1261        1262        1267        1266
        1262        1263        1268        1267
        1263        1264        1269        1268
        1265        1266        1271        1270
        1266        1267        1272        1271
        1267        1268        1273        1272
        1268        1269        1274        1273
        1275        1276        1281        1280
        1276        1277        1282        1281
        1277        1278        1283        1282
        1278        1279        1284        1283
        1280        1281        1286        1285
        1281        1282        1287        1286
        1282        1283        1288        1287
        1283        1284        1289        1288
        1285        1286        1291        1290
        1286        1287        1292        1291
        1287        1288        1293        1292
        1288        1289        1294        1293
        1290        1291        1296        1295
        1291        1292        1297        1296
        1292        1293        1298        1297
        1293        1294        1299        1298
        1300        1301        1306        1305
        1301        1302        1307        1306
        1302        1303        1308        1307
        1303        1304        1309        1308
        1305        1306        1311        1310
        1306        1307        1312        1311
        1307        1308        1313        1312
        1308        1309        1314        1313
        1310        1311        1316        1315
        1311        1312        1317        1316
        1312        1313        1318        1317
        1313        1314        1319        1318
        1315        1316        1321        1320
        1316        1317        1322        1321
        1317        1318        1323        1322
        1318        1319        1324        1323
        1325        1326        1331        1330
        1326        1327        1332        1331
        1327        1328        1333        1332
        1328        1329        1334        1333
        1330        1331        1336        1335
        1331        1332        1337        1336
        1332        1333        1338        1337
        1333        1334        1339        1338
        1335        1336        1341        1340
        1336        1337        1342        1341
        1337        1338        1343        1342
        1338        1339        1344        1343
        1340        1341        1346        1345
        1341        1342        1347        1346
        1342        1343        1348        1347
        1343        1344        1349        1348
        1350        1351        1356        1355
        1351        1352        1357        1356
        1352        1353        1358        1357
        1353        1354        1359        1358
        1355        1356        1361        1360
        1356        1357        1362        1361
        1357        1358        1363        1362
        1358        1359        1364        1363
        1360        1361        1366        1365
        1361        1362        1367        1366
        1362        1363        1368        1367
        1363        1364        1369        1368
        1365        1366        1371        1370
        1366        1367        1372        1371
        1367        1368        1373        1372
        1368        1369        1374        1373
        1375        1376        1381        1380
        1376        1377        1382        1381
        1377        1378        1383        1382
        1378        1379        1384        1383
        1380        1381        1386        1385
        1381        1382        1387        1386
        1382        1383        1388        1387
        1383        1384        1389        1388
        1385        1386        1391        1390
        1386        1387        1392        1391
        1387        1388        1393        1392
        1388        1389        1394        1393
        1390        1391        1396        1395
        1391        1392        1397        1396
        1392        1393        1398        1397
        1393        1394        1399        1398
        1400        1401        1406        1405
        1401        1402        1407        1406
        1402        1403        1408        1407
        1403        1404        1409        1408
        1405        1406        1411        1410
        1406        1407        1412        1411
        1407        1408        1413        1412
        1408        1409        1414        1413
        1410        1411        1416        1415
        1411        1412        1417        1416
        1412        1413        1418        1417
        1413        1414        1419        1418
        1415        1416        1421        1420
        1416        1417        1422        1421
        1417        1418        1423        1422
        1418        1419        1424        1423
        1425        1426        1431        1430
        1426        1427        1432        1431
        1427        1428        1433        1432
        1428        1429        1434        1433
        1430        1431        1436        1435
        1431        1432        1437        1436
        1432        1433        1438        1437
        1433        1434        1439        1438
        1435        1436        1441        1440
        1436        1437        1442        1441
        1437        1438        1443        1442
        1438        1439        1444        1443
        1440        1441        1446        1445
        1441        1442        1447        1446
        1442        1443        1448        1447
        1443        1444        1449        1448
        1450        1451        1456        1455
        1451        1452        1457        1456
        1452        1453        1458        1457
        1453        1454        1459        1458
        1455        1456        1461        1460
        1456        1457        1462        1461
        1457        1458        1463        1462
        1458        1459        1464        1463
        1460        1461        1466        1465
        1461        1462        1467        1466
        1462        1463        1468        1467
        1463        1464        1469        1468
        1465        1466        1471        1470
        1466        1467        1472        1471
        1467        1468        1473        1472
        1468        1469        1474        1473
        1475        1476        1481        1480
        1476        1477        1482        1481
        1477        1478        1483        1482
        1478        1479        1484        1483
        1480        1481        1486        1485
        1481        1482        1487        1486
        1482        1483        1488        1487
        1483        1484        1489        1488
        1485        1486        1491        1490
        1486        1487        1492        1491
        1487        1488        1493        1492
        1488        1489        1494        1493
        1490        1491        1496        1495
        1491        1492        1497        1496
        1492        1493        1498        1497
        1493        1494        1499        1498
        1500        1501        1506        1505
        1501        1502        1507        1506
        1502        1503        1508        1507
        1503        1504        1509        1508
        1505        1506        1511        1510
        1506        1507        1512        1511
        1507        1508        1513        1512
        1508        1509        1514        1513
        1510        1511        1516        1515
        1511        1512        1517        1516
        1512        1513        1518        1517
        1513        1514        1519        1518
        1515        1516        1521        1520
        1516        1517        1522        1521
        1517        1518        1523        1522
        1518        1519        1524        1523
        1525        1526        1531        1530
        1526        1527        1532        1531
        1527        1528        1533        1532
        1528        1529        1534        1533
        1530        1531        1536        1535
        1531        1532        1537        1536
        1532        1533        1538        1537
        1533        1534        1539        1538
        1535        1536        1541        1540
        1536        1537        1542        1541
        1537        1538        1543        1542
        1538        1539        1544        1543
        1540        1541        1546        1545
        1541        1542        1547        1546
        1542        1543        1548        1547
        1543        1544        1549        1548
        1550        1551        1556        1555
        1551        1552        1557        1556
        1552        1553        1558        1557
        1553        1554        1559        1558
        1555        1556        1561        1560
        1556        1557        1562        1561
        1557        1558        1563        1562
        1558        1559        1564        1563
        1560        1561        1566        1565
        1561        1562        1567        1566
        1562        1563        1568        1567
        1563        1564        1569        1568
        1565        1566        1571        1570
        1566        1567        1572        1571
        1567        1568        1573        1572
        1568        1569        1574        1573
        1575        1576        1581        1580
        1576        1577        1582        1581
        1577        1578        1583        1582
        1578        1579        1584        1583
        1580        1581        1586        1585
        1581        1582        1587        1586
        1582        1583        1588        1587
        1583        1584        1589        1588
        1585        1586        1591        1590
        1586        1587        1592        1591
        1587        1588        1593        1592
        1588        1589        1594        1593
        1590        1591        1596        1595
        1591        1592        1597        1596
        1592        1593        1598        1597
        1593        1594        1599        1598
 </DataArray>
 <DataArray  type="Int32"  Name="offsets"  format="ascii"> 
           4
           8
          12
          16
          20
          24
          28
          32
          36
          40
          44
          48
          52
          56
          60
          64
          68
          72
          76
          80
          84
          88
          92
          96
         100
         104
         108
         112
         116
         120
         124
         128
         132
         136
         140
         144
         148
         152
         156
         160
         164
         168
         172
         176
         180
         184
         188
         192
         196
         200
         204
         208
         212
         216
         220
         224
         228
         232
         236
         240
         244
         248
         252
         256
         260
         264
         268
         272
         276
         280
         284
         288
         292
         296
         300
         304
         308
         312
         316
         320
         324
         328
         332
         336
         340
         344
         348
         352
         356
         360
         364
         368
         372
         376
         380
         384
         388
         392
         396
         400
         404
         408
         412
         416
         420
         424
         428
         432
         436
         440
         444
         448
         452
         456
         460
         464
         468
         472
         476
         480
         484
         488
         492
         496
         500
         504
         508
         512
         516
         520
         524
         528
         532
         536
         540
         544
         548
         552
         556
         560
         564
         568
         572
         576
         580
         584
         588
         592
         596
         600
         604
         608
         612
         616
         620
         624
         628
         632
         636
         640
         644
         648
         652
         656
         660
         664
         668
         672
         676
         680
         684
         688
         692
         696
         700
         704
         708
         712
         716
         720
         724
         728
         732
         736
         740
         744
         748
         752
         756
         760
         764
         768
         772
         776
         780
         784
         788
         792
         796
         800
         804
         808
         812
         816
         820
         824
         828
         832
         836
         840
         844
         848
         852
         856
         860
         864
         868
         872
         876
         880
         884
         888
         892
         896
         900
         904
         908
         912
         916
         920
         924
         928
         932
         936
         940
         944
         948
         952
         956
         960
         964
         968
         972
         976
         980
         984
         988
         992
         996
        1000
        1004
        1008
        1012
        1016
        1020
        1024
        1028
        1032
        1036
        1040
        1044
        1048
        1052
        1056
        1060
        1064
        1068
        1072
        1076
        1080
        1084
        1088
        1092
        1096
        1100
        1104
        1108
        1112
        1116
        1120
        1124
        1128
        1132
        1136
        1140
        1144
        1148
        1152
        1156
        1160
        1164
        1168
        1172
        1176
        1180
        1184
        1188
        1192
        1196
        1200
        1204
        1208
        1212
        1216
        1220
        1224
        1228
        1232
        1236
        1240
        1244
        1248
        1252
        1256
        1260
        1264
        1268
        1272
        1276
        1280
        1284
        1288
        1292
        1296
        1300
        1304
        1308
        1312
        1316
        1320
        1324
        1328
        1332
        1336
        1340
        1344
        1348
        1352
        1356
        1360
        1364
        1368
        1372
        1376
        1380
        1384
        1388
        1392
        1396
        1400
        1404
        1408
        1412
        1416
        1420
        1424
        1428
        1432
        1436
        1440
        1444
        1448
        1452
        1456
        1460
        1464
        1468
        1472
        1476
        1480
        1484
        1488
        1492
        1496
        1500
        1504
        1508
        1512
        1516
        1520
        1524
        1528
        1532
        1536
        1540
        1544
        1548
        1552
        1556
        1560
        1564
        1568
        1572
        1576
        1580
        1584
        1588
        1592
        1596
        1600
        1604
        1608
        1612
        1616
        1620
        1624
        1628
        1632
        1636
        1640
        1644
        1648
        1652
        1656
        1660
        1664
        1668
        1672
        1676
        1680
        1684
        1688
        1692
        1696
        1700
        1704
        1708
        1712
        1716
        1720
        1724
        1728
        1732
        1736
        1740
        1744
        1748
        1752
        1756
        1760
        1764
        1768
        1772
        1776
        1780
        1784
        1788
        1792
        1796
        1800
        1804
        1808
        1812
        1816
        1820
        1824
        1828
        1832
        1836
        1840
        1844
        1848
        1852
        1856
        1860
        1864
        1868
        1872
        1876
        1880
        1884
        1888
        1892
        1896
        1900
        1904
        1908
        1912
        1916
        1920
        1924
        1928
        1932
        1936
        1940
        1944
        1948
        1952
        1956
        1960
        1964
        1968
        1972
        1976
        1980
        1984
        1988
        1992
        1996
        2000
        2004
        2008
        2012
        2016
        2020
        2024
        2028
        2032
        2036
        2040
        2044
        2048
        2052
        2056
        2060
        2064
        2068
        2072
        2076
        2080
        2084
        2088
        2092
        2096
        2100
        2104
        2108
        2112
        2116
        2120
        2124
        2128
        2132
        2136
        2140
        2144
        2148
        2152
        2156
        2160
        2164
        2168
        2172
        2176
        2180
        2184
        2188
        2192
        2196
        2200
        2204
        2208
        2212
        2216
        2220
        2224
        2228
        2232
        2236
        2240
        2244
        2248
        2252
        2256
        2260
        2264
        2268
        2272
        2276
        2280
        2284
        2288
        2292
        2296
        2300
        2304
        2308
        2312
        2316
        2320
        2324
        2328
        2332
        2336
        2340
        2344
        2348
        2352
        2356
        2360
        2364
        2368
        2372
        2376
        2380
        2384
        2388
        2392
        2396
        2400
        2404
        2408
        2412
        2416
        2420
        2424
        2428
        2432
        2436
        2440
        2444
        2448
        2452
        2456
        2460
        2464
        2468
        2472
        2476
        2480
        2484
        2488
        2492
        2496
        2500
        2504
        2508
        2512
        2516
        2520
        2524
        2528
        2532
        2536
        2540
        2544
        2548
        2552
        2556
        2560
        2564
        2568
        2572
        2576
        2580
        2584
        2588
        2592
        2596
        2600
        2604
        2608
        2612
        2616
        2620
        2624
        2628
        2632
        2636
        2640
        2644
        2648
        2652
        2656
        2660
        2664
        2668
        2672
        2676
        2680
        2684
        2688
        2692
        2696
        2700
        2704
        2708
        2712
        2716
        2720
        2724
        2728
        2732
        2736
        2740
        2744
        2748
        2752
        2756
        2760
        2764
        2768
        2772
        2776
        2780
        2784
        2788
        2792
        2796
        2800
        2804
        2808
        2812
        2816
        2820
        2824
        2828
        2832
        2836
        2840
        2844
        2848
        2852
        2856
        2860
        2864
        2868
        2872
        2876
        2880
        2884
        2888
        2892
        2896
        2900
        2904
        2908
        2912
        2916
        2920
        2924
        2928
        2932
        2936
        2940
        2944
        2948
        2952
        2956
        2960
        2964
        2968
        2972
        2976
        2980
        2984
        2988
        2992
        2996
        3000
        3004
        3008
        3012
        3016
        3020
        3024
        3028
        3032
        3036
        3040
        3044
        3048
        3052
        3056
        3060
        3064
        3068
        3072
        3076
        3080
        3084
        3088
        3092
        3096
        3100
        3104
        3108
        3112
        3116
        3120
        3124
        3128
        3132
        3136
        3140
        3144
        3148
        3152
        3156
        3160
        3164
        3168
        3172
        3176
        3180
        3184
        3188
        3192
        3196
        3200
        3204
        3208
        3212
        3216
        3220
        3224
        3228
        3232
        3236
        3240
        3244
        3248
        3252
        3256
        3260
        3264
        3268
        3272
        3276
        3280
        3284
        3288
        3292
        3296
        3300
        3304
        3308
        3312
        3316
        3320
        3324
        3328
        3332
        3336
        3340
        3344
        3348
        3352
        3356
        3360
        3364
        3368
        3372
        3376
        3380
        3384
        3388
        3392
        3396
        3400
        3404
        3408
        3412
        3416
        3420
        3424
        3428
        3432
        3436
        3440
        3444
        3448
        3452
        3456
        3460
        3464
        3468
        3472
        3476
        3480
        3484
        3488
        3492
        3496
        3500
        3504
        3508
        3512
        3516
        3520
        3524
        3528
        3532
        3536
        3540
        3544
        3548
        3552
        3556
        3560
        3564
        3568
        3572
        3576
        3580
        3584
        3588
        3592
        3596
        3600
        3604
        3608
        3612
        3616
        3620
        3624
        3628
        3632
        3636
        3640
        3644
        3648
        3652
        3656
        3660
        3664
        3668
        3672
        3676
        3680
        3684
        3688
        3692
        3696
        3700
        3704
        3708
        3712
        3716
        3720
        3724
        3728
        3732
        3736
        3740
        3744
        3748
        3752
        3756
        3760
        3764
        3768
        3772
        3776
        3780
        3784
        3788
        3792
        3796
        3800
        3804
        3808
        3812
        3816
        3820
        3824
        3828
        3832
        3836
        3840
        3844
        3848
        3852
        3856
        3860
        3864
        3868
        3872
        3876
        3880
        3884
        3888
        3892
        3896
        3900
        3904
        3908
        3912
        3916
        3920
        3924
        3928
        3932
        3936
        3940
        3944
        3948
        3952
        3956
        3960
        3964
        3968
        3972
        3976
        3980
        3984
        3988
        3992
        3996
        4000
        4004
        4008
        4012
        4016
        4020
        4024
        4028
        4032
        4036
        4040
        4044
        4048
        4052
        4056
        4060
        4064
        4068
        4072
        4076
        4080
        4084
        4088
        4092
        4096
 </DataArray>
 <DataArray  type="UInt8"  Name="types"  format="ascii">
 9
 9
 9
 9
 9
 9
 9
 9
 9
 9
 9
 9
 9
 9
 9
 9
 9
 9
 9
 9
 9
 9
 9
 9
 9
 9
 9
 9
 9
 9
 9
 9
 9
 9
 9
 9
 9
 9
 9
 9
 9
 9
 9
 9
 9
 9
 9
 9
 9
 9
 9
 9
 9
 9
 9
 9
 9
 9
 9
 9
 9
 9
 9
 9
 9
 9
 9
 9
 9
 9
 9
 9
 9
 9
 9
 9
 9
 9
 9
 9
 9
 9
 9
 9
 9
 9
 9
 9
 9
 9
 9
 9
 9
 9
 9
 9
 9
 9
 9
 9
 9
 9
 9
 9
 9
 9
 9
 9
 9
 9
 9
 9
 9
 9
 9
 9
 9
 9
 9
 9
 9
 9
 9
 9
 9
 9
 9
 9
 9
 9
 9
 9
 9
 9
 9
 9
 9
 9
 9
 9
 9
 9
 9
 9
 9
 9
 9
 9
 9
 9
 9
 9
 9
 9
 9
 9
 9
 9
 9
 9
 9
 9
 9
 9
 9
 9
 9
 9
 9
 9
 9
 9
 9
 9
 9
 9
 9
 9
 9
 9
 9
 9
 9
 9
 9
 9
 9
 9
 9
 9
 9
 9
 9
 9
 9
 9
 9
 9
 9
 9
 9
 9
 9
 9
 9
 9
 9
 9
 9
 9
 9
 9
 9
 9
 9
 9
 9
 9
 9
 9
 9
 9
 9
 9
 9
 9
 9
 9
 9
 9
 9
 9
 9
 9
 9
 9
 9
 9
 9
 9
 9
 9
 9
 9
 9
 9
 9
 9
 9
 9
 9
 9
 9
 9
 9
 9
 9
 9
 9
 9
 9
 9
 9
 9
 9
 9
 9
 9
 9
 9
 9
 9
 9
 9
 9
 9
 9
 9
 9
 9
 9
 9
 9
 9
 9
 9
 9
 9
 9
 9
 9
 9
 9
 9
 9
 9
 9
 9
 9
 9
 9
 9
 9
 9
 9
 9
 9
 9
 9
 9
 9
 9
 9
 9
 9
 9
 9
 9
 9
 9
 9
 9
 9
 9
 9
 9
 9
 9
 9
 9
 9
 9
 9
 9
 9
 9
 9
 9
 9
 9
 9
 9
 9
 9
 9
 9
 9
 9
 9
 9
 9
 9
 9
 9
 9
 9
 9
 9
 9
 9
 9
 9
 9
 9
 9
 9
 9
 9
 9
 9
 9
 9
 9
 9
 9
 9
 9
 9
 9
 9
 9
 9
 9
 9
 9
 9
 9
 9
 9
 9
 9
 9
 9
 9
 9
 9
 9
 9
 9
 9
 9
 9
 9
 9
 9
 9
 9
 9
 9
 9
 9
 9
 9
 9
 9
 9
 9
 9
 9
 9
 9
 9
 9
 9
 9
 9
 9
 9
 9
 9
 9
 9
 9
 9
 9
 9
 9
 9
 9
 9
 9
 9
 9
 9
 9
 9
 9
 9
 9
 9
 9
 9
 9
 9
 9
 9
 9
 9
 9
 9
 9
 9
 9
 9
 9
 9
 9
 9
 9
 9
 9
 9
 9
 9
 9
 9
 9
 9
 9
 9
 9
 9
 9
 9
 9
 9
 9
 9
 9
 9
 9
 9
 9
 9
 9
 9
 9
 9
 9
 9
 9
 9
 9
 9
 9
 9
 9
 9
 9
 9
 9
 9
 9
 9
 9
 9
 9
 9
 9
 9
 9
 9
 9
 9
 9
 9
 9
 9
 9
 9
 9
 9
 9
 9
 9
 9
 9
 9
 9
 9
 9
 9
 9
 9
 9
 9
 9
 9
 9
 9
 9
 9
 9
 9
 9
 9
 9
 9
 9
 9
 9
 9
 9
 9
 9
 9
 9
 9
 9
 9
 9
 9
 9
 9
 9
 9
 9
 9
 9
 9
 9
 9
 9
 9
 9
 9
 9
 9
 9
 9
 9
 9
 9
 9
 9
 9
 9
 9
 9
 9
 9
 9
 9
 9
 9
 9
 9
 9
 9
 9
 9
 9
 9
 9
 9
 9
 9
 9
 9
 9
 9
 9
 9
 9
 9
 9
 9
 9
 9
 9
 9
 9
 9
 9
 9
 9
 9
 9
 9
 9
 9
 9
 9
 9
 9
 9
 9
 9
 9
 9
 9
 9
 9
 9
 9
 9
 9
 9
 9
 9
 9
 9
 9
 9
 9
 9
 9
 9
 9
 9
 9
 9
 9
 9
 9
 9
 9
 9
 9
 9
 9
 9
 9
 9
 9
 9
 9
 9
 9
 9
 9
 9
 9
 9
 9
 9
 9
 9
 9
 9
 9
 9
 9
 9
 9
 9
 9
 9
 9
 9
 9
 9
 9
 9
 9
 9
 9
 9
 9
 9
 9
 9
 9
 9
 9
 9
 9
 9
 9
 9
 9
 9
 9
 9
 9
 9
 9
 9
 9
 9
 9
 9
 9
 9
 9
 9
 9
 9
 9
 9
 9
 9
 9
 9
 9
 9
 9
 9
 9
 9
 9
 9
 9
 9
 9
 9
 9
 9
 9
 9
 9
 9
 9
 9
 9
 9
 9
 9
 9
 9
 9
 9
 9
 9
 9
 9
 9
 9
 9
 9
 9
 9
 9
 9
 9
 9
 9
 9
 9
 9
 9
 9
 9
 9
 9
 9
 9
 9
 9
 9
 9
 9
 9
 9
 9
 9
 9
 9
 9
 9
 9
 9
 9
 9
 9
 9
 9
 9
 9
 9
 9
 9
 9
 9
 9
 9
 9
 9
 9
 9
 9
 9
 9
 9
 9
 9
 9
 9
 9
 9
 9
 9
 9
 9
 9
 9
 9
 9
 9
 9
 9
 9
 9
 9
 9
 9
 9
 9
 9
 9
 9
 9
 9
 9
 9
 9
 9
 9
 9
 9
 9
 9
 9
 9
 9
 9
 9
 9
 9
 9
 9
 9
 9
 9
 9
 9
 9
 9
 9
 9
 9
 9
 9
 9
 9
 9
 9
 9
 9
 9
 9
 9
 9
 9
 9
 9
 9
 9
 9
 9
 9
 9
 9
 9
 9
 9
 9
 9
 9
 9
 9
 9
 9
 9
 9
 9
 9
 9
 9
 9
 9
 9
 9
 9
 9
 9
 9
 9
 9
 9
 9
 9
 9
 9
 9
 9
 9
 9
 9
 9
 9
 9
 9
 9
 9
 9
 9
 9
 9
 9
 9
 9
 9
 9
 9
 9
 9
 9
 9
 9
 9
 9
 9
 9
 9
 9
 9
 9
 9
 9
 9
 9
 9
 9
 9
 9
 9
 9
 9
 9
 9
 9
 9
 9
 9
 9
 9
 9
 9
 9
 9
 9
 9
 9
 9
 9
 9
 9
 9
 9
 9
 9
 9
 9
 </DataArray>
 </Cells> 
 <PointData>
 <DataArray  type="Float64" Name="disp" NumberOfComponents="3" format="ascii">
   0.0000000000000000        0.0000000000000000        0.0000000000000000     
   6.0960662774966071E-003   3.7905456752015689E-003   0.0000000000000000     
   1.1666115684815100E-002   7.3241088236097682E-003   0.0000000000000000     
   1.6710148221955476E-002   1.0600689445224597E-002   0.0000000000000000     
   2.1228163888917739E-002   1.3620287540046051E-002   0.0000000000000000     
   0.0000000000000000        0.0000000000000000        0.0000000000000000     
   4.8911618085820171E-003   3.0222921100873032E-003   0.0000000000000000     
   9.5736091835188011E-003   6.0608458184763236E-003   0.0000000000000000     
   1.4047342124810350E-002   9.1156611251670596E-003   0.0000000000000000     
   1.8312360632456667E-002   1.2186738030159513E-002   0.0000000000000000     
   0.0000000000000000        0.0000000000000000        0.0000000000000000     
   3.9535207863267367E-003   2.4252849047528683E-003   0.0000000000000000     
   7.9105181611396885E-003   5.0632319242862713E-003   0.0000000000000000     
   1.1870992124438852E-002   7.9138410586002128E-003   0.0000000000000000     
   1.5834942676224234E-002   1.0977112307694686E-002   0.0000000000000000     
   0.0000000000000000        0.0000000000000000        0.0000000000000000     
   3.2831432107307650E-003   1.9995240591982634E-003   0.0000000000000000     
   6.6768426176777584E-003   4.3312671410396129E-003   0.0000000000000000     
   1.0181098220840979E-002   6.9952292455240494E-003   0.0000000000000000     
   1.3795910020220429E-002   9.9914103726515702E-003   0.0000000000000000     
   0.0000000000000000        0.0000000000000000        0.0000000000000000     
   2.8800290817941028E-003   1.7450095734234895E-003   0.0000000000000000     
   5.8725825531330128E-003   3.8649514687363468E-003   0.0000000000000000     
   8.9776604140167325E-003   6.3598256859385711E-003   0.0000000000000000     
   1.2195262664445259E-002   9.2296322250301661E-003   0.0000000000000000     
   2.1228163888917739E-002   1.3620287540046051E-002   0.0000000000000000     
   2.5433108328283136E-002   1.6613501541377980E-002   0.0000000000000000     
   2.9537927182632918E-002   1.9810929882524215E-002   0.0000000000000000     
   3.3542620451967091E-002   2.3212572563484763E-002   0.0000000000000000     
   3.7447188136285649E-002   2.6818429584259618E-002   0.0000000000000000     
   1.8312360632456667E-002   1.2186738030159513E-002   0.0000000000000000     
   2.2406894815791858E-002   1.5342447703430039E-002   0.0000000000000000     
   2.6369174784150025E-002   1.8651161314954989E-002   0.0000000000000000     
   3.0199200537531178E-002   2.2112878864734360E-002   0.0000000000000000     
   3.3896972075935304E-002   2.5727600352768165E-002   0.0000000000000000     
   1.5834942676224234E-002   1.0977112307694686E-002   0.0000000000000000     
   1.9730579818234558E-002   1.4211905235850416E-002   0.0000000000000000     
   2.3486113552208570E-002   1.7577079407348112E-002   0.0000000000000000     
   2.7101543878146273E-002   2.1072634822187779E-002   0.0000000000000000     
   3.0576870796047654E-002   2.4698571480369420E-002   0.0000000000000000     
   1.3795910020220429E-002   9.9914103726515702E-003   0.0000000000000000     
   1.7404163335611240E-002   1.3221874138639105E-002   0.0000000000000000     
   2.0888743486808560E-002   1.6588684159703590E-002   0.0000000000000000     
   2.4249650473812369E-002   2.0091840435845019E-002   0.0000000000000000     
   2.7486884296622688E-002   2.3731342967063390E-002   0.0000000000000000     
   1.2195262664445259E-002   9.2296322250301661E-003   0.0000000000000000     
   1.5427645367921905E-002   1.2372354411796117E-002   0.0000000000000000     
   1.8577064587949981E-002   1.5685975572021418E-002   0.0000000000000000     
   2.1643520324529486E-002   1.9170495705706076E-002   0.0000000000000000     
   2.4627012577660423E-002   2.2825914812850082E-002   0.0000000000000000     
   3.7447188136285649E-002   2.6818429584259618E-002   0.0000000000000000     
   4.1255426903682682E-002   3.0623980857602321E-002   0.0000000000000000     
   4.4971133422252292E-002   3.4624706296266398E-002   0.0000000000000000     
   4.8594307691994493E-002   3.8820605900251846E-002   0.0000000000000000     
   5.2124949712909263E-002   4.3211679669558675E-002   0.0000000000000000     
   3.3896972075935304E-002   2.5727600352768165E-002   0.0000000000000000     
   3.7485364440248733E-002   2.9524271215174896E-002   0.0000000000000000     
   4.0987252671357770E-002   3.3531836888073083E-002   0.0000000000000000     
   4.4402636769262420E-002   3.7750297371462724E-002   0.0000000000000000     
   4.7731516733962684E-002   4.2179652665343799E-002   0.0000000000000000     
   3.0576870796047654E-002   2.4698571480369420E-002   0.0000000000000000     
   3.3941417556780470E-002   2.8499506134682280E-002   0.0000000000000000     
   3.7224507411212485E-002   3.2520055537915621E-002   0.0000000000000000     
   4.0426140359343679E-002   3.6760219690069443E-002   0.0000000000000000     
   4.3546316401174068E-002   4.1219998591143746E-002   0.0000000000000000     
   2.7486884296622688E-002   2.3731342967063390E-002   0.0000000000000000     
   3.0623586253277917E-002   2.7549685616124468E-002   0.0000000000000000     
   3.3682897641816437E-002   3.1589362245794013E-002   0.0000000000000000     
   3.6664818462238277E-002   3.5850372856072045E-002   0.0000000000000000     
   3.9569348714543415E-002   4.0332717446958516E-002   0.0000000000000000     
   2.4627012577660423E-002   2.2825914812850082E-002   0.0000000000000000     
   2.7531870529741050E-002   2.6674809659501465E-002   0.0000000000000000     
   3.0362423363169647E-002   3.0739757011708266E-002   0.0000000000000000     
   3.3118671077946200E-002   3.5020756869470475E-002   0.0000000000000000     
   3.5800613674070718E-002   3.9517809232788102E-002   0.0000000000000000     
   5.2124949712909263E-002   4.3211679669558675E-002   0.0000000000000000     
   5.5559402363001109E-002   4.7801331114876389E-002   0.0000000000000000     
   5.8894008520274495E-002   5.2592963746894518E-002   0.0000000000000000     
   6.2128768184729441E-002   5.7586577565613049E-002   0.0000000000000000     
   6.5263681356365941E-002   6.2782172571031983E-002   0.0000000000000000     
   4.7731516733962684E-002   4.2179652665343799E-002   0.0000000000000000     
   5.0970073181995236E-002   4.6812032823137603E-002   0.0000000000000000     
   5.4114486729896757E-002   5.1639567898265390E-002   0.0000000000000000     
   5.7164757377667234E-002   5.6662257890727180E-002   0.0000000000000000     
   6.0120885125306667E-002   6.1880102800522939E-002   0.0000000000000000     
   4.3546316401174068E-002   4.1219998591143746E-002   0.0000000000000000     
   4.6581842858565280E-002   4.5885548053791830E-002   0.0000000000000000     
   4.9529527053378930E-002   5.0743023890667004E-002   0.0000000000000000     
   5.2389368985615060E-002   5.5792426101769252E-002   0.0000000000000000     
   5.5161368655273622E-002   6.1033754687098596E-002   0.0000000000000000     
   3.9569348714543415E-002   4.0332717446958516E-002   0.0000000000000000     
   4.2394711392711219E-002   4.5021876806839084E-002   0.0000000000000000     
   4.5139129490721061E-002   4.9903331724099345E-002   0.0000000000000000     
   4.7802603008572919E-002   5.4977082198739292E-002   0.0000000000000000     
   5.0385131946266828E-002   6.0243128230758947E-002   0.0000000000000000     
   3.5800613674070718E-002   3.9517809232788102E-002   0.0000000000000000     
   3.8408678784433062E-002   4.4221019082279336E-002   0.0000000000000000     
   4.0943294041923095E-002   4.9120491398562408E-002   0.0000000000000000     
   4.3404459446540838E-002   5.4216226181637281E-002   0.0000000000000000     
   4.5792174998286264E-002   5.9508223431503998E-002   0.0000000000000000     
   6.5263681356365941E-002   6.2782172571031983E-002   0.0000000000000000     
   6.8303682357930953E-002   6.8169848746514286E-002   0.0000000000000000     
   7.1253705512171445E-002   7.3739706075422892E-002   0.0000000000000000     
   7.4113750819087387E-002   7.9491744557757801E-002   0.0000000000000000     
   7.6883818278678823E-002   8.5425964193519027E-002   0.0000000000000000     
   6.0120885125306667E-002   6.1880102800522939E-002   0.0000000000000000     
   6.2986318678217260E-002   6.7288099372440333E-002   0.0000000000000000     
   6.5764506741801218E-002   7.2881244351266999E-002   0.0000000000000000     
   6.8455449316058514E-002   7.8659537737002919E-002   0.0000000000000000     
   7.1059146400989176E-002   8.4622979529648118E-002   0.0000000000000000     
   5.5161368655273622E-002   6.1033754687098596E-002   0.0000000000000000     
   5.7847559673894898E-002   6.6464227007021634E-002   0.0000000000000000     
   6.0449975653019114E-002   7.2081060421904944E-002   0.0000000000000000     
   6.2968616592646270E-002   7.7884254931748581E-002   0.0000000000000000     
   6.5403482492776374E-002   8.3873810536552490E-002   0.0000000000000000     
   5.0385131946266828E-002   6.0243128230758947E-002   0.0000000000000000     
   5.2887405344963868E-002   6.5698231650258149E-002   0.0000000000000000     
   5.5310112245825140E-002   7.1339154287336753E-002   0.0000000000000000     
   5.7653252648850656E-002   7.7165896141994747E-002   0.0000000000000000     
   5.9916826554040424E-002   8.3178457214232157E-002   0.0000000000000000     
   4.5792174998286264E-002   5.9508223431503998E-002   0.0000000000000000     
   4.8105855691424157E-002   6.4990113302149904E-002   0.0000000000000000     
   5.0344916520219302E-002   7.0655525947562386E-002   0.0000000000000000     
   5.2509357484671698E-002   7.6504461367741458E-002   0.0000000000000000     
   5.4599178584781319E-002   8.2536919562687106E-002   0.0000000000000000     
   7.6883818278678823E-002   8.5425964193519027E-002   0.0000000000000000     
   7.9559430538982179E-002   9.1527951074761957E-002   0.0000000000000000     
   8.2136110248033939E-002   9.7783291293542032E-002   0.0000000000000000     
   8.4613857405834117E-002  0.10419198484985923        0.0000000000000000     
   8.6992672012382685E-002  0.11075403174371354        0.0000000000000000     
   7.1059146400989176E-002   8.4622979529648118E-002   0.0000000000000000     
   7.3573335855072058E-002   9.0755068550268700E-002   0.0000000000000000     
   7.5995755536786086E-002   9.7039303619930822E-002   0.0000000000000000     
   7.8326405446131217E-002  0.10347568473863453        0.0000000000000000     
   8.0565285583107479E-002  0.11006421190637972        0.0000000000000000     
   6.5403482492776374E-002   8.3873810536552490E-002   0.0000000000000000     
   6.7753974910904319E-002   9.0032582619084173E-002   0.0000000000000000     
   7.0019495404525053E-002   9.6343426562111090E-002   0.0000000000000000     
   7.2200043973638536E-002  0.10280634236563321        0.0000000000000000     
   7.4295620618244781E-002  0.10942133002965057        0.0000000000000000     
   5.9916826554040424E-002   8.3178457214232157E-002   0.0000000000000000     
   6.2101347706478974E-002   8.9360493281208334E-002   0.0000000000000000     
   6.4207329851250841E-002   9.5695660120082737E-002   0.0000000000000000     
   6.6234772988356061E-002  0.10218395773085531        0.0000000000000000     
   6.8183677117794592E-002  0.10882538611352607        0.0000000000000000     
   5.4599178584781319E-002   8.2536919562687106E-002   0.0000000000000000     
   5.6615454241795982E-002   8.8738800536641252E-002   0.0000000000000000     
   5.8559258876963463E-002   9.5096004293845821E-002   0.0000000000000000     
   6.0430592490283777E-002  0.10160853083430083        0.0000000000000000     
   6.2229455081756924E-002  0.10827638015800625        0.0000000000000000     
   8.6992672012382685E-002  0.11075403174371354        0.0000000000000000     
   8.9271558934842926E-002  0.11746302900696132        0.0000000000000000     
   9.1449523040378053E-002  0.12431257367145893        0.0000000000000000     
   9.3526564328988093E-002  0.13130266573720634        0.0000000000000000     
   9.5502682800673047E-002  0.13843330520420358        0.0000000000000000     
   8.0565285583107479E-002  0.11006421190637972        0.0000000000000000     
   8.2712642475169504E-002  0.11679900848686442        0.0000000000000000     
   8.4768722649771852E-002  0.12367419784378653        0.0000000000000000     
   8.6733526106914580E-002  0.13068977997714604        0.0000000000000000     
   8.8607052846597645E-002  0.13784575488694295        0.0000000000000000     
   7.4295620618244781E-002  0.10942133002965057        0.0000000000000000     
   7.6307100460165658E-002  0.11618210364632138        0.0000000000000000     
   7.8235358621222981E-002  0.12308237730780382        0.0000000000000000     
   8.0080395101416776E-002  0.13012215101409791        0.0000000000000000     
   8.1842209900747032E-002  0.13730142476520360        0.0000000000000000     
   6.8183677117794592E-002  0.10882538611352607        0.0000000000000000     
   7.0054932889831445E-002  0.11561231448533220        0.0000000000000000     
   7.1849430954731452E-002  0.12253711206351078        0.0000000000000000     
   7.3567171312494711E-002  0.12959977884806184        0.0000000000000000     
   7.5208153963121194E-002  0.13680031483898542        0.0000000000000000     
   6.2229455081756924E-002  0.10827638015800625        0.0000000000000000     
   6.3956139764166794E-002  0.11508964100389686        0.0000000000000000     
   6.5610939650297281E-002  0.12203840211090744        0.0000000000000000     
   6.7193854740148384E-002  0.12912266347903797        0.0000000000000000     
   6.8704885033720131E-002  0.13634242510828845        0.0000000000000000     
   9.5502682800673047E-002  0.13843330520420358        0.0000000000000000     
   9.7355905309687990E-002  0.14567868208308976        0.0000000000000000     
   9.9064258710288039E-002  0.15301298638450395        0.0000000000000000     
  0.10062774300247318       0.16043621810844616        0.0000000000000000     
  0.10204635818624341       0.16794837725491643        0.0000000000000000     
   8.8607052846597645E-002  0.13784575488694295        0.0000000000000000     
   9.0383679863649632E-002  0.14511849689042342        0.0000000000000000     
   9.2057784152899058E-002  0.15248438030483338        0.0000000000000000     
   9.3629365714345936E-002  0.15994340513017294        0.0000000000000000     
   9.5098424547990279E-002  0.16749557136644208        0.0000000000000000     
   8.1842209900747032E-002  0.13730142476520360        0.0000000000000000     
   8.3525333348243191E-002  0.14459919137570579        0.0000000000000000     
   8.5134295772934729E-002  0.15199444366018941        0.0000000000000000     
   8.6669097174821602E-002  0.15948718161865447        0.0000000000000000     
   8.8129737553903853E-002  0.16707740525110087        0.0000000000000000     
   7.5208153963121194E-002  0.13680031483898542        0.0000000000000000     
   7.6780865763468681E-002  0.14412076553893696        0.0000000000000000     
   7.8293793570394996E-002  0.15154317645057208        0.0000000000000000     
   7.9746937383900179E-002  0.15906754757389066        0.0000000000000000     
   8.1140297203984149E-002  0.16669387890889284        0.0000000000000000     
   6.8704885033720131E-002  0.13634242510828845        0.0000000000000000     
   7.0150277109326101E-002  0.14368321938011691        0.0000000000000000     
   7.1536277545279942E-002  0.15113057867598129        0.0000000000000000     
   7.2862886341581626E-002  0.15868450299588163        0.0000000000000000     
   7.4130103498231154E-002  0.16634499233981795        0.0000000000000000     
   0.0000000000000000        0.0000000000000000        0.0000000000000000     
   2.8800290817941028E-003   1.7450095734234895E-003   0.0000000000000000     
   5.8725825531330128E-003   3.8649514687363468E-003   0.0000000000000000     
   8.9776604140167325E-003   6.3598256859385711E-003   0.0000000000000000     
   1.2195262664445259E-002   9.2296322250301661E-003   0.0000000000000000     
   0.0000000000000000        0.0000000000000000        0.0000000000000000     
   2.6103149919343869E-003   1.5890825043797820E-003   0.0000000000000000     
   5.2897239159572377E-003   3.5569746031747763E-003   0.0000000000000000     
   8.0382267720685522E-003   5.9036762963849835E-003   0.0000000000000000     
   1.0855823560268331E-002   8.6291875840104025E-003   0.0000000000000000     
   0.0000000000000000        0.0000000000000000        0.0000000000000000     
   2.3401375335692547E-003   1.4590839090183770E-003   0.0000000000000000     
   4.7202526546022139E-003   3.3000262401532057E-003   0.0000000000000000     
   7.1403453630988776E-003   5.5228269934044869E-003   0.0000000000000000     
   9.6004156590592474E-003   8.1274861687722199E-003   0.0000000000000000     
   0.0000000000000000        0.0000000000000000        0.0000000000000000     
   2.0694967066987066E-003   1.3550137873392738E-003   0.0000000000000000     
   4.1641687690679432E-003   3.0941063796716345E-003   0.0000000000000000     
   6.2840161871077112E-003   5.2172777769970815E-003   0.0000000000000000     
   8.4290389608180118E-003   7.7245279793156148E-003   0.0000000000000000     
   0.0000000000000000        0.0000000000000000        0.0000000000000000     
   1.7983925113227426E-003   1.2768721393424738E-003   0.0000000000000000     
   3.6214722593544265E-003   2.9392150217300624E-003   0.0000000000000000     
   5.4692392440950531E-003   4.9870286471627671E-003   0.0000000000000000     
   7.3416934655446200E-003   7.4203130156405873E-003   0.0000000000000000     
   1.2195262664445259E-002   9.2296322250301661E-003   0.0000000000000000     
   1.5427645367921905E-002   1.2372354411796117E-002   0.0000000000000000     
   1.8577064587949981E-002   1.5685975572021418E-002   0.0000000000000000     
   2.1643520324529486E-002   1.9170495705706076E-002   0.0000000000000000     
   2.4627012577660423E-002   2.2825914812850082E-002   0.0000000000000000     
   1.0855823560268331E-002   8.6291875840104025E-003   0.0000000000000000     
   1.3689192752956859E-002   1.1651299663825462E-002   0.0000000000000000     
   1.6485012822534423E-002   1.4887803733604585E-002   0.0000000000000000     
   1.9243283769001026E-002   1.8338699793347773E-002   0.0000000000000000     
   2.1964005592356665E-002   2.2003987843055028E-002   0.0000000000000000     
   9.6004156590592474E-003   8.1274861687722199E-003   0.0000000000000000     
   1.2076972328506411E-002   1.1046663503231160E-002   0.0000000000000000     
   1.4546524157463468E-002   1.4213018733756067E-002   0.0000000000000000     
   1.7009071145930411E-002   1.7626551860346940E-002   0.0000000000000000     
   1.9464613293907237E-002   2.1287262883003776E-002   0.0000000000000000     
   8.4290389608180118E-003   7.7245279793156148E-003   0.0000000000000000     
   1.0590984094570568E-002   1.0558445930013215E-002   0.0000000000000000     
   1.2761598592737107E-002   1.3661620572475868E-002   0.0000000000000000     
   1.4940882455317633E-002   1.7034051906703568E-002   0.0000000000000000     
   1.7128835682312143E-002   2.0675739932696325E-002   0.0000000000000000     
   7.3416934655446200E-003   7.4203130156405873E-003   0.0000000000000000     
   9.2312280511493219E-003   1.0186646944171625E-002   0.0000000000000000     
   1.1130236128355349E-002   1.3233609249763986E-002   0.0000000000000000     
   1.3038717697162701E-002   1.6561199932417673E-002   0.0000000000000000     
   1.4956672757571381E-002   2.0169418992132676E-002   0.0000000000000000     
   2.4627012577660423E-002   2.2825914812850082E-002   0.0000000000000000     
   2.7531870529741050E-002   2.6674809659501465E-002   0.0000000000000000     
   3.0362423363169647E-002   3.0739757011708266E-002   0.0000000000000000     
   3.3118671077946200E-002   3.5020756869470475E-002   0.0000000000000000     
   3.5800613674070718E-002   3.9517809232788102E-002   0.0000000000000000     
   2.1964005592356665E-002   2.2003987843055028E-002   0.0000000000000000     
   2.4630804465798777E-002   2.5881427721160182E-002   0.0000000000000000     
   2.7227306562524797E-002   2.9968779266097072E-002   0.0000000000000000     
   2.9753511882534722E-002   3.4266042477865709E-002   0.0000000000000000     
   3.2209420425828555E-002   3.8773217356466078E-002   0.0000000000000000     
   1.9464613293907237E-002   2.1287262883003776E-002   0.0000000000000000     
   2.1884922141079961E-002   2.5176089257447524E-002   0.0000000000000000     
   2.4241769227134575E-002   2.9273968439399153E-002   0.0000000000000000     
   2.6535154552071085E-002   3.3580900428858661E-002   0.0000000000000000     
   2.8765078115889488E-002   3.8096885225826028E-002   0.0000000000000000     
   1.7128835682312143E-002   2.0675739932696325E-002   0.0000000000000000     
   1.9294223555584605E-002   2.4558794268363514E-002   0.0000000000000000     
   2.1405811356998993E-002   2.8655324531614512E-002   0.0000000000000000     
   2.3463599086555296E-002   3.2965330722449331E-002   0.0000000000000000     
   2.5467586744253520E-002   3.7488812840867962E-002   0.0000000000000000     
   1.4956672757571381E-002   2.0169418992132676E-002   0.0000000000000000     
   1.6858708709312716E-002   2.4029542753908128E-002   0.0000000000000000     
   1.8719432952118038E-002   2.8112847542743142E-002   0.0000000000000000     
   2.0538845485987348E-002   3.2419333358637718E-002   0.0000000000000000     
   2.2316946310920651E-002   3.6949000201591857E-002   0.0000000000000000     
   3.5800613674070718E-002   3.9517809232788102E-002   0.0000000000000000     
   3.8408678784433062E-002   4.4221019082279336E-002   0.0000000000000000     
   4.0943294041923095E-002   4.9120491398562408E-002   0.0000000000000000     
   4.3404459446540838E-002   5.4216226181637281E-002   0.0000000000000000     
   4.5792174998286264E-002   5.9508223431503998E-002   0.0000000000000000     
   3.2209420425828555E-002   3.8773217356466078E-002   0.0000000000000000     
   3.4597200019249701E-002   4.3485964438882148E-002   0.0000000000000000     
   3.6919018489641589E-002   4.8399944262097878E-002   0.0000000000000000     
   3.9174875837004193E-002   5.3515156826113283E-002   0.0000000000000000     
   4.1364772061337526E-002   5.8831602130928355E-002   0.0000000000000000     
   2.8765078115889488E-002   3.8096885225826028E-002   0.0000000000000000     
   3.0933730082680046E-002   4.2819702435417044E-002   0.0000000000000000     
   3.3043300616533024E-002   4.7747131662747480E-002   0.0000000000000000     
   3.5093789717448420E-002   5.2879172907817344E-002   0.0000000000000000     
   3.7085197385426219E-002   5.8215826170626615E-002   0.0000000000000000     
   2.5467586744253520E-002   3.7488812840867962E-002   0.0000000000000000     
   2.7418268974724082E-002   4.2222233071884031E-002   0.0000000000000000     
   2.9316140422597413E-002   4.7162053600511199E-002   0.0000000000000000     
   3.1161201087873503E-002   5.2308274426749464E-002   0.0000000000000000     
   3.2953450970552356E-002   5.7660895550598806E-002   0.0000000000000000     
   2.2316946310920651E-002   3.6949000201591857E-002   0.0000000000000000     
   2.4050816695381821E-002   4.1693556348283117E-002   0.0000000000000000     
   2.5737537907834750E-002   4.6644710075389041E-002   0.0000000000000000     
   2.7377109948279441E-002   5.1802461382909636E-002   0.0000000000000000     
   2.8969532816715889E-002   5.7166810270844901E-002   0.0000000000000000     
   4.5792174998286264E-002   5.9508223431503998E-002   0.0000000000000000     
   4.8105855691424157E-002   6.4990113302149904E-002   0.0000000000000000     
   5.0344916520219302E-002   7.0655525947562386E-002   0.0000000000000000     
   5.2509357484671698E-002   7.6504461367741458E-002   0.0000000000000000     
   5.4599178584781319E-002   8.2536919562687106E-002   0.0000000000000000     
   4.1364772061337526E-002   5.8831602130928355E-002   0.0000000000000000     
   4.3487151320490490E-002   6.4339160991835870E-002   0.0000000000000000     
   4.5540457772311978E-002   7.0027714224128665E-002   0.0000000000000000     
   4.7524691416801976E-002   7.5897261827806720E-002   0.0000000000000000     
   4.9439852253960498E-002   8.1947803802870034E-002   0.0000000000000000     
   3.7085197385426219E-002   5.8215826170626615E-002   0.0000000000000000     
   3.9015532839377566E-002   6.3744663748455041E-002   0.0000000000000000     
   4.0882805298213552E-002   6.9453257938582355E-002   0.0000000000000000     
   4.2687014761934157E-002   7.5341608741008564E-002   0.0000000000000000     
   4.4428161230539422E-002   8.1409716155733641E-002   0.0000000000000000     
   3.2953450970552356E-002   5.7660895550598806E-002   0.0000000000000000     
   3.4691000248085378E-002   6.3206621572007404E-002   0.0000000000000000     
   3.6371959097924005E-002   6.8932157090923485E-002   0.0000000000000000     
   3.7996327520068235E-002   7.4837502107346965E-002   0.0000000000000000     
   3.9564105514518076E-002   8.0922656621277927E-002   0.0000000000000000     
   2.8969532816715889E-002   5.7166810270844901E-002   0.0000000000000000     
   3.0513553546613920E-002   6.2725034462492973E-002   0.0000000000000000     
   3.2007919171443362E-002   6.8464411681151999E-002   0.0000000000000000     
   3.3452629691204203E-002   7.4384941926821962E-002   0.0000000000000000     
   3.4847685105896462E-002   8.0486625199502893E-002   0.0000000000000000     
   5.4599178584781319E-002   8.2536919562687106E-002   0.0000000000000000     
   5.6615454241795982E-002   8.8738800536641252E-002   0.0000000000000000     
   5.8559258876963463E-002   9.5096004293845821E-002   0.0000000000000000     
   6.0430592490283777E-002  0.10160853083430083        0.0000000000000000     
   6.2229455081756924E-002  0.10827638015800625        0.0000000000000000     
   4.9439852253960498E-002   8.1947803802870034E-002   0.0000000000000000     
   5.1287151206894213E-002   8.8167654788601696E-002   0.0000000000000000     
   5.3067799198709811E-002   9.4545129424284821E-002   0.0000000000000000     
   5.4781796229407265E-002  0.10108022770991937        0.0000000000000000     
   5.6429142298986601E-002  0.10777294964550534        0.0000000000000000     
   4.4428161230539422E-002   8.1409716155733641E-002   0.0000000000000000     
   4.6107295291812546E-002   8.7647206440308545E-002   0.0000000000000000     
   4.7725467533536764E-002   9.4043705852284179E-002   0.0000000000000000     
   4.9282677955712097E-002  0.10059921439166056        0.0000000000000000     
   5.0778926558338502E-002  0.10731373205843762        0.0000000000000000     
   3.9564105514518076E-002   8.0922656621277927E-002   0.0000000000000000     
   4.1075886496550959E-002   8.7177455491761771E-002   0.0000000000000000     
   4.2532263881444349E-002   9.3591733577843908E-002   0.0000000000000000     
   4.3933237669198238E-002  0.10016549087952435        0.0000000000000000     
   4.5278807859812628E-002  0.10689872739680310        0.0000000000000000     
   3.4847685105896462E-002   8.0486625199502893E-002   0.0000000000000000     
   3.6192924821109460E-002   8.6758401942961361E-002   0.0000000000000000     
   3.7488188242432545E-002   9.3189212600963994E-002   0.0000000000000000     
   3.8733475369865704E-002   9.9779057173510807E-002   0.0000000000000000     
   3.9928786203408957E-002  0.10652793566060177        0.0000000000000000     
   6.2229455081756924E-002  0.10827638015800625        0.0000000000000000     
   6.3956139764166794E-002  0.11508964100389686        0.0000000000000000     
   6.5610939650297281E-002  0.12203840211090744        0.0000000000000000     
   6.7193854740148384E-002  0.12912266347903797        0.0000000000000000     
   6.8704885033720131E-002  0.13634242510828845        0.0000000000000000     
   5.6429142298986601E-002  0.10777294964550534        0.0000000000000000     
   5.8009401149919274E-002  0.11461114037160668        0.0000000000000000     
   5.9522136524676708E-002  0.12158264502878728        0.0000000000000000     
   6.0967348423258939E-002  0.12868746361704714        0.0000000000000000     
   6.2345036845665960E-002  0.13592559613638627        0.0000000000000000     
   5.0778926558338502E-002  0.10731373205843762        0.0000000000000000     
   5.2213397113836373E-002  0.11417386975805288        0.0000000000000000     
   5.3585273394626043E-002  0.12116623839594375        0.0000000000000000     
   5.4894555400707520E-002  0.12829083797211024        0.0000000000000000     
   5.6141243132080805E-002  0.13554766848655228        0.0000000000000000     
   4.5278807859812628E-002  0.10689872739680310        0.0000000000000000     
   4.6568127655918105E-002  0.11377782916323552        0.0000000000000000     
   4.7800350260145265E-002  0.12078918221237686        0.0000000000000000     
   4.8975475672494120E-002  0.12793278654422724        0.0000000000000000     
   5.0093503892964658E-002  0.13520864215878656        0.0000000000000000     
   3.9928786203408957E-002  0.10652793566060177        0.0000000000000000     
   4.1073592776164465E-002  0.11342301858715452        0.0000000000000000     
   4.2167367121234388E-002  0.12045147647808666        0.0000000000000000     
   4.3210109238618753E-002  0.12761330933339815        0.0000000000000000     
   4.4201819128317527E-002  0.13490851715308907        0.0000000000000000     
   6.8704885033720131E-002  0.13634242510828845        0.0000000000000000     
   7.0150277109326101E-002  0.14368321938011691        0.0000000000000000     
   7.1536277545279942E-002  0.15113057867598129        0.0000000000000000     
   7.2862886341581626E-002  0.15868450299588163        0.0000000000000000     
   7.4130103498231154E-002  0.16634499233981795        0.0000000000000000     
   6.2345036845665960E-002  0.13592559613638627        0.0000000000000000     
   6.3656879453368787E-002  0.14328559765439058        0.0000000000000000     
   6.4904553907838433E-002  0.15075602323864606        0.0000000000000000     
   6.6088060209074928E-002  0.15833687288915271        0.0000000000000000     
   6.7207398357078230E-002  0.16602814660591048        0.0000000000000000     
   5.6141243132080805E-002  0.13554766848655228        0.0000000000000000     
   5.7323984863150074E-002  0.14292694511690296        0.0000000000000000     
   5.8441428868319469E-002  0.15041888304079523        0.0000000000000000     
   5.9493575147589045E-002  0.15802348225822918        0.0000000000000000     
   6.0480423700958755E-002  0.16574074276920472        0.0000000000000000     
   5.0093503892964658E-002  0.13520864215878656        0.0000000000000000     
   5.1151593338669955E-002  0.14260726176765404        0.0000000000000000     
   5.2146902426723048E-002  0.15011915808242890        0.0000000000000000     
   5.3079431157123984E-002  0.15774433110311112        0.0000000000000000     
   5.3949179529872729E-002  0.16548278082970069        0.0000000000000000     
   4.4201819128317527E-002  0.13490851715308907        0.0000000000000000     
   4.5139704879928438E-002  0.14232654760664384        0.0000000000000000     
   4.6020974583049178E-002  0.14985684836354701        0.0000000000000000     
   4.6845628237679737E-002  0.15749941942379847        0.0000000000000000     
   4.7613665843820138E-002  0.16525426078739835        0.0000000000000000     
   0.0000000000000000        0.0000000000000000        0.0000000000000000     
   1.7983925113227426E-003   1.2768721393424738E-003   0.0000000000000000     
   3.6214722593544265E-003   2.9392150217300624E-003   0.0000000000000000     
   5.4692392440950531E-003   4.9870286471627671E-003   0.0000000000000000     
   7.3416934655446200E-003   7.4203130156405873E-003   0.0000000000000000     
   0.0000000000000000        0.0000000000000000        0.0000000000000000     
   1.5350980490356787E-003   1.2175520515826535E-003   0.0000000000000000     
   3.0995170280613714E-003   2.8208505928033027E-003   0.0000000000000000     
   4.6932569370770789E-003   4.8098956236619474E-003   0.0000000000000000     
   6.3163177760827988E-003   7.1846871441585873E-003   0.0000000000000000     
   0.0000000000000000        0.0000000000000000        0.0000000000000000     
   1.2878864214318311E-003   1.1699466106144915E-003   0.0000000000000000     
   2.6056569777884861E-003   2.7245115193661666E-003   0.0000000000000000     
   3.9533116690699654E-003   4.6636947262550252E-003   0.0000000000000000     
   5.3308504952762686E-003   6.9874962312810665E-003   0.0000000000000000     
   0.0000000000000000        0.0000000000000000        0.0000000000000000     
   1.0567576285111996E-003   1.1340558164379868E-003   0.0000000000000000     
   2.1398921085357711E-003   2.6501978014186536E-003   0.0000000000000000     
   3.2494034400737141E-003   4.5484259549419996E-003   0.0000000000000000     
   4.3852916231250294E-003   6.8287402770080257E-003   0.0000000000000000     
   0.0000000000000000        0.0000000000000000        0.0000000000000000     
   8.4171167027378426E-004   1.1098796690531404E-003   0.0000000000000000     
   1.7022224203032260E-003   2.5979094389607642E-003   0.0000000000000000     
   2.5815322500883251E-003   4.4640893097228716E-003   0.0000000000000000     
   3.4796411596290816E-003   6.7084192813394615E-003   0.0000000000000000     
   7.3416934655446200E-003   7.4203130156405873E-003   0.0000000000000000     
   9.2312280511493219E-003   1.0186646944171625E-002   0.0000000000000000     
   1.1130236128355349E-002   1.3233609249763986E-002   0.0000000000000000     
   1.3038717697162701E-002   1.6561199932417673E-002   0.0000000000000000     
   1.4956672757571381E-002   2.0169418992132676E-002   0.0000000000000000     
   6.3163177760827988E-003   7.1846871441585873E-003   0.0000000000000000     
   7.9560654501283721E-003   9.8956355536867924E-003   0.0000000000000000     
   9.5998658642636320E-003   1.2893151251640131E-002   0.0000000000000000     
   1.1247719018488580E-002   1.6177234238018600E-002   0.0000000000000000     
   1.2899624912803217E-002   1.9747884512822205E-002   0.0000000000000000     
   5.3308504952762686E-003   6.9874962312810665E-003   0.0000000000000000     
   6.7238575433934099E-003   9.6497807665391188E-003   0.0000000000000000     
   8.1179169004073973E-003   1.2604413064124007E-002   0.0000000000000000     
   9.5130285663182334E-003   1.5851393124035728E-002   0.0000000000000000     
   1.0909192541125920E-002   1.9390720946274288E-002   0.0000000000000000     
   4.3852916231250294E-003   6.8287402770080257E-003   0.0000000000000000     
   5.5346043309444353E-003   9.4490825827286042E-003   0.0000000000000000     
   6.6843892367866474E-003   1.2367394687215616E-002   0.0000000000000000     
   7.8346463406516673E-003   1.5583676590469055E-002   0.0000000000000000     
   8.9853756425394941E-003   1.9097928292488922E-002   0.0000000000000000     
   3.4796411596290816E-003   6.7084192813394615E-003   0.0000000000000000     
   4.3883058127814492E-003   9.2935410022552522E-003   0.0000000000000000     
   5.2992828734013796E-003   1.2182096120914957E-002   0.0000000000000000     
   6.2125723414888758E-003   1.5374084637318576E-002   0.0000000000000000     
   7.1281742170439324E-003   1.8869506551466107E-002   0.0000000000000000     
   1.4956672757571381E-002   2.0169418992132676E-002   0.0000000000000000     
   1.6858708709312716E-002   2.4029542753908128E-002   0.0000000000000000     
   1.8719432952118038E-002   2.8112847542743142E-002   0.0000000000000000     
   2.0538845485987348E-002   3.2419333358637718E-002   0.0000000000000000     
   2.2316946310920651E-002   3.6949000201591857E-002   0.0000000000000000     
   1.2899624912803217E-002   1.9747884512822205E-002   0.0000000000000000     
   1.4539061828471861E-002   2.3578931348183899E-002   0.0000000000000000     
   1.6149508046758840E-002   2.7644204016236643E-002   0.0000000000000000     
   1.7730963567664147E-002   3.1943702516980421E-002   0.0000000000000000     
   1.9283428391187782E-002   3.6477426850415245E-002   0.0000000000000000     
   1.0909192541125920E-002   1.9390720946274288E-002   0.0000000000000000     
   1.2295967139269622E-002   2.3197556685293358E-002   0.0000000000000000     
   1.3662910675188511E-002   2.7247060495546604E-002   0.0000000000000000     
   1.5010023148882579E-002   3.1539232377034029E-002   0.0000000000000000     
   1.6337304560351835E-002   3.6074072329755638E-002   0.0000000000000000     
   8.9853756425394941E-003   1.9097928292488922E-002   0.0000000000000000     
   1.0129424641705995E-002   2.2885418765236490E-002   0.0000000000000000     
   1.1259640837407048E-002   2.6921416980673036E-002   0.0000000000000000     
   1.2376024229642648E-002   3.1205922938798550E-002   0.0000000000000000     
   1.3478574818412796E-002   3.5738936639613035E-002   0.0000000000000000     
   7.1281742170439324E-003   1.8869506551466107E-002   0.0000000000000000     
   8.0394343357809844E-003   2.2642517588013313E-002   0.0000000000000000     
   8.9396985334144596E-003   2.6667273471615932E-002   0.0000000000000000     
   9.8289668099443561E-003   3.0943774202273976E-002   0.0000000000000000     
   1.0707239165370676E-002   3.5472019779987436E-002   0.0000000000000000     
   2.2316946310920651E-002   3.6949000201591857E-002   0.0000000000000000     
   2.4050816695381821E-002   4.1693556348283117E-002   0.0000000000000000     
   2.5737537907834750E-002   4.6644710075389041E-002   0.0000000000000000     
   2.7377109948279441E-002   5.1802461382909636E-002   0.0000000000000000     
   2.8969532816715889E-002   5.7166810270844901E-002   0.0000000000000000     
   1.9283428391187782E-002   3.6477426850415245E-002   0.0000000000000000     
   2.0800615539385801E-002   4.1231483920616985E-002   0.0000000000000000     
   2.2276238034314246E-002   4.6191980631661515E-002   0.0000000000000000     
   2.3710295875973116E-002   5.1358916983548802E-002   0.0000000000000000     
   2.5102789064362419E-002   5.6732292976278888E-002   0.0000000000000000     
   1.6337304560351835E-002   3.6074072329755638E-002   0.0000000000000000     
   1.7636907801468572E-002   4.0833827444888365E-002   0.0000000000000000     
   1.8900985764105097E-002   4.5800744813609115E-002   0.0000000000000000     
   2.0129538448261406E-002   5.0974824435917908E-002   0.0000000000000000     
   2.1322565853937499E-002   5.6356066311814744E-002   0.0000000000000000     
   1.3478574818412796E-002   3.5738936639613035E-002   0.0000000000000000     
   1.4559693481630134E-002   4.0500586921097224E-002   0.0000000000000000     
   1.5611781097207303E-002   4.5471002621231868E-002   0.0000000000000000     
   1.6634837665144297E-002   5.0650183740016931E-002   0.0000000000000000     
   1.7628863185441126E-002   5.6038130277452476E-002   0.0000000000000000     
   1.0707239165370676E-002   3.5472019779987436E-002   0.0000000000000000     
   1.1568972579870489E-002   4.0231762349243597E-002   0.0000000000000000     
   1.2408624033620868E-002   4.5202754054529760E-002   0.0000000000000000     
   1.3226193526621806E-002   5.0384994895845914E-002   0.0000000000000000     
   1.4021681058873308E-002   5.5778484873192063E-002   0.0000000000000000     
   2.8969532816715889E-002   5.7166810270844901E-002   0.0000000000000000     
   3.0513553546613920E-002   6.2725034462492973E-002   0.0000000000000000     
   3.2007919171443362E-002   6.8464411681151999E-002   0.0000000000000000     
   3.3452629691204203E-002   7.4384941926821962E-002   0.0000000000000000     
   3.4847685105896462E-002   8.0486625199502893E-002   0.0000000000000000     
   2.5102789064362419E-002   5.6732292976278888E-002   0.0000000000000000     
   2.6453148558832965E-002   6.2300336362519068E-002   0.0000000000000000     
   2.7760805318735572E-002   6.8051274894936675E-002   0.0000000000000000     
   2.9025759344070229E-002   7.3985108573531716E-002   0.0000000000000000     
   3.0248010634836949E-002   8.0101837398304149E-002   0.0000000000000000     
   2.1322565853937499E-002   5.6356066311814744E-002   0.0000000000000000     
   2.2479741108612266E-002   6.1932961214693057E-002   0.0000000000000000     
   2.3600737339764595E-002   6.7693999917946279E-002   0.0000000000000000     
   2.4685554547394482E-002   7.3639182421574398E-002   0.0000000000000000     
   2.5734192731501931E-002   7.9768508725577419E-002   0.0000000000000000     
   1.7628863185441126E-002   5.6038130277452476E-002   0.0000000000000000     
   1.8593331195951829E-002   6.1622909019014911E-002   0.0000000000000000     
   1.9527715234530438E-002   6.7392586750180755E-002   0.0000000000000000     
   2.0432015301176956E-002   7.3347163470950008E-002   0.0000000000000000     
   2.1306231395891384E-002   7.9486639181322663E-002   0.0000000000000000     
   1.4021681058873308E-002   5.5778484873192063E-002   0.0000000000000000     
   1.4793918820851647E-002   6.1370179775484666E-002   0.0000000000000000     
   1.5541739003033097E-002   6.7147035391640159E-002   0.0000000000000000     
   1.6265141605417654E-002   7.3109051721658574E-002   0.0000000000000000     
   1.6964126628005321E-002   7.9256228765539879E-002   0.0000000000000000     
   3.4847685105896462E-002   8.0486625199502893E-002   0.0000000000000000     
   3.6192924821109460E-002   8.6758401942961361E-002   0.0000000000000000     
   3.7488188242432545E-002   9.3189212600963994E-002   0.0000000000000000     
   3.8733475369865704E-002   9.9779057173510807E-002   0.0000000000000000     
   3.9928786203408957E-002  0.10652793566060177        0.0000000000000000     
   3.0248010634836949E-002   8.0101837398304149E-002   0.0000000000000000     
   3.1426693669443062E-002   8.6389182960209365E-002   0.0000000000000000     
   3.2560942926295904E-002   9.2834866850202674E-002   0.0000000000000000     
   3.3650758405395463E-002   9.9438889068284034E-002   0.0000000000000000     
   3.4696140106741748E-002  0.10620124961445350        0.0000000000000000     
   2.5734192731501931E-002   7.9768508725577419E-002   0.0000000000000000     
   2.6745476445506799E-002   8.6068935709807823E-002   0.0000000000000000     
   2.7718230242828976E-002   9.2527420254118087E-002   0.0000000000000000     
   2.8652454123468448E-002   9.9143962358508184E-002   0.0000000000000000     
   2.9548148087425223E-002  0.10591856202297813        0.0000000000000000     
   2.1306231395891384E-002   7.9486639181322663E-002   0.0000000000000000     
   2.2149273149300677E-002   8.5797660191756719E-002   0.0000000000000000     
   2.2960050192031765E-002   9.2266872812710274E-002   0.0000000000000000     
   2.3738562524084673E-002   9.8894277044183243E-002   0.0000000000000000     
   2.4484810145459383E-002  0.10567987288617568        0.0000000000000000     
   1.6964126628005321E-002   7.9256228765539879E-002   0.0000000000000000     
   1.7638083780824671E-002   8.5575356406056097E-002   0.0000000000000000     
   1.8286402773904274E-002   9.2053224525979194E-002   0.0000000000000000     
   1.8909083607244127E-002   9.8689833125309212E-002   0.0000000000000000     
   1.9506126280844232E-002  0.10548518220404610        0.0000000000000000     
   3.9928786203408957E-002  0.10652793566060177        0.0000000000000000     
   4.1073592776164465E-002  0.11342301858715452        0.0000000000000000     
   4.2167367121234388E-002  0.12045147647808666        0.0000000000000000     
   4.3210109238618753E-002  0.12761330933339815        0.0000000000000000     
   4.4201819128317527E-002  0.13490851715308907        0.0000000000000000     
   3.4696140106741748E-002  0.10620124961445350        0.0000000000000000     
   3.5696946443598408E-002  0.11311018124707552        0.0000000000000000     
   3.6653035829229075E-002  0.12015391672451460        0.0000000000000000     
   3.7564408263633768E-002  0.12733245604677068        0.0000000000000000     
   3.8431063746812488E-002  0.13464579921384384        0.0000000000000000     
   2.9548148087425223E-002  0.10591856202297813        0.0000000000000000     
   3.0405342627242878E-002  0.11284006036026407        0.0000000000000000     
   3.1224068235464995E-002  0.11989729848310218        0.0000000000000000     
   3.2004324912091583E-002  0.12709027639149242        0.0000000000000000     
   3.2746112657122635E-002  0.13441899408543484        0.0000000000000000     
   2.4484810145459383E-002  0.10567987288617568        0.0000000000000000     
   2.5198781327097880E-002  0.11261265592672018        0.0000000000000000     
   2.5880464339942143E-002  0.11968162175384942        0.0000000000000000     
   2.6529859183992168E-002  0.12688677036756335        0.0000000000000000     
   2.7146965859247963E-002  0.13422810176786207        0.0000000000000000     
   1.9506126280844232E-002  0.10548518220404610        0.0000000000000000     
   2.0077262543163422E-002  0.11242796794644384        0.0000000000000000     
   2.0622224142660527E-002  0.11950688653675630        0.0000000000000000     
   2.1141011079335543E-002  0.12672193797498352        0.0000000000000000     
   2.1633623353188473E-002  0.13407312226112547        0.0000000000000000     
   4.4201819128317527E-002  0.13490851715308907        0.0000000000000000     
   4.5139704879928438E-002  0.14232654760664384        0.0000000000000000     
   4.6020974583049178E-002  0.14985684836354701        0.0000000000000000     
   4.6845628237679737E-002  0.15749941942379847        0.0000000000000000     
   4.7613665843820138E-002  0.16525426078739835        0.0000000000000000     
   3.8431063746812488E-002  0.13464579921384384        0.0000000000000000     
   3.9250961795143625E-002  0.14208195288600117        0.0000000000000000     
   4.0022061925005598E-002  0.14962892372350975        0.0000000000000000     
   4.0744364136398391E-002  0.15728671172636960        0.0000000000000000     
   4.1417868429322012E-002  0.16505531689458075        0.0000000000000000     
   3.2746112657122635E-002  0.13441899408543484        0.0000000000000000     
   3.3448006392533640E-002  0.14187062785785468        0.0000000000000000     
   3.4108581040300096E-002  0.14943235400167734        0.0000000000000000     
   3.4727836600422002E-002  0.15710417251690273        0.0000000000000000     
   3.5305773072899359E-002  0.16488608340353089        0.0000000000000000     
   2.7146965859247963E-002  0.13422810176786207        0.0000000000000000     
   2.7730838672098478E-002  0.14169257252220449        0.0000000000000000     
   2.8280531928932685E-002  0.14926713919804976        0.0000000000000000     
   2.8796045629750581E-002  0.15695180179539783        0.0000000000000000     
   2.9277379774552168E-002  0.16474656031424878        0.0000000000000000     
   2.1633623353188473E-002  0.13407312226112547        0.0000000000000000     
   2.2099458633838137E-002  0.14154778687905051        0.0000000000000000     
   2.2537914590903353E-002  0.14913327931262702        0.0000000000000000     
   2.2948991224384131E-002  0.15682959956185502        0.0000000000000000     
   2.3332688534280457E-002  0.16463674762673441        0.0000000000000000     
   0.0000000000000000        0.0000000000000000        0.0000000000000000     
   8.4171167027378426E-004   1.1098796690531404E-003   0.0000000000000000     
   1.7022224203032260E-003   2.5979094389607642E-003   0.0000000000000000     
   2.5815322500883251E-003   4.4640893097228716E-003   0.0000000000000000     
   3.4796411596290816E-003   6.7084192813394615E-003   0.0000000000000000     
   0.0000000000000000        0.0000000000000000        0.0000000000000000     
   6.3385128521110511E-004   1.0938506980623457E-003   0.0000000000000000     
   1.2781169457452542E-003   2.5617932148359708E-003   0.0000000000000000     
   1.9327969816024465E-003   4.4038275503208756E-003   0.0000000000000000     
   2.5978913927826829E-003   6.6199537045170597E-003   0.0000000000000000     
   0.0000000000000000        0.0000000000000000        0.0000000000000000     
   4.2427921181468174E-004   1.0824014330679968E-003   0.0000000000000000     
   8.5304471751625774E-004   2.5359959118877455E-003   0.0000000000000000     
   1.2862965171047279E-003   4.3607834364592472E-003   0.0000000000000000     
   1.7240346105800921E-003   6.5567640067824996E-003   0.0000000000000000     
   0.0000000000000000        0.0000000000000000        0.0000000000000000     
   2.1299545008451415E-004   1.0755318740700934E-003   0.0000000000000000     
   4.2700573561623703E-004   2.5205175301160881E-003   0.0000000000000000     
   6.4203085659516874E-004   4.3349569681379856E-003   0.0000000000000000     
   8.5807081302130930E-004   6.5188501881357861E-003   0.0000000000000000     
   0.0000000000000000        0.0000000000000000        0.0000000000000000     
   2.0602334942221301E-014   1.0732420210686354E-003   0.0000000000000000     
   4.5192094424301166E-014   2.5153580695209993E-003   0.0000000000000000     
   7.3769224236130970E-014   4.3263481453570916E-003   0.0000000000000000     
   1.0633377858781934E-013   6.5062122485769125E-003   0.0000000000000000     
   3.4796411596290816E-003   6.7084192813394615E-003   0.0000000000000000     
   4.3883058127814492E-003   9.2935410022552522E-003   0.0000000000000000     
   5.2992828734013796E-003   1.2182096120914957E-002   0.0000000000000000     
   6.2125723414888758E-003   1.5374084637318576E-002   0.0000000000000000     
   7.1281742170439324E-003   1.8869506551466107E-002   0.0000000000000000     
   2.5978913927826829E-003   6.6199537045170597E-003   0.0000000000000000     
   3.2704208212262212E-003   9.1771981332991106E-003   0.0000000000000000     
   3.9474059088733188E-003   1.2042587292541618E-002   0.0000000000000000     
   4.6288466557239767E-003   1.5216121182244573E-002   0.0000000000000000     
   5.3147430617781939E-003   1.8697799802407988E-002   0.0000000000000000     
   1.7240346105800921E-003   6.5567640067824996E-003   0.0000000000000000     
   2.1664081886005222E-003   9.0940960840402360E-003   0.0000000000000000     
   2.6135664418241874E-003   1.1942938129415178E-002   0.0000000000000000     
   3.0655093702510899E-003   1.5103290142907332E-002   0.0000000000000000     
   3.5222369738812280E-003   1.8575152124516697E-002   0.0000000000000000     
   8.5807081302130930E-004   6.5188501881357861E-003   0.0000000000000000     
   1.0762679149043510E-003   9.0442348544786250E-003   0.0000000000000000     
   1.2977644722539860E-003   1.1883148631535648E-002   0.0000000000000000     
   1.5225604850702147E-003   1.5035591519306847E-002   0.0000000000000000     
   1.7506559533530368E-003   1.8501563517792231E-002   0.0000000000000000     
   1.0633377858781934E-013   6.5062122485769125E-003   0.0000000000000000     
   1.3770767566621128E-013   9.0276144446142809E-003   0.0000000000000000     
   1.6271299628847768E-013   1.1863218798903017E-002   0.0000000000000000     
   1.8135039097592204E-013   1.5013025311443122E-002   0.0000000000000000     
   1.9361910078702360E-013   1.8477033982234593E-002   0.0000000000000000     
   7.1281742170439324E-003   1.8869506551466107E-002   0.0000000000000000     
   8.0394343357809844E-003   2.2642517588013313E-002   0.0000000000000000     
   8.9396985334144596E-003   2.6667273471615932E-002   0.0000000000000000     
   9.8289668099443561E-003   3.0943774202273976E-002   0.0000000000000000     
   1.0707239165370676E-002   3.5472019779987436E-002   0.0000000000000000     
   5.3147430617781939E-003   1.8697799802407988E-002   0.0000000000000000     
   5.9981840322273156E-003   2.2460270132938082E-002   0.0000000000000000     
   6.6722584722626868E-003   2.6476179153741092E-002   0.0000000000000000     
   7.3369663818843075E-003   3.0745526864817008E-002   0.0000000000000000     
   7.9923077610921777E-003   3.5268313266165842E-002   0.0000000000000000     
   3.5222369738812280E-003   1.8575152124516697E-002   0.0000000000000000     
   3.9778615417777191E-003   2.2330093379325077E-002   0.0000000000000000     
   4.4264953630036791E-003   2.6339683212414304E-002   0.0000000000000000     
   4.8681384375591072E-003   3.0603921623784364E-002   0.0000000000000000     
   5.3027907654440033E-003   3.5122808613435252E-002   0.0000000000000000     
   1.7506559533530368E-003   1.8501563517792231E-002   0.0000000000000000     
   1.9784668644321959E-003   2.2251987327174299E-002   0.0000000000000000     
   2.2024092056374357E-003   2.6257785647635565E-002   0.0000000000000000     
   2.4224829769687556E-003   3.0518958479176028E-002   0.0000000000000000     
   2.6386881784261564E-003   3.5035505821795689E-002   0.0000000000000000     
   1.9361910078702360E-013   1.8477033982234593E-002   0.0000000000000000     
   1.9074580239961114E-013   2.2225951976485744E-002   0.0000000000000000     
   1.6395714538645911E-013   2.6230486459404883E-002   0.0000000000000000     
   1.1325358375722724E-013   3.0490637430992014E-002   0.0000000000000000     
   3.8634460214348465E-014   3.5006404891247123E-002   0.0000000000000000     
   1.0707239165370676E-002   3.5472019779987436E-002   0.0000000000000000     
   1.1568972579870489E-002   4.0231762349243597E-002   0.0000000000000000     
   1.2408624033620868E-002   4.5202754054529760E-002   0.0000000000000000     
   1.3226193526621806E-002   5.0384994895845914E-002   0.0000000000000000     
   1.4021681058873308E-002   5.5778484873192063E-002   0.0000000000000000     
   7.9923077610921777E-003   3.5268313266165842E-002   0.0000000000000000     
   8.6353061490870679E-003   4.0024722827836798E-002   0.0000000000000000     
   9.2629850850697495E-003   4.4994940019879089E-002   0.0000000000000000     
   9.8753445690402224E-003   5.0178964842292714E-002   0.0000000000000000     
   1.0472384600998488E-002   5.5576797295077689E-002   0.0000000000000000     
   5.3027907654440033E-003   3.5122808613435252E-002   0.0000000000000000     
   5.7292552421772973E-003   3.9876837455386137E-002   0.0000000000000000     
   6.1463347632779147E-003   4.4846501423656135E-002   0.0000000000000000     
   6.5540293287458563E-003   5.0031800518245260E-002   0.0000000000000000     
   6.9523389385811223E-003   5.5432734739153500E-002   0.0000000000000000     
   2.6386881784261564E-003   3.5035505821795689E-002   0.0000000000000000     
   2.8508198591411763E-003   3.9788106231891614E-002   0.0000000000000000     
   3.0586730682453591E-003   4.4757438265860906E-002   0.0000000000000000     
   3.2622478057387026E-003   4.9943501923703532E-002   0.0000000000000000     
   3.4615440716212068E-003   5.5346297205419510E-002   0.0000000000000000     
   3.8634460214348465E-014   3.5006404891247123E-002   0.0000000000000000     
  -2.1291128582401342E-014   3.9758529157353249E-002   0.0000000000000000     
  -2.7914628074332537E-014   4.4727750546493382E-002   0.0000000000000000     
   1.8763880423391943E-014   4.9914069058667535E-002   0.0000000000000000     
   1.1874507453712990E-013   5.5317484693875707E-002   0.0000000000000000     
   1.4021681058873308E-002   5.5778484873192063E-002   0.0000000000000000     
   1.4793918820851647E-002   6.1370179775484666E-002   0.0000000000000000     
   1.5541739003033097E-002   6.7147035391640159E-002   0.0000000000000000     
   1.6265141605417654E-002   7.3109051721658574E-002   0.0000000000000000     
   1.6964126628005321E-002   7.9256228765539879E-002   0.0000000000000000     
   1.0472384600998488E-002   5.5576797295077689E-002   0.0000000000000000     
   1.1052363689824998E-002   6.1174120478889829E-002   0.0000000000000000     
   1.1613540344400205E-002   6.6956617494384987E-002   0.0000000000000000     
   1.2155914564724110E-002   7.2924288341563157E-002   0.0000000000000000     
   1.2679486350796710E-002   7.9077133020424351E-002   0.0000000000000000     
   6.9523389385811223E-003   5.5432734739153500E-002   0.0000000000000000     
   7.3395255093851542E-003   6.1034078124017968E-002   0.0000000000000000     
   7.7138509577593974E-003   6.6820604710475767E-002   0.0000000000000000     
   8.0753152837038499E-003   7.2792314498526911E-002   0.0000000000000000     
   8.4239184872185128E-003   7.8949207488171344E-002   0.0000000000000000     
   3.4615440716212068E-003   5.5346297205419510E-002   0.0000000000000000     
   3.6554042795321163E-003   6.0950052710869083E-002   0.0000000000000000     
   3.8426708431106740E-003   6.6738997039912498E-002   0.0000000000000000     
   4.0233437623568786E-003   7.2713130192549782E-002   0.0000000000000000     
   4.1974230372707312E-003   7.8872452168780902E-002   0.0000000000000000     
   1.1874507453712990E-013   5.5317484693875707E-002   0.0000000000000000     
   2.6588258504600670E-013   6.0922044239443161E-002   0.0000000000000000     
   4.5403264481436167E-013   6.6711794482695194E-002   0.0000000000000000     
   6.8319503700176032E-013   7.2686735423631799E-002   0.0000000000000000     
   9.5336824372516116E-013   7.8846867062252954E-002   0.0000000000000000     
   1.6964126628005321E-002   7.9256228765539879E-002   0.0000000000000000     
   1.7638083780824671E-002   8.5575356406056097E-002   0.0000000000000000     
   1.8286402773904274E-002   9.2053224525979194E-002   0.0000000000000000     
   1.8909083607244127E-002   9.8689833125309212E-002   0.0000000000000000     
   1.9506126280844232E-002  0.10548518220404610        0.0000000000000000     
   1.2679486350796710E-002   7.9077133020424351E-002   0.0000000000000000     
   1.3184191741141124E-002   8.5402265726476093E-002   0.0000000000000000     
   1.3669966774280479E-002   9.1886800655225906E-002   0.0000000000000000     
   1.4136811450214766E-002   9.8530737806673818E-002   0.0000000000000000     
   1.4584725768943990E-002  0.10533407718081980        0.0000000000000000     
   8.4239184872185128E-003   7.8949207488171344E-002   0.0000000000000000     
   8.7598804313123585E-003   8.5278629526786928E-002   0.0000000000000000     
   9.0834209789943700E-003   9.1767926461751401E-002   0.0000000000000000     
   9.3945401302645386E-003   9.8417098293064761E-002   0.0000000000000000     
   9.6932378851228712E-003  0.10522614502072701        0.0000000000000000     
   4.1974230372707312E-003   7.8872452168780902E-002   0.0000000000000000     
   4.3651498513383735E-003   8.5204447806988604E-002   0.0000000000000000     
   4.5267653880459455E-003   9.1696601945555636E-002   0.0000000000000000     
   4.6822696473934472E-003   9.8348914584482069E-002   0.0000000000000000     
   4.8316626293808803E-003  0.10516138572376781        0.0000000000000000     
   9.5336824372516116E-013   7.8846867062252954E-002   0.0000000000000000     
   1.2191675620443210E-012   8.5179720567081119E-002   0.0000000000000000     
   1.4352094274312777E-012   9.1672827106638696E-002   0.0000000000000000     
   1.6014922271352997E-012   9.8326186680925715E-002   0.0000000000000000     
   1.7180163541796745E-012  0.10513979928994213        0.0000000000000000     
   1.9506126280844232E-002  0.10548518220404610        0.0000000000000000     
   2.0077262543163422E-002  0.11242796794644384        0.0000000000000000     
   2.0622224142660527E-002  0.11950688653675630        0.0000000000000000     
   2.1141011079335543E-002  0.12672193797498352        0.0000000000000000     
   2.1633623353188473E-002  0.13407312226112547        0.0000000000000000     
   1.4584725768943990E-002  0.10533407718081980        0.0000000000000000     
   1.5013185489945097E-002  0.11228505441160383        0.0000000000000000     
   1.5421666372695042E-002  0.11937190513296586        0.0000000000000000     
   1.5810168417193824E-002  0.12659462934490590        0.0000000000000000     
   1.6178691623441439E-002  0.13395322704742396        0.0000000000000000     
   9.6932378851228712E-003  0.10522614502072701        0.0000000000000000     
   9.9789493819485101E-003  0.11218297331436888        0.0000000000000000     
   1.0251109759120601E-002  0.11927548984362105        0.0000000000000000     
   1.0509719016639147E-002  0.12650369460848351        0.0000000000000000     
   1.0754777154504146E-002  0.13386758760895628        0.0000000000000000     
   4.8316626293808803E-003  0.10516138572376781        0.0000000000000000     
   4.9745542191736601E-003  0.11212172465473905        0.0000000000000000     
   5.1105543019372033E-003  0.11921764066872188        0.0000000000000000     
   5.2396628776715118E-003  0.12644913376571640        0.0000000000000000     
   5.3618799463765821E-003  0.13381620394572249        0.0000000000000000     
   1.7180163541796745E-012  0.10513979928994213        0.0000000000000000     
   1.6205461451923586E-012  0.11210130843271428        0.0000000000000000     
   1.1448451778597879E-012  0.11919835760826840        0.0000000000000000     
   2.9091456348918909E-013  0.12643094681660447        0.0000000000000000     
  -9.4124708027720771E-013  0.13379907605772257        0.0000000000000000     
   2.1633623353188473E-002  0.13407312226112547        0.0000000000000000     
   2.2099458633838137E-002  0.14154778687905051        0.0000000000000000     
   2.2537914590903353E-002  0.14913327931262702        0.0000000000000000     
   2.2948991224384131E-002  0.15682959956185502        0.0000000000000000     
   2.3332688534280457E-002  0.16463674762673441        0.0000000000000000     
   1.6178691623441439E-002  0.13395322704742396        0.0000000000000000     
   1.6526877821074072E-002  0.14143565493220972        0.0000000000000000     
   1.6854368839727900E-002  0.14902986969095297        0.0000000000000000     
   1.7161164679402926E-002  0.15673587132365366        0.0000000000000000     
   1.7447265340099147E-002  0.16455365983031178        0.0000000000000000     
   1.0754777154504146E-002  0.13386758760895628        0.0000000000000000     
   1.0986107777127753E-002  0.14135556068549901        0.0000000000000000     
   1.1203534488922123E-002  0.14895600567857134        0.0000000000000000     
   1.1407057289887260E-002  0.15666892258817333        0.0000000000000000     
   1.1596676180023160E-002  0.16449431141430487        0.0000000000000000     
   5.3618799463765821E-003  0.13381620394572249        0.0000000000000000     
   5.4771485019991673E-003  0.14130750413891835        0.0000000000000000     
   5.5854115384860173E-003  0.14891168727548221        0.0000000000000000     
   5.6866690558371302E-003  0.15662875335541393        0.0000000000000000     
   5.7809210540525086E-003  0.16445870237871354        0.0000000000000000     
  -9.4124708027720771E-013  0.13379907605772257        0.0000000000000000     
  -4.3116771004242382E-012  0.14129148529246782        0.0000000000000000     
  -1.1580414687080431E-011  0.14889691448168549        0.0000000000000000     
  -2.2747461385233883E-011  0.15661536362537554        0.0000000000000000     
  -3.7812814511484216E-011  0.16444683272353799        0.0000000000000000     
   0.0000000000000000        0.0000000000000000        0.0000000000000000     
   2.0602334942221301E-014   1.0732420210686354E-003   0.0000000000000000     
   4.5192094424301166E-014   2.5153580695209993E-003   0.0000000000000000     
   7.3769224236130970E-014   4.3263481453570916E-003   0.0000000000000000     
   1.0633377858781934E-013   6.5062122485769125E-003   0.0000000000000000     
   0.0000000000000000        0.0000000000000000        0.0000000000000000     
  -2.1299545004341359E-004   1.0755318740628579E-003   0.0000000000000000     
  -4.2700573552576231E-004   2.5205175301009188E-003   0.0000000000000000     
  -6.4203085644704623E-004   4.3349569681141835E-003   0.0000000000000000     
  -8.5807081280726513E-004   6.5188501881026486E-003   0.0000000000000000     
   0.0000000000000000        0.0000000000000000        0.0000000000000000     
  -4.2427921177389379E-004   1.0824014330519946E-003   0.0000000000000000     
  -8.5304471742551143E-004   2.5359959118542875E-003   0.0000000000000000     
  -1.2862965169548534E-003   4.3607834364068777E-003   0.0000000000000000     
  -1.7240346103619191E-003   6.5567640067097661E-003   0.0000000000000000     
   0.0000000000000000        0.0000000000000000        0.0000000000000000     
  -6.3385128517083817E-004   1.0938506980360458E-003   0.0000000000000000     
  -1.2781169456540554E-003   2.5617932147811045E-003   0.0000000000000000     
  -1.9327969814496517E-003   4.4038275502351750E-003   0.0000000000000000     
  -2.5978913925576281E-003   6.6199537043982598E-003   0.0000000000000000     
   0.0000000000000000        0.0000000000000000        0.0000000000000000     
  -8.4171167023424677E-004   1.1098796690150112E-003   0.0000000000000000     
  -1.7022224202113941E-003   2.5979094388813703E-003   0.0000000000000000     
  -2.5815322499314424E-003   4.4640893095990782E-003   0.0000000000000000     
  -3.4796411593943912E-003   6.7084192811681332E-003   0.0000000000000000     
   1.0633377858781934E-013   6.5062122485769125E-003   0.0000000000000000     
   1.3770767566621128E-013   9.0276144446142809E-003   0.0000000000000000     
   1.6271299628847768E-013   1.1863218798903017E-002   0.0000000000000000     
   1.8135039097592204E-013   1.5013025311443122E-002   0.0000000000000000     
   1.9361910078702360E-013   1.8477033982234593E-002   0.0000000000000000     
  -8.5807081280726513E-004   6.5188501881026486E-003   0.0000000000000000     
  -1.0762679146262498E-003   9.0442348544428324E-003   0.0000000000000000     
  -1.2977644719238317E-003   1.1883148631511242E-002   0.0000000000000000     
  -1.5225604847000094E-003   1.5035591519307881E-002   0.0000000000000000     
  -1.7506559529547839E-003   1.8501563517832748E-002   0.0000000000000000     
  -1.7240346103619191E-003   6.5567640067097661E-003   0.0000000000000000     
  -2.1664081883143657E-003   9.0940960839599114E-003   0.0000000000000000     
  -2.6135664414798495E-003   1.1942938129354276E-002   0.0000000000000000     
  -3.0655093698583723E-003   1.5103290142892856E-002   0.0000000000000000     
  -3.5222369734499315E-003   1.8575152124575649E-002   0.0000000000000000     
  -2.5978913925576281E-003   6.6199537043982598E-003   0.0000000000000000     
  -3.2704208209266383E-003   9.1771981331655213E-003   0.0000000000000000     
  -3.9474059085053423E-003   1.2042587292432114E-002   0.0000000000000000     
  -4.6288466552937366E-003   1.5216121182198040E-002   0.0000000000000000     
  -5.3147430612918226E-003   1.8697799802463302E-002   0.0000000000000000     
  -3.4796411593943912E-003   6.7084192811681332E-003   0.0000000000000000     
  -4.3883058124630702E-003   9.2935410020596552E-003   0.0000000000000000     
  -5.2992828730003072E-003   1.2182096120744756E-002   0.0000000000000000     
  -6.2125723410061031E-003   1.5374084637223437E-002   0.0000000000000000     
  -7.1281742164804578E-003   1.8869506551495697E-002   0.0000000000000000     
   1.9361910078702360E-013   1.8477033982234593E-002   0.0000000000000000     
   1.9074580239961114E-013   2.2225951976485744E-002   0.0000000000000000     
   1.6395714538645911E-013   2.6230486459404883E-002   0.0000000000000000     
   1.1325358375722724E-013   3.0490637430992014E-002   0.0000000000000000     
   3.8634460214348465E-014   3.5006404891247123E-002   0.0000000000000000     
  -1.7506559529547839E-003   1.8501563517832748E-002   0.0000000000000000     
  -1.9784668640337325E-003   2.2251987327245856E-002   0.0000000000000000     
  -2.2024092052824336E-003   2.6257785647707210E-002   0.0000000000000000     
  -2.4224829767008852E-003   3.0518958479216818E-002   0.0000000000000000     
  -2.6386881782890894E-003   3.5035505821774678E-002   0.0000000000000000     
  -3.5222369734499315E-003   1.8575152124575649E-002   0.0000000000000000     
  -3.9778615413283399E-003   2.2330093379441064E-002   0.0000000000000000     
  -4.4264953625674126E-003   2.6339683212527502E-002   0.0000000000000000     
  -4.8681384371671473E-003   3.0603921623834959E-002   0.0000000000000000     
  -5.3027907651275463E-003   3.5122808613363435E-002   0.0000000000000000     
  -5.3147430612918226E-003   1.8697799802463302E-002   0.0000000000000000     
  -5.9981840316930789E-003   2.2460270133071378E-002   0.0000000000000000     
  -6.6722584716909809E-003   2.6476179153865763E-002   0.0000000000000000     
  -7.3369663812855330E-003   3.0745526864846440E-002   0.0000000000000000     
  -7.9923077604767325E-003   3.5268313266013415E-002   0.0000000000000000     
  -7.1281742164804578E-003   1.8869506551495697E-002   0.0000000000000000     
  -8.0394343351279443E-003   2.2642517588136794E-002   0.0000000000000000     
  -8.9396985326531380E-003   2.6667273471721979E-002   0.0000000000000000     
  -9.8289668090560407E-003   3.0943774202251244E-002   0.0000000000000000     
  -1.0707239164336649E-002   3.5472019779724591E-002   0.0000000000000000     
   3.8634460214348465E-014   3.5006404891247123E-002   0.0000000000000000     
  -2.1291128582401342E-014   3.9758529157353249E-002   0.0000000000000000     
  -2.7914628074332537E-014   4.4727750546493382E-002   0.0000000000000000     
   1.8763880423391943E-014   4.9914069058667535E-002   0.0000000000000000     
   1.1874507453712990E-013   5.5317484693875707E-002   0.0000000000000000     
  -2.6386881782890894E-003   3.5035505821774678E-002   0.0000000000000000     
  -2.8508198591070634E-003   3.9788106231769524E-002   0.0000000000000000     
  -3.0586730682148223E-003   4.4757438265590067E-002   0.0000000000000000     
  -3.2622478056123687E-003   4.9943501923236357E-002   0.0000000000000000     
  -3.4615440712997009E-003   5.5346297204708336E-002   0.0000000000000000     
  -5.3027907651275463E-003   3.5122808613363435E-002   0.0000000000000000     
  -5.7292552419130945E-003   3.9876837455138946E-002   0.0000000000000000     
  -6.1463347629882800E-003   4.4846501423187489E-002   0.0000000000000000     
  -6.5540293283531037E-003   5.0031800517509058E-002   0.0000000000000000     
  -6.9523389380075663E-003   5.5432734738103659E-002   0.0000000000000000     
  -7.9923077604767325E-003   3.5268313266013415E-002   0.0000000000000000     
  -8.6353061484393794E-003   4.0024722827461522E-002   0.0000000000000000     
  -9.2629850843482849E-003   4.4994940019285591E-002   0.0000000000000000     
  -9.8753445682034386E-003   5.0178964841485645E-002   0.0000000000000000     
  -1.0472384600004851E-002   5.5576797294061668E-002   0.0000000000000000     
  -1.0707239164336649E-002   3.5472019779724591E-002   0.0000000000000000     
  -1.1568972578685928E-002   4.0231762348737245E-002   0.0000000000000000     
  -1.2408624032294839E-002   4.5202754053884429E-002   0.0000000000000000     
  -1.3226193525163382E-002   5.0384994895166124E-002   0.0000000000000000     
  -1.4021681057291556E-002   5.5778484872582336E-002   0.0000000000000000     
   1.1874507453712990E-013   5.5317484693875707E-002   0.0000000000000000     
   2.6588258504600670E-013   6.0922044239443161E-002   0.0000000000000000     
   4.5403264481436167E-013   6.6711794482695194E-002   0.0000000000000000     
   6.8319503700176032E-013   7.2686735423631799E-002   0.0000000000000000     
   9.5336824372516116E-013   7.8846867062252954E-002   0.0000000000000000     
  -3.4615440712997009E-003   5.5346297204708336E-002   0.0000000000000000     
  -3.6554042789089958E-003   6.0950052710009812E-002   0.0000000000000000     
  -3.8426708420724303E-003   6.6738997039144571E-002   0.0000000000000000     
  -4.0233437607900052E-003   7.2713130192112577E-002   0.0000000000000000     
  -4.1974230350617188E-003   7.8872452168913879E-002   0.0000000000000000     
  -6.9523389380075663E-003   5.5432734738103659E-002   0.0000000000000000     
  -7.3395255084879717E-003   6.1034078122838648E-002   0.0000000000000000     
  -7.7138509563306245E-003   6.6820604709581344E-002   0.0000000000000000     
  -8.0753152815355254E-003   7.2792314498331789E-002   0.0000000000000000     
  -8.4239184841026701E-003   7.8949207489089943E-002   0.0000000000000000     
  -1.0472384600004851E-002   5.5576797294061668E-002   0.0000000000000000     
  -1.1052363688471043E-002   6.1174120477929632E-002   0.0000000000000000     
  -1.1613540342320547E-002   6.6956617494005541E-002   0.0000000000000000     
  -1.2155914561553361E-002   7.2924288342289395E-002   0.0000000000000000     
  -1.2679486346169486E-002   7.9077133022781187E-002   0.0000000000000000     
  -1.4021681057291556E-002   5.5778484872582336E-002   0.0000000000000000     
  -1.4793918818858212E-002   6.1370179775282779E-002   0.0000000000000000     
  -1.5541739000042199E-002   6.7147035392417134E-002   0.0000000000000000     
  -1.6265141600843514E-002   7.3109051723985394E-002   0.0000000000000000     
  -1.6964126621262163E-002   7.9256228769987586E-002   0.0000000000000000     
   9.5336824372516116E-013   7.8846867062252954E-002   0.0000000000000000     
   1.2191675620443210E-012   8.5179720567081119E-002   0.0000000000000000     
   1.4352094274312777E-012   9.1672827106638696E-002   0.0000000000000000     
   1.6014922271352997E-012   9.8326186680925715E-002   0.0000000000000000     
   1.7180163541796745E-012  0.10513979928994213        0.0000000000000000     
  -4.1974230350617188E-003   7.8872452168913879E-002   0.0000000000000000     
  -4.3651498484881300E-003   8.5204447807358252E-002   0.0000000000000000     
  -4.5267653846697989E-003   9.1696601945255571E-002   0.0000000000000000     
  -4.6822696436067219E-003   9.8348914582605834E-002   0.0000000000000000     
  -4.8316626252989017E-003  0.10516138571940899        0.0000000000000000     
  -8.4239184841026701E-003   7.8949207489089943E-002   0.0000000000000000     
  -8.7598804272263978E-003   8.5278629528113797E-002   0.0000000000000000     
  -9.0834209741010377E-003   9.1767926461661306E-002   0.0000000000000000     
  -9.3945401247265883E-003   9.8417098289732483E-002   0.0000000000000000     
  -9.6932378791030529E-003  0.10522614501232733        0.0000000000000000     
  -1.2679486346169486E-002   7.9077133022781187E-002   0.0000000000000000     
  -1.3184191734995628E-002   8.5402265729347754E-002   0.0000000000000000     
  -1.3669966766858502E-002   9.1886800655855916E-002   0.0000000000000000     
  -1.4136811441758103E-002   9.8530737802305743E-002   0.0000000000000000     
  -1.4584725759694437E-002  0.10533407716869711        0.0000000000000000     
  -1.6964126621262163E-002   7.9256228769987586E-002   0.0000000000000000     
  -1.7638083771795827E-002   8.5575356411060108E-002   0.0000000000000000     
  -1.8286402762942199E-002   9.2053224527839428E-002   0.0000000000000000     
  -1.8909083594701274E-002   9.8689833120325518E-002   0.0000000000000000     
  -1.9506126267073053E-002  0.10548518218851839        0.0000000000000000     
   1.7180163541796745E-012  0.10513979928994213        0.0000000000000000     
   1.6205461451923586E-012  0.11210130843271428        0.0000000000000000     
   1.1448451778597879E-012  0.11919835760826840        0.0000000000000000     
   2.9091456348918909E-013  0.12643094681660447        0.0000000000000000     
  -9.4124708027720771E-013  0.13379907605772257        0.0000000000000000     
  -4.8316626252989017E-003  0.10516138571940899        0.0000000000000000     
  -4.9745542152585323E-003  0.11212172464835123        0.0000000000000000     
  -5.1105542989978081E-003  0.11921764066211862        0.0000000000000000     
  -5.2396628765167324E-003  0.12644913376071121        0.0000000000000000     
  -5.3618799478153062E-003  0.13381620394412896        0.0000000000000000     
  -9.6932378791030529E-003  0.10522614501232733        0.0000000000000000     
  -9.9789493760112768E-003  0.11218297330170648        0.0000000000000000     
  -1.0251109754232098E-002  0.11927548983013070        0.0000000000000000     
  -1.0509719013765528E-002  0.12650369459759994        0.0000000000000000     
  -1.0754777154611555E-002  0.13386758760411419        0.0000000000000000     
  -1.4584725759694437E-002  0.10533407716869711        0.0000000000000000     
  -1.5013185480637681E-002  0.11228505439278011        0.0000000000000000     
  -1.5421666364558025E-002  0.11937190511230460        0.0000000000000000     
  -1.5810168411455459E-002  0.12659462932727067        0.0000000000000000     
  -1.6178691621330000E-002  0.13395322703767823        0.0000000000000000     
  -1.9506126267073053E-002  0.10548518218851839        0.0000000000000000     
  -2.0077262529137756E-002  0.11242796792157202        0.0000000000000000     
  -2.0622224129975584E-002  0.11950688650864034        0.0000000000000000     
  -2.1141011069586546E-002  0.12672193794972336        0.0000000000000000     
  -2.1633623347970633E-002  0.13407312224482107        0.0000000000000000     
  -9.4124708027720771E-013  0.13379907605772257        0.0000000000000000     
  -4.3116771004242382E-012  0.14129148529246782        0.0000000000000000     
  -1.1580414687080431E-011  0.14889691448168549        0.0000000000000000     
  -2.2747461385233883E-011  0.15661536362537554        0.0000000000000000     
  -3.7812814511484216E-011  0.16444683272353799        0.0000000000000000     
  -5.3618799478153062E-003  0.13381620394412896        0.0000000000000000     
  -5.4771485102650865E-003  0.14130750414477355        0.0000000000000000     
  -5.5854115612376477E-003  0.14891168729504667        0.0000000000000000     
  -5.6866691007329846E-003  0.15662875339494825        0.0000000000000000     
  -5.7809211287510971E-003  0.16445870244447841        0.0000000000000000     
  -1.0754777154611555E-002  0.13386758760411419        0.0000000000000000     
  -1.0986107784321370E-002  0.14135556069446181        0.0000000000000000     
  -1.1203534510446155E-002  0.14895600571343118        0.0000000000000000     
  -1.1407057332985911E-002  0.15666892266102228        0.0000000000000000     
  -1.1596676251940633E-002  0.16449431153723509        0.0000000000000000     
  -1.6178691621330000E-002  0.13395322703767823        0.0000000000000000     
  -1.6526877826480525E-002  0.14143565494153260        0.0000000000000000     
  -1.6854368859205937E-002  0.14902986973683904        0.0000000000000000     
  -1.7161164719506232E-002  0.15673587142359757        0.0000000000000000     
  -1.7447265407381413E-002  0.16455366000180813        0.0000000000000000     
  -2.1633623347970633E-002  0.13407312224482107        0.0000000000000000     
  -2.2099458636742553E-002  0.14154778688598590        0.0000000000000000     
  -2.2537914607516994E-002  0.14913327936527024        0.0000000000000000     
  -2.2948991260293965E-002  0.15682959968267410        0.0000000000000000     
  -2.3332688595073453E-002  0.16463674783819748        0.0000000000000000     
   0.0000000000000000        0.0000000000000000        0.0000000000000000     
  -8.4171167023424677E-004   1.1098796690150112E-003   0.0000000000000000     
  -1.7022224202113941E-003   2.5979094388813703E-003   0.0000000000000000     
  -2.5815322499314424E-003   4.4640893095990782E-003   0.0000000000000000     
  -3.4796411593943912E-003   6.7084192811681332E-003   0.0000000000000000     
   0.0000000000000000        0.0000000000000000        0.0000000000000000     
  -1.0567576284740989E-003   1.1340558163863144E-003   0.0000000000000000     
  -2.1398921084469359E-003   2.6501978013117600E-003   0.0000000000000000     
  -3.2494034399185119E-003   4.5484259547763353E-003   0.0000000000000000     
  -4.3852916228888260E-003   6.8287402767800431E-003   0.0000000000000000     
   0.0000000000000000        0.0000000000000000        0.0000000000000000     
  -1.2878864214003740E-003   1.1699466105473788E-003   0.0000000000000000     
  -2.6056569777100896E-003   2.7245115192289452E-003   0.0000000000000000     
  -3.9533116689291483E-003   4.6636947260446987E-003   0.0000000000000000     
  -5.3308504950575486E-003   6.9874962309946411E-003   0.0000000000000000     
   0.0000000000000000        0.0000000000000000        0.0000000000000000     
  -1.5350980490130724E-003   1.2175520514982037E-003   0.0000000000000000     
  -3.0995170280008560E-003   2.8208505926329273E-003   0.0000000000000000     
  -4.6932569369633513E-003   4.8098956234041692E-003   0.0000000000000000     
  -6.3163177759005566E-003   7.1846871438119306E-003   0.0000000000000000     
   0.0000000000000000        0.0000000000000000        0.0000000000000000     
  -1.7983925113121933E-003   1.2768721392387903E-003   0.0000000000000000     
  -3.6214722593192333E-003   2.9392150215237054E-003   0.0000000000000000     
  -5.4692392440211200E-003   4.9870286468547461E-003   0.0000000000000000     
  -7.3416934654178543E-003   7.4203130152319099E-003   0.0000000000000000     
  -3.4796411593943912E-003   6.7084192811681332E-003   0.0000000000000000     
  -4.3883058124630702E-003   9.2935410020596552E-003   0.0000000000000000     
  -5.2992828730003072E-003   1.2182096120744756E-002   0.0000000000000000     
  -6.2125723410061031E-003   1.5374084637223437E-002   0.0000000000000000     
  -7.1281742164804578E-003   1.8869506551495697E-002   0.0000000000000000     
  -4.3852916228888260E-003   6.8287402767800431E-003   0.0000000000000000     
  -5.5346043306177903E-003   9.4490825824656531E-003   0.0000000000000000     
  -6.6843892363653117E-003   1.2367394686975947E-002   0.0000000000000000     
  -7.8346463401313977E-003   1.5583676590310921E-002   0.0000000000000000     
  -8.9853756419160415E-003   1.9097928292470576E-002   0.0000000000000000     
  -5.3308504950575486E-003   6.9874962309946411E-003   0.0000000000000000     
  -6.7238575430849266E-003   9.6497807662068551E-003   0.0000000000000000     
  -8.1179169000009290E-003   1.2604413063809430E-002   0.0000000000000000     
  -9.5130285658055445E-003   1.5851393123802366E-002   0.0000000000000000     
  -1.0909192540498778E-002   1.9390720946185654E-002   0.0000000000000000     
  -6.3163177759005566E-003   7.1846871438119306E-003   0.0000000000000000     
  -7.9560654498644877E-003   9.8956355532832576E-003   0.0000000000000000     
  -9.5998658639071463E-003   1.2893151251245202E-002   0.0000000000000000     
  -1.1247719018028540E-002   1.6177234237697763E-002   0.0000000000000000     
  -1.2899624912228666E-002   1.9747884512640940E-002   0.0000000000000000     
  -7.3416934654178543E-003   7.4203130152319099E-003   0.0000000000000000     
  -9.2312280509564606E-003   1.0186646943694864E-002   0.0000000000000000     
  -1.1130236128083972E-002   1.3233609249283268E-002   0.0000000000000000     
  -1.3038717696800390E-002   1.6561199931997127E-002   0.0000000000000000     
  -1.4956672757105707E-002   2.0169418991836434E-002   0.0000000000000000     
  -7.1281742164804578E-003   1.8869506551495697E-002   0.0000000000000000     
  -8.0394343351279443E-003   2.2642517588136794E-002   0.0000000000000000     
  -8.9396985326531380E-003   2.6667273471721979E-002   0.0000000000000000     
  -9.8289668090560407E-003   3.0943774202251244E-002   0.0000000000000000     
  -1.0707239164336649E-002   3.5472019779724591E-002   0.0000000000000000     
  -8.9853756419160415E-003   1.9097928292470576E-002   0.0000000000000000     
  -1.0129424640953831E-002   2.2885418765321120E-002   0.0000000000000000     
  -1.1259640836479354E-002   2.6921416980728766E-002   0.0000000000000000     
  -1.2376024228492610E-002   3.1205922938693512E-002   0.0000000000000000     
  -1.3478574816993596E-002   3.5738936639215367E-002   0.0000000000000000     
  -1.0909192540498778E-002   1.9390720946185654E-002   0.0000000000000000     
  -1.2295967138491628E-002   2.3197556685308166E-002   0.0000000000000000     
  -1.3662910674195094E-002   2.7247060495518741E-002   0.0000000000000000     
  -1.5010023147609174E-002   3.1539232376817397E-002   0.0000000000000000     
  -1.6337304558733869E-002   3.6074072329204107E-002   0.0000000000000000     
  -1.2899624912228666E-002   1.9747884512640940E-002   0.0000000000000000     
  -1.4539061827741335E-002   2.3578931348097930E-002   0.0000000000000000     
  -1.6149508045800356E-002   2.7644204016091901E-002   0.0000000000000000     
  -1.7730963566405737E-002   3.1943702516622860E-002   0.0000000000000000     
  -1.9283428389557468E-002   3.6477426849690825E-002   0.0000000000000000     
  -1.4956672757105707E-002   2.0169418991836434E-002   0.0000000000000000     
  -1.6858708708702947E-002   2.4029542753690406E-002   0.0000000000000000     
  -1.8719432951295148E-002   2.8112847542448239E-002   0.0000000000000000     
  -2.0538845484882301E-002   3.2419333358109946E-002   0.0000000000000000     
  -2.2316946309464399E-002   3.6949000200675514E-002   0.0000000000000000     
  -1.0707239164336649E-002   3.5472019779724591E-002   0.0000000000000000     
  -1.1568972578685928E-002   4.0231762348737245E-002   0.0000000000000000     
  -1.2408624032294839E-002   4.5202754053884429E-002   0.0000000000000000     
  -1.3226193525163382E-002   5.0384994895166124E-002   0.0000000000000000     
  -1.4021681057291556E-002   5.5778484872582336E-002   0.0000000000000000     
  -1.3478574816993596E-002   3.5738936639215367E-002   0.0000000000000000     
  -1.4559693479945976E-002   4.0500586920460942E-002   0.0000000000000000     
  -1.5611781095313406E-002   4.5471002620596876E-002   0.0000000000000000     
  -1.6634837663095894E-002   5.0650183739623142E-002   0.0000000000000000     
  -1.7628863183293434E-002   5.6038130277539788E-002   0.0000000000000000     
  -1.6337304558733869E-002   3.6074072329204107E-002   0.0000000000000000     
  -1.7636907799512769E-002   4.0833827444127425E-002   0.0000000000000000     
  -1.8900985761889463E-002   4.5800744813035865E-002   0.0000000000000000     
  -2.0129538445863952E-002   5.0974824435929413E-002   0.0000000000000000     
  -2.1322565851436236E-002   5.6356066312808081E-002   0.0000000000000000     
  -1.9283428389557468E-002   3.6477426849690825E-002   0.0000000000000000     
  -2.0800615537386311E-002   4.1231483919736696E-002   0.0000000000000000     
  -2.2276238032022999E-002   4.6191980631201383E-002   0.0000000000000000     
  -2.3710295873467558E-002   5.1358916984084908E-002   0.0000000000000000     
  -2.5102789061719966E-002   5.6732292978387236E-002   0.0000000000000000     
  -2.2316946309464399E-002   3.6949000200675514E-002   0.0000000000000000     
  -2.4050816693566592E-002   4.1693556347288760E-002   0.0000000000000000     
  -2.5737537905714029E-002   4.6644710075093451E-002   0.0000000000000000     
  -2.7377109945906707E-002   5.1802461384089622E-002   0.0000000000000000     
  -2.8969532814144626E-002   5.7166810274277245E-002   0.0000000000000000     
  -1.4021681057291556E-002   5.5778484872582336E-002   0.0000000000000000     
  -1.4793918818858212E-002   6.1370179775282779E-002   0.0000000000000000     
  -1.5541739000042199E-002   6.7147035392417134E-002   0.0000000000000000     
  -1.6265141600843514E-002   7.3109051723985394E-002   0.0000000000000000     
  -1.6964126621262163E-002   7.9256228769987586E-002   0.0000000000000000     
  -1.7628863183293434E-002   5.6038130277539788E-002   0.0000000000000000     
  -1.8593331193299447E-002   6.1622909019987231E-002   0.0000000000000000     
  -1.9527715230507350E-002   6.7392586752605885E-002   0.0000000000000000     
  -2.0432015294917144E-002   7.3347163475395785E-002   0.0000000000000000     
  -2.1306231386528835E-002   7.9486639188356925E-002   0.0000000000000000     
  -2.1322565851436236E-002   5.6356066312808081E-002   0.0000000000000000     
  -2.2479741105444710E-002   6.1932961217132078E-002   0.0000000000000000     
  -2.3600737334727766E-002   6.7693999922361567E-002   0.0000000000000000     
  -2.4685554539285410E-002   7.3639182428496555E-002   0.0000000000000000     
  -2.5734192719117633E-002   7.9768508735537008E-002   0.0000000000000000     
  -2.5102789061719966E-002   5.6732292978387236E-002   0.0000000000000000     
  -2.6453148555294001E-002   6.2300336366717342E-002   0.0000000000000000     
  -2.7760805312703453E-002   6.8051274901684153E-002   0.0000000000000000     
  -2.9025759333948301E-002   7.3985108583287648E-002   0.0000000000000000     
  -3.0248010619028553E-002   8.0101837411527835E-002   0.0000000000000000     
  -2.8969532814144626E-002   5.7166810274277245E-002   0.0000000000000000     
  -3.0513553542847335E-002   6.2725034468743016E-002   0.0000000000000000     
  -3.2007919164434406E-002   6.8464411690573643E-002   0.0000000000000000     
  -3.3452629678905825E-002   7.4384941939769092E-002   0.0000000000000000     
  -3.4847685086261598E-002   8.0486625216329391E-002   0.0000000000000000     
  -1.6964126621262163E-002   7.9256228769987586E-002   0.0000000000000000     
  -1.7638083771795827E-002   8.5575356411060108E-002   0.0000000000000000     
  -1.8286402762942199E-002   9.2053224527839428E-002   0.0000000000000000     
  -1.8909083594701274E-002   9.8689833120325518E-002   0.0000000000000000     
  -1.9506126267073053E-002  0.10548518218851839        0.0000000000000000     
  -2.1306231386528835E-002   7.9486639188356925E-002   0.0000000000000000     
  -2.2149273136664715E-002   8.5797660199362732E-002   0.0000000000000000     
  -2.2960050176647078E-002   9.2266872816286677E-002   0.0000000000000000     
  -2.3738562506475918E-002   9.8894277039128689E-002   0.0000000000000000     
  -2.4484810126151245E-002  0.10567987286788887        0.0000000000000000     
  -2.5734192719117633E-002   7.9768508735537008E-002   0.0000000000000000     
  -2.6745476428640006E-002   8.6068935720367515E-002   0.0000000000000000     
  -2.7718230222268082E-002   9.2527420259872539E-002   0.0000000000000000     
  -2.8652454100001865E-002   9.9143962354052123E-002   0.0000000000000000     
  -2.9548148061841355E-002  0.10591856200290622        0.0000000000000000     
  -3.0248010619028553E-002   8.0101837411527835E-002   0.0000000000000000     
  -3.1426693647721694E-002   8.6389182974074386E-002   0.0000000000000000     
  -3.2560942899805212E-002   9.2834866858597043E-002   0.0000000000000000     
  -3.3650758375279109E-002   9.9438889065095709E-002   0.0000000000000000     
  -3.4696140074143365E-002  0.10620124959357045        0.0000000000000000     
  -3.4847685086261598E-002   8.0486625216329391E-002   0.0000000000000000     
  -3.6192924793909793E-002   8.6758401960483442E-002   0.0000000000000000     
  -3.7488188209258484E-002   9.3189212612460159E-002   0.0000000000000000     
  -3.8733475332307643E-002   9.9779057172259517E-002   0.0000000000000000     
  -3.9928786163057305E-002  0.10652793563988158        0.0000000000000000     
  -1.9506126267073053E-002  0.10548518218851839        0.0000000000000000     
  -2.0077262529137756E-002  0.11242796792157202        0.0000000000000000     
  -2.0622224129975584E-002  0.11950688650864034        0.0000000000000000     
  -2.1141011069586546E-002  0.12672193794972336        0.0000000000000000     
  -2.1633623347970633E-002  0.13407312224482107        0.0000000000000000     
  -2.4484810126151245E-002  0.10567987286788887        0.0000000000000000     
  -2.5198781307425668E-002  0.11261265589643518        0.0000000000000000     
  -2.5880464322051797E-002  0.11968162171863574        0.0000000000000000     
  -2.6529859170029632E-002  0.12688677033449047        0.0000000000000000     
  -2.7146965851359176E-002  0.13422810174399943        0.0000000000000000     
  -2.9548148061841355E-002  0.10591856200290622        0.0000000000000000     
  -3.0405342601415607E-002  0.11284006032572250        0.0000000000000000     
  -3.1224068212353687E-002  0.11989729844178855        0.0000000000000000     
  -3.2004324894655586E-002  0.12709027635110445        0.0000000000000000     
  -3.2746112648321321E-002  0.13441899405367005        0.0000000000000000     
  -3.4696140074143365E-002  0.10620124959357045        0.0000000000000000     
  -3.5696946411107572E-002  0.11311018120943393        0.0000000000000000     
  -3.6653035800881251E-002  0.12015391667809884        0.0000000000000000     
  -3.7564408243464437E-002  0.12733245599956516        0.0000000000000000     
  -3.8431063738857095E-002  0.13464579917383290        0.0000000000000000     
  -3.9928786163057305E-002  0.10652793563988158        0.0000000000000000     
  -4.1073592736501553E-002  0.11342301854756953        0.0000000000000000     
  -4.2167367087634494E-002  0.12045147642756657        0.0000000000000000     
  -4.3210109216456134E-002  0.12761330927987272        0.0000000000000000     
  -4.4201819122966474E-002  0.13490851710448798        0.0000000000000000     
  -2.1633623347970633E-002  0.13407312224482107        0.0000000000000000     
  -2.2099458636742553E-002  0.14154778688598590        0.0000000000000000     
  -2.2537914607516994E-002  0.14913327936527024        0.0000000000000000     
  -2.2948991260293965E-002  0.15682959968267410        0.0000000000000000     
  -2.3332688595073453E-002  0.16463674783819748        0.0000000000000000     
  -2.7146965851359176E-002  0.13422810174399943        0.0000000000000000     
  -2.7730838673677632E-002  0.14169257252436521        0.0000000000000000     
  -2.8280531944622243E-002  0.14926713925279031        0.0000000000000000     
  -2.8796045664192988E-002  0.15695180192927471        0.0000000000000000     
  -2.9277379832389865E-002  0.16474656055381848        0.0000000000000000     
  -3.2746112648321321E-002  0.13441899405367005        0.0000000000000000     
  -3.3448006395855955E-002  0.14187062785321400        0.0000000000000000     
  -3.4108581059764581E-002  0.14943235405346472        0.0000000000000000     
  -3.4727836640047194E-002  0.15710417265442223        0.0000000000000000     
  -3.5305773136703786E-002  0.16488608365608648        0.0000000000000000     
  -3.8431063738857095E-002  0.13464579917383290        0.0000000000000000     
  -3.9250961803277529E-002  0.14208195287253228        0.0000000000000000     
  -4.0022061952944020E-002  0.14962892376729353        0.0000000000000000     
  -4.0744364187856590E-002  0.15728671185811663        0.0000000000000000     
  -4.1417868508015217E-002  0.16505531714500155        0.0000000000000000     
  -4.4201819122966474E-002  0.13490851710448798        0.0000000000000000     
  -4.5139704895942330E-002  0.14232654758232008        0.0000000000000000     
  -4.6020974624160570E-002  0.14985684839427671        0.0000000000000000     
  -4.6845628307621165E-002  0.15749941954035790        0.0000000000000000     
  -4.7613665946324150E-002  0.16525426102056362        0.0000000000000000     
   0.0000000000000000        0.0000000000000000        0.0000000000000000     
  -1.7983925113121933E-003   1.2768721392387903E-003   0.0000000000000000     
  -3.6214722593192333E-003   2.9392150215237054E-003   0.0000000000000000     
  -5.4692392440211200E-003   4.9870286468547461E-003   0.0000000000000000     
  -7.3416934654178543E-003   7.4203130152319099E-003   0.0000000000000000     
   0.0000000000000000        0.0000000000000000        0.0000000000000000     
  -2.0694967067021938E-003   1.3550137872194357E-003   0.0000000000000000     
  -4.1641687690633774E-003   3.0941063794345178E-003   0.0000000000000000     
  -6.2840161870835499E-003   5.2172777766452474E-003   0.0000000000000000     
  -8.4290389607627140E-003   7.7245279788516223E-003   0.0000000000000000     
   0.0000000000000000        0.0000000000000000        0.0000000000000000     
  -2.3401375335875287E-003   1.4590839088904383E-003   0.0000000000000000     
  -4.7202526546314396E-003   3.3000262398986020E-003   0.0000000000000000     
  -7.1403453631317350E-003   5.5228269930244905E-003   0.0000000000000000     
  -9.6004156590884116E-003   8.1274861682681040E-003   0.0000000000000000     
   0.0000000000000000        0.0000000000000000        0.0000000000000000     
  -2.6103149919681989E-003   1.5890825042517982E-003   0.0000000000000000     
  -5.2897239160234243E-003   3.5569746029159568E-003   0.0000000000000000     
  -8.0382267721656742E-003   5.9036762959924763E-003   0.0000000000000000     
  -1.0855823560394950E-002   8.6291875834813569E-003   0.0000000000000000     
   0.0000000000000000        0.0000000000000000        0.0000000000000000     
  -2.8800290818442043E-003   1.7450095733035160E-003   0.0000000000000000     
  -5.8725825532393271E-003   3.8649514684865847E-003   0.0000000000000000     
  -8.9776604141853667E-003   6.3598256855492063E-003   0.0000000000000000     
  -1.2195262664682327E-002   9.2296322244913818E-003   0.0000000000000000     
  -7.3416934654178543E-003   7.4203130152319099E-003   0.0000000000000000     
  -9.2312280509564606E-003   1.0186646943694864E-002   0.0000000000000000     
  -1.1130236128083972E-002   1.3233609249283268E-002   0.0000000000000000     
  -1.3038717696800390E-002   1.6561199931997127E-002   0.0000000000000000     
  -1.4956672757105707E-002   2.0169418991836434E-002   0.0000000000000000     
  -8.4290389607627140E-003   7.7245279788516223E-003   0.0000000000000000     
  -1.0590984094471787E-002   1.0558445929469539E-002   0.0000000000000000     
  -1.2761598592581700E-002   1.3661620571914893E-002   0.0000000000000000     
  -1.4940882455092444E-002   1.7034051906187685E-002   0.0000000000000000     
  -1.7128835682004018E-002   2.0675739932287909E-002   0.0000000000000000     
  -9.6004156590884116E-003   8.1274861682681040E-003   0.0000000000000000     
  -1.2076972328521398E-002   1.1046663502635152E-002   0.0000000000000000     
  -1.4546524157450611E-002   1.4213018733131339E-002   0.0000000000000000     
  -1.7009071145876051E-002   1.7626551859756666E-002   0.0000000000000000     
  -1.9464613293797735E-002   2.1287262882511131E-002   0.0000000000000000     
  -1.0855823560394950E-002   8.6291875834813569E-003   0.0000000000000000     
  -1.3689192753105286E-002   1.1651299663191698E-002   0.0000000000000000     
  -1.6485012822690708E-002   1.4887803732932609E-002   0.0000000000000000     
  -1.9243283769151236E-002   1.8338699792704076E-002   0.0000000000000000     
  -2.1964005592486846E-002   2.2003987842506116E-002   0.0000000000000000     
  -1.2195262664682327E-002   9.2296322244913818E-003   0.0000000000000000     
  -1.5427645368223455E-002   1.2372354411139186E-002   0.0000000000000000     
  -1.8577064588302002E-002   1.5685975571318699E-002   0.0000000000000000     
  -2.1643520324917970E-002   1.9170495705029923E-002   0.0000000000000000     
  -2.4627012578071355E-002   2.2825914812272849E-002   0.0000000000000000     
  -1.4956672757105707E-002   2.0169418991836434E-002   0.0000000000000000     
  -1.6858708708702947E-002   2.4029542753690406E-002   0.0000000000000000     
  -1.8719432951295148E-002   2.8112847542448239E-002   0.0000000000000000     
  -2.0538845484882301E-002   3.2419333358109946E-002   0.0000000000000000     
  -2.2316946309464399E-002   3.6949000200675514E-002   0.0000000000000000     
  -1.7128835682004018E-002   2.0675739932287909E-002   0.0000000000000000     
  -1.9294223555159334E-002   2.4558794268016441E-002   0.0000000000000000     
  -2.1405811356401280E-002   2.8655324531174153E-002   0.0000000000000000     
  -2.3463599085729848E-002   3.2965330721761041E-002   0.0000000000000000     
  -2.5467586743145063E-002   3.7488812839777105E-002   0.0000000000000000     
  -1.9464613293797735E-002   2.1287262882511131E-002   0.0000000000000000     
  -2.1884922140893340E-002   2.5176089257006873E-002   0.0000000000000000     
  -2.4241769226840567E-002   2.9273968438856022E-002   0.0000000000000000     
  -2.6535154551639406E-002   3.3580900428058565E-002   0.0000000000000000     
  -2.8765078115289874E-002   3.8096885224614518E-002   0.0000000000000000     
  -2.1964005592486846E-002   2.2003987842506116E-002   0.0000000000000000     
  -2.4630804465904963E-002   2.5881427720661702E-002   0.0000000000000000     
  -2.7227306562613008E-002   2.9968779265493847E-002   0.0000000000000000     
  -2.9753511882610956E-002   3.4266042477002531E-002   0.0000000000000000     
  -3.2209420425898833E-002   3.8773217355187767E-002   0.0000000000000000     
  -2.4627012578071355E-002   2.2825914812272849E-002   0.0000000000000000     
  -2.7531870530194211E-002   2.6674809658980940E-002   0.0000000000000000     
  -3.0362423363718603E-002   3.0739757011087630E-002   0.0000000000000000     
  -3.3118671078644510E-002   3.5020756868592934E-002   0.0000000000000000     
  -3.5800613674971948E-002   3.9517809231496837E-002   0.0000000000000000     
  -2.2316946309464399E-002   3.6949000200675514E-002   0.0000000000000000     
  -2.4050816693566592E-002   4.1693556347288760E-002   0.0000000000000000     
  -2.5737537905714029E-002   4.6644710075093451E-002   0.0000000000000000     
  -2.7377109945906707E-002   5.1802461384089622E-002   0.0000000000000000     
  -2.8969532814144626E-002   5.7166810274277245E-002   0.0000000000000000     
  -2.5467586743145063E-002   3.7488812839777105E-002   0.0000000000000000     
  -2.7418268973311517E-002   4.2222233070790427E-002   0.0000000000000000     
  -2.9316140420893835E-002   4.7162053600369090E-002   0.0000000000000000     
  -3.1161201085892019E-002   5.2308274428513074E-002   0.0000000000000000     
  -3.2953450968306069E-002   5.7660895555222406E-002   0.0000000000000000     
  -2.8765078115289874E-002   3.8096885224614518E-002   0.0000000000000000     
  -3.0933730081878972E-002   4.2819702434248534E-002   0.0000000000000000     
  -3.3043300615493730E-002   4.7747131662685301E-002   0.0000000000000000     
  -3.5093789716134124E-002   5.2879172909924790E-002   0.0000000000000000     
  -3.7085197383800172E-002   5.8215826175967017E-002   0.0000000000000000     
  -3.2209420425898833E-002   3.8773217355187767E-002   0.0000000000000000     
  -3.4597200019268970E-002   4.3485964437663095E-002   0.0000000000000000     
  -3.6919018489513698E-002   4.8399944262042104E-002   0.0000000000000000     
  -3.9174875836633018E-002   5.3515156828324771E-002   0.0000000000000000     
  -4.1364772060626928E-002   5.8831602136511084E-002   0.0000000000000000     
  -3.5800613674971948E-002   3.9517809231496837E-002   0.0000000000000000     
  -3.8408678785481501E-002   4.4221019081034110E-002   0.0000000000000000     
  -4.0943294042953743E-002   4.9120491398439492E-002   0.0000000000000000     
  -4.3404459447388695E-002   5.4216226183713002E-002   0.0000000000000000     
  -4.5792174998786343E-002   5.9508223436854621E-002   0.0000000000000000     
  -2.8969532814144626E-002   5.7166810274277245E-002   0.0000000000000000     
  -3.0513553542847335E-002   6.2725034468743016E-002   0.0000000000000000     
  -3.2007919164434406E-002   6.8464411690573643E-002   0.0000000000000000     
  -3.3452629678905825E-002   7.4384941939769092E-002   0.0000000000000000     
  -3.4847685086261598E-002   8.0486625216329391E-002   0.0000000000000000     
  -3.2953450968306069E-002   5.7660895555222406E-002   0.0000000000000000     
  -3.4691000244326933E-002   6.3206621580102984E-002   0.0000000000000000     
  -3.6371959090145553E-002   6.8932157102760711E-002   0.0000000000000000     
  -3.7996327505761943E-002   7.4837502123195607E-002   0.0000000000000000     
  -3.9564105491176088E-002   8.0922656641407645E-002   0.0000000000000000     
  -3.7085197383800172E-002   5.8215826175967017E-002   0.0000000000000000     
  -3.9015532835955019E-002   6.3744663757691056E-002   0.0000000000000000     
  -4.0882805290061837E-002   6.9453257951976002E-002   0.0000000000000000     
  -4.2687014746120591E-002   7.5341608758821857E-002   0.0000000000000000     
  -4.4428161204131338E-002   8.1409716178228592E-002   0.0000000000000000     
  -4.1364772060626928E-002   5.8831602136511084E-002   0.0000000000000000     
  -4.3487151317731614E-002   6.4339161001507272E-002   0.0000000000000000     
  -4.5540457764183230E-002   7.0027714238219518E-002   0.0000000000000000     
  -4.7524691399981819E-002   7.5897261846647815E-002   0.0000000000000000     
  -4.9439852225127354E-002   8.1947803826792190E-002   0.0000000000000000     
  -4.5792174998786343E-002   5.9508223436854621E-002   0.0000000000000000     
  -4.8105855689656703E-002   6.4990113311551606E-002   0.0000000000000000     
  -5.0344916512509788E-002   7.0655525961491258E-002   0.0000000000000000     
  -5.2509357467345599E-002   7.6504461386673550E-002   0.0000000000000000     
  -5.4599178554164116E-002   8.2536919587098481E-002   0.0000000000000000     
  -3.4847685086261598E-002   8.0486625216329391E-002   0.0000000000000000     
  -3.6192924793909793E-002   8.6758401960483442E-002   0.0000000000000000     
  -3.7488188209258484E-002   9.3189212612460159E-002   0.0000000000000000     
  -3.8733475332307643E-002   9.9779057172259517E-002   0.0000000000000000     
  -3.9928786163057305E-002  0.10652793563988158        0.0000000000000000     
  -3.9564105491176088E-002   8.0922656641407645E-002   0.0000000000000000     
  -4.1075886463952542E-002   8.7177455512708016E-002   0.0000000000000000     
  -4.2532263841655836E-002   9.3591733592407828E-002   0.0000000000000000     
  -4.3933237624285977E-002  0.10016549088050707        0.0000000000000000     
  -4.5278807811842958E-002  0.10689872737700579        0.0000000000000000     
  -4.4428161204131338E-002   8.1409716178228592E-002   0.0000000000000000     
  -4.6107295254598175E-002   8.7647206463861524E-002   0.0000000000000000     
  -4.7725467488025253E-002   9.4043705869385943E-002   0.0000000000000000     
  -4.9282677904412583E-002  0.10059921439480184        0.0000000000000000     
  -5.0778926503760161E-002  0.10731373204010920        0.0000000000000000     
  -4.9439852225127354E-002   8.1947803826792190E-002   0.0000000000000000     
  -5.1287151165846701E-002   8.8167654813943980E-002   0.0000000000000000     
  -5.3067799148366734E-002   9.4545129443394535E-002   0.0000000000000000     
  -5.4781796172687469E-002  0.10108022771514383        0.0000000000000000     
  -5.6429142238808891E-002  0.10777294962919189        0.0000000000000000     
  -5.4599178554164116E-002   8.2536919587098481E-002   0.0000000000000000     
  -5.6615454197698104E-002   8.8738800562955397E-002   0.0000000000000000     
  -5.8559258822680274E-002   9.5096004314433574E-002   0.0000000000000000     
  -6.0430592429110634E-002  0.10160853084153304        0.0000000000000000     
  -6.2229455016989177E-002  0.10827638014425377        0.0000000000000000     
  -3.9928786163057305E-002  0.10652793563988158        0.0000000000000000     
  -4.1073592736501553E-002  0.11342301854756953        0.0000000000000000     
  -4.2167367087634494E-002  0.12045147642756657        0.0000000000000000     
  -4.3210109216456134E-002  0.12761330927987272        0.0000000000000000     
  -4.4201819122966474E-002  0.13490851710448798        0.0000000000000000     
  -4.5278807811842958E-002  0.10689872737700579        0.0000000000000000     
  -4.6568127609310055E-002  0.11377782912289665        0.0000000000000000     
  -4.7800350221670493E-002  0.12078918215917245        0.0000000000000000     
  -4.8975475648924308E-002  0.12793278648583309        0.0000000000000000     
  -5.0093503891071485E-002  0.13520864210287864        0.0000000000000000     
  -5.0778926503760161E-002  0.10731373204010920        0.0000000000000000     
  -5.2213397061245552E-002  0.11417386971818275        0.0000000000000000     
  -5.3585273352046360E-002  0.12116623834189709        0.0000000000000000     
  -5.4894555376162557E-002  0.12829083791125226        0.0000000000000000     
  -5.6141243133594164E-002  0.13554766842624827        0.0000000000000000     
  -5.6429142238808891E-002  0.10777294962919189        0.0000000000000000     
  -5.8009401092308073E-002  0.11461114033342776        0.0000000000000000     
  -5.9522136478762075E-002  0.12158264497574052        0.0000000000000000     
  -6.0967348398170904E-002  0.12868746355613020        0.0000000000000000     
  -6.2345036850534524E-002  0.13592559607459678        0.0000000000000000     
  -6.2229455016989177E-002  0.10827638014425377        0.0000000000000000     
  -6.3956139702497611E-002  0.11508964096863172        0.0000000000000000     
  -6.5610939601817658E-002  0.12203840206070278        0.0000000000000000     
  -6.7193854714949305E-002  0.12912266342046697        0.0000000000000000     
  -6.8704885041892566E-002  0.13634242504792426        0.0000000000000000     
  -4.4201819122966474E-002  0.13490851710448798        0.0000000000000000     
  -4.5139704895942330E-002  0.14232654758232008        0.0000000000000000     
  -4.6020974624160570E-002  0.14985684839427671        0.0000000000000000     
  -4.6845628307621165E-002  0.15749941954035790        0.0000000000000000     
  -4.7613665946324150E-002  0.16525426102056362        0.0000000000000000     
  -5.0093503891071485E-002  0.13520864210287864        0.0000000000000000     
  -5.1151593363862748E-002  0.14260726173304428        0.0000000000000000     
  -5.2146902483048832E-002  0.15011915809906512        0.0000000000000000     
  -5.3079431248629752E-002  0.15774433120094120        0.0000000000000000     
  -5.3949179660605487E-002  0.16548278103867253        0.0000000000000000     
  -5.6141243133594164E-002  0.13554766842624827        0.0000000000000000     
  -5.7323984897051150E-002  0.14292694507517181        0.0000000000000000     
  -5.8441428939243457E-002  0.15041888304630963        0.0000000000000000     
  -5.9493575260171114E-002  0.15802348233966176        0.0000000000000000     
  -6.0480423859834098E-002  0.16574074295522817        0.0000000000000000     
  -6.2345036850534524E-002  0.13592559607459678        0.0000000000000000     
  -6.3656879495507537E-002  0.14328559760870263        0.0000000000000000     
  -6.4904553992744446E-002  0.15075602323601026        0.0000000000000000     
  -6.6088060342245278E-002  0.15833687295651949        0.0000000000000000     
  -6.7207398544010005E-002  0.16602814677023051        0.0000000000000000     
  -6.8704885041892566E-002  0.13634242504792426        0.0000000000000000     
  -7.0150277159231902E-002  0.14368321933363690        0.0000000000000000     
  -7.1536277643551791E-002  0.15113057866816695        0.0000000000000000     
  -7.2862886494852216E-002  0.15868450305151452        0.0000000000000000     
  -7.4130103713133194E-002  0.16634499248367954        0.0000000000000000     
   0.0000000000000000        0.0000000000000000        0.0000000000000000     
  -2.8800290818442043E-003   1.7450095733035160E-003   0.0000000000000000     
  -5.8725825532393271E-003   3.8649514684865847E-003   0.0000000000000000     
  -8.9776604141853667E-003   6.3598256855492063E-003   0.0000000000000000     
  -1.2195262664682327E-002   9.2296322244913818E-003   0.0000000000000000     
   0.0000000000000000        0.0000000000000000        0.0000000000000000     
  -3.2831432107902447E-003   1.9995240590892013E-003   0.0000000000000000     
  -6.6768426178120980E-003   4.3312671408057904E-003   0.0000000000000000     
  -1.0181098221065559E-002   6.9952292451497646E-003   0.0000000000000000     
  -1.3795910020550625E-002   9.9914103721211230E-003   0.0000000000000000     
   0.0000000000000000        0.0000000000000000        0.0000000000000000     
  -3.9535207863810240E-003   2.4252849046524673E-003   0.0000000000000000     
  -7.9105181612746881E-003   5.0632319240688783E-003   0.0000000000000000     
  -1.1870992124680990E-002   7.9138410582492349E-003   0.0000000000000000     
  -1.5834942676599927E-002   1.0977112307193535E-002   0.0000000000000000     
   0.0000000000000000        0.0000000000000000        0.0000000000000000     
  -4.8911618086165407E-003   3.0222921099933133E-003   0.0000000000000000     
  -9.5736091836270930E-003   6.0608458182758538E-003   0.0000000000000000     
  -1.4047342125031656E-002   9.1156611248476207E-003   0.0000000000000000     
  -1.8312360632830232E-002   1.2186738029708615E-002   0.0000000000000000     
   0.0000000000000000        0.0000000000000000        0.0000000000000000     
  -6.0960662774967945E-003   3.7905456751117380E-003   0.0000000000000000     
  -1.1666115684869317E-002   7.3241088234267115E-003   0.0000000000000000     
  -1.6710148222117568E-002   1.0600689444944918E-002   0.0000000000000000     
  -2.1228163889241546E-002   1.3620287539666360E-002   0.0000000000000000     
  -1.2195262664682327E-002   9.2296322244913818E-003   0.0000000000000000     
  -1.5427645368223455E-002   1.2372354411139186E-002   0.0000000000000000     
  -1.8577064588302002E-002   1.5685975571318699E-002   0.0000000000000000     
  -2.1643520324917970E-002   1.9170495705029923E-002   0.0000000000000000     
  -2.4627012578071355E-002   2.2825914812272849E-002   0.0000000000000000     
  -1.3795910020550625E-002   9.9914103721211230E-003   0.0000000000000000     
  -1.7404163336048502E-002   1.3221874137982120E-002   0.0000000000000000     
  -2.0888743487340388E-002   1.6588684158995001E-002   0.0000000000000000     
  -2.4249650474426288E-002   2.0091840435159762E-002   0.0000000000000000     
  -2.7486884297306200E-002   2.3731342966476412E-002   0.0000000000000000     
  -1.5834942676599927E-002   1.0977112307193535E-002   0.0000000000000000     
  -1.9730579818753022E-002   1.4211905235225012E-002   0.0000000000000000     
  -2.3486113552861784E-002   1.7577079406666894E-002   0.0000000000000000     
  -2.7101543878926212E-002   2.1072634821519182E-002   0.0000000000000000     
  -3.0576870796946317E-002   2.4698571479781873E-002   0.0000000000000000     
  -1.8312360632830232E-002   1.2186738029708615E-002   0.0000000000000000     
  -2.2406894816337015E-002   1.5342447702867858E-002   0.0000000000000000     
  -2.6369174784866188E-002   1.8651161314334374E-002   0.0000000000000000     
  -3.0199200538417747E-002   2.2112878864108169E-002   0.0000000000000000     
  -3.3896972076991709E-002   2.5727600352189232E-002   0.0000000000000000     
  -2.1228163889241546E-002   1.3620287539666360E-002   0.0000000000000000     
  -2.5433108328800476E-002   1.6613501540910663E-002   0.0000000000000000     
  -2.9537927183353598E-002   1.9810929881997452E-002   0.0000000000000000     
  -3.3542620452900893E-002   2.3212572562926730E-002   0.0000000000000000     
  -3.7447188137442376E-002   2.6818429583698490E-002   0.0000000000000000     
  -2.4627012578071355E-002   2.2825914812272849E-002   0.0000000000000000     
  -2.7531870530194211E-002   2.6674809658980940E-002   0.0000000000000000     
  -3.0362423363718603E-002   3.0739757011087630E-002   0.0000000000000000     
  -3.3118671078644510E-002   3.5020756868592934E-002   0.0000000000000000     
  -3.5800613674971948E-002   3.9517809231496837E-002   0.0000000000000000     
  -2.7486884297306200E-002   2.3731342966476412E-002   0.0000000000000000     
  -3.0623586254073628E-002   2.7549685615599704E-002   0.0000000000000000     
  -3.3682897642822091E-002   3.1589362245184403E-002   0.0000000000000000     
  -3.6664818463551595E-002   3.5850372855230510E-002   0.0000000000000000     
  -3.9569348716262123E-002   4.0332717445738006E-002   0.0000000000000000     
  -3.0576870796946317E-002   2.4698571479781873E-002   0.0000000000000000     
  -3.3941417557855770E-002   2.8499506134153148E-002   0.0000000000000000     
  -3.7224507412588245E-002   3.2520055537331186E-002   0.0000000000000000     
  -4.0426140361143746E-002   3.6760219689315983E-002   0.0000000000000000     
  -4.3546316403522280E-002   4.1219998590107540E-002   0.0000000000000000     
  -3.3896972076991709E-002   2.5727600352189232E-002   0.0000000000000000     
  -3.7485364441540624E-002   2.9524271214641271E-002   0.0000000000000000     
  -4.0987252673017047E-002   3.3531836887527984E-002   0.0000000000000000     
  -4.4402636771420978E-002   3.7750297370849381E-002   0.0000000000000000     
  -4.7731516736752418E-002   4.2179652664605438E-002   0.0000000000000000     
  -3.7447188137442376E-002   2.6818429583698490E-002   0.0000000000000000     
  -4.1255426905128192E-002   3.0623980857064075E-002   0.0000000000000000     
  -4.4971133424108488E-002   3.4624706295774799E-002   0.0000000000000000     
  -4.8594307694383269E-002   3.8820605899830676E-002   0.0000000000000000     
  -5.2124949715952537E-002   4.3211679669231694E-002   0.0000000000000000     
  -3.5800613674971948E-002   3.9517809231496837E-002   0.0000000000000000     
  -3.8408678785481501E-002   4.4221019081034110E-002   0.0000000000000000     
  -4.0943294042953743E-002   4.9120491398439492E-002   0.0000000000000000     
  -4.3404459447388695E-002   5.4216226183713002E-002   0.0000000000000000     
  -4.5792174998786343E-002   5.9508223436854621E-002   0.0000000000000000     
  -3.9569348716262123E-002   4.0332717445738006E-002   0.0000000000000000     
  -4.2394711394783534E-002   4.5021876805657272E-002   0.0000000000000000     
  -4.5139129492945684E-002   4.9903331723938633E-002   0.0000000000000000     
  -4.7802603010748575E-002   5.4977082200582103E-002   0.0000000000000000     
  -5.0385131948192191E-002   6.0243128235587667E-002   0.0000000000000000     
  -4.3546316403522280E-002   4.1219998590107540E-002   0.0000000000000000     
  -4.6581842861442062E-002   4.5885548052828289E-002   0.0000000000000000     
  -4.9529527056621322E-002   5.0743023890600668E-002   0.0000000000000000     
  -5.2389368989060041E-002   5.5792426103424705E-002   0.0000000000000000     
  -5.5161368658758245E-002   6.1033754691300346E-002   0.0000000000000000     
  -4.7731516736752418E-002   4.2179652664605438E-002   0.0000000000000000     
  -5.0970073185457071E-002   4.6812032822547187E-002   0.0000000000000000     
  -5.4114486733980643E-002   5.1639567898425623E-002   0.0000000000000000     
  -5.7164757382323121E-002   5.6662257892240796E-002   0.0000000000000000     
  -6.0120885130484525E-002   6.1880102803992629E-002   0.0000000000000000     
  -5.2124949715952537E-002   4.3211679669231694E-002   0.0000000000000000     
  -5.5559402366828575E-002   4.7801331114813946E-002   0.0000000000000000     
  -5.8894008525023668E-002   5.2592963747413492E-002   0.0000000000000000     
  -6.2128768190537809E-002   5.7586577567030360E-002   0.0000000000000000     
  -6.5263681363371004E-002   6.2782172573664530E-002   0.0000000000000000     
  -4.5792174998786343E-002   5.9508223436854621E-002   0.0000000000000000     
  -4.8105855689656703E-002   6.4990113311551606E-002   0.0000000000000000     
  -5.0344916512509788E-002   7.0655525961491258E-002   0.0000000000000000     
  -5.2509357467345599E-002   7.6504461386673550E-002   0.0000000000000000     
  -5.4599178554164116E-002   8.2536919587098481E-002   0.0000000000000000     
  -5.0385131948192191E-002   6.0243128235587667E-002   0.0000000000000000     
  -5.2887405344513458E-002   6.5698231658882708E-002   0.0000000000000000     
  -5.5310112238949313E-002   7.1339154300394517E-002   0.0000000000000000     
  -5.7653252631499723E-002   7.7165896160123121E-002   0.0000000000000000     
  -5.9916826522164714E-002   8.3178457238068534E-002   0.0000000000000000     
  -5.5161368658758245E-002   6.1033754691300346E-002   0.0000000000000000     
  -5.7847559675085078E-002   6.6464227014559146E-002   0.0000000000000000     
  -6.0449975647409664E-002   7.2081060433532587E-002   0.0000000000000000     
  -6.2968616575732023E-002   7.7884254948220669E-002   0.0000000000000000     
  -6.5403482460052162E-002   8.3873810558623418E-002   0.0000000000000000     
  -6.0120885130484525E-002   6.1880102803992629E-002   0.0000000000000000     
  -6.2986318681371528E-002   6.7288099378580948E-002   0.0000000000000000     
  -6.5764506737890860E-002   7.2881244360905470E-002   0.0000000000000000     
  -6.8455449300042506E-002   7.8659537750966194E-002   0.0000000000000000     
  -7.1059146367826467E-002   8.4622979548763133E-002   0.0000000000000000     
  -6.5263681363371004E-002   6.2782172573664530E-002   0.0000000000000000     
  -6.8303682363372836E-002   6.8169848750948087E-002   0.0000000000000000     
  -7.1253705510392881E-002   7.3739706082513137E-002   0.0000000000000000     
  -7.4113750804431167E-002   7.9491744568359682E-002   0.0000000000000000     
  -7.6883818245487651E-002   8.5425964208487720E-002   0.0000000000000000     
  -5.4599178554164116E-002   8.2536919587098481E-002   0.0000000000000000     
  -5.6615454197698104E-002   8.8738800562955397E-002   0.0000000000000000     
  -5.8559258822680274E-002   9.5096004314433574E-002   0.0000000000000000     
  -6.0430592429110634E-002  0.10160853084153304        0.0000000000000000     
  -6.2229455016989177E-002  0.10827638014425377        0.0000000000000000     
  -5.9916826522164714E-002   8.3178457238068534E-002   0.0000000000000000     
  -6.2101347659865032E-002   8.9360493307372349E-002   0.0000000000000000     
  -6.4207329793521478E-002   9.5695660141176225E-002   0.0000000000000000     
  -6.6234772923134025E-002  0.10218395773948016        0.0000000000000000     
  -6.8183677048702693E-002  0.10882538610228412        0.0000000000000000     
  -6.5403482460052162E-002   8.3873810558623418E-002   0.0000000000000000     
  -6.7753974862060112E-002   9.0032582643671505E-002   0.0000000000000000     
  -7.0019495343445926E-002   9.6343426582295666E-002   0.0000000000000000     
  -7.2200043904209629E-002  0.10280634237449586        0.0000000000000000     
  -7.4295620544351182E-002  0.10942133002027213        0.0000000000000000     
  -7.1059146367826467E-002   8.4622979548763133E-002   0.0000000000000000     
  -7.3573335804283324E-002   9.0755068571852851E-002   0.0000000000000000     
  -7.5995755472453630E-002   9.7039303637791854E-002   0.0000000000000000     
  -7.8326405372337385E-002  0.10347568474658017        0.0000000000000000     
  -8.0565285503934617E-002  0.11006421189821777        0.0000000000000000     
  -7.6883818245487651E-002   8.5425964208487720E-002   0.0000000000000000     
  -7.9559430486534674E-002   9.1527951091916374E-002   0.0000000000000000     
  -8.2136110180544578E-002   9.7783291307664832E-002   0.0000000000000000     
  -8.4613857327517375E-002  0.10419198485573306        0.0000000000000000     
  -8.6992671927453052E-002  0.11075403173612108        0.0000000000000000     
  -6.2229455016989177E-002  0.10827638014425377        0.0000000000000000     
  -6.3956139702497611E-002  0.11508964096863172        0.0000000000000000     
  -6.5610939601817658E-002  0.12203840206070278        0.0000000000000000     
  -6.7193854714949305E-002  0.12912266342046697        0.0000000000000000     
  -6.8704885041892566E-002  0.13634242504792426        0.0000000000000000     
  -6.8183677048702693E-002  0.10882538610228412        0.0000000000000000     
  -7.0054932824267113E-002  0.11561231445363003        0.0000000000000000     
  -7.1849430903866932E-002  0.12253711201755982        0.0000000000000000     
  -7.3567171287502134E-002  0.12959977879407342        0.0000000000000000     
  -7.5208153975172734E-002  0.13680031478317090        0.0000000000000000     
  -7.4295620544351182E-002  0.10942133002027213        0.0000000000000000     
  -7.6307100390069590E-002  0.11618210361825813        0.0000000000000000     
  -7.8235358567563765E-002  0.12308237726708761        0.0000000000000000     
  -8.0080395076833774E-002  0.13012215096676055        0.0000000000000000     
  -8.1842209917879521E-002  0.13730142471727697        0.0000000000000000     
  -8.0565285503934617E-002  0.11006421189821777        0.0000000000000000     
  -8.2712642399904987E-002  0.11679900846251599        0.0000000000000000     
  -8.4768722592908186E-002  0.12367419780928618        0.0000000000000000     
  -8.6733526082944115E-002  0.13068977993852832        0.0000000000000000     
  -8.8607052870012873E-002  0.13784575485024236        0.0000000000000000     
  -8.6992671927453052E-002  0.11075403173612108        0.0000000000000000     
  -8.9271558853773386E-002  0.11746302898640365        0.0000000000000000     
  -9.1449522979900111E-002  0.12431257364415553        0.0000000000000000     
  -9.3526564305833310E-002  0.13130266570937671        0.0000000000000000     
  -9.5502682831572899E-002  0.13843330518206723        0.0000000000000000     
  -6.8704885041892566E-002  0.13634242504792426        0.0000000000000000     
  -7.0150277159231902E-002  0.14368321933363690        0.0000000000000000     
  -7.1536277643551791E-002  0.15113057866816695        0.0000000000000000     
  -7.2862886494852216E-002  0.15868450305151452        0.0000000000000000     
  -7.4130103713133194E-002  0.16634499248367954        0.0000000000000000     
  -7.5208153975172734E-002  0.13680031478317090        0.0000000000000000     
  -7.6780865821951205E-002  0.14412076549570454        0.0000000000000000     
  -7.8293793682910007E-002  0.15154317644252668        0.0000000000000000     
  -7.9746937558049152E-002  0.15906754762363728        0.0000000000000000     
  -8.1140297447368614E-002  0.16669387903903637        0.0000000000000000     
  -8.1842209917879521E-002  0.13730142471727697        0.0000000000000000     
  -8.3525333417392364E-002  0.14459919134063584        0.0000000000000000     
  -8.5134295902063603E-002  0.15199444365883641        0.0000000000000000     
  -8.6669097371893253E-002  0.15948718167187842        0.0000000000000000     
  -8.8129737826881271E-002  0.16707740537976212        0.0000000000000000     
  -8.8607052870012873E-002  0.13784575485024236        0.0000000000000000     
  -9.0383679945555406E-002  0.14511849686843084        0.0000000000000000     
  -9.2057784301012621E-002  0.15248438031709605        0.0000000000000000     
  -9.3629365936384545E-002  0.15994340519623801        0.0000000000000000     
  -9.5098424851671165E-002  0.16749557150585676        0.0000000000000000     
  -9.5502682831572899E-002  0.13843330518206723        0.0000000000000000     
  -9.7355905406440346E-002  0.14567868207908941        0.0000000000000000     
  -9.9064258879757047E-002  0.15301298641730568        0.0000000000000000     
 -0.10062774325152303       0.16043621819671594        0.0000000000000000     
 -0.10204635852173824       0.16794837741732033        0.0000000000000000     
 </DataArray>
 <DataArray  type="Float64" Name="stress" NumberOfComponents="3" format="ascii">
   13416948844.136786        4025084653.2410359        2894058046.9648647     
   11766635222.307789        1890547216.2843094        1715828839.0601647     
   10313595859.090059        413590641.36514807        810725644.98950648     
   9057830754.4836006       -405785071.51644659        178748464.75289005     
   7999339908.4884100       -567579922.36047316       -180102701.64968529     
   10539996185.469116        3161998855.6407351        2225842198.8453746     
   9667549136.5811253        1589614401.3435845        1446757043.9285362     
   8943736875.3560791        512679239.25626802        863177166.05698955     
   8368559401.7939892       -68806630.621212006        475102565.23073304     
   7942016715.8948460       -154843208.28885841        282533241.44976664     
   8337826796.4841423        2501348038.9452429        1712458225.7446897     
   8021472786.8550081        1424584507.2030244        1275771074.3760078     
   7805114093.9405050        681138697.84290957        956968463.26386416     
   7688750717.7406292        271010610.86489725        756050392.40826190     
   7672382658.2553911        194200246.26899195        673016861.80919850     
   6810440677.1818581        2043132203.1545575        1353906127.6628091     
   6828406173.1294365        1395457533.8626273        1202870930.4025764     
   6897727514.8433275        918969017.12506986        1092099536.6101327     
   7018404702.3235292        613666652.94188476        1021591946.2854782     
   7190437735.5700426        479550441.31307173        991348159.42861164     
   5957837827.5622644        1787351348.2686794        1150185904.5997334     
   6088349295.4044113        1502233481.3223944        1228056612.0082450     
   6221577138.0645494        1226170197.1027503        1268570386.0957942     
   6357521355.5426798        959161495.60974693        1271727226.8623810     
   6496181947.8388033        701207376.84338474        1237527134.3080053     
   7999339908.4884100       -567579922.36047316       -180102701.64968529     
   7917338985.3214130       -200112588.81720495       -78159949.823400617     
   7793876028.2940254        29147965.191428661       -8907670.6709318366     
   7628951037.4062471        120201739.66543961        27654135.807715613     
   7422564012.6580849        73048734.604818821        31525469.612546053     
   7942016715.8948460       -154843208.28885841        282533241.44976664     
   7739430603.9930611        16296727.891458035        281314993.75270236     
   7513477534.0868416        109546804.05699205        265335703.70953000     
   7264157506.1761913        124907020.20775509        234595371.32025370     
   6991470520.2611065        62377376.343737602        189093996.58487242     
   7672382658.2553911        194200246.26899195        673016861.80919850     
   7400438301.4122858        184380868.22439241        589748536.42072952     
   7123222062.4207020        156988549.68486691        509648599.01386964     
   6840733941.2806396        112023290.65042257        432717049.58861554     
   6552973937.9921074        49485091.121054411        358953888.14497215     
   7190437735.5700426        479550441.31307173        991348159.42861164     
   6900362077.5790834        304139832.18159890        847140678.18068933     
   6623109613.2956028        171473202.07505560        724031015.24208736     
   6358680342.7196026        81550550.993443251        622019170.61280620     
   6107074265.8510780        34371878.936758041        541105144.29284668     
   6496181947.8388033        701207376.84338474        1237527134.3080053     
   6239201932.4934568        375573619.76307821        1053491419.0325768     
   6013140186.7115450        153000761.22755647        908482952.39418173     
   5817996710.4930668        33488801.236814260        802501734.39282215     
   5653771503.8380270        17037739.790856600        735547765.02849734     
   7422564012.6580849        73048734.604818821        31525469.612546053     
   7217550205.1127129       -18124231.384253025        14782598.833166750     
   7024702655.9842472       -68743002.650300503        2853433.8872190923     
   6844021365.2726793       -78807579.193354130       -4262025.2253073286     
   6675506332.9780254       -48317961.013368130       -6563778.5044049863     
   6991470520.2611065        62377376.343737602        189093996.58487242     
   6807495221.3237286        2752832.3938803673        181006961.87176770     
   6631254964.2287025       -31088238.748129845        177009284.39925796     
   6462749748.9760313       -39145837.082295656        177100964.16734663     
   6301979575.5657139       -21419962.608613014        181282001.17603269     
   6552973937.9921074        49485091.121054411        358953888.14497215     
   6387967580.2546291        20788098.987978220        354352936.82783610     
   6226265047.7849541        3103857.7475850582        353116994.15846485     
   6067866340.5830803       -3567632.6001346111        355246060.13685334     
   5912771458.6490173        773627.94483184814        360740134.76300651     
   6107074265.8510780        34371878.936758041        541105144.29284668     
   5958967281.9054089        35981568.398037672        534820523.70137030     
   5809732906.6529942        33833286.836833000        531176563.16482222     
   5659371140.0938292        27927034.253135920        530173262.68320799     
   5507881982.2279224        18262810.646951675        531810622.25652272     
   5653771503.8380270        17037739.790856600        735547765.02849734     
   5520494326.2760754        48333240.624065876        722409722.49237025     
   5381658540.8328285        61100048.519621611        711187991.41833901     
   5237264147.5082817        55338163.477514744        701882571.80640864     
   5087311146.3024387        31047585.497757912        694493463.65657926     
   6675506332.9780254       -48317961.013368130       -6563778.5044049863     
   6494912466.5713091       -11279961.664375782        563762.86087533017     
   6308859175.6395445        7559955.9344637394        11682740.721688511     
   6117346460.1827211        8201791.7830986977        26793155.078030713     
   5920374320.2008486       -9354454.1184189320        45895005.929904498     
   6301979575.5657139       -21419962.608613014        181282001.17603269     
   6127368873.0817070       -941076.71666407585        178100576.67166644     
   5949575988.1885576        8930534.4781572819        179351483.33317339     
   5768600920.8862677        8194870.9758338928        185034721.16054985     
   5584443671.1748447       -3148067.2235980034        195150290.15379855     
   5912771458.6490173        773627.94483184814        360740134.76300651     
   5745403619.1458282        5071310.0971627235        349906526.85756260     
   5577130839.3494139        6352524.6054139137        343946144.78832930     
   5407953119.2597694        4617271.4695630074        342858988.55530757     
   5237870458.8769016       -134449.31036376953        346645058.15849429     
   5507881982.2279224        18262810.646951675        531810622.25652272     
   5349016704.7636700        6757198.7771029472        515981613.41856146     
   5191523729.1221018       -174073.68379211426        505466725.08715689     
   5035403055.3032255       -2531006.7357223034        500265957.26229906     
   4880654683.3070297       -313600.37870907784        500379309.94399416     
   5087311146.3024387        31047585.497757912        694493463.65657926     
   4938208129.9352369        4116589.3231611252        676325836.35466981     
   4792754657.5066319       -10649260.389433384        663913224.22965086     
   4650950729.0166283       -13249963.640026331        657255627.28152335     
   4512796344.4652252       -3685520.4286308289        656353045.51028562     
   5920374320.2008486       -9354454.1184189320        45895005.929904498     
   5742710957.8175545       -25707439.185740709        53243619.534342028     
   5567481060.1052275       -33948875.349837303        62337448.214737251     
   5394684627.0638657       -34078762.610715389        73176491.971111298     
   5224321658.6934614       -26097100.968404055        85760750.803430215     
   5584443671.1748447       -3148067.2235980034        195150290.15379855     
   5413909550.3965635       -13224004.793987036        201237735.39987373     
   5244698312.2136650       -18890333.713128567        209615448.15147668     
   5076809956.6261349       -20147053.981020689        220283428.40861201     
   4910244483.6339741       -16994165.597680092        233241676.17127734     
   5237870458.8769016       -134449.31036376953        346645058.15849429     
   5076022872.3595543       -3466151.5870361328        350175655.95801449     
   4914387586.3619862       -6090185.4644441605        356541573.69262886     
   4752964600.8841953       -8006550.9425880909        365742811.36234307     
   4591753915.9261875       -9215248.0214662552        377779368.96715415     
   4880654683.3070297       -313600.37870907784        500379309.94399416     
   4729050923.7065163        3566120.4351034164        500057381.20876461     
   4576548882.5501852        4451569.3962018490        503115824.83820397     
   4423148559.8380442        2342746.5045907497        509554640.83230209     
   4268849955.5700846       -2760348.2397403717        519373829.19106984     
   4512796344.4652252       -3685520.4286308289        656353045.51028562     
   4372993704.4374514        7872811.2724363804        650882911.15211999     
   4231182200.7782669        12734930.868805170        649338201.58818662     
   4087361833.4876828        10900838.360500097        651718916.81848490     
   3941532602.5656886        2370533.7475006580        658025056.84301710     
   5224321658.6934614       -26097100.968404055        85760750.803430215     
   5035720590.7691126       -21598999.372686863        80641474.139228836     
   4845996741.5712948       -20843502.021876574        80946377.950048730     
   4655150111.1000338       -23830608.915869713        86675462.235891178     
   4463180699.3552999       -30560320.054776669        97828726.996739537     
   4910244483.6339741       -16994165.597680092        233241676.17127734     
   4734591928.7141008       -15176138.836449146        225551432.19872457     
   4558533807.4337091       -14709999.943601370        223015881.17794186     
   4382070119.7928076       -15595748.919118881        225635023.10892406     
   4205200865.7913928       -17833385.763023853        233408857.99166095     
   4591753915.9261875       -9215248.0214662552        377779368.96715415     
   4428279909.6586266       -10308285.400350332        368354908.41802830     
   4265117551.9435015       -10362494.271132946        363815653.29740947     
   4102266842.7808151       -9377874.6337780952        364161603.60529727     
   3939727782.1705575       -7354426.4883263111        369392759.34169596     
   4268849955.5700846       -2760348.2397403717        519373829.19106984     
   4116784533.6026921       -6995439.0643830299        509051902.79713273     
   3965747975.1006742       -7800985.0044403076        503345694.30844897     
   3815740280.0640473       -5176986.0598599911        502255203.72501928     
   3666761448.4927907        876557.76928639412        505780431.04684418     
   3941532602.5656886        2370533.7475006580        658025056.84301710     
   3800105800.5462976       -5237599.8285586834        647642415.33604240     
   3660425076.9052315       -7025472.1435322762        641606004.21106875     
   3522490431.6424932       -2993083.1974093914        639915823.46809256     
   3386301864.7580853        6859567.0098044872        642571873.10711038     
   4463180699.3552999       -30560320.054776669        97828726.996739537     
   4266518518.2288289       -40194895.489091158        106092761.99221841     
   4069992063.3334594       -49377050.153048038        122067539.80625659     
   3873601334.6691961       -58106784.046649694        145753060.43885154     
   3677346332.2360315       -66384097.169945955        177149323.88999555     
   4205200865.7913928       -17833385.763023853        233408857.99166095     
   4029003384.7620735       -20987330.785723686        238348601.62321424     
   3852474432.6841898       -25246179.303637505        249824149.33903578     
   3675614009.5577288       -30609931.316799641        267835501.13912231     
   3498422115.3827043       -37078586.825193167        292382657.02347964     
   3939727782.1705575       -7354426.4883263111        369392759.34169596     
   3780638033.4261370       -5034831.4430942535        370463148.11636847     
   3620749616.3534737       -5377464.1586661339        376894402.24102581     
   3460062530.9525685       -8382324.6350436211        388686521.71566182     
   3298576777.2234197       -14049412.872238159        405839506.54026735     
   3666761448.4927907        876557.76928639412        505780431.04684418     
   3521422464.2210155        7662602.5387749672        502436401.47169000     
   3374817614.3413277        10229095.281892538        503278298.51222485     
   3226946898.8537226        8576035.9986064434        508306122.16845530     
   3077810317.7582035        2703424.6889492273        517519872.44036943     
   3386301864.7580853        6859567.0098044872        642571873.10711038     
   3251356677.1467056        17104971.159879327        634268361.68917751     
   3114678426.6477389        21573499.017997146        628975838.15264344     
   2976267113.2611837        20265150.584155083        626694302.49751544     
   2836122736.9870319        13179925.858333468        627423754.72378433     
   3677346332.2360315       -66384097.169945955        177149323.88999555     
   3389750390.1157436       -97874943.715517521        192498962.80309528     
   3104780533.9515052       -120612170.40756977        244283347.62602994     
   2822436763.7433119       -134595777.24613512        332502478.35881549     
   2542719079.4911704       -139825764.23121941        457156355.00143981     
   3498422115.3827043       -37078586.825193167        292382657.02347964     
   3298690912.4426188       -46703805.355815411        298358199.30299318     
   3101668255.0174489       -47300538.836718440        330441342.42322624     
   2907354143.1071997       -38868787.267909050        388632086.38417745     
   2715748576.7118526       -21408550.649378538        472930431.18582767     
   3298576777.2234197       -14049412.872238159        405839506.54026735     
   3157204184.6946077       -10660842.018589020        402537155.00488675     
   3018622597.2395802        2031079.0810031891        415015259.24107850     
   2882832014.8583231        24026350.426518202        443273819.24886996     
   2749832437.5508599        55324972.017986417        487312835.02823675     
   3077810317.7582035        2703424.6889492273        517519872.44036943     
   2965290206.8717208        10253946.296166301        505035829.90876007     
   2855643560.6178951        27382683.345579386        498005098.07960266     
   2748870378.9967117        54089635.837129831        496427676.95291454     
   2644970662.0081735        90374803.770829916        500303566.52866375     
   2836122736.9870319        13179925.858333468        627423754.72378433     
   2722948978.9739542        16040559.588470936        605854224.01461852     
   2612731145.1523848        28754273.956985593        579410858.93879068     
   2505469235.5223351        51321068.963887811        548093659.49627817     
   2401163250.0837927        83740944.609165072        511902625.68711835     
   5957837827.5622644        1787351348.2686794        1150185904.5997334     
   6088349295.4044113        1502233481.3223944        1228056612.0082450     
   6221577138.0645494        1226170197.1027503        1268570386.0957942     
   6357521355.5426798        959161495.60974693        1271727226.8623810     
   6496181947.8388033        701207376.84338474        1237527134.3080053     
   5434587483.1968098        1630376244.9590428        1033608152.9886836     
   5489877327.4398632        1372474560.4030509        1113999897.2122812     
   5547359168.2383003        1121879531.0316746        1167605129.8982406     
   5607033005.5921240        878591156.84491551        1194423851.0465622     
   5668898839.5013304        642609437.84277248        1194456060.6572449     
   4895258879.6569357        1468577663.8970809        936483469.26288044     
   4905528305.3961086        1246952523.2599449        1018784475.6618557     
   4917465349.4280596        1030886110.2654016        1084869392.3065171     
   4931070011.7527857        820378424.91344976        1134738219.1968644     
   4946342292.3702917        615429467.20409060        1168390956.3328981     
   4339852016.9426451        1301955605.0827935        858811853.42232430     
   4335302229.2731485        1125667369.8930776        942410347.35696816     
   4331895681.6338243        953189934.80393028        1020363173.3206228     
   4329632374.0246687        784523299.81534970        1092670331.3132882     
   4328512306.4456844        619667464.92733753        1159331821.3349636     
   3768366895.0539355        1130510068.5161808        800593305.46701491     
   3779199099.0709844        1008619100.3024491        884877512.29761934     
   3790650164.8555956        888791004.64726090        974086472.94055843     
   3802720092.4077706        771025781.55061555        1068220187.3958327     
   3815408881.7275081        655323431.01251423        1167278655.6634419     
   6496181947.8388033        701207376.84338474        1237527134.3080053     
   6239201932.4934568        375573619.76307821        1053491419.0325768     
   6013140186.7115450        153000761.22755647        908482952.39418173     
   5817996710.4930668        33488801.236814260        802501734.39282215     
   5653771503.8380270        17037739.790856600        735547765.02849734     
   5668898839.5013304        642609437.84277248        1194456060.6572449     
   5518926055.0645523        383014544.29700899        1073702071.4505922     
   5393094292.2878904        203889722.95162988        980994350.41321683     
   5291403551.1713409        105234973.80663204        916332897.54511905     
   5213853831.7149086        87050296.862020016        879717712.84629643     
   4946342292.3702917        615429467.20409060        1168390956.3328981     
   4872002508.9342003        412461168.22050428        1103011903.9744830     
   4815026499.2549067        267372115.09290385        1054698139.3175859     
   4775414263.3324080        180162307.82128882        1023449662.3622079     
   4753165801.1667061        150831746.40565872        1009266473.1083493     
   4328512306.4456844        619667464.92733753        1159331821.3349636     
   4298431294.1024036        463913491.53356695        1141420916.6042452     
   4278936807.6125984        343447937.65138161        1129594319.1072879     
   4270028846.9762683        258270803.28078365        1123852028.8440921     
   4271707412.1934161        208382088.42177153        1124194045.8146586     
   3815408881.7275081        655323431.01251423        1167278655.6634419     
   3798212410.5691581        537371514.23619378        1188929109.3398809     
   3784825217.3609624        432117190.62705994        1205682889.7823236     
   3775247302.1029253        339560460.18511689        1217539996.9907703     
   3769478664.7950430        259701322.91035879        1224500430.9652212     
   5653771503.8380270        17037739.790856600        735547765.02849734     
   5520494326.2760754        48333240.624065876        722409722.49237025     
   5381658540.8328285        61100048.519621611        711187991.41833901     
   5237264147.5082817        55338163.477514744        701882571.80640864     
   5087311146.3024387        31047585.497757912        694493463.65657926     
   5213853831.7149086        87050296.862020016        879717712.84629643     
   5078173028.0987597        84680322.457847834        855818966.54065895     
   4940276935.4302015        74926051.212314844        835923921.47832179     
   4800165553.7092361        57787483.125423193        820032577.65928161     
   4657838882.9358654        33264618.197173595        808144935.08353877     
   4753165801.1667061        150831746.40565872        1009266473.1083493     
   4621045342.2997847        116585488.00513339        978507561.66690934     
   4490052913.2093430        86099328.859542370        953839741.24996579     
   4360188513.8953848        59373268.968892336        935263011.85751808     
   4231452144.3579063        36407308.333175898        922777373.48957050     
   4271707412.1934161        208382088.42177153        1124194045.8146586     
   4149111268.8791485        144048737.26591945        1090475507.8711164     
   4030986474.1702504        94619881.461301327        1064935450.7332722     
   3917333028.0667238        60095521.007916927        1047573874.4011229     
   3808150930.5685668        40475655.905764580        1038390778.8746715     
   3769478664.7950430        259701322.91035879        1224500430.9652212     
   3662370807.8368545        167070070.24020863        1191722805.1532838     
   3563077618.3129239        100487709.01758564        1169211049.9282415     
   3471599096.2232547        59954239.242497921        1156965165.2900949     
   3387935241.5678434        45469660.914935589        1154985151.2388408     
   5087311146.3024387        31047585.497757912        694493463.65657926     
   4938208129.9352369        4116589.3231611252        676325836.35466981     
   4792754657.5066319       -10649260.389433384        663913224.22965086     
   4650950729.0166283       -13249963.640026331        657255627.28152335     
   4512796344.4652252       -3685520.4286308289        656353045.51028562     
   4657838882.9358654        33264618.197173595        808144935.08353877     
   4524873568.0924950        12198089.439952374        794502721.43217087     
   4394550748.4940834       -60121.834092378616        786165770.52593029     
   4266870424.1406212       -3510015.6249575615        783134082.36481810     
   4141832595.0321150        1848408.0673534870        785407656.94883287     
   4231452144.3579063        36407308.333175898        922777373.48957050     
   4113339524.0904808        20819744.908959150        912485683.34615481     
   3996862350.3743625        10683669.989095449        907049503.51610577     
   3882020623.2095537        5999083.5735955238        906468833.99942231     
   3768814342.5960507        6765985.6624500751        910743674.79610419     
   3808150930.5685668        40475655.905764580        1038390778.8746715     
   3703605997.9291892        29981555.730180740        1030274722.0966245     
   3599689463.1474767        21582115.080133677        1026564423.2001784     
   3496401326.2234240        15277333.955625772        1027259882.1853349     
   3393741587.1570354        11067212.356663704        1032361099.0520984     
   3387935241.5678434        45469660.914935589        1154985151.2388408     
   3295672989.6086264        39683521.903622389        1147869837.6835744     
   3203032086.8134222        32635213.439023376        1144710529.5781462     
   3110012533.1822357        24324735.521147490        1145507226.9225631     
   3016614328.7150655        14752088.149987459        1150259929.7168167     
   4512796344.4652252       -3685520.4286308289        656353045.51028562     
   4372993704.4374514        7872811.2724363804        650882911.15211999     
   4231182200.7782669        12734930.868805170        649338201.58818662     
   4087361833.4876828        10900838.360500097        651718916.81848490     
   3941532602.5656886        2370533.7475006580        658025056.84301710     
   4141832595.0321150        1848408.0673534870        785407656.94883287     
   4010954737.4410429        7654849.6852495670        777522181.34906662     
   3878884951.5085444        9488196.8317322731        773903857.46403289     
   3745623237.2346225        7348449.5068030357        774552685.29372942     
   3611169594.6192794        1235607.7104682922        779468664.83815575     
   3768814342.5960507        6765985.6624500751        910743674.79610419     
   3647837630.0716777        7113445.9861772060        901395949.12638414     
   3526485924.4958639        6210929.4717693329        896657102.09189272     
   3404759225.8686109        4058436.1192288399        896527133.69263184     
   3282657534.1899157        655965.92855095863        901006043.92860246     
   3393741587.1570354        11067212.356663704        1032361099.0520984     
   3283642382.3293576        6248600.1752161980        1022504214.4840702     
   3173985119.7402248        2903128.7889219522        1017597935.4717708     
   3064769799.3896322        1030798.1977568865        1017642262.0152026     
   2955996421.2775836        631608.40174210072        1022637194.1143603     
   3016614328.7150655        14752088.149987459        1150259929.7168167     
   2918368994.2140837        5060312.2523738146        1140846977.4221277     
   2821382537.2416277       -435205.21682143211        1136726357.6036682     
   2725654957.7976980       -1734464.2575937510        1137898070.2614331     
   2631186255.8822937        1162535.1300493479        1144362115.3954313     
   3941532602.5656886        2370533.7475006580        658025056.84301710     
   3800105800.5462976       -5237599.8285586834        647642415.33604240     
   3660425076.9052315       -7025472.1435322762        641606004.21106875     
   3522490431.6424932       -2993083.1974093914        639915823.46809256     
   3386301864.7580853        6859567.0098044872        642571873.10711038     
   3611169594.6192794        1235607.7104682922        779468664.83815575     
   3481813150.7862816       -3386387.2435173988        771384617.14387977     
   3353623374.1129379       -4119491.6653063297        767550121.06742811     
   3226600264.5992513       -963705.55490541458        767965176.60879850     
   3100743822.2452245        6080971.0876815319        772629783.76799357     
   3282657534.1899157        655965.92855095863        901006043.92860246     
   3165095223.5028028       -1062757.9155093431        894544610.29191244     
   3048120168.7566786       -823961.95626974106        892236049.50887227     
   2931732369.9515381        1372353.8062468767        894080361.57947397     
   2815931827.0873890        5526189.3720660210        900077546.50373042     
   2955996421.2775836        631608.40174210072        1022637194.1143603     
   2849952018.6958609        1733288.1554601192        1017122394.7801412     
   2743915460.8364539        2861116.9835704565        1015663789.5353929     
   2637886747.6993647        4015094.8860663176        1018261378.3801204     
   2531865879.2845974        5195221.8629622459        1024915161.3143129     
   2631186255.8822937        1162535.1300493479        1144362115.3954313     
   2536383536.3654532        5001750.9693834782        1139117970.6085651     
   2441009250.3522682        6935745.1542325020        1137833341.1469996     
   2345063397.8427219        6964517.6845439672        1140508227.0107286     
   2248545978.8368278        5088068.5603649616        1147142628.1997519     
   3386301864.7580853        6859567.0098044872        642571873.10711038     
   3251356677.1467056        17104971.159879327        634268361.68917751     
   3114678426.6477389        21573499.017997146        628975838.15264344     
   2976267113.2611837        20265150.584155083        626694302.49751544     
   2836122736.9870319        13179925.858333468        627423754.72378433     
   3100743822.2452245        6080971.0876815319        772629783.76799357     
   2973112459.1861916        12793341.745621920        763182547.55132830     
   2844446409.3368630        16056756.435904622        757165657.76094472     
   2714745672.6972361        15871215.158522844        754579114.39683938     
   2584010249.2673011        12236717.913453698        755422917.45902371     
   2815931827.0873890        5526189.3720660210        900077546.50373042     
   2696812455.8517985        9064976.7192114592        890301357.60183120     
   2577356773.9231949        11482728.422974825        884374873.67109537     
   2457564781.3015842        12779444.483376265        882298094.71152055     
   2337436477.9869523        12955124.900383472        884071020.72311282     
   2531865879.2845974        5195221.8629622459        1024915161.3143129     
   2422456667.1435299        5919876.0806262493        1015624791.8406848     
   2313409520.4067426        7851414.9792144299        1010603485.8831053     
   2204724439.0742302        10989838.558715582        1009851243.4415642     
   2096401423.1459897        15335146.819128394        1013368064.5160745     
   2248545978.8368278        5088068.5603649616        1147142628.1997519     
   2150045093.0613818        3358039.8298890591        1139152850.2678950     
   2052604648.7874932        5162816.1046023369        1135851494.3969691     
   1956224646.0151782        10502397.384564757        1137238560.5869679     
   1860905084.7444129        19376783.669689059        1143314048.8378854     
   2836122736.9870319        13179925.858333468        627423754.72378433     
   2722948978.9739542        16040559.588470936        605854224.01461852     
   2612731145.1523848        28754273.956985593        579410858.93879068     
   2505469235.5223351        51321068.963887811        548093659.49627817     
   2401163250.0837927        83740944.609165072        511902625.68711835     
   2584010249.2673011        12236717.913453698        755422917.45902371     
   2460801529.5384216        12217166.176142693        739988254.55400968     
   2339522178.6201205        18628843.807435155        722372882.88061666     
   2220172196.5124021        31471750.807352066        702576802.43883502     
   2102751583.2152760        50745887.175887346        680600013.22867846     
   2337436477.9869523        12955124.900383472        884071020.72311282     
   2211887441.1088009        12363781.065581441        873573577.67783833     
   2087241217.6603055        14781815.329629064        863588551.46246314     
   1963497807.6414614        20209227.692528605        854115942.07699347     
   1840657211.0522768        28646018.154271364        845155749.52142656     
   2096401423.1459897        15335146.819128394        1013368064.5160745     
   1976206713.6851025        16480404.256799936        1006610193.3861096     
   1855888262.2729356        17213188.523551822        1003057864.6843404     
   1735446068.9094982        17533499.619387746        1002711078.4107617     
   1614880133.5947802        17441337.544306338        1005569834.5653669     
   1860905084.7444129        19376783.669689059        1143314048.8378854     
   1753759347.2673197        24567035.749793530        1139098101.6788251     
   1645463312.4580150        25922963.389207542        1140780822.5462408     
   1536016980.3165126        23444566.587949753        1148362211.4401302     
   1425420350.8427975        17131845.345988572        1161842268.3604894     
   3768366895.0539355        1130510068.5161808        800593305.46701491     
   3779199099.0709844        1008619100.3024491        884877512.29761934     
   3790650164.8555956        888791004.64726090        974086472.94055843     
   3802720092.4077706        771025781.55061555        1068220187.3958327     
   3815408881.7275081        655323431.01251423        1167278655.6634419     
   3207956221.2726259        962386866.38178778        756685888.07162261     
   3235979994.1376457        868145490.66243052        853050277.99842131     
   3263733982.2405949        773004832.40283775        951333522.65108407     
   3291218185.5814738        676964891.60300958        1051535622.0296115     
   3318432604.1602817        580025668.26294518        1153656576.1340027     
   2685772702.8805323        805731810.86415970        721947663.91081810     
   2722399761.4893217        736563542.70791638        829355482.64923835     
   2757868388.8064065        663533836.91265869        935676257.02705216     
   2792178584.8317871        586642693.47838616        1040909987.0442595     
   2825330349.5654635        505890112.40509921        1145056672.7008610     
   2201816339.8776550        660544901.96329641        696378632.98460090     
   2238458401.1260123        613873256.43890679        813793126.25006998     
   2273053384.5530310        560378018.17672336        927114676.06846261     
   2305601290.1587119        500059187.17674649        1036343282.4397781     
   2336102117.9430552        432916763.43897599        1141478945.3640156     
   1756087132.2639942        526826139.67919827        679978795.29297125     
   1784155913.0477173        500074631.85540146        806363208.80091691     
   1809288969.4804688        463537376.19503206        925648779.77531481     
   1831486301.5622485        417214372.69809020        1037835508.2161653     
   1850747909.2930562        361105621.36457533        1142923394.1234682     
   3815408881.7275081        655323431.01251423        1167278655.6634419     
   3798212410.5691581        537371514.23619378        1188929109.3398809     
   3784825217.3609624        432117190.62705994        1205682889.7823236     
   3775247302.1029253        339560460.18511689        1217539996.9907703     
   3769478664.7950430        259701322.91035879        1224500430.9652212     
   3318432604.1602817        580025668.26294518        1153656576.1340027     
   3294053522.5224581        472824526.22953069        1181942252.2063861     
   3273383433.1444898        377986691.72896528        1207118568.5109634     
   3256422336.0263758        295512164.76124823        1229185525.0477335     
   3243170231.1681166        225400945.32638144        1248143121.8166955     
   2825330349.5654635        505890112.40509921        1145056672.7008610     
   2798875267.3515658        410971728.08561015        1179860571.1971705     
   2776028891.7072225        328082365.66463196        1213342423.3918624     
   2756791222.6324306        257222025.14216340        1245502229.2849360     
   2741162260.1271939        198390706.51820493        1276339988.8763928     
   2336102117.9430552        432916763.43897599        1141478945.3640156     
   2312677645.0564818        351813119.80443251        1182684066.3122325     
   2292761593.0491595        282404212.43405950        1224354454.4250209     
   2276353961.9210896        224690041.32785851        1266490109.7023802     
   2263454751.6722703        178670606.48582840        1309091032.1443117     
   1850747909.2930562        361105621.36457533        1142923394.1234682     
   1835460655.6372044        295348701.38599539        1190412737.5515728     
   1823581537.1703036        240952232.03725010        1240154661.6104391     
   1815110553.8923516        197916213.31833452        1292149166.3000655     
   1810047705.8033488        166240645.22925210        1346396251.6204538     
   3769478664.7950430        259701322.91035879        1224500430.9652212     
   3662370807.8368545        167070070.24020863        1191722805.1532838     
   3563077618.3129239        100487709.01758564        1169211049.9282415     
   3471599096.2232547        59954239.242497921        1156965165.2900949     
   3387935241.5678434        45469660.914935589        1154985151.2388408     
   3243170231.1681166        225400945.32638144        1248143121.8166955     
   3165138264.6553235        150834853.52641761        1230859544.6294186     
   3093273626.4087791        96826522.613958478        1221507283.1508884     
   3027576316.4284887        63375952.589008808        1220086337.3811097     
   2968046334.7144499        50483143.451565862        1226596707.3200786     
   2741162260.1271939        198390706.51820493        1276339988.8763928     
   2685536027.2650895        139888728.55001509        1272628564.6177659     
   2634429783.5012302        96453380.909307957        1274513901.1897426     
   2587843528.8356175        68084663.596088409        1281995998.5923214     
   2545777263.2682476        54782576.610351205        1295074856.8255050     
   2263454751.6722703        178670606.48582840        1309091032.1443117     
   2223564095.6661544        134231695.31100309        1317029865.1183283     
   2186546089.5902772        99368283.903638482        1328230904.0448022     
   2152400733.4446392        74080372.263735652        1342694148.9237339     
   2121128027.2292385        58367960.391292810        1360419599.7551210     
   1810047705.8033488        166240645.22925210        1346396251.6204538     
   1779222469.8585198        133863753.80938089        1364063446.1311054     
   1749622544.6759200        105571231.59694344        1382658291.7160683     
   1721247930.2555549        81363078.591952562        1402180788.3753426     
   1694098626.5974202        61239294.794396102        1422630936.1089289     
   3387935241.5678434        45469660.914935589        1154985151.2388408     
   3295672989.6086264        39683521.903622389        1147869837.6835744     
   3203032086.8134222        32635213.439023376        1144710529.5781462     
   3110012533.1822357        24324735.521147490        1145507226.9225631     
   3016614328.7150655        14752088.149987459        1150259929.7168167     
   2968046334.7144499        50483143.451565862        1226596707.3200786     
   2885159706.8392444        40208164.792806387        1218699650.7075722     
   2802451788.7156119        30528885.305953741        1215094493.2438767     
   2719922580.3435497        21445304.991006017        1215781234.9289901     
   2637572081.7230635        12957423.847973704        1220759875.7629156     
   2545777263.2682476        54782576.610351205        1295074856.8255050     
   2473225955.7598267        40306667.188980579        1287046311.1745765     
   2401410718.5905313        28284325.564704657        1283645558.3714263     
   2330331551.7603660        18715551.737523675        1284872598.4160552     
   2259988455.2693286        11600345.707436800        1290727431.3084633     
   2121128027.2292385        58367960.391292810        1360419599.7551210     
   2059871736.3703685        39979029.092145562        1352909819.0845850     
   1999908876.4381821        25901534.215276718        1350363724.9607964     
   1941239447.4326820        16135475.760690451        1352781317.3837574     
   1883863449.3538628        10680853.728380680        1360162596.3534658     
   1694098626.5974202        61239294.794396102        1422630936.1089289     
   1645097048.6708701        39225250.502294600        1416290174.4375999     
   1597946262.2585626        23380511.257663369        1415248993.0119886     
   1552646267.3604953        13705077.060501635        1419507391.8320947     
   1509197063.9766684        10198947.910809100        1429065370.8979192     
   3016614328.7150655        14752088.149987459        1150259929.7168167     
   2918368994.2140837        5060312.2523738146        1140846977.4221277     
   2821382537.2416277       -435205.21682143211        1136726357.6036682     
   2725654957.7976980       -1734464.2575937510        1137898070.2614331     
   2631186255.8822937        1162535.1300493479        1144362115.3954313     
   2637572081.7230635        12957423.847973704        1220759875.7629156     
   2553382976.7382936        5624575.1335697174        1212985654.3961110     
   2470140402.2247572        1446827.9899336100        1210187216.9848151     
   2387844358.1824489        424182.41706693172        1212364563.5290186     
   2306494844.6113734        2556638.4149678946        1219517694.0287256     
   2259988455.2693286        11600345.707436800        1290727431.3084633     
   2188951155.4558392        6355096.8727619648        1284227535.9693749     
   2118548039.0562871        3223792.7512036562        1282386876.0650616     
   2048779106.0706716        2206433.3427726030        1285205451.5955215     
   1979644356.4989908        3303018.6474528313        1292683262.5607612     
   1883863449.3538628        10680853.728380680        1360162596.3534658     
   1825073530.3667240        7251877.4699597359        1354572622.1419115     
   1766605447.7362227        4895689.0669996738        1353325334.8444040     
   1708459201.4623647        3612288.5195159912        1356420734.4609492     
   1650634791.5451460        3401675.8274979591        1363858820.9915409     
   1509197063.9766684        10198947.910809100        1429065370.8979192     
   1461750101.4709425        8314916.9251542687        1424020912.9137223     
   1414312628.2645605        6462516.9373121858        1423002593.3228459     
   1366884644.3575287        4641747.9473053813        1426010412.1252937     
   1319466149.7498386        2852609.9551044703        1433044369.3210652     
   2631186255.8822937        1162535.1300493479        1144362115.3954313     
   2536383536.3654532        5001750.9693834782        1139117970.6085651     
   2441009250.3522682        6935745.1542325020        1137833341.1469996     
   2345063397.8427219        6964517.6845439672        1140508227.0107286     
   2248545978.8368278        5088068.5603649616        1147142628.1997519     
   2306494844.6113734        2556638.4149678946        1219517694.0287256     
   2221811785.3322783        4655951.7722914219        1213137628.1707709     
   2136819725.9589837        5725264.8156114817        1210983916.9739461     
   2051518666.4914865        5764577.5449266434        1213056560.4382453     
   1965908606.9297888        4773889.9602377415        1219355558.5636704     
   1979644356.4989908        3303018.6474528313        1292683262.5607612     
   1905843355.5600116        3891148.9534769058        1285473603.1008992     
   1831995920.9289782        4324500.2859909534        1282757137.6379876     
   1758102052.6058950        4603072.6450058222        1284533866.1720321     
   1684161750.5907588        4726866.0305082798        1290803788.7030289     
   1650634791.5451460        3401675.8274979591        1363858820.9915409     
   1588478247.0486460        2707342.5129284859        1356125895.3989422     
   1526537835.2622433        2733451.5653464794        1353153003.1391246     
   1464813556.1859412        3480002.9847677350        1354940144.2120905     
   1403305409.8197365        4946996.7711803913        1361487318.6178408     
   1319466149.7498386        2852609.9551044703        1433044369.3210652     
   1269716459.7981899        1104532.4506595135        1425094505.0649037     
   1220445468.9587805        952118.65367954969        1422171513.4773552     
   1171653177.2316318        2395368.5642355084        1424275394.5584180     
   1123339584.6167262        5434282.1822627187        1431406148.3080945     
   2248545978.8368278        5088068.5603649616        1147142628.1997519     
   2150045093.0613818        3358039.8298890591        1139152850.2678950     
   2052604648.7874932        5162816.1046023369        1135851494.3969691     
   1956224646.0151782        10502397.384564757        1137238560.5869679     
   1860905084.7444129        19376783.669689059        1143314048.8378854     
   1965908606.9297888        4773889.9602377415        1219355558.5636704     
   1879920795.8718567        4336340.9467310905        1212707801.0361235     
   1794681411.7345316        6393548.3352540731        1210698798.9879775     
   1710190454.5178242        10945512.125828385        1213328552.4192364     
   1626447924.2217250        17992232.318438530        1220597061.3298857     
   1684161750.5907588        4726866.0305082798        1290803788.7030289     
   1610545109.7316973        5539225.3783837557        1285134034.5686877     
   1537364881.2122934        7806292.5251190066        1284053369.3322148     
   1464621065.0325527        11528067.470733225        1287561792.9936192     
   1392313661.1924725        16704550.215208769        1295659305.5528975     
   1403305409.8197365        4946996.7711803913        1361487318.6178408     
   1341918034.6409013        6966693.1248383522        1356431550.8655853     
   1280655057.2207754        9401048.6741951704        1355915205.4296818     
   1219516477.5593607        12250063.419253588        1359938282.3101244     
   1158502295.6566563        15513737.360011637        1368500781.5069156     
   1123339584.6167262        5434282.1822627187        1431406148.3080945     
   1074039570.5994744        8618744.1861136556        1426600349.9268196     
   1024551939.7599857        11177816.782501519        1426284307.2803702     
   974876692.09825134        13111499.971405029        1430458020.3687482     
   925013827.61427879        14419793.752852678        1439121489.1919439     
   1860905084.7444129        19376783.669689059        1143314048.8378854     
   1753759347.2673197        24567035.749793530        1139098101.6788251     
   1645463312.4580150        25922963.389207542        1140780822.5462408     
   1536016980.3165126        23444566.587949753        1148362211.4401302     
   1425420350.8427975        17131845.345988572        1161842268.3604894     
   1626447924.2217250        17992232.318438530        1220597061.3298857     
   1534124575.1803308        22554413.716497302        1215295762.0693274     
   1441111946.5781360        24818996.578545332        1215642571.4286919     
   1347410038.4151390        24785980.904602528        1221637489.4079680     
   1253018850.6913424        22455366.694638371        1233280516.0071788     
   1392313661.1924725        16704550.215208769        1295659305.5528975     
   1314096816.5680523        20423895.725614369        1289810508.2574806     
   1235651710.1542304        23382368.604682684        1289359260.1754267     
   1156978341.9510143        25579968.852436781        1294305561.3067422     
   1078076711.9583952        27016696.468840420        1304649411.6514168     
   1158502295.6566563        15513737.360011637        1368500781.5069156     
   1093676071.4304783        18175481.777139366        1362642340.2432785     
   1029082603.1863039        21613079.467613399        1361930888.7864497     
   964721890.92413247        25826530.431430519        1366366427.1364229     
   900593934.64396858        30815834.668598622        1375948955.2932141     
   925013827.61427879        14419793.752852678        1439121489.1919439     
   872862339.76761281        15809171.871083558        1433791258.0267184     
   821404625.67435336        19511129.167338520        1433357457.2617500     
   770640685.33450484        25525665.641624242        1437820086.8970287     
   720570518.74805570        33852781.293911040        1447179146.9325655     
   1756087132.2639942        526826139.67919827        679978795.29297125     
   1784155913.0477173        500074631.85540146        806363208.80091691     
   1809288969.4804688        463537376.19503206        925648779.77531481     
   1831486301.5622485        417214372.69809020        1037835508.2161653     
   1850747909.2930562        361105621.36457533        1142923394.1234682     
   1326369964.0606592        397910989.21819776        669640459.35264432     
   1339646742.8040907        375514916.29548913        791763971.58530521     
   1350721728.2842400        345779532.49517405        908602762.88180733     
   1359594920.5011077        308704837.81725287        1020156833.2421509     
   1366266319.4546938        264290832.26172552        1126426182.6663353     
   890449719.28875864        267134915.78662759        662255933.68033504     
   894117700.55586672        250649239.13419765        780974797.57334948     
   896317819.64738250        229270688.56312758        896223062.12759364     
   897050076.56330621        202999264.07341754        1008000727.3430685     
   896314471.30363822        171834965.66506743        1116307793.2197735     
   448326397.94829315        134497919.38448796        657825218.27604353     
   447568786.30304569        125477600.37152709        773995686.76504934     
   446077243.56989616        114010844.39889240        888509677.51267457     
   443851769.74884450        100097651.46658409        1001367190.5189189     
   440892364.83989060        83738021.574601620        1112568225.7837815     
   3.9262263312317837E-002   1.1778678993695352E-002   656348313.13976967     
   4.5627604258960182E-002   7.4773120387702134E-003   770826639.16040552     
   5.1780740867252213E-002   2.4684238169964314E-003   885462609.03704929     
   5.7721627386245110E-002  -3.2477912300935274E-003   1000256222.7697009     
   6.3450200908384241E-002  -9.6717162666959990E-003   1115207480.3583603     
   1850747909.2930562        361105621.36457533        1142923394.1234682     
   1835460655.6372044        295348701.38599539        1190412737.5515728     
   1823581537.1703036        240952232.03725010        1240154661.6104391     
   1815110553.8923516        197916213.31833452        1292149166.3000655     
   1810047705.8033488        166240645.22925210        1346396251.6204538     
   1366266319.4546938        264290832.26172552        1126426182.6663353     
   1360542636.2649293        216695669.39306244        1181810202.0345709     
   1357375054.4680321        177620844.50062343        1238107058.7205925     
   1356763574.0640018        147066357.58440620        1295316752.7244005     
   1358708195.0528374        125032208.64441103        1353439284.0459964     
   896314471.30363822        171834965.66506743        1116307793.2197735     
   896326520.54289186        141253208.49520087        1178592449.0993750     
   898042637.37892973        116351676.64794838        1240450198.9837892     
   901462821.81175113        97130370.123307079        1301881042.8730159     
   906587073.84135652        83589288.921279222        1362884980.7670550     
   440892364.83989060        83738021.574601620        1112568225.7837815     
   442812308.47109306        69021318.692411199        1180759478.7459865     
   445584285.90299624        57144728.479222938        1247184082.4000301     
   449208297.13560081        48108250.935039207        1311842036.7459109     
   453684342.16890568        41911886.059857219        1374733341.7836306     
   6.3450200908384241E-002  -9.6717162666959990E-003   1115207480.3583603     
   4.9531893010234231E-002  -1.5308227442078191E-002   1188311290.9744053     
   4.0231815989929934E-002  -5.5504622189603715E-003   1258308708.9693136     
   3.5549270358355464E-002   1.9598900827575941E-002   1325199734.3430865     
   3.5484824785507449E-002   6.0142104208881358E-002   1388984367.0957232     
   1810047705.8033488        166240645.22925210        1346396251.6204538     
   1779222469.8585198        133863753.80938089        1364063446.1311054     
   1749622544.6759200        105571231.59694344        1382658291.7160683     
   1721247930.2555549        81363078.591952562        1402180788.3753426     
   1694098626.5974202        61239294.794396102        1422630936.1089289     
   1358708195.0528374        125032208.64441103        1353439284.0459964     
   1333227057.1020901        100040876.78992301        1372359344.2448626     
   1308664902.2204854        78112821.832577944        1392758238.0805461     
   1285021730.4080257        59248043.772381067        1414635965.5530465     
   1262297541.6647065        43446542.609322190        1437992526.6623633     
   906587073.84135652        83589288.921279222        1362884980.7670550     
   888024841.20613480        66455958.828608572        1382700524.3455338     
   870075263.94696844        51364813.322787642        1404546084.1233339     
   852738342.06385660        38315852.403815895        1428421660.1004581     
   836014075.55679929        27309076.071692139        1454327252.2769024     
   453684342.16890568        41911886.059857219        1374733341.7836306     
   443615822.17065388        33108999.925436288        1395086986.4331186     
   433853629.85536861        25327206.067571685        1418021829.8444331     
   424397765.22304946        18566504.486259788        1443537872.0175753     
   415248228.27369624        12826895.181502432        1471635112.9525459     
   3.5484824785507449E-002   6.0142104208881358E-002   1388984367.0957232     
  -4.3534200969416459E-003   8.0405902860755760E-002   1409518730.5076170     
  -5.4314062405145511E-002   6.6928897177157026E-002   1433185475.2438428     
 -0.11439649307959802        1.9712336730874740E-002   1459984601.3044014     
 -0.18460109814392983       -6.1244805015005191E-002   1489916108.6892929     
   1694098626.5974202        61239294.794396102        1422630936.1089289     
   1645097048.6708701        39225250.502294600        1416290174.4375999     
   1597946262.2585626        23380511.257663369        1415248993.0119886     
   1552646267.3604953        13705077.060501635        1419507391.8320947     
   1509197063.9766684        10198947.910809100        1429065370.8979192     
   1262297541.6647065        43446542.609322190        1437992526.6623633     
   1228166880.8654056        27722166.156453252        1435166553.6074052     
   1195424313.6960721        16624768.470141530        1437028705.5186362     
   1164069840.1567028        10154349.550377190        1443578982.3960555     
   1134103460.2472985        8310909.3971650004        1454817384.2396634     
   836014075.55679929        27309076.071692139        1454327252.2769024     
   815007316.80037701        17350262.932742864        1454476253.6399951     
   794925953.78964615        10476102.279430836        1458701924.6897461     
   775769986.52460670        6686594.1117576063        1467004265.4261587     
   757539415.00525999        5981738.4297268689        1479383275.8492286     
   415248228.27369624        12826895.181502432        1471635112.9525459     
   405618356.47578335        8109540.8311611712        1474219274.5353689     
   396451182.53928804        4934512.6855453998        1480268650.5253222     
   387746706.46421009        3301810.7446524054        1489783240.9224067     
   379504928.25054795        3211435.0084817261        1502763045.7266202     
 -0.18460109814392983       -6.1244805015005191E-002   1489916108.6892929     
 -0.10837340640275256      -0.14828691159600557        1494395616.2935274     
  -5.5003780834035752E-002 -0.31152326597459801        1501728883.0253625     
  -2.4491632394313456E-002 -0.55095051689378172        1511915908.8847980     
  -1.6834290371948446E-002 -0.86656114976021348        1524956693.8718355     
   1509197063.9766684        10198947.910809100        1429065370.8979192     
   1461750101.4709425        8314916.9251542687        1424020912.9137223     
   1414312628.2645605        6462516.9373121858        1423002593.3228459     
   1366884644.3575287        4641747.9473053813        1426010412.1252937     
   1319466149.7498386        2852609.9551044703        1433044369.3210652     
   1134103460.2472985        8310909.3971650004        1454817384.2396634     
   1097485975.8716919        6588207.3534821272        1449388389.3566077     
   1060875608.4920855        4889228.6298008561        1448226394.1167891     
   1024272358.1084870        3213973.2261452675        1451331398.5202057     
   987676224.72088563        1562441.1424782872        1458703402.5668597     
   757539415.00525999        5981738.4297268689        1479383275.8492286     
   732439583.75952685        4626817.8279406130        1473566976.3800807     
   707344497.20645273        3287712.8683525324        1472258537.8040850     
   682254155.34603763        1964423.5509596169        1475457960.1212411     
   657168558.17828035        656949.87576144934        1483165243.3315446     
   379504928.25054795        3211435.0084817261        1502763045.7266202     
   366610925.13444489        2430748.3485248387        1496556673.9841459     
   353719294.40765655        1657969.6529499590        1495099024.3847373     
   340830036.07018226        893098.92175544798        1498390096.9283910     
   327943150.12202346        136136.15494494140        1506429891.6151154     
  -1.6834290371948446E-002 -0.86656114976021348        1524956693.8718355     
  -3.5551689797203578E-003  -1.0847721759316569        1518357482.1688004     
   9.5697877278266674E-002  -1.0164037994952657        1516747853.8587432     
  0.28092025043165658      -0.66147134701889365        1520127808.9416652     
  0.55211375764292758       -1.9967406848832248E-002   1528497347.4175692     
   1319466149.7498386        2852609.9551044703        1433044369.3210652     
   1269716459.7981899        1104532.4506595135        1425094505.0649037     
   1220445468.9587805        952118.65367954969        1422171513.4773552     
   1171653177.2316318        2395368.5642355084        1424275394.5584180     
   1123339584.6167262        5434282.1822627187        1431406148.3080945     
   987676224.72088563        1562441.1424782872        1458703402.5668597     
   950993258.58780026        440173.47793996334        1451617582.2606442     
   914669316.71767592        514653.35660481453        1449411797.6447315     
   878704399.11051691        1785880.7784866691        1452086048.7191219     
   843098505.76631713        4253855.7435661554        1459640335.4838195     
   657168558.17828035        656949.87576144934        1483165243.3315446     
   633132781.64002848        34631.784020721912        1476803846.3177664     
   609336354.51544952        210145.07119071484        1475175648.0159886     
   585779276.80454791        1183489.7372850776        1478280648.4262056     
   562461548.50731957        2954665.7822895944        1486118847.5484223     
   327943150.12202346        136136.15494494140        1506429891.6151154     
   316135028.95487034       -112092.63111694157        1500653297.2362740     
   304446582.35210490        38593.797444209456        1499463064.5911243     
   292877810.31372786        588195.44063477218        1502859193.6796672     
   281428712.83973539        1536712.2984404862        1510841684.5018983     
  0.55211375764292758       -1.9967406848832248E-002   1528497347.4175692     
  0.53232418473214693       0.23252233471993122        1523165935.0161643     
  0.22763883269225896      -0.46464121469771996        1522274047.3701425     
 -0.36195180323635301       -2.1114881763827134        1525821684.4795074     
  -1.2364393391923183       -4.7079925123263031        1533808846.3442559     
   1123339584.6167262        5434282.1822627187        1431406148.3080945     
   1074039570.5994744        8618744.1861136556        1426600349.9268196     
   1024551939.7599857        11177816.782501519        1426284307.2803702     
   974876692.09825134        13111499.971405029        1430458020.3687482     
   925013827.61427879        14419793.752852678        1439121489.1919439     
   843098505.76631713        4253855.7435661554        1459640335.4838195     
   805389588.53123736        6422029.7674143910        1454590076.6515024     
   767539958.83057415        8121162.2393216491        1454200818.3737171     
   729549616.66432929        9351253.1592896581        1458472560.6504710     
   691418562.03251004        10112302.527340174        1467405303.4817653     
   562461548.50731957        2954665.7822895944        1486118847.5484223     
   536832998.96787351        4253333.1001721025        1480878850.0144947     
   511110641.31950945        5239306.7216599882        1480471097.8548155     
   485294475.56221837        5912586.6467244625        1484895591.0693896     
   459384501.69601297        6273172.8754091859        1494152329.6582096     
   281428712.83973539        1536712.2984404862        1510841684.5018983     
   268369801.90939033        2112654.1844015419        1505466670.0158007     
   255263987.22678250        2532250.2294858992        1505095145.7236624     
   242111268.79191366        2795500.4337010682        1509727111.6254890     
   228911646.60478604        2902404.7970525771        1519362567.7212763     
  -1.2364393391923183       -4.7079925123263031        1533808846.3442559     
  -2.6442190927687119       -6.9799169191728208        1528353536.6554191     
  -3.4475969240615960       -7.2371689456303665        1528072961.9802592     
  -3.6465834701665716       -5.4797830078501866        1532967122.3187742     
  -3.2411620091118456       -1.7077037128710013        1543036017.6709661     
   925013827.61427879        14419793.752852678        1439121489.1919439     
   872862339.76761281        15809171.871083558        1433791258.0267184     
   821404625.67435336        19511129.167338520        1433357457.2617500     
   770640685.33450484        25525665.641624242        1437820086.8970287     
   720570518.74805570        33852781.293911040        1447179146.9325655     
   691418562.03251004        10112302.527340174        1467405303.4817653     
   651965916.36502206        11052629.100065261        1463369275.1330333     
   613033601.52490175        13727391.764014572        1464308783.8016069     
   574621617.51215458        18136590.519212544        1470223829.4874947     
   536729964.32677782        24280225.365633100        1481114412.1906881     
   459384501.69601297        6273172.8754091859        1494152329.6582096     
   432856717.11357212        6832253.5743758678        1491208154.0455968     
   406675820.43246633        8547627.2777979374        1493318622.0673461     
   380841811.65269613        11419293.985664889        1500483733.7234628     
   355354690.77426165        15447253.697990328        1512703489.0139365     
   228911646.60478604        2902404.7970525771        1519362567.7212763     
   215534742.01327005        3148045.2940408289        1517307894.7644045     
   202331282.39705068        3971835.7086859792        1520386972.0589573     
   189301267.75612807        5373776.0409894288        1528599799.6049192     
   176444698.09051222        7353866.2909742668        1541946377.4023142     
  -3.2411620091118456       -1.7077037128710013        1543036017.6709661     
  -8.9358901230899139        4.2590383600834709        1541668497.2894676     
  -12.581351070851788        17.056672374870708        1545513833.7764401     
  -14.177549427492345        36.685181346450960        1554572027.1318896     
  -13.724478513373064        63.144585805562507        1568843077.3558133     
   3.9262263312317837E-002   1.1778678993695352E-002   656348313.13976967     
   4.5627604258960182E-002   7.4773120387702134E-003   770826639.16040552     
   5.1780740867252213E-002   2.4684238169964314E-003   885462609.03704929     
   5.7721627386245110E-002  -3.2477912300935274E-003   1000256222.7697009     
   6.3450200908384241E-002  -9.6717162666959990E-003   1115207480.3583603     
  -448326397.87030369       -134497919.36109111        657825218.27095854     
  -447568786.21266413       -125477600.35977449        773995686.75929451     
  -446077243.46758282       -114010844.40031856        888509677.50669074     
  -443851769.63505971       -100097651.48272339        1001367190.5131478     
  -440892364.71509469       -83738021.606988728        1112568225.7786648     
  -890449719.21237481       -267134915.76371244        662255933.66905522     
  -894117700.46616805       -250649239.12559009        780974797.56068778     
  -896317819.54486561       -229270688.57048148        896223062.11443305     
  -897050076.44846702       -202999264.09838653        1008000727.3302917     
  -896314471.17697275       -171834965.70930529        1116307793.2082629     
  -1326369963.9869506       -397910989.19608521        669640459.33405972     
  -1339646742.7148840       -375514916.28996927        791763971.56458509     
  -1350721728.1800675       -345779532.50802016        908602762.86027610     
  -1359594920.3825006       -308704837.85023749        1020156833.2211325     
  -1366266319.3221841       -264290832.31662190        1126426182.6471543     
  -1756087132.1940317       -526826139.65820950        679978795.26597202     
  -1784155912.9588118       -500074631.85291207        806363208.77098691     
  -1809288969.3731880       -463537376.21293432        925648779.74421966     
  -1831486301.4371603       -417214372.73827660        1037835508.1856704     
  -1850747909.1507277       -361105621.42893833        1142923394.0953395     
   6.3450200908384241E-002  -9.6717162666959990E-003   1115207480.3583603     
   4.9531893010234231E-002  -1.5308227442078191E-002   1188311290.9744053     
   4.0231815989929934E-002  -5.5504622189603715E-003   1258308708.9693136     
   3.5549270358355464E-002   1.9598900827575941E-002   1325199734.3430865     
   3.5484824785507449E-002   6.0142104208881358E-002   1388984367.0957232     
  -440892364.71509469       -83738021.606988728        1112568225.7786648     
  -442812308.37402415       -69021318.740401611        1180759478.7531765     
  -445584285.82510644       -57144728.514324874        1247184082.4206102     
  -449208297.06834227       -48108250.928759187        1311842036.7809665     
  -453684342.10373127       -41911885.983704850        1374733341.8342445     
  -896314471.17697275       -171834965.70930529        1116307793.2082629     
  -896326520.44074643       -141253208.55844402        1178592449.1116748     
  -898042637.29344559       -116351676.70399958        1240450199.0220668     
  -901462821.73506844       -97130370.145968527        1301881042.9394398     
  -906587073.76561677       -83589288.884354085        1362884980.8637924     
  -1366266319.3221841       -264290832.31662190        1126426182.6471543     
  -1360542636.1506364       -216695669.46943760        1181810202.0499005     
  -1357375054.3647857       -177620844.57457450        1238107058.7736847     
  -1356763573.9646306       -147066357.63203025        1295316752.8185077     
  -1358708194.9501708       -125032208.64180440        1353439284.1843686     
  -1850747909.1507277       -361105621.42893833        1142923394.0953395     
  -1835460655.5036936       -295348701.47338051        1190412737.5678527     
  -1823581537.0391266       -240952232.12604964        1240154661.6754627     
  -1815110553.7570257       -197916213.38693804        1292149166.4181688     
  -1810047705.6573930       -166240645.25605345        1346396251.7959721     
   3.5484824785507449E-002   6.0142104208881358E-002   1388984367.0957232     
  -4.3534200969416459E-003   8.0405902860755760E-002   1409518730.5076170     
  -5.4314062405145511E-002   6.6928897177157026E-002   1433185475.2438428     
 -0.11439649307959802        1.9712336730874740E-002   1459984601.3044014     
 -0.18460109814392983       -6.1244805015005191E-002   1489916108.6892929     
  -453684342.10373127       -41911885.983704850        1374733341.8342445     
  -443615822.17957246       -33108999.816763684        1395086986.4696772     
  -433853629.95731062       -25327205.989478990        1418021829.8730814     
  -424397765.43694675       -18566504.501853749        1443537872.0444548     
  -415248228.61847818       -12826895.353881225        1471635112.9837990     
  -906587073.76561677       -83589288.884354085        1362884980.8637924     
  -888024841.18135321       -66455958.761901677        1382700524.4156942     
  -870075263.99076211       -51364813.285024285        1404546084.1792052     
  -852738342.19384372       -38315852.453722179        1428421660.1543221     
  -836014075.79059839       -27309076.267996013        1454327252.3410482     
  -1358708194.9501708       -125032208.64180440        1353439284.1843686     
  -1333227057.0096948       -100040876.75500762        1372359344.3456678     
  -1308664902.1546690       -78112821.819708228        1392758238.1622131     
  -1285021730.3850889       -59248043.835895061        1414635965.6340032     
  -1262297541.7009578       -43446542.803581476        1437992526.7610395     
  -1810047705.6573930       -166240645.25605345        1346396251.7959721     
  -1779222469.6645992       -133863753.79608399        1364063446.2595985     
  -1749622544.4490283       -105571231.59352249        1382658291.8221078     
  -1721247930.0106814       -81363078.648373723        1402180788.4834991     
  -1694098626.3495574       -61239294.960636556        1422630936.2437742     
 -0.18460109814392983       -6.1244805015005191E-002   1489916108.6892929     
 -0.10837340640275256      -0.14828691159600557        1494395616.2935274     
  -5.5003780834035752E-002 -0.31152326597459801        1501728883.0253625     
  -2.4491632394313456E-002 -0.55095051689378172        1511915908.8847980     
  -1.6834290371948446E-002 -0.86656114976021348        1524956693.8718355     
  -415248228.61847818       -12826895.353881225        1471635112.9837990     
  -405618356.66639757       -8109541.1256469935        1474219274.5564060     
  -396451182.59031963       -4934513.1507550627        1480268650.5254650     
  -387746706.39024681       -3301811.4292126447        1489783240.8909771     
  -379504928.06617719       -3211435.9610159844        1502763045.6529417     
  -836014075.79059839       -27309076.267996013        1454327252.3410482     
  -815007316.90880108       -17350263.208319604        1454476253.7200222     
  -794925953.75615394       -10476102.579145789        1458701924.7643006     
  -775769986.33265817       -6686594.3804766834        1467004265.4738841     
  -757539414.63831329       -5981738.6123087704        1479383275.8487720     
  -1262297541.7009578       -43446542.803581476        1437992526.7610395     
  -1228166880.8355823       -27722166.396306157        1435166553.7843761     
  -1195424313.5525045       -16624768.596692264        1437028705.7418709     
  -1164069839.8517256       -10154349.404738367        1443578982.6335204     
  -1134103459.7332432       -8310908.8204405308        1454817384.4593270     
  -1694098626.3495574       -61239294.960636556        1422630936.2437742     
  -1645097048.4467425       -39225250.689605594        1416290174.7494695     
  -1597946261.9793718       -23380511.203390062        1415248993.4581735     
  -1552646266.9474468       -13705076.501992345        1419507392.3698847     
  -1509197063.3509648       -10198946.585406423        1429065371.4846036     
  -1.6834290371948446E-002 -0.86656114976021348        1524956693.8718355     
  -3.5551689797203578E-003  -1.0847721759316569        1518357482.1688004     
   9.5697877278266674E-002  -1.0164037994952657        1516747853.8587432     
  0.28092025043165658      -0.66147134701889365        1520127808.9416652     
  0.55211375764292758       -1.9967406848832248E-002   1528497347.4175692     
  -379504928.06617719       -3211435.9610159844        1502763045.6529417     
  -366610924.75156456       -2430749.3658142686        1496556674.0981076     
  -353719293.69511783       -1657970.2978300750        1495099024.7328391     
  -340830034.89683551       -893098.75706081092        1498390097.5571389     
  -327943148.35671598       -136134.74350227416        1506429892.5710003     
  -757539414.63831329       -5981738.6123087704        1479383275.8487720     
  -732439582.88926566       -4626817.6637676358        1473566976.7073154     
  -707344495.74251771       -3287712.0562253296        1472258538.5520105     
  -682254153.19807279       -1964421.7896948159        1475457961.3828566     
  -657168555.25592577       -656946.86415612698        1483165245.1998580     
  -1134103459.7332432       -8310908.8204405308        1454817384.4593270     
  -1097485974.4166560       -6588205.9786283970        1449388389.9964213     
  -1060875606.0465058       -4889226.2916035056        1448226395.3162532     
  -1024272354.6227908       -3213969.7593663335        1451331400.4188240     
  -987676220.14551556       -1562436.3819265366        1458703405.3041341     
  -1509197063.3509648       -10198946.585406423        1429065371.4846036     
  -1461750099.3337355       -8314914.3103925586        1424020913.9654248     
  -1414312624.6070766       -6462513.0039485693        1423002595.0255706     
  -1366884639.1709955       -4641742.6660977602        1426010414.6650410     
  -1319466143.0254805       -2852603.2967994213        1433044372.8838358     
  0.55211375764292758       -1.9967406848832248E-002   1528497347.4175692     
  0.53232418473214693       0.23252233471993122        1523165935.0161643     
  0.22763883269225896      -0.46464121469771996        1522274047.3701425     
 -0.36195180323635301       -2.1114881763827134        1525821684.4795074     
  -1.2364393391923183       -4.7079925123263031        1533808846.3442559     
  -327943148.35671598       -136134.74350227416        1506429892.5710003     
  -316135027.30367494        112094.40027165413        1500653297.6847255     
  -304446581.39267707       -38593.596098527312        1499463064.5087948     
  -292877810.62371910       -588198.73260371387        1502859193.0432065     
  -281428714.99681157       -1536721.0092730373        1510841683.2879591     
  -657168555.25592577       -656946.86415612698        1483165245.1998580     
  -633132778.97302735       -34628.581988394260        1476803847.1620452     
  -609336352.68931758       -210143.63044703007        1475175647.7895334     
  -585779276.40479290       -1183492.0095246136        1478280647.0823238     
  -562461550.11945796       -2954673.7192341089        1486118845.0404177     
  -987676220.14551556       -1562436.3819265366        1458703405.3041341     
  -950993254.47573543       -440168.71426177025        1451617583.4481163     
  -914669313.66228533       -514650.56769514084        1449411797.2123594     
  -878704397.70516765       -1785881.9422357678        1452086046.5968628     
  -843098506.60437644       -4253862.8378694057        1459640331.6016300     
  -1319466143.0254805       -2852603.2967994213        1433044372.8838358     
  -1269716453.8117909       -1104525.9965211153        1425094506.5429471     
  -1220445464.3115826       -952114.40784788132        1422171512.7772756     
  -1171653174.5248389       -2395368.5307231545        1424275391.5868278     
  -1123339584.4515774       -5434288.3652060628        1431406142.9715953     
  -1.2364393391923183       -4.7079925123263031        1533808846.3442559     
  -2.6442190927687119       -6.9799169191728208        1528353536.6554191     
  -3.4475969240615960       -7.2371689456303665        1528072961.9802592     
  -3.6465834701665716       -5.4797830078501866        1532967122.3187742     
  -3.2411620091118456       -1.7077037128710013        1543036017.6709661     
  -281428714.99681157       -1536721.0092730373        1510841683.2879591     
  -268369807.12218779       -2112667.9041212350        1505466670.1825788     
  -255263994.40827242       -2532265.3346621096        1505095147.1937399     
  -242111276.85506466       -2795513.3008958250        1509727114.3214381     
  -228911654.46255869       -2902411.8028026968        1519362571.5656786     
  -562461550.11945796       -2954673.7192341089        1486118845.0404177     
  -536833004.09710920       -4253346.5774146914        1480878850.1258709     
  -511110649.00057161       -5239322.5216332078        1480471100.4307268     
  -485294484.82984716       -5912601.5518958867        1484895595.9549873     
  -459384511.58493292       -6273183.6681899428        1494152336.6986480     
  -843098506.60437644       -4253862.8378694057        1459640331.6016300     
  -805389593.56897914       -6422042.9997877479        1454590076.4852936     
  -767539967.22449780       -8121178.7980936468        1454200821.6912267     
  -729549627.57093048       -9351270.2327811122        1458472567.2194204     
  -691418574.60828424       -10112317.303869486        1467405313.0698855     
  -1123339584.4515774       -5434288.3652060628        1431406142.9715953     
  -1074039575.5378036       -8618757.1712538600        1426600349.2608485     
  -1024551949.0800525       -11177834.164046884        1426284310.9752314     
  -974876705.07832241       -13111519.343576610        1430458028.1147454     
  -925013843.53261471       -14419812.709846079        1439121500.6793869     
  -3.2411620091118456       -1.7077037128710013        1543036017.6709661     
  -8.9358901230899139        4.2590383600834709        1541668497.2894676     
  -12.581351070851788        17.056672374870708        1545513833.7764401     
  -14.177549427492345        36.685181346450960        1554572027.1318896     
  -13.724478513373064        63.144585805562507        1568843077.3558133     
  -228911654.46255869       -2902411.8028026968        1519362571.5656786     
  -215534761.66063148       -3148042.5839403123        1517307903.1044967     
  -202331310.00704765       -3971810.5262250826        1520386985.0986991     
  -189301299.50180918       -5373715.6296615154        1528599817.5482924     
  -176444730.14491272       -7353757.8942317665        1541946400.4532681     
  -459384511.58493292       -6273183.6681899428        1494152336.6986480     
  -432856738.60946488       -6832256.6941616237        1491208169.7605753     
  -406675849.97994643       -8547610.8733002543        1493318646.8648028     
  -380841845.69637853       -11419246.205607355        1500483768.0113263     
  -355354725.75876075       -15447162.691080123        1512703533.2001553     
  -691418574.60828424       -10112317.303869486        1467405313.0698855     
  -651965939.78238046       -11052638.071596712        1463369297.2577143     
  -613033632.50003707       -13727383.984521151        1464308819.0747528     
  -574621652.76125157       -18136555.042642564        1470223878.5210028     
  -536730000.56602335       -24280151.245952874        1481114475.5964558     
  -925013843.53261471       -14419812.709846079        1439121500.6793869     
  -872862365.17938471       -15809186.716261744        1433791285.5959024     
  -821404657.56732428       -19511129.859908491        1433357501.7285423     
  -770640720.69642508       -25525642.140756518        1437820149.0773072     
  -720570554.56669557       -33852723.558841825        1447179227.6421890     
  -1756087132.1940317       -526826139.65820950        679978795.26597202     
  -1784155912.9588118       -500074631.85291207        806363208.77098691     
  -1809288969.3731880       -463537376.21293432        925648779.74421966     
  -1831486301.4371603       -417214372.73827660        1037835508.1856704     
  -1850747909.1507277       -361105621.42893833        1142923394.0953395     
  -2201816339.8148141       -660544901.94444430        696378632.94775319     
  -2238458401.0414691       -613873256.44136786        813793126.20761812     
  -2273053384.4467416       -560378018.20035124        927114676.02141237     
  -2305601290.0306320       -500059187.22139370        1036343282.3891357     
  -2336102117.7931409       -432916763.50449592        1141478945.3107893     
  -2685772702.8304944       -805731810.84914827        721947663.86236429     
  -2722399761.4169912       -736563542.71768343        829355482.59322023     
  -2757868388.7111287       -663533836.94501793        935676256.96371722     
  -2792178584.7129054       -586642693.53115129        1040909986.9738545     
  -2825330349.4223213       -505890112.47608376        1145056672.6236329     
  -3207956221.2410717       -962386866.37232161        756685888.00980508     
  -3235979994.0853796       -868145490.68185878        853050277.92779350     
  -3263733982.1663475       -773004832.44693446        951333522.57113409     
  -3291218185.4839778       -676964891.66754866        1051535621.9398266     
  -3318432604.0382695       -580025668.34370172        1153656576.0338719     
  -3768366895.0465474       -1130510068.5139642        800593305.39007580     
  -3779199099.0466323       -1008619100.3338934        884877512.21133780     
  -3790650164.8124003       -888791004.70610070        974086472.84366322     
  -3802720092.3438511       -771025781.63058615        1068220187.2870522     
  -3815408881.6409864       -655323431.10735083        1167278655.5415046     
  -1850747909.1507277       -361105621.42893833        1142923394.0953395     
  -1835460655.5036936       -295348701.47338051        1190412737.5678527     
  -1823581537.0391266       -240952232.12604964        1240154661.6754627     
  -1815110553.7570257       -197916213.38693804        1292149166.4181688     
  -1810047705.6573930       -166240645.25605345        1346396251.7959721     
  -2336102117.7931409       -432916763.50449592        1141478945.3107893     
  -2312677644.9044323       -351813119.89001602        1182684066.3042636     
  -2292761592.8905902       -282404212.52508956        1224354454.4657159     
  -2276353961.7516127       -224690041.40971369        1266490109.7951465     
  -2263454751.4875031       -178670606.54389203        1309091032.2925551     
  -2825330349.4223213       -505890112.47608376        1145056672.6236329     
  -2798875267.1979923       -410971728.17449671        1179860571.1636033     
  -2776028891.5409274       -328082365.76379156        1213342423.4044335     
  -2756791222.4511275       -257222025.24396741        1245502229.3461232     
  -2741162259.9285898       -198390706.61502385        1276339988.9886720     
  -3318432604.0382695       -580025668.34370172        1153656576.0338719     
  -3294053522.3843722       -472824526.32682383        1181942252.1458735     
  -3273383432.9901385       -377986691.84215581        1207118568.4916155     
  -3256422335.8555675       -295512164.88969886        1229185525.0710988     
  -3243170230.9806609       -225400945.46945167        1248143121.8843234     
  -3815408881.6409864       -655323431.10735083        1167278655.5415046     
  -3798212410.4635749       -537371514.34699750        1188929109.2510717     
  -3784825217.2382231       -432117190.76018226        1205682889.7272620     
  -3775247301.9649348       -339560460.34690750        1217539996.9700730     
  -3769478664.6437068       -259701323.10717010        1224500430.9795084     
  -1810047705.6573930       -166240645.25605345        1346396251.7959721     
  -1779222469.6645992       -133863753.79608399        1364063446.2595985     
  -1749622544.4490283       -105571231.59352249        1382658291.8221078     
  -1721247930.0106814       -81363078.648373723        1402180788.4834991     
  -1694098626.3495574       -61239294.960636556        1422630936.2437742     
  -2263454751.4875031       -178670606.54389203        1309091032.2925551     
  -2223564095.3795896       -134231695.32936215        1317029865.1918185     
  -2186546089.2129207       -99368283.918981552        1328230904.0604701     
  -2152400732.9874949       -74080372.312745810        1342694148.8985100     
  -2121128026.7033150       -58367960.510658145        1360419599.7059369     
  -2741162259.9285898       -198390706.61502385        1276339988.9886720     
  -2685536026.9326854       -139888728.61407280        1272628564.6322155     
  -2634429783.0420451       -96453380.964006186        1274513901.1156516     
  -2587843528.2566719       -68084663.664824486        1281995998.4389811     
  -2545777262.5765619       -54782576.716526031        1295074856.6022036     
  -3243170230.9806609       -225400945.46945167        1248143121.8843234     
  -3165138264.3238907       -150834853.65021682        1230859544.5807879     
  -3093273625.9364076       -96826522.728603721        1221507282.9876504     
  -3027576315.8182106       -63375952.704613686        1220086337.1049128     
  -2968046333.9692998       -50483143.578241587        1226596706.9325724     
  -3769478664.6437068       -259701323.10717010        1224500430.9795084     
  -3662370807.5532022       -167070070.43779159        1191722805.0375369     
  -3563077617.8960028       -100487709.21277177        1169211049.6764686     
  -3471599095.6721106       -59954239.432108164        1156965164.8963046     
  -3387935240.8815279       -45469661.095804214        1154985150.6970451     
  -1694098626.3495574       -61239294.960636556        1422630936.2437742     
  -1645097048.4467425       -39225250.689605594        1416290174.7494695     
  -1597946261.9793718       -23380511.203390062        1415248993.4581735     
  -1552646266.9474468       -13705076.501992345        1419507392.3698847     
  -1509197063.3509648       -10198946.585406423        1429065371.4846036     
  -2121128026.7033150       -58367960.510658145        1360419599.7059369     
  -2059871735.9501615       -39979029.210475445        1352909819.2817221     
  -1999908876.0311072       -25901534.023952246        1350363725.3788011     
  -1941239446.9461479       -16135474.951080799        1352781317.9971738     
  -1883863448.6952863       -10680851.991867065        1360162597.1368406     
  -2545777262.5765619       -54782576.716526031        1295074856.6022036     
  -2473225955.2065415       -40306667.257238030        1287046311.2829845     
  -2401410718.0692706       -28284325.240448117        1283645558.8033452     
  -2330331551.1647468       -18715550.666146278        1284872599.1632862     
  -2259988454.4929690       -11600343.534336686        1290727432.3628080     
  -2968046333.9692998       -50483143.578241587        1226596706.9325724     
  -2885159706.2158794       -40208164.829889178        1218699650.7532556     
  -2802451788.0938587       -30528884.852867126        1215094493.7318056     
  -2719922579.6032367       -21445303.647175312        1215781235.8682215     
  -2637572080.7440138       -12957421.212814689        1220759877.1625040     
  -3387935240.8815279       -45469661.095804214        1154985150.6970451     
  -3295672988.9781742       -39683521.928423285        1147869837.6925373     
  -3203032086.1048746       -32635212.861217737        1144710530.1641827     
  -3110012532.2616220       -24324733.894175410        1145507228.1119802     
  -3016614327.4484210       -14752085.027301431        1150259931.5359302     
  -1509197063.3509648       -10198946.585406423        1429065371.4846036     
  -1461750099.3337355       -8314914.3103925586        1424020913.9654248     
  -1414312624.6070766       -6462513.0039485693        1423002595.0255706     
  -1366884639.1709955       -4641742.6660977602        1426010414.6650410     
  -1319466143.0254805       -2852603.2967994213        1433044372.8838358     
  -1883863448.6952863       -10680851.991867065        1360162597.1368406     
  -1825073527.5524864       -7251874.0904226303        1354572623.4386210     
  -1766605442.7791188       -4895684.0870853662        1353325336.8823397     
  -1708459194.3751874       -3612281.9818683863        1356420737.4679945     
  -1650634782.3406851       -3401667.7747499943        1363858825.1955874     
  -2259988454.4929690       -11600343.534336686        1290727432.3628080     
  -2188951151.7599936       -6355092.6670821905        1284227537.5602100     
  -2118548032.4753103       -3223786.6274650097        1282386878.4621630     
  -2048779096.6389234       -2206425.4155020714        1285205455.0686653     
  -1979644344.2508264       -3303009.0311779976        1292683267.3797164     
  -2637572080.7440138       -12957421.212814689        1220759877.1625040     
  -2553382971.9562554       -5624570.0403642654        1212985656.3301928     
  -2470140393.6956511       -1446820.6250971556        1210187219.7650437     
  -2387844345.9621997       -424172.96700465679        1212364567.4670563     
  -2306494828.7558990       -2556627.0660821199        1219517699.4362314     
  -3016614327.4484210       -14752085.027301431        1150259931.5359302     
  -2918368988.1412735       -5060306.2102783918        1140846979.7485685     
  -2821382526.4401360        435213.92004251480        1136726360.7909787     
  -2725654942.3450184        1734475.3636370897        1137898074.6631649     
  -2631186235.8559108       -1162521.8794747591        1144362121.3651252     
  -1319466143.0254805       -2852603.2967994213        1433044372.8838358     
  -1269716453.8117909       -1104525.9965211153        1425094506.5429471     
  -1220445464.3115826       -952114.40784788132        1422171512.7772756     
  -1171653174.5248389       -2395368.5307231545        1424275391.5868278     
  -1123339584.4515774       -5434288.3652060628        1431406142.9715953     
  -1650634782.3406851       -3401667.7747499943        1363858825.1955874     
  -1588478238.9373407       -2707334.7461057305        1356125897.0162094     
  -1526537828.7837601       -2733445.8833428025        1353153002.0086467     
  -1464813551.8799455       -3480001.1864665151        1354940140.1729000     
  -1403305408.2258959       -4947000.6554728746        1361487311.5089648     
  -1979644344.2508264       -3303009.0311779976        1292683267.3797164     
  -1905843344.9532630       -3891139.7627779245        1285473604.9028466     
  -1831995912.4417591       -4324493.1145777702        1282757136.1943855     
  -1758102046.7163112       -4603069.0865676403        1284533861.2543330     
  -1684161747.7769225       -4726867.6787488461        1290803780.0826926     
  -2306494828.7558990       -2556627.0660821199        1219517699.4362314     
  -2221811771.8595653       -4655941.0465760231        1213137630.2028577     
  -2136819715.2855804       -5725256.1015610695        1210983915.3344908     
  -2051518659.0339477       -5764572.2310568094        1213056554.8311260     
  -1965908603.1046624       -4773889.4350420237        1219355548.6927636     
  -2631186235.8559108       -1162521.8794747591        1144362121.3651252     
  -2536383519.6562481       -5001738.5974868536        1139117972.9162436     
  -2441009237.3152256       -6935734.8442947865        1137833339.4289618     
  -2345063388.8328495       -6964510.6199238300        1140508220.9032781     
  -2248545974.2091112       -5088065.9243478775        1147142617.3391945     
  -1123339584.4515774       -5434288.3652060628        1431406142.9715953     
  -1074039575.5378036       -8618757.1712538600        1426600349.2608485     
  -1024551949.0800525       -11177834.164046884        1426284310.9752314     
  -974876705.07832241       -13111519.343576610        1430458028.1147454     
  -925013843.53261471       -14419812.709846079        1439121500.6793869     
  -1403305408.2258959       -4947000.6554728746        1361487311.5089648     
  -1341918039.1969192       -6966703.7746318579        1356431548.9731696     
  -1280655067.4210134       -9401064.4040275216        1355915208.2500396     
  -1219516492.8981719       -12250082.543640971        1359938289.3395777     
  -1158502315.6284063       -15513758.193499267        1368500792.2417793     
  -1684161747.7769225       -4726867.6787488461        1290803780.0826926     
  -1610545114.6683533       -5539233.9217021465        1285134031.4586225     
  -1537364893.6099014       -7806306.9983823895        1284053371.0347590     
  -1464621084.6015625       -11528086.908774257        1287561798.8110962     
  -1392313687.6433401       -16704573.652883410        1295659314.7876377     
  -1965908603.1046624       -4773889.4350420237        1219355548.6927636     
  -1879920801.9521079       -4336347.6124702692        1212707796.7172060     
  -1794681427.6467228       -6393561.9471260309        1210698799.3293855     
  -1710190480.1884887       -10945532.438961625        1213328556.5293062     
  -1626447959.5774236       -17992259.088014960        1220597068.3169682     
  -2248545974.2091112       -5088065.9243478775        1147142617.3391945     
  -2150045101.0481830       -3358044.8469344378        1139152844.7489214     
  -2052604669.5314670       -5162829.2502321005        1135851493.1339238     
  -1956224679.6589580       -10502419.134220004        1137238562.4942038     
  -1860905131.4306564       -19376814.498898029        1143314052.8297589     
  -925013843.53261471       -14419812.709846079        1439121500.6793869     
  -872862365.17938471       -15809186.716261744        1433791285.5959024     
  -821404657.56732428       -19511129.859908491        1433357501.7285423     
  -770640720.69642508       -25525642.140756518        1437820149.0773072     
  -720570554.56669557       -33852723.558841825        1447179227.6421890     
  -1158502315.6284063       -15513758.193499267        1368500792.2417793     
  -1093676099.9679697       -18175501.451412201        1362642369.1116643     
  -1029082638.1260674       -21613090.771114826        1361930936.3674779     
  -964721930.10270584       -25826526.152622819        1366366494.0092151     
  -900593975.89788151       -30815807.595908374        1375949042.0368571     
  -1392313687.6433401       -16704573.652883410        1295659314.7876377     
  -1314096851.3334146       -20423921.159619033        1289810536.6872976     
  -1235651751.9193962       -23382391.652719796        1289359308.1426766     
  -1156978389.4012856       -25579985.132165432        1294305629.1537797     
  -1078076763.7790804       -27016701.597978830        1304649499.7205982     
  -1626447959.5774236       -17992259.088014960        1220597068.3169682     
  -1534124619.2757261       -22554445.840883434        1215295788.3227983     
  -1441111998.9473050       -24819032.504684031        1215642617.0541501     
  -1347410098.5921643       -24786019.079411089        1221637554.5110228     
  -1253018918.2102993       -22455405.565055192        1233280600.6934178     
  -1860905131.4306564       -19376814.498898029        1143314052.8297589     
  -1753759403.7949011       -24567075.495213509        1139098124.0181670     
  -1645463379.2097993       -25923013.327038765        1140780863.1018958     
  -1536017057.6753397       -23444627.994332910        1148362270.0809374     
  -1425420439.1915309       -17131919.497135401        1161842344.9553020     
  -3768366895.0465474       -1130510068.5139642        800593305.39007580     
  -3779199099.0466323       -1008619100.3338934        884877512.21133780     
  -3790650164.8124003       -888791004.70610070        974086472.84366322     
  -3802720092.3438511       -771025781.63058615        1068220187.2870522     
  -3815408881.6409864       -655323431.10735083        1167278655.5415046     
  -4339852016.9621773       -1301955605.0886531        858811853.33288300     
  -4335302229.2760086       -1125667369.9172201        942410347.25877500     
  -4331895681.6199265       -953189934.84607697        1020363173.2111769     
  -4329632373.9939308       -784523299.87522423        1092670331.1900885     
  -4328512306.3980217       -619667465.00466084        1159331821.1955094     
  -4895258879.7032166       -1468577663.9109650        936483469.16793287     
  -4905528305.4295177       -1246952523.2777870        1018784475.5566510     
  -4917465349.4503107       -1030886110.2929113        1084869392.1873252     
  -4931070011.7655945       -820378424.95633709        1134738219.0599556     
  -4946342292.3753691       -615429467.26806486        1168390956.1745412     
  -5434587483.2696667       -1630376244.9809000        1033608152.8952256     
  -5489877327.5071659       -1372474560.4155955        1113999897.1049657     
  -5547359168.3035574       -1121879531.0466037        1167605129.7721083     
  -5607033005.6588430       -878591156.87392569        1194423850.8966527     
  -5668898839.5730238       -642609437.89756155        1194456060.4785993     
  -5957837827.6615267       -1787351348.2984581        1150185904.5147612     
  -6088349295.5089464       -1502233481.3306437        1228056611.9037189     
  -6221577138.1796637       -1226170197.1071541        1268570385.9655256     
  -6357521355.6736774       -959161495.62799025        1271727226.7001803     
  -6496181947.9909887       -701207376.89315081        1237527134.1076837     
  -3815408881.6409864       -655323431.10735083        1167278655.5415046     
  -3798212410.4635749       -537371514.34699750        1188929109.2510717     
  -3784825217.2382231       -432117190.76018226        1205682889.7272620     
  -3775247301.9649348       -339560460.34690750        1217539996.9700730     
  -3769478664.6437068       -259701323.10717010        1224500430.9795084     
  -4328512306.3980217       -619667465.00466084        1159331821.1955094     
  -4298431294.0345306       -463913491.62768424        1141420916.4916930     
  -4278936807.5248170       -343447937.76329911        1129594319.0220940     
  -4270028846.8688812       -258270803.41150618        1123852028.7867122     
  -4271707412.0667210       -208382088.57230663        1124194045.7855484     
  -4946342292.3753691       -615429467.26806486        1168390956.1745412     
  -4872002508.9183855       -412461168.30224109        1103011903.8386722     
  -4815026499.2168941       -267372115.18806171        1054698139.2046156     
  -4775414263.2708960       -180162307.92552757        1023449662.2723713     
  -4753165801.0803928       -150831746.51463819        1009266473.0419393     
  -5668898839.5730238       -642609437.89756155        1194456060.4785993     
  -5518926055.1151304       -383014544.37066483        1073702071.2920092     
  -5393094292.3144503       -203889723.03446889        980994350.27482688     
  -5291403551.1709766       -105234973.88896680        916332897.42705083     
  -5213853831.6847134       -87050296.934166193        879717712.74868333     
  -6496181947.9909887       -701207376.89315081        1237527134.1076837     
  -6239201932.6247768       -375573619.83295918        1053491418.8517045     
  -6013140186.8174896       -153000761.30251884        908482952.23272598     
  -5817996710.5691261       -33488801.301828384        802501734.25075102     
  -5653771503.8796883       -17037739.830889702        735547764.90577912     
  -3769478664.6437068       -259701323.10717010        1224500430.9795084     
  -3662370807.5532022       -167070070.43779159        1191722805.0375369     
  -3563077617.8960028       -100487709.21277177        1169211049.6764686     
  -3471599095.6721106       -59954239.432108164        1156965164.8963046     
  -3387935240.8815279       -45469661.095804214        1154985150.6970451     
  -4271707412.0667210       -208382088.57230663        1124194045.7855484     
  -4149111268.6441984       -144048737.40944767        1090475507.7030861     
  -4030986473.8266587       -94619881.596530199        1064935450.4120064     
  -3917333027.6140985       -60095521.133550167        1047573873.9123113     
  -3808150930.0065207       -40475656.020509958        1038390778.2039998     
  -4753165801.0803928       -150831746.51463819        1009266473.0419393     
  -4621045342.1530504       -116585488.10645866        978507561.45203221     
  -4490052913.0023670       -86099328.953802109        953839740.86398757     
  -4360188513.6283407       -59373269.056667566        935263011.27780807     
  -4231452144.0309701       -36407308.415055990        922777372.69348967     
  -5213853831.6847134       -87050296.934166193        879717712.74868333     
  -5078173028.0797558       -84680322.528824806        855818966.28437769     
  -4940276935.4231329       -74926051.284592628        835923921.03241491     
  -4800165553.7148409       -57787483.201462269        820032576.99279535     
  -4657838882.9548779       -33264618.279438734        808144934.16551733     
  -5653771503.8796883       -17037739.830889702        735547764.90577912     
  -5520494326.4243174       -48333240.676550388        722409722.20012045     
  -5381658541.0889521       -61100048.588898420        711187990.91728568     
  -5237264147.8735933       -55338163.567933798        701882571.05727232     
  -5087311146.7782431       -31047585.613658667        694493462.62008202     
  -3387935240.8815279       -45469661.095804214        1154985150.6970451     
  -3295672988.9781742       -39683521.928423285        1147869837.6925373     
  -3203032086.1048746       -32635212.861217737        1144710530.1641827     
  -3110012532.2616220       -24324733.894175410        1145507228.1119802     
  -3016614327.4484210       -14752085.027301431        1150259931.5359302     
  -3808150930.0065207       -40475656.020509958        1038390778.2039998     
  -3703605997.3564897       -29981555.725544453        1030274722.0724660     
  -3599689462.4734426       -21582114.653859854        1026564423.8558589     
  -3496401325.3573747       -15277332.805443764        1027259883.5541772     
  -3393741586.0082941       -11067210.180308819        1032361101.1674223     
  -4231452144.0309701       -36407308.415055990        922777372.69348967     
  -4113339523.6663370       -20819744.902130604        912485683.24184442     
  -3996862349.8056192       -10683669.735585928        907049504.14389849     
  -3882020622.4488163       -5999082.9154236317        906468835.39965141     
  -3768814341.5959268       -6765984.4416410923        910743677.00910640     
  -4657838882.9548779       -33264618.279438734        808144934.16551733     
  -4524873567.9077187       -12198089.458171368        794502721.20067191     
  -4394550748.1014032        60121.893607616425        786165771.02829862     
  -4266870423.5359368        3510015.7758920193        783134083.64839804     
  -4141832594.2113166       -1848407.8113033772        785407659.06097174     
  -5087311146.7782431       -31047585.613658667        694493462.62008202     
  -4938208130.0806293       -4116589.3936784267        676325835.94894660     
  -4792754657.3607960        10649260.233716011        663913224.50906193     
  -4650950728.6187429        13249963.268506765        657255628.30042088     
  -4512796343.8544636        3685519.7107100487        656353047.32303047     
  -3016614327.4484210       -14752085.027301431        1150259931.5359302     
  -2918368988.1412735       -5060306.2102783918        1140846979.7485685     
  -2821382526.4401360        435213.92004251480        1136726360.7909787     
  -2725654942.3450184        1734475.3636370897        1137898074.6631649     
  -2631186235.8559108       -1162521.8794747591        1144362121.3651252     
  -3393741586.0082941       -11067210.180308819        1032361101.1674223     
  -3283642375.5482087       -6248595.2743473053        1022504217.0205367     
  -3173985107.3557448       -2903121.2604535818        1017597938.7563796     
  -3064769781.4309020       -1030788.1386317015        1017642266.3749521     
  -2955996397.7736807       -631595.90887498856        1022637199.8762569     
  -3768814341.5959268       -6765984.4416410923        910743677.00910640     
  -3647837622.6887474       -7113442.2585027218        901395951.73082054     
  -3526485910.7107944       -6210923.1727819443        896657105.38822067     
  -3404759205.6620679       -4058427.1844835281        896527137.98130751     
  -3282657507.5425706       -655954.29360628128        901006049.51007903     
  -4141832594.2113166       -1848407.8113033772        785407659.06097174     
  -4010954729.5628810       -7654847.1627302170        777522183.87941551     
  -3878884936.5052843       -9488191.8169441223        773903860.68650234     
  -3745623215.0385160       -7348441.7739210129        774552689.48222840     
  -3611169565.1625786       -1235597.0336737633        779468670.26659656     
  -4512796343.8544636        3685519.7107100487        656353047.32303047     
  -4372993696.1706200       -7872809.9870457649        650882913.46632910     
  -4231182184.7392120       -12734927.192930222        649338204.65122175     
  -4087361809.5602441       -10900831.906943798        651718920.87771440     
  -3941532570.6337147       -2370524.1290829182        658025062.14580488     
  -2631186235.8559108       -1162521.8794747591        1144362121.3651252     
  -2536383519.6562481       -5001738.5974868536        1139117972.9162436     
  -2441009237.3152256       -6935734.8442947865        1137833339.4289618     
  -2345063388.8328495       -6964510.6199238300        1140508220.9032781     
  -2248545974.2091112       -5088065.9243478775        1147142617.3391945     
  -2955996397.7736807       -631595.90887498856        1022637199.8762569     
  -2849951999.4369974       -1733276.5881303549        1017122396.4228135     
  -2743915446.0719461       -2861107.1728262901        1015663786.7196130     
  -2637886737.6785259       -4015087.6629509926        1018261370.7666558     
  -2531865874.2567320       -5195218.0585008860        1024915148.5639404     
  -3282657507.5425706       -655954.29360628128        901006049.51007903     
  -3165095201.9584632        1062768.5989938974        894544611.42025697     
  -3048120152.4589710        823971.20954787731        892236045.86932147     
  -2931732359.0440912       -1372346.4619485140        894080352.85726988     
  -2815931821.7138300       -5526184.4154987335        900077532.38410890     
  -3611169565.1625786       -1235597.0336737633        779468670.26659656     
  -3481813127.2206373        3386396.9639141560        771384617.90857852     
  -3353623356.4762912        4119500.3028383255        767550116.87808907     
  -3226600252.9295516        963712.98307394981        767965167.17512846     
  -3100743816.5804062       -6080964.9953356981        772629768.79970098     
  -3941532570.6337147       -2370524.1290829182        658025062.14580488     
  -3800105775.2235217        5237608.5066182613        647642415.88777030     
  -3660425058.1239138        7025480.1070306301        641605999.74591303     
  -3522490419.3348932        2993090.6721570492        639915813.72022378     
  -3386301858.8564658       -6859559.7980279922        642571857.81071293     
  -2248545974.2091112       -5088065.9243478775        1147142617.3391945     
  -2150045101.0481830       -3358044.8469344378        1139152844.7489214     
  -2052604669.5314670       -5162829.2502321005        1135851493.1339238     
  -1956224679.6589580       -10502419.134220004        1137238562.4942038     
  -1860905131.4306564       -19376814.498898029        1143314052.8297589     
  -2531865874.2567320       -5195218.0585008860        1024915148.5639404     
  -2422456677.2503624       -5919879.3864257336        1015624784.2791293     
  -2313409545.8269243       -7851425.9907799959        1010603482.5321468     
  -2204724479.9864168       -10989857.871571898        1009851243.3229963     
  -2096401479.7288396       -15335175.028800607        1013368066.6516781     
  -2815931821.7138300       -5526184.4154987335        900077532.38410890     
  -2696812467.8261518       -9064978.2379902601        890301348.47624981     
  -2577356803.4601216       -11482737.132653713        884374868.66877794     
  -2457564828.6157413       -12779461.099483609        882298092.96169078     
  -2337436543.2930164       -12955150.138487935        884071021.35499036     
  -3100743816.5804062       -6080964.9953356981        772629768.79970098     
  -2973112472.7755466       -12793341.401639581        763182537.34028983     
  -2844446442.4310617       -16056762.675853491        757165651.54381394     
  -2714745725.5469441       -15871228.817962050        754579111.41028249     
  -2584010322.1231980       -12236739.827973247        755422916.93969190     
  -3386301858.8564658       -6859559.7980279922        642571857.81071293     
  -3251356692.0985546       -17104968.877374649        634268350.87123740     
  -3114678462.7397366       -21573502.620361209        628975831.15726030     
  -2976267170.7800093       -20265161.026995301        626694298.66877520     
  -2836122816.2193775       -13179944.097271323        627423753.40578353     
  -1860905131.4306564       -19376814.498898029        1143314052.8297589     
  -1753759403.7949011       -24567075.495213509        1139098124.0181670     
  -1645463379.2097993       -25923013.327038765        1140780863.1018958     
  -1536017057.6753397       -23444627.994332910        1148362270.0809374     
  -1425420439.1915309       -17131919.497135401        1161842344.9553020     
  -2096401479.7288396       -15335175.028800607        1013368066.6516781     
  -1976206780.6120453       -16480441.045953751        1006610213.5671339     
  -1855888340.2097130       -17213236.111305594        1003057902.5774934     
  -1735446158.5218246       -17533560.224823356        1002711133.6827580     
  -1614880235.5484025       -17441413.386531830        1005569906.8829314     
  -2337436543.2930164       -12955150.138487935        884071021.35499036     
  -2211887517.8392272       -12363814.719702125        873573595.72305501     
  -2087241306.7637024       -14781860.561797619        863588586.38560772     
  -1963497910.0664377       -20209287.664753795        854115993.34265912     
  -1840657327.7474377       -28646096.028584003        845155816.59418416     
  -2584010322.1231980       -12236739.827973247        755422916.93969190     
  -2460801615.4764571       -12217196.516473293        739988270.48592138     
  -2339522278.8717785       -18628886.678510904        722372914.52622807     
  -2220172312.3091755       -31471810.314123988        702576849.06061232     
  -2102751715.7886300       -50745967.423286676        680600074.08907235     
  -2836122816.2193775       -13179944.097271323        627423753.40578353     
  -2722949073.5237255       -16040586.436239243        605854237.85574031     
  -2612731256.5339394       -28754314.461459756        579410886.99935925     
  -2505469365.2500291       -51321128.172923446        548093700.83664417     
  -2401163399.6719985       -83741027.570628762        511902679.36758864     
  -5957837827.6615267       -1787351348.2984581        1150185904.5147612     
  -6088349295.5089464       -1502233481.3306437        1228056611.9037189     
  -6221577138.1796637       -1226170197.1071541        1268570385.9655256     
  -6357521355.6736774       -959161495.62799025        1271727226.7001803     
  -6496181947.9909887       -701207376.89315081        1237527134.1076837     
  -6810440677.2911282       -2043132203.1873384        1353906127.5880680     
  -6828406173.2649622       -1395457533.8844953        1202870930.3146966     
  -6897727515.0072517       -918969017.14317250        1092099536.5016129     
  -7018404702.5179977       -613666652.96337175        1021591946.1488175     
  -7190437735.7972021       -479550441.34509277        991348159.25631022     
  -8337826796.5708055       -2501348038.9712415        1712458225.6766734     
  -8021472786.9926558       -1424584507.2298501        1275771074.3049541     
  -7805114094.1281176       -681138697.86717415        956968463.18096173     
  -7688750717.9771957       -271010610.88321686        756050392.30469775     
  -7672382658.5398874       -194200246.27797651        673016861.67616081     
  -10539996185.500555       -3161998855.6501665        2225842198.7805777     
  -9667549136.6920204       -1589614401.3667061        1446757043.8744919     
  -8943736875.5422592       -512679239.27915859        863177166.00357294     
  -8368559402.0512743        68806630.612472534        475102565.16782057     
  -7942016716.2190590        154843208.30819559        282533241.36723590     
  -13416948844.080381       -4025084653.2241139        2894058046.8997817     
  -11766635222.363064       -1890547216.2950664        1715828839.0233102     
  -10313595859.249680       -413590641.37912703        810725644.96944547     
  -9057830754.7402287        405785071.52370024        178748464.73818699     
  -7999339908.8347092        567579922.41342163       -180102701.67046434     
  -6496181947.9909887       -701207376.89315081        1237527134.1076837     
  -6239201932.6247768       -375573619.83295918        1053491418.8517045     
  -6013140186.8174896       -153000761.30251884        908482952.23272598     
  -5817996710.5691261       -33488801.301828384        802501734.25075102     
  -5653771503.8796883       -17037739.830889702        735547764.90577912     
  -7190437735.7972021       -479550441.34509277        991348159.25631022     
  -6900362077.7818203       -304139832.21215415        847140678.03482199     
  -6623109613.4751596       -171473202.10828257        724031015.12044168     
  -6358680342.8772202       -81550551.033477068        622019170.51316857     
  -6107074265.9880009       -34371878.987737417        541105144.21300423     
  -7672382658.5398874       -194200246.27797651        673016861.67616081     
  -7400438301.6750422       -184380868.21220398        589748536.31440544     
  -7123222062.6687098       -156988549.67481232        509648598.92986053     
  -6840733941.5208931       -112023290.66579795        432717049.52252954     
  -6552973938.2315874       -49485091.185169935        358953888.09241176     
  -7942016716.2190590        154843208.30819559        282533241.36723590     
  -7739430604.3044462       -16296727.833107471        281314993.69045204     
  -7513477534.3981380       -109546804.00210238        265335703.66098332     
  -7264157506.5001411       -124907020.19879341        234595371.27883455     
  -6991470520.6104527       -62377376.423182487        189093996.54400495     
  -7999339908.8347092        567579922.41342163       -180102701.67046434     
  -7917338985.6700277        200112588.92513514       -78159949.837038904     
  -7793876028.6634464       -29147965.090160370       -8907670.6861897837     
  -7628951037.8149672       -120201739.63246250        27654135.782086786     
  -7422564013.1245947       -73048734.701781273        31525469.567781862     
  -5653771503.8796883       -17037739.830889702        735547764.90577912     
  -5520494326.4243174       -48333240.676550388        722409722.20012045     
  -5381658541.0889521       -61100048.588898420        711187990.91728568     
  -5237264147.8735933       -55338163.567933798        701882571.05727232     
  -5087311146.7782431       -31047585.613658667        694493462.62008202     
  -6107074265.9880009       -34371878.987737417        541105144.21300423     
  -5958967282.2479830       -35981568.509070158        534820523.46329975     
  -5809732907.1875801       -33833286.962458611        531176562.74257916     
  -5659371140.8067951       -27927034.347907782        530173262.05084395     
  -5507881983.1056309       -18262810.665415764        531810621.38809156     
  -6552973938.2315874       -49485091.185169935        358953888.09241176     
  -6387967580.7607441       -20788099.148317099        354352936.64578176     
  -6226265048.5291309       -3103857.9088990688        353116993.83429807     
  -6067866341.5367441        3567632.5330929756        355246059.65795815     
  -5912771459.7835903       -773627.82234668732        360740134.11676639     
  -6991470520.6104527       -62377376.423182487        189093996.54400495     
  -6807495221.9626093       -2752832.5943002701        181006961.74756673     
  -6631254965.1136045        31088238.571785927        177009284.19243929     
  -6462749750.0634365        39145837.075071096        177100963.87861627     
  -6301979576.8121166        21419962.915549040        181282000.80610603     
  -7422564013.1245947       -73048734.701781273        31525469.567781862     
  -7217550205.8535719        18124231.152992725        14782598.768657135     
  -7024702656.9410009        68743002.479592800        2853433.8170041046     
  -6844021366.3868799        78807579.278024197       -4262025.2871800316     
  -6675506334.1912127        48317961.548279762       -6563778.5438926304     
  -5087311146.7782431       -31047585.613658667        694493462.62008202     
  -4938208130.0806293       -4116589.3936784267        676325835.94894660     
  -4792754657.3607960        10649260.233716011        663913224.50906193     
  -4650950728.6187429        13249963.268506765        657255628.30042088     
  -4512796343.8544636        3685519.7107100487        656353047.32303047     
  -5507881983.1056309       -18262810.665415764        531810621.38809156     
  -5349016705.2082338       -6757198.6400470734        515981613.13479263     
  -5191523729.2132015        174073.71077394485        505466725.38729763     
  -5035403055.1205225        2531006.3870725632        500265958.14560926     
  -4880654682.9302044        313599.38884449005        500379311.40972787     
  -5912771459.7835903       -773627.82234668732        360740134.11676639     
  -5745403619.9019566       -5071309.7562696934        349906526.70262194     
  -5577130839.8472633       -6352524.4466574192        343946145.06883913     
  -5407953119.6195145       -4617271.8935201168        342858989.21542436     
  -5237870459.2187052        134447.90314459801        346645059.14237517     
  -6301979576.8121166        21419962.915549040        181282000.80610603     
  -6127368874.1617908        941077.25768065453        178100576.65243280     
  -5949575989.2629871       -8930534.2385919094        179351483.55369005     
  -5768600922.1157103       -8194871.5732865334        185034721.50987020     
  -5584443672.7199497        3148065.2536215782        195150290.52097407     
  -6675506334.1912127        48317961.548279762       -6563778.5438926304     
  -6494912467.9877405        11279962.401804924        563762.98423754796     
  -6308859177.4603710       -7559955.6650252342        11682740.841847202     
  -6117346462.6091051       -8201792.6521975994        26793155.028943777     
  -5920374323.4339447        9354451.4402866364        45895005.545520946     
  -4512796343.8544636        3685519.7107100487        656353047.32303047     
  -4372993696.1706200       -7872809.9870457649        650882913.46632910     
  -4231182184.7392120       -12734927.192930222        649338204.65122175     
  -4087361809.5602441       -10900831.906943798        651718920.87771440     
  -3941532570.6337147       -2370524.1290829182        658025062.14580488     
  -4880654682.9302044        313599.38884449005        500379311.40972787     
  -4729050915.0117235       -3566119.6162919998        500057383.15512663     
  -4576548865.4493475       -4451566.4751396179        503115827.57189637     
  -4423148534.2430830       -2342741.1876854897        509554644.66002905     
  -4268849921.3929396        2760356.2460479736        519373834.41953659     
  -5237870459.2187052        134447.90314459801        346645059.14237517     
  -5076022863.5519428        3466151.8447241783        350175657.36892402     
  -4914387568.3449717        6090187.5870075226        356541575.89660788     
  -4752964573.5977850        8006555.1300101280        365742814.72543448     
  -4591753879.3103857        9215254.4737155437        377779373.85539842     
  -5584443672.7199497        3148065.2536215782        195150290.52097407     
  -5413909541.7912855        13224004.396003723        201237736.10771498     
  -5244698293.4260788        18890334.993514538        209615449.62536579     
  -5076809927.6243401        20147057.046148539        220283431.07392710     
  -4910244444.3860569        16994170.553907633        233241680.45340073     
  -5920374323.4339447        9354451.4402866364        45895005.545520946     
  -5742710949.7297411        25707438.037559032        53243619.371503055     
  -5567481040.6926737        33948875.744374037        62337448.758169852     
  -5394684596.3227444        34078764.560729265        73176493.705508858     
  -5224321616.6199455        26097104.486647606        85760754.213537037     
  -3941532570.6337147       -2370524.1290829182        658025062.14580488     
  -3800105775.2235217        5237608.5066182613        647642415.88777030     
  -3660425058.1239138        7025480.1070306301        641605999.74591303     
  -3522490419.3348932        2993090.6721570492        639915813.72022378     
  -3386301858.8564658       -6859559.7980279922        642571857.81071293     
  -4268849921.3929396        2760356.2460479736        519373834.41953659     
  -4116784506.8750019        6995445.4249734879        509051903.53687650     
  -3965747955.5977526        7800990.4682796001        503345690.34171695     
  -3815740267.5611925        5176991.3759577274        502255194.83405781     
  -3666761442.7653131       -876551.85198378563        505780417.01389658     
  -4591753879.3103857        9215254.4737155437        377779373.85539842     
  -4428279881.1952057        10308289.542712212        368354909.26299953     
  -4265117531.2508044        10362497.375765562        363815649.92942744     
  -4102266829.4771986        9377877.9728434086        364161595.85467780     
  -3939727775.8743668        7354431.3340003490        369392747.03875810     
  -4910244444.3860569        16994170.553907633        233241680.45340073     
  -4734591898.1841211        15176140.859841824        225551433.06614393     
  -4558533785.0830736        14710000.829489470        223015878.50903952     
  -4382070105.0829134        15595750.462847948        225635016.78208724     
  -4205200858.1836371        17833389.759911776        233408847.88528648     
  -5224321616.6199455        26097104.486647606        85760754.213537037     
  -5035720557.8417702        21598999.376331568        80641474.946314007     
  -4845996717.0945616        20843500.829435349        80946376.080559865     
  -4655150094.3783493        23830608.845895290        86675457.616291687     
  -4463180689.6931162        30560323.425767422        97828719.553490952     
  -3386301858.8564658       -6859559.7980279922        642571857.81071293     
  -3251356692.0985546       -17104968.877374649        634268350.87123740     
  -3114678462.7397366       -21573502.620361209        628975831.15726030     
  -2976267170.7800093       -20265161.026995301        626694298.66877520     
  -2836122816.2193775       -13179944.097271323        627423753.40578353     
  -3666761442.7653131       -876551.85198378563        505780417.01389658     
  -3521422481.1706190       -7662600.7098264694        502436391.76752621     
  -3374817654.1393261       -10229098.112364292        503278292.19591796     
  -3226946961.6714430       -8576044.0595947504        508306118.29907030     
  -3077810403.7669706       -2703438.5515155792        517519870.07699341     
  -3939727775.8743668        7354431.3340003490        369392747.03875810     
  -3780638052.4449739        5034832.7970302105        370463140.12711626     
  -3620749660.7433004        5377461.8343243599        376894397.33951437     
  -3460062600.7693524        8382318.4458699226        388686518.67593932     
  -3298576872.5231218        14049402.631689548        405839504.13640368     
  -4205200858.1836371        17833389.759911776        233408847.88528648     
  -4029003405.9216228        20987331.643215895        238348595.95001268     
  -3852474482.5516567        25246177.219701529        249824146.58804777     
  -3675614088.0737247        30609926.489409208        267835499.79937974     
  -3498422222.4878349        37078579.452304125        292382655.58401793     
  -4463180689.6931162        30560323.425767422        97828719.553490952     
  -4266518541.6005850        40194895.828680754        106092759.23621529     
  -4069992119.5644011        49377048.043760300        122067539.94151890     
  -3873601423.5845804        58106780.070977688        145753061.66938964     
  -3677346453.6611023        66384091.910372734        177149324.41982812     
  -2836122816.2193775       -13179944.097271323        627423753.40578353     
  -2722949073.5237255       -16040586.436239243        605854237.85574031     
  -2612731256.5339394       -28754314.461459756        579410886.99935925     
  -2505469365.2500291       -51321128.172923446        548093700.83664417     
  -2401163399.6719985       -83741027.570628762        511902679.36758864     
  -3077810403.7669706       -2703438.5515155792        517519870.07699341     
  -2965290309.2440233       -10253966.054165602        505035840.44134176     
  -2855643680.5947614       -27382713.135770559        498005121.01694673     
  -2748870517.8191962       -54089679.796371222        496427711.80380964     
  -2644970820.9173265       -90374866.035929799        500303612.80192906     
  -3298576872.5231218        14049402.631689548        405839504.13640368     
  -3157204296.1226115        10660828.980429053        402537163.55268925     
  -3018622725.7635961       -2031098.1424854994        415015278.69782656     
  -2882832161.4461098       -24026378.737137914        443273849.57181621     
  -2749832603.1701064       -55325012.803453326        487312876.17466271     
  -3498422222.4878349        37078579.452304125        292382655.58401793     
  -3298691034.1594729        46703798.667560816        298358207.18978399     
  -3101668392.0404530        47300530.518363237        330441360.04199892     
  -2907354296.1307526        38868775.004777551        388632114.14066809     
  -2715748746.4303665        21408532.126779318        472930469.48578256     
  -3677346453.6611023        66384091.910372734        177149324.41982812     
  -3389750523.3546338        97874943.007183075        192498971.35262945     
  -3104780679.4253016        120612172.84687269        244283365.04947019     
  -2822436921.8731294        134595781.42934549        332502505.51035082     
  -2542719250.6980839        139825768.75476134        457156392.73528659     
 </DataArray>
 <DataArray  type="Float64" Name="VM" NumberOfComponents="1" format="ascii">
   12935926089.912973     
   11340842101.984287     
   10210168375.274397     
   9272558710.6570053     
   8303563187.7779741     
   10130420571.642038     
   9322018169.4970856     
   8826280391.0032940     
   8443370211.7003841     
   8035474371.8620358     
   7982344926.0487032     
   7734919284.2561426     
   7669077950.6868153     
   7669513537.9982004     
   7666292837.9683199     
   6491613525.1049261     
   6586833623.3050022     
   6757395596.1111679     
   6961219772.2819748     
   7171645514.4655552     
   5657781349.0139294     
   5890920941.9756079     
   6116421784.4191866     
   6331828273.7071743     
   6536919856.1762018     
   8303563187.7779741     
   8020410699.6374369     
   7779358300.0722094     
   7569717528.1858158     
   7386512390.6136646     
   8035474371.8620358     
   7746634020.0054960     
   7473451465.9080153     
   7213968861.4902878     
   6968192807.5760422     
   7666292837.9683199     
   7381015792.3522205     
   7101119541.1749649     
   6826682992.6022520     
   6557910137.7843523     
   7171645514.4655552     
   6910988703.5668869     
   6658225058.4348736     
   6409495756.5744276     
   6161656451.7099657     
   6536919856.1762018     
   6328897941.5059690     
   6143067062.6665993     
   5965517294.3167925     
   5787243433.4822989     
   7386512390.6136646     
   7226674724.7067604     
   7059326921.5243359     
   6883767451.9966927     
   6699805633.8443365     
   6968192807.5760422     
   6813336145.6633911     
   6653920632.0044546     
   6489664915.6759014     
   6320520789.0145874     
   6557910137.7843523     
   6407063778.4065275     
   6254689078.8339701     
   6100759121.8373537     
   5945308484.0039463     
   6161656451.7099657     
   6012842233.8328981     
   5865494386.8215771     
   5719655866.7703924     
   5575390180.8331890     
   5787243433.4822989     
   5637108988.6052742     
   5491313808.6891422     
   5349775221.1994581     
   5212553446.9466009     
   6699805633.8443365     
   6500559860.7412767     
   6305115067.3808279     
   6113425831.7938337     
   5925590309.9822569     
   6320520789.0145874     
   6135599071.2276163     
   5953226197.9454813     
   5773410113.9800692     
   5596235532.7645578     
   5945308484.0039463     
   5774760209.2473593     
   5605702163.3735447     
   5438167442.2327700     
   5272236677.0811825     
   5575390180.8331890     
   5419833214.6476641     
   5264913313.4848986     
   5110658769.5119009     
   4957162411.3649092     
   5212553446.9466009     
   5073247265.4864178     
   4933963134.6464109     
   4794694781.9551020     
   4655574550.3481293     
   5925590309.9822569     
   5756346502.7081232     
   5585576556.9580917     
   5413288479.4030018     
   5239524999.5706673     
   5596235532.7645578     
   5431728540.5728054     
   5266697944.6801672     
   5101202051.4996519     
   4935325747.8216944     
   5272236677.0811825     
   5113852114.5742865     
   4956060699.0337124     
   4798968104.4482088     
   4642709860.7666664     
   4957162411.3649092     
   4805959128.4769411     
   4656589230.9182186     
   4509193292.7090082     
   4363956759.4672012     
   4655574550.3481293     
   4512167312.7407303     
   4371967689.9483328     
   4235127218.2873335     
   4101869362.4696298     
   5239524999.5706673     
   5048487303.4410038     
   4858475415.4041767     
   4669524967.6813660     
   4481743354.8086529     
   4935325747.8216944     
   4758262730.9533339     
   4582216836.7982521     
   4407250494.1811123     
   4233493168.2380247     
   4642709860.7666664     
   4479115226.0064125     
   4316551616.5261402     
   4155116455.4917798     
   3994976414.8885431     
   4363956759.4672012     
   4213569041.4241695     
   4064261957.8225822     
   3916176143.8081965     
   3769531495.2339191     
   4101869362.4696298     
   3964726605.4185801     
   3828766395.2278252     
   3694180245.9894223     
   3561257452.7394185     
   4481743354.8086529     
   4290694021.2973466     
   4100358416.4967761     
   3911135139.3708625     
   3723646849.6190143     
   4233493168.2380247     
   4060578399.3093619     
   3889304976.6152234     
   3720052845.6653981     
   3553380295.0909247     
   3994976414.8885431     
   3837188162.8216295     
   3681776109.9849501     
   3529070413.7705212     
   3379536406.5919204     
   3769531495.2339191     
   3623647146.0194769     
   3480638500.4453926     
   3340764996.9949613     
   3204385040.4274235     
   3561257452.7394185     
   3423870255.1047978     
   3289578152.3237162     
   3158559695.6410198     
   3031067090.3622203     
   3723646849.6190143     
   3455853931.0248899     
   3194950209.3578582     
   2948868778.5099344     
   2732669939.6050434     
   3553380295.0909247     
   3362239914.8252230     
   3177556974.6677542     
   3003386242.4718437     
   2846906826.2122159     
   3379536406.5919204     
   3238490212.4164944     
   3102042624.6016965     
   2971785455.8651409     
   2850425631.7300782     
   3204385040.4274235     
   3086718127.1254840     
   2970064310.1483908     
   2854794207.4345245     
   2741515945.5173492     
   3031067090.3622203     
   2910705900.3895741     
   2785536660.7468991     
   2655681939.0855894     
   2521439016.7502098     
   5657781349.0139294     
   5890920941.9756079     
   6116421784.4191866     
   6331828273.7071743     
   6536919856.1762018     
   5151454447.1114559     
   5311375512.1073885     
   5467928669.9400158     
   5618220086.4403152     
   5760785440.2144775     
   4643513310.9217405     
   4755618053.9987450     
   4868846855.6545811     
   4980564350.5339441     
   5088844955.5191898     
   4134220926.1982322     
   4224485291.3794923     
   4320670654.2413206     
   4421117639.6806412     
   4524369472.3329973     
   3625095071.3476701     
   3719799801.0719781     
   3825756882.5358810     
   3942898519.1138935     
   4071128255.7556739     
   6536919856.1762018     
   6328897941.5059690     
   6143067062.6665993     
   5965517294.3167925     
   5787243433.4822989     
   5760785440.2144775     
   5652426417.8435678     
   5560080063.2863979     
   5474685668.0838966     
   5390704199.9828358     
   5088844955.5191898     
   5054396758.9486856     
   5030479968.3888988     
   5011889645.9600325     
   4995424255.4142075     
   4524369472.3329973     
   4539399979.5751152     
   4559124328.7260904     
   4581064999.5068884     
   4603498317.1951914     
   4071128255.7556739     
   4112759631.5324569     
   4151765027.6247540     
   4187252048.7497182     
   4218492562.7336125     
   5787243433.4822989     
   5637108988.6052742     
   5491313808.6891422     
   5349775221.1994581     
   5212553446.9466009     
   5390704199.9828358     
   5249978003.8850927     
   5112543503.6511831     
   4978443485.2226686     
   4847775063.9289932     
   4995424255.4142075     
   4868401847.6288519     
   4744557774.0651464     
   4623855655.2328815     
   4506330125.7505989     
   4603498317.1951914     
   4495065140.9062262     
   4390746628.6770172     
   4290213097.5194888     
   4193361492.9986863     
   4218492562.7336125     
   4133958094.5290055     
   4055704356.1745105     
   3982858633.4461412     
   3915111304.0668278     
   5212553446.9466009     
   5073247265.4864178     
   4933963134.6464109     
   4794694781.9551020     
   4655574550.3481293     
   4847775063.9289932     
   4723678493.6328382     
   4600707592.2509403     
   4478958505.2061167     
   4358637450.8419638     
   4506330125.7505989     
   4396845140.5004663     
   4289584832.5668664     
   4184720872.7598276     
   4082507771.8550124     
   4193361492.9986863     
   4097676710.1523948     
   4005252133.3220525     
   3916302916.8960342     
   3831103431.2933869     
   3915111304.0668278     
   3832109969.4381647     
   3753269849.0900707     
   3678815004.5588198     
   3609012605.9018579     
   4655574550.3481293     
   4512167312.7407303     
   4371967689.9483328     
   4235127218.2873335     
   4101869362.4696298     
   4358637450.8419638     
   4227379267.8661366     
   4099489774.4480515     
   3975175278.9882083     
   3854711348.1074033     
   4082507771.8550124     
   3964639359.6186347     
   3850483173.8559270     
   3740303004.2448425     
   3634435758.0173569     
   3831103431.2933869     
   3728052142.5512886     
   3629255041.4295268     
   3535030855.1592865     
   3445781290.4649262     
   3609012605.9018579     
   3522318953.8216805     
   3440620282.3716464     
   3364277272.0675602     
   3293748255.6553354     
   4101869362.4696298     
   3964726605.4185801     
   3828766395.2278252     
   3694180245.9894223     
   3561257452.7394185     
   3854711348.1074033     
   3730941936.6888595     
   3609435065.7960773     
   3490468625.5988832     
   3374413140.7052164     
   3634435758.0173569     
   3524460641.3895006     
   3417865456.8723650     
   3314992047.8315001     
   3216264912.9382844     
   3445781290.4649262     
   3349761726.2976594     
   3258212451.5140858     
   3171504367.5180264     
   3090076290.2752838     
   3293748255.6553354     
   3211440386.3588786     
   3134587402.4285641     
   3063546255.0025330     
   2998725192.4080324     
   3561257452.7394185     
   3423870255.1047978     
   3289578152.3237162     
   3158559695.6410198     
   3031067090.3622203     
   3374413140.7052164     
   3247902111.1301146     
   3124957617.5853329     
   3005857376.8358812     
   2890956632.9754767     
   3216264912.9382844     
   3102634779.6276221     
   2993269359.2121034     
   2888551789.3233280     
   2788949632.2833471     
   3090076290.2752838     
   2991399648.8675790     
   2897881973.5630026     
   2809999940.3544946     
   2728319990.8778820     
   2998725192.4080324     
   2916932102.4649639     
   2841318554.9192648     
   2772420377.3020892     
   2710864415.9615049     
   3031067090.3622203     
   2910705900.3895741     
   2785536660.7468991     
   2655681939.0855894     
   2521439016.7502098     
   2890956632.9754767     
   2769183499.9415989     
   2644918942.1589561     
   2518159017.4417238     
   2388950084.2837820     
   2788949632.2833471     
   2674816631.0990505     
   2561893195.8978648     
   2450427188.6262107     
   2340721424.2448030     
   2728319990.8778820     
   2629237177.9070196     
   2535950910.6210594     
   2449069325.0736408     
   2369280155.0669913     
   2710864415.9615049     
   2631696064.2401481     
   2563144335.1354370     
   2506011545.2924199     
   2461164148.3991351     
   3625095071.3476701     
   3719799801.0719781     
   3825756882.5358810     
   3942898519.1138935     
   4071128255.7556739     
   3138088154.0399079     
   3255614535.8459907     
   3382561197.0458150     
   3518457181.8501463     
   3662843038.1816721     
   2694845366.1377382     
   2830593126.9991531     
   2973658753.6019149     
   3122960220.2256551     
   3277586620.2088447     
   2298857499.9613981     
   2449527382.4629650     
   2604928200.3891263     
   2763139806.4385238     
   2922734132.5699978     
   1955338507.4880905     
   2119372718.9009504     
   2284775131.8281784     
   2448590436.0524454     
   2608863981.5566049     
   4071128255.7556739     
   4112759631.5324569     
   4151765027.6247540     
   4187252048.7497182     
   4218492562.7336125     
   3662843038.1816721     
   3702405273.3780384     
   3740591314.2424688     
   3776505345.0455937     
   3809400065.1210666     
   3277586620.2088447     
   3320926801.4449768     
   3364492209.7570643     
   3407459611.4529414     
   3449150561.0694523     
   2922734132.5699978     
   2975709129.9264693     
   3030866842.9986968     
   3087521741.2621913     
   3145138432.0212770     
   2608863981.5566049     
   2676806532.0247002     
   2749193029.4708924     
   2825509820.6651154     
   2905400789.9142852     
   4218492562.7336125     
   4133958094.5290055     
   4055704356.1745105     
   3982858633.4461412     
   3915111304.0668278     
   3809400065.1210666     
   3756126179.5498195     
   3708698734.4553876     
   3666632152.5437803     
   3629825027.6182356     
   3449150561.0694523     
   3422681226.7910595     
   3401261667.7459555     
   3384659276.2453146     
   3372858642.3478470     
   3145138432.0212770     
   3141255426.4511137     
   3141047043.3485565     
   3144415510.7039413     
   3151350420.4091797     
   2905400789.9142852     
   2920168823.6075206     
   2936468351.9257469     
   2954251385.2426414     
   2973484713.8977695     
   3915111304.0668278     
   3832109969.4381647     
   3753269849.0900707     
   3678815004.5588198     
   3609012605.9018579     
   3629825027.6182356     
   3558854137.1406107     
   3492631700.3392978     
   3431396393.3795028     
   3375432159.6713080     
   3372858642.3478470     
   3314852693.7869029     
   3262344083.3908105     
   3215567563.3961477     
   3174806709.7685914     
   3151350420.4091797     
   3106994231.8447652     
   3069031160.5473199     
   3037663576.1362095     
   3013148050.1392579     
   2973484713.8977695     
   2942955512.8498521     
   2919830002.1513662     
   2904242212.7539062     
   2896389317.2552719     
   3609012605.9018579     
   3522318953.8216805     
   3440620282.3716464     
   3364277272.0675602     
   3293748255.6553354     
   3375432159.6713080     
   3304457165.8075986     
   3239086465.6877670     
   3179665309.7371368     
   3126611320.4942169     
   3174806709.7685914     
   3118550567.8136706     
   3068383080.1464925     
   3024605653.2580857     
   2987566557.8928695     
   3013148050.1392579     
   2970237656.7078686     
   2933724324.2270923     
   2903843327.5156231     
   2880854823.2732253     
   2896389317.2552719     
   2864984266.5504484     
   2840068854.2867398     
   2821802177.5598502     
   2810352936.6920180     
   3293748255.6553354     
   3211440386.3588786     
   3134587402.4285641     
   3063546255.0025330     
   2998725192.4080324     
   3126611320.4942169     
   3056343134.1163425     
   2992197119.6127739     
   2934528000.7773352     
   2883733403.7779865     
   2987566557.8928695     
   2929533285.2523742     
   2878315985.2946577     
   2834242950.8103151     
   2797675034.9597311     
   2880854823.2732253     
   2834819614.8742642     
   2796287121.6530204     
   2765534612.4125195     
   2742861927.7948766     
   2810352936.6920180     
   2775511071.9180980     
   2748825473.1020246     
   2730503902.7535229     
   2720769650.9890447     
   2998725192.4080324     
   2916932102.4649639     
   2841318554.9192648     
   2772420377.3020892     
   2710864415.9615049     
   2883733403.7779865     
   2817436717.5079799     
   2758046883.2756004     
   2706039691.6803451     
   2661947538.9466219     
   2797675034.9597311     
   2745846594.6906061     
   2701468075.3411708     
   2664922066.8437524     
   2636618574.5893960     
   2742861927.7948766     
   2703916321.1742363     
   2672759695.0941520     
   2649665590.9717126     
   2634915313.9518442     
   2720769650.9890447     
   2692572020.3727255     
   2672309888.9481206     
   2660151278.5214291     
   2656262785.3958416     
   2710864415.9615049     
   2631696064.2401481     
   2563144335.1354370     
   2506011545.2924199     
   2461164148.3991351     
   2661947538.9466219     
   2598129519.7314672     
   2544604734.9439664     
   2501984361.1760387     
   2470903879.0293875     
   2636618574.5893960     
   2586747386.9920530     
   2546729535.2304645     
   2517009814.5793638     
   2498035926.3679881     
   2634915313.9518442     
   2597491491.8286247     
   2569397540.8245635     
   2550943268.0569754     
   2542434478.9409533     
   2656262785.3958416     
   2629755022.4559278     
   2612010817.8095350     
   2603237852.3464465     
   2603643027.9632349     
   1955338507.4880905     
   2119372718.9009504     
   2284775131.8281784     
   2448590436.0524454     
   2608863981.5566049     
   1653804186.3655620     
   1820241212.9929438     
   1988375640.2561133     
   2155514645.8666654     
   2319902901.4212604     
   1393606946.0661302     
   1570963553.2116330     
   1749313754.0297832     
   1926656023.9621639     
   2101741655.8895800     
   1207058132.4387956     
   1398967676.0933313     
   1590432041.2284083     
   1780675198.9990816     
   1969239155.1925111     
   1136828625.8202083     
   1335110902.8533838     
   1533666227.0546663     
   1732494598.4240553     
   1931596016.9615507     
   2608863981.5566049     
   2676806532.0247002     
   2749193029.4708924     
   2825509820.6651154     
   2905400789.9142852     
   2319902901.4212604     
   2406914132.6238003     
   2496326374.0896912     
   2587747689.0463514     
   2680901417.9503765     
   2101741655.8895800     
   2205444441.9832664     
   2309043008.0718884     
   2412300325.3638453     
   2515049251.0549817     
   1969239155.1925111     
   2086351368.6455388     
   2200625476.7633967     
   2311986258.7532334     
   2420381499.9088402     
   1931596016.9615507     
   2058215531.1754339     
   2179454615.5412512     
   2295313270.0590048     
   2405791494.7286930     
   2905400789.9142852     
   2920168823.6075206     
   2936468351.9257469     
   2954251385.2426414     
   2973484713.8977695     
   2680901417.9503765     
   2702634986.1337218     
   2726867884.6098108     
   2753586915.2232361     
   2782787764.4618011     
   2515049251.0549817     
   2543535372.4399581     
   2575505224.7567339     
   2610962026.7729092     
   2649912794.4754047     
   2420381499.9088402     
   2453977715.1551638     
   2492035286.4607315     
   2534557823.1814466     
   2581549726.7824664     
   2405791494.7286930     
   2441358055.4591765     
   2482350059.7920833     
   2528767507.7274141     
   2580610399.2651687     
   2973484713.8977695     
   2942955512.8498521     
   2919830002.1513662     
   2904242212.7539062     
   2896389317.2552719     
   2782787764.4618011     
   2766626839.5271401     
   2757643291.2393398     
   2755921291.8307614     
   2761578382.5762734     
   2649912794.4754047     
   2645165568.3588686     
   2647097129.0097351     
   2655744917.6916180     
   2671159855.6502695     
   2581549726.7824664     
   2584815282.6408443     
   2593998347.9846277     
   2609107214.9082408     
   2630153201.4834108     
   2580610399.2651687     
   2588369134.0285940     
   2601070724.5935869     
   2618715170.9601474     
   2641302473.1282778     
   2896389317.2552719     
   2864984266.5504484     
   2840068854.2867398     
   2821802177.5598502     
   2810352936.6920180     
   2761578382.5762734     
   2738515750.5736232     
   2722567384.6026111     
   2713842422.5193377     
   2712454687.1998940     
   2671159855.6502695     
   2654674968.5057139     
   2645875489.8122845     
   2644818128.2598095     
   2651561169.5223570     
   2630153201.4834108     
   2617740242.1562214     
   2613521936.0840287     
   2617514119.1395297     
   2629732902.4788995     
   2641302473.1282778     
   2629872303.1687179     
   2627084345.1543975     
   2632938599.0853190     
   2647435064.9614873     
   2810352936.6920180     
   2775511071.9180980     
   2748825473.1020246     
   2730503902.7535229     
   2720769650.9890447     
   2712454687.1998940     
   2688038426.9959235     
   2671803354.2223916     
   2663872562.2191696     
   2664375441.4884715     
   2651561169.5223570     
   2635087094.4554563     
   2626707514.2774663     
   2626477969.5541735     
   2634455830.8735909     
   2629732902.4788995     
   2618369294.2407002     
   2614927230.2426782     
   2619420309.2359672     
   2631862419.2416978     
   2647435064.9614873     
   2638200787.8061514     
   2636655993.0885987     
   2642800680.8088355     
   2656634850.9668565     
   2720769650.9890447     
   2692572020.3727255     
   2672309888.9481206     
   2660151278.5214291     
   2656262785.3958416     
   2664375441.4884715     
   2644053378.6495323     
   2631929004.6700149     
   2628104738.4881854     
   2632680198.3857536     
   2634455830.8735909     
   2620101321.5752335     
   2614185855.5459890     
   2616757743.8861361     
   2627863243.6582694     
   2631862419.2416978     
   2621211461.3065863     
   2619246822.3171911     
   2625981095.4903917     
   2641426207.2262177     
   2656634850.9668565     
   2647185977.4147682     
   2646700007.8220739     
   2655176942.1887708     
   2672616780.5148611     
   2656262785.3958416     
   2629755022.4559278     
   2612010817.8095350     
   2603237852.3464465     
   2603643027.9632349     
   2632680198.3857536     
   2615783761.2200246     
   2607716228.5084281     
   2608595711.9926162     
   2618537065.8924403     
   2627863243.6582694     
   2618312339.3634272     
   2617629403.2119789     
   2625866761.0286045     
   2643074319.2096834     
   2641426207.2262177     
   2636751100.2399850     
   2640999759.7733207     
   2654185115.4134703     
   2676319329.3156419     
   2672616780.5148611     
   2670248165.7337198     
   2676908483.9013553     
   2692597735.0177765     
   2717315919.0829797     
   1136828625.8202083     
   1335110902.8533838     
   1533666227.0546663     
   1732494598.4240553     
   1931596016.9615507     
   1207058132.4075983     
   1398967676.0597432     
   1590432041.1932526     
   1780675198.9630775     
   1969239155.1563029     
   1393606946.0114930     
   1570963553.1499290     
   1749313753.9628258     
   1926656023.8915088     
   2101741655.8165829     
   1653804186.2962859     
   1820241212.9103458     
   1988375640.1627600     
   2155514645.7648258     
   2319902901.3129182     
   1955338507.4102848     
   2119372718.8028936     
   2284775131.7128568     
   2448590435.9225817     
   2608863981.4145966     
   1931596016.9615507     
   2058215531.1754339     
   2179454615.5412512     
   2295313270.0590048     
   2405791494.7286930     
   1969239155.1563029     
   2086351368.6352446     
   2200625476.7809854     
   2311986258.8010173     
   2420381499.9892502     
   2101741655.8165829     
   2205444441.9559422     
   2309043008.0944099     
   2412300325.4409552     
   2515049251.1916304     
   2319902901.3129182     
   2406914132.5722103     
   2496326374.1013780     
   2587747689.1286144     
   2680901418.1108465     
   2608863981.4145966     
   2676806531.9419208     
   2749193029.4559569     
   2825509820.7277226     
   2905400790.0647278     
   2405791494.7286930     
   2441358055.4591765     
   2482350059.7920833     
   2528767507.7274141     
   2580610399.2651687     
   2420381499.9892502     
   2453977715.2274232     
   2492035286.5328703     
   2534557823.2612147     
   2581549726.8775101     
   2515049251.1916304     
   2543535372.5559521     
   2575505224.8681254     
   2610962026.8953967     
   2649912794.6246314     
   2680901418.1108465     
   2702634986.2507348     
   2726867884.7070222     
   2753586915.3240981     
   2782787764.5899076     
   2905400790.0647278     
   2920168823.6773176     
   2936468351.9453220     
   2954251385.2424626     
   2973484713.9087191     
   2580610399.2651687     
   2588369134.0285940     
   2601070724.5935869     
   2618715170.9601474     
   2641302473.1282778     
   2581549726.8775101     
   2584815282.6842699     
   2593998347.9579582     
   2609107214.7934570     
   2630153201.2630725     
   2649912794.6246314     
   2645165568.4832845     
   2647097129.0791788     
   2655744917.6763077     
   2671159855.5203748     
   2782787764.5899076     
   2766626839.7386231     
   2757643291.4998579     
   2755921292.1058855     
   2761578382.8297858     
   2973484713.9087191     
   2942955513.1264625     
   2919830002.6629076     
   2904242213.4692845     
   2896389318.1393871     
   2641302473.1282778     
   2629872303.1687179     
   2627084345.1543975     
   2632938599.0853190     
   2647435064.9614873     
   2630153201.2630725     
   2617740242.2279420     
   2613521936.5419960     
   2617514120.0773892     
   2629732903.9894576     
   2671159855.5203748     
   2654674968.8336525     
   2645875490.7778916     
   2644818130.0438223     
   2651561172.3060455     
   2761578382.8297858     
   2738515751.2803240     
   2722567386.0173221     
   2713842424.9020081     
   2712454690.8153310     
   2896389318.1393871     
   2864984267.6907983     
   2840068855.9993815     
   2821802180.1725955     
   2810352940.5447593     
   2647435064.9614873     
   2638200787.8061514     
   2636655993.0885987     
   2642800680.8088355     
   2656634850.9668565     
   2629732903.9894576     
   2618369294.9192376     
   2614927230.0010715     
   2619420307.9918098     
   2631862416.9204683     
   2651561172.3060455     
   2635087095.6188059     
   2626707513.6393766     
   2626477966.9435821     
   2634455826.1341462     
   2712454690.8153310     
   2688038428.3071551     
   2671803352.9498758     
   2663872558.0943632     
   2664375434.2614732     
   2810352940.5447593     
   2775511072.9311242     
   2748825470.8939977     
   2730503896.9503026     
   2720769641.2343283     
   2656634850.9668565     
   2647185977.4147682     
   2646700007.8220739     
   2655176942.1887708     
   2672616780.5148611     
   2631862416.9204683     
   2621211461.4342728     
   2619246824.8264046     
   2625981100.2998991     
   2641426214.2409663     
   2634455826.1341462     
   2620101321.4520502     
   2614185859.9035411     
   2616757752.5630445     
   2627863256.4667549     
   2664375434.2614732     
   2644053377.9204407     
   2631929010.2405605     
   2628104750.1237521     
   2632680215.8134518     
   2720769641.2343283     
   2692572018.7278652     
   2672309895.1587439     
   2660151292.2879786     
   2656262806.3692951     
   2672616780.5148611     
   2670248165.7337198     
   2676908483.9013553     
   2692597735.0177765     
   2717315919.0829797     
   2641426214.2409663     
   2636751116.3396297     
   2640999785.3149648     
   2654185150.6793780     
   2676319374.5022750     
   2627863256.4667549     
   2618312369.4897895     
   2617629451.4147210     
   2625866827.9279370     
   2643074405.2639055     
   2632680215.8134518     
   2615783803.0591998     
   2607716296.0028429     
   2608595806.2024307     
   2618537187.6534882     
   2656262806.3692951     
   2629755073.5334105     
   2612010900.8204460     
   2603237968.9196072     
   2603643179.4640460     
   1955338507.4102848     
   2119372718.8028936     
   2284775131.7128568     
   2448590435.9225817     
   2608863981.4145966     
   2298857499.8803635     
   2449527382.3534818     
   2604928200.2523484     
   2763139806.2757130     
   2922734132.3824334     
   2694845366.0593991     
   2830593126.8876033     
   2973658753.4566107     
   3122960220.0464549     
   3277586619.9959211     
   3138088153.9697075     
   3255614535.7410150     
   3382561196.9040060     
   3518457181.6700587     
   3662843037.9623876     
   3625095071.2906270     
   3719799800.9815173     
   3825756882.4086070     
   3942898518.9471569     
   4071128255.5474901     
   2608863981.4145966     
   2676806531.9419208     
   2749193029.4559569     
   2825509820.7277226     
   2905400790.0647278     
   2922734132.3824334     
   2975709129.7846465     
   3030866842.9095001     
   3087521741.2333460     
   3145138432.0610676     
   3277586619.9959211     
   3320926801.2628136     
   3364492209.6103244     
   3407459611.3467007     
   3449150561.0090675     
   3662843037.9623876     
   3702405273.1751904     
   3740591314.0583749     
   3776505344.8824773     
   3809400064.9810581     
   4071128255.5474901     
   4112759631.3281398     
   4151765027.4244566     
   4187252048.5530300     
   4218492562.5396690     
   2905400790.0647278     
   2920168823.6773176     
   2936468351.9453220     
   2954251385.2424626     
   2973484713.9087191     
   3145138432.0610676     
   3141255426.3411126     
   3141047043.1068606     
   3144415510.3484721     
   3151350419.9584007     
   3449150561.0090675     
   3422681226.5306439     
   3401261667.2938848     
   3384659275.6093521     
   3372858641.5358233     
   3809400064.9810581     
   3756126179.1821918     
   3708698733.8614569     
   3666632151.7236948     
   3629825026.5712519     
   4218492562.5396690     
   4133958094.1038051     
   4055704355.5147438     
   3982858632.5469403     
   3915111302.9212537     
   2973484713.9087191     
   2942955513.1264625     
   2919830002.6629076     
   2904242213.4692845     
   2896389318.1393871     
   3151350419.9584007     
   3106994231.7887020     
   3069031160.8962555     
   3037663576.9005008     
   3013148051.3262329     
   3372858641.5358233     
   3314852693.4790983     
   3262344083.6357474     
   3215567564.2439461     
   3174806711.2688203     
   3629825026.5712519     
   3558854136.6710896     
   3492631700.5301967     
   3431396394.3175416     
   3375432161.4461265     
   3915111302.9212537     
   3832109968.8968773     
   3753269849.2662091     
   3678815005.5716219     
   3609012607.8773646     
   2896389318.1393871     
   2864984267.6907983     
   2840068855.9993815     
   2821802180.1725955     
   2810352940.5447593     
   3013148051.3262329     
   2970237657.7862067     
   2933724325.5575681     
   2903843329.4792762     
   2880854826.2731366     
   3174806711.2688203     
   3118550568.6560445     
   3068383080.7192707     
   3024605653.9791942     
   2987566559.2143483     
   3375432161.4461265     
   3304457166.2055211     
   3239086465.1065245     
   3179665308.6125474     
   3126611319.3083978     
   3609012607.8773646     
   3522318953.5494056     
   3440620280.2421336     
   3364277268.5152302     
   3293748251.1710625     
   2810352940.5447593     
   2775511072.9311242     
   2748825470.8939977     
   2730503896.9503026     
   2720769641.2343283     
   2880854826.2731366     
   2834819614.8226523     
   2796287118.0237226     
   2765534604.6716137     
   2742861915.4082360     
   2987566559.2143483     
   2929533283.7084956     
   2878315980.2404575     
   2834242941.5732388     
   2797675020.8430257     
   3126611319.3083978     
   3056343130.6345530     
   2992197113.1050611     
   2934527990.4646287     
   2883733388.8302045     
   3293748251.1710625     
   3211440380.4970369     
   3134587394.4112306     
   3063546243.9826732     
   2998725177.4618497     
   2720769641.2343283     
   2692572018.7278652     
   2672309895.1587439     
   2660151292.2879786     
   2656262806.3692951     
   2742861915.4082360     
   2703916317.9662061     
   2672759700.5428910     
   2649665604.5069575     
   2634915334.9429526     
   2797675020.8430257     
   2745846590.7261114     
   2701468080.7298589     
   2664922080.7311649     
   2636618596.0477252     
   2883733388.8302045     
   2817436713.7697692     
   2758046889.6638217     
   2706039707.0439429     
   2661947562.0437560     
   2998725177.4618497     
   2916932100.0381403     
   2841318563.6469774     
   2772420395.7335958     
   2710864442.5325513     
   2656262806.3692951     
   2629755073.5334105     
   2612010900.8204460     
   2603237968.9196072     
   2603643179.4640460     
   2634915334.9429526     
   2597491545.1732588     
   2569397628.1651649     
   2550943390.8986492     
   2542434638.6061673     
   2636618596.0477252     
   2586747440.7836795     
   2546729622.7777324     
   2517009937.2388892     
   2498036085.3883791     
   2661947562.0437560     
   2598129573.2125940     
   2544604819.9149494     
   2501984478.7475142     
   2470904030.2656546     
   2710864442.5325513     
   2631696117.7820449     
   2563144416.2767329     
   2506011654.7170296     
   2461164286.7778125     
   3625095071.2906270     
   3719799800.9815173     
   3825756882.4086070     
   3942898518.9471569     
   4071128255.5474901     
   4134220926.1586905     
   4224485291.3103757     
   4320670654.1395493     
   4421117639.5432281     
   4524369472.1570625     
   4643513310.9028387     
   4755618053.9566898     
   4868846855.5869570     
   4980564350.4378271     
   5088844955.3913889     
   5151454447.1159201     
   5311375512.0974913     
   5467928669.9142151     
   5618220086.3961344     
   5760785440.1490602     
   5657781349.0446825     
   5890920942.0027885     
   6116421784.4423304     
   6331828273.7246552     
   6536919856.1861153     
   4071128255.5474901     
   4112759631.3281398     
   4151765027.4244566     
   4187252048.5530300     
   4218492562.5396690     
   4524369472.1570625     
   4539399979.3944693     
   4559124328.5395966     
   4581064999.3140354     
   4603498316.9961395     
   5088844955.3913889     
   5054396758.8124504     
   5030479968.2419853     
   5011889645.8015804     
   4995424255.2445736     
   5760785440.1490602     
   5652426417.7699003     
   5560080063.2012844     
   5474685667.9860563     
   5390704199.8723621     
   6536919856.1861153     
   6328897941.5109100     
   6143067062.6625309     
   5965517294.3020840     
   5787243433.4567089     
   4218492562.5396690     
   4133958094.1038051     
   4055704355.5147438     
   3982858632.5469403     
   3915111302.9212537     
   4603498316.9961395     
   4495065140.5091925     
   4390746628.0723591     
   4290213096.6957059     
   4193361491.9417586     
   4995424255.2445736     
   4868401847.3161030     
   4744557773.5954704     
   4623855654.5907497     
   4506330124.9180956     
   5390704199.8723621     
   5249978003.7083502     
   5112543503.3918200     
   4978443484.8629208     
   4847775063.4491243     
   5787243433.4567089     
   5637108988.6122074     
   5491313808.7108746     
   5349775221.2170172     
   5212553446.9393959     
   3915111302.9212537     
   3832109968.8968773     
   3753269849.2662091     
   3678815005.5716219     
   3609012607.8773646     
   4193361491.9417586     
   4097676709.6207051     
   4005252133.4115057     
   3916302917.7106309     
   3831103432.9451475     
   4506330124.9180956     
   4396845140.0428944     
   4289584832.5533638     
   4184720873.2689290     
   4082507772.9751029     
   4847775063.4491243     
   4723678493.3305864     
   4600707592.1618109     
   4478958505.3751316     
   4358637451.3255100     
   5212553446.9393959     
   5073247265.4313545     
   4933963134.5414181     
   4794694781.8063879     
   4655574550.1740313     
   3609012607.8773646     
   3522318953.5494056     
   3440620280.2421336     
   3364277268.5152302     
   3293748251.1710625     
   3831103432.9451475     
   3728052140.8213472     
   3629255036.6524639     
   3535030847.7149272     
   3445781280.7903438     
   4082507772.9751029     
   3964639356.3169150     
   3850483166.4190698     
   3740302993.0028119     
   3634435743.3549991     
   4358637451.3255100     
   4227379262.9867435     
   4099489764.4553962     
   3975175264.1715908     
   3854711328.8072867     
   4655574550.1740313     
   4512167306.3582010     
   4371967677.5819645     
   4235127200.1970634     
   4101869338.9627595     
   3293748251.1710625     
   3211440380.4970369     
   3134587394.4112306     
   3063546243.9826732     
   2998725177.4618497     
   3445781280.7903438     
   3349761716.3284035     
   3258212440.5758057     
   3171504354.8510618     
   3090076275.0249991     
   3634435743.3549991     
   3524460627.6981025     
   3417865443.6138196     
   3314992034.3745732     
   3216264898.5452833     
   3854711328.8072867     
   3730941919.7048855     
   3609435050.7492671     
   3490468612.0184016     
   3374413128.0113297     
   4101869338.9627595     
   3964726585.5712214     
   3828766378.8315911     
   3694180232.7529182     
   3561257442.2682939     
   2998725177.4618497     
   2916932100.0381403     
   2841318563.6469774     
   2772420395.7335958     
   2710864442.5325513     
   3090076275.0249991     
   2991399648.0083928     
   2897881985.9504476     
   2809999964.7454433     
   2728320025.8965650     
   3216264898.5452833     
   3102634781.5068622     
   2993269376.4380445     
   2888551820.8749285     
   2788949677.0071230     
   3374413128.0113297     
   3247902116.5009794     
   3124957640.2968035     
   3005857416.0823150     
   2890956687.8335018     
   3561257442.2682939     
   3423870264.3262520     
   3289578180.6840343     
   3158559742.5236268     
   3031067155.0543346     
   2710864442.5325513     
   2631696117.7820449     
   2563144416.2767329     
   2506011654.7170296     
   2461164286.7778125     
   2728320025.8965650     
   2629237237.5851927     
   2535950995.2672625     
   2449069435.1036725     
   2369280290.9730806     
   2788949677.0071230     
   2674816698.2934618     
   2561893285.3874664     
   2450427300.3500147     
   2340721558.2829571     
   2890956687.8335018     
   2769183575.5449958     
   2644919037.7523236     
   2518159132.3462605     
   2388950217.9709048     
   3031067155.0543346     
   2910705984.8127704     
   2785536763.5764670     
   2655682059.0323725     
   2521439152.6667080     
   5657781349.0446825     
   5890920942.0027885     
   6116421784.4423304     
   6331828273.7246552     
   6536919856.1861153     
   6491613525.1487246     
   6586833623.3762941     
   6757395596.2079563     
   6961219772.4003658     
   7171645514.6003513     
   7982344926.0764408     
   7734919284.3420877     
   7669077950.8281965     
   7669513538.1920166     
   7666292838.2101336     
   10130420571.625168     
   9322018169.5694275     
   8826280391.1606045     
   8443370211.9414158     
   8035474372.1868248     
   12935926089.823076     
   11340842102.016516     
   10210168375.421127     
   9272558710.9163151     
   8303563188.1538973     
   6536919856.1861153     
   6328897941.5109100     
   6143067062.6625309     
   5965517294.3020840     
   5787243433.4567089     
   7171645514.6003513     
   6910988703.6973000     
   6658225058.5558176     
   6409495756.6814346     
   6161656451.7992802     
   7666292838.2101336     
   7381015792.5927048     
   7101119541.4077349     
   6826682992.8210106     
   6557910137.9825687     
   8035474372.1868248     
   7746634020.3385077     
   7473451466.2403135     
   7213968861.8140030     
   6968192807.8825207     
   8303563188.1538973     
   8020410700.0422831     
   7779358300.4920292     
   7569717528.6103020     
   7386512391.0318127     
   5787243433.4567089     
   5637108988.6122074     
   5491313808.7108746     
   5349775221.2170172     
   5212553446.9393959     
   6161656451.7992802     
   6012842234.0534964     
   5865494387.1733332     
   5719655867.2518320     
   5575390181.4412661     
   6557910137.9825687     
   6407063778.8006954     
   6254689079.4394655     
   6100759122.6691160     
   5945308485.0754929     
   6968192807.8825207     
   6813336146.1916542     
   6653920632.7832079     
   6489664916.7347975     
   6320520790.3816738     
   7386512391.0318127     
   7226674725.3311548     
   7059326922.3943729     
   6883767453.1540117     
   6699805635.3279572     
   5212553446.9393959     
   5073247265.4313545     
   4933963134.5414181     
   4794694781.8063879     
   4655574550.1740313     
   5575390181.4412661     
   5419833215.0725574     
   5264913313.6744795     
   5110658769.4193058     
   4957162410.9503880     
   5945308485.0754929     
   5774760210.1404276     
   5605702163.9990025     
   5438167442.5047770     
   5272236676.9157715     
   6320520790.3816738     
   6135599072.5748873     
   5953226199.1577263     
   5773410114.9435720     
   5596235533.3612328     
   6699805635.3279572     
   6500559862.5274124     
   6305115069.3367882     
   6113425833.7858391     
   5925590311.8640127     
   4655574550.1740313     
   4512167306.3582010     
   4371967677.5819645     
   4235127200.1970634     
   4101869338.9627595     
   4957162410.9503880     
   4805959120.9343138     
   4656589216.4382057     
   4509193271.5117025     
   4363956731.8118572     
   5272236676.9157715     
   5113852106.2467499     
   4956060682.6877575     
   4798968080.2501669     
   4642709828.9132004     
   5596235533.3612328     
   5431728531.8646479     
   5266697926.7554598     
   5101202024.4618893     
   4935325711.7953625     
   5925590311.8640127     
   5756346494.0390301     
   5585576537.7666569     
   5413288449.7250328     
   5239524959.4534454     
   4101869338.9627595     
   3964726585.5712214     
   3828766378.8315911     
   3694180232.7529182     
   3561257442.2682939     
   4363956731.8118572     
   4213569018.6741357     
   4064261939.9760637     
   3916176130.7938027     
   3769531486.8912191     
   4642709828.9132004     
   4479115200.0989561     
   4316551596.7448425     
   4155116441.9603615     
   3994976407.6591334     
   4935325711.7953625     
   4758262701.6630135     
   4582216814.5810738     
   4407250479.3304195     
   4233493160.9954023     
   5239524959.4534454     
   5048487270.5670004     
   4858475390.2445593     
   4669524950.6760073     
   4481743346.3676271     
   3561257442.2682939     
   3423870264.3262520     
   3289578180.6840343     
   3158559742.5236268     
   3031067155.0543346     
   3769531486.8912191     
   3623647159.3212237     
   3480638534.8711586     
   3340765051.9531908     
   3204385115.2116427     
   3994976407.6591334     
   3837188179.9274454     
   3681776151.0198498     
   3529070478.2518668     
   3379536493.9005213     
   4233493160.9954023     
   4060578419.7898812     
   3889305024.5965643     
   3720052920.8525314     
   3553380397.0366349     
   4481743346.3676271     
   4290694044.6144714     
   4100358471.5897002     
   3911135226.2032008     
   3723646968.0013943     
   3031067155.0543346     
   2910705984.8127704     
   2785536763.5764670     
   2655682059.0323725     
   2521439152.6667080     
   3204385115.2116427     
   3086718221.0456944     
   2970064422.4415536     
   2854794337.6407738     
   2741516093.5609570     
   3379536493.9005213     
   3238490318.0201106     
   3102042748.1746359     
   2971785597.5388627     
   2850425792.1191549     
   3553380397.0366349     
   3362240033.8126445     
   3177557110.7511029     
   3003386396.2734017     
   2846906998.8632002     
   3723646968.0013943     
   3455854064.6631823     
   3194950358.7457557     
   2948868944.8461041     
   2732670124.5651832     
 </DataArray>
 <DataArray  type="Float64" Name="strain" NumberOfComponents="3" format="ascii">
  0.20349039080274126        0.0000000000000000       0.12540918203514415     
  0.18665785095704160       -2.7324055840133789E-002   7.4352583025940472E-002
  0.16982531111134191       -4.4674801939364496E-002   3.5131444616211947E-002
  0.15299277126564223       -5.2052238297692108E-002   7.7457668059585684E-003
  0.13616023141994255       -4.9456364915116610E-002  -7.8044504048196961E-003
  0.15985660881294828        0.0000000000000000        9.6453161949966240E-002
  0.15317774693630082       -2.1844172327179213E-002   6.2692805236903237E-002
  0.14649888505965333       -3.6174030389175937E-002   3.7404343862469547E-002
  0.13982002318300588       -4.2989574185990143E-002   2.0587777826665099E-002
  0.13314116130635839       -4.2290803717621867E-002   1.2243107129489887E-002
  0.12645703974667616        0.0000000000000000        7.4206523115603218E-002
  0.12656829057823502       -1.6364288814224637E-002   5.5283413222960334E-002
  0.12667954140979387       -2.7673258838987368E-002   4.1468633408100780E-002
  0.12679079224135267       -3.3926910074288198E-002   3.2762183671024681E-002
  0.12690204307291156       -3.5125242520127088E-002   2.9164064011731935E-002
  0.10329168360392485        0.0000000000000000        5.8669265532055065E-002
  0.10682948188284414       -1.0884405301270059E-002   5.2124406984111651E-002
  0.11036728016176343       -1.9172487288798803E-002   4.7324313253105751E-002
  0.11390507844068273       -2.4864245962586237E-002   4.4268984339037393E-002
  0.11744287671960202       -2.7959681322632352E-002   4.2958420241906506E-002
   9.0360540384694349E-002   0.0000000000000000        4.9841389199321781E-002
   9.3961320850128205E-002  -5.4045217883154813E-003   5.3215786520357286E-002
   9.7562101315562075E-002  -1.0671715738610241E-002   5.4971383397484419E-002
  0.10116288178099593       -1.5801581850884282E-002   5.5108179830703180E-002
  0.10476366224642979       -2.0794120125137597E-002   5.3626175820013569E-002
  0.13616023141994255       -4.9456364915116610E-002  -7.8044504048196961E-003
  0.13295621269944291       -4.2921904740227147E-002  -3.3869311590140269E-003
  0.12975219397894328       -3.8483580721612981E-002  -3.8599906240704626E-004
  0.12654817525844358       -3.6141392859273910E-002   1.1983458850010099E-003
  0.12334415653794398       -3.5895341153210109E-002   1.3661036832103290E-003
  0.13314116130635839       -4.2290803717621867E-002   1.2243107129489887E-002
  0.12890902642709373       -3.8425540888441009E-002   1.2190316395950435E-002
  0.12467689154782907       -3.5741607602817679E-002   1.1497880494079633E-002
  0.12044475666856441       -3.4239003860751703E-002   1.0165799423877660E-002
  0.11621262178929975       -3.3917729662243240E-002   8.1940731853444720E-003
  0.12690204307291156       -3.5125242520127088E-002   2.9164064011731935E-002
  0.12241873401574947       -3.3929177036654892E-002   2.5555769911564944E-002
  0.11793542495858736       -3.2999634484022392E-002   2.2084772623934351E-002
  0.11345211590142522       -3.2336614862229489E-002   1.8751072148840007E-002
  0.10896880684426319       -3.1940118171276302E-002   1.5554668486282126E-002
  0.11744287671960202       -2.7959681322632352E-002   4.2958420241906506E-002
  0.11348533546541006       -2.9432813184868768E-002   3.6709429387829874E-002
  0.10952779421121811       -3.0257661365227090E-002   3.1374677327157117E-002
  0.10557025295702616       -3.0434225863707292E-002   2.6954164059888267E-002
  0.10161271170283419       -2.9962506680309427E-002   2.3447889586023354E-002
  0.10476366224642979       -2.0794120125137597E-002   5.3626175820013569E-002
  0.10210883077607555       -2.4936449333082644E-002   4.5651294824744997E-002
   9.9453999305721311E-002  -2.7515688246431785E-002   3.9367594603747877E-002
   9.6799167835367059E-002  -2.8531836865185102E-002   3.4775075157022294E-002
   9.4144336365012835E-002  -2.7984895189342524E-002   3.1873736484568219E-002
  0.12334415653794398       -3.5895341153210109E-002   1.3661036832103290E-003
  0.12038312457546649       -3.6389821548634446E-002   6.4057928277055920E-004
  0.11742209261298896       -3.6269229990759579E-002   1.2364880177949400E-004
  0.11446106065051143       -3.5533566479585964E-002  -1.8468775976331758E-004
  0.11150002868803394       -3.4182831015112936E-002  -2.8443040185754942E-004
  0.11621262178929975       -3.3917729662243240E-002   8.1940731853444720E-003
  0.11344448952675941       -3.3991595566720642E-002   7.8436350144432676E-003
  0.11067635726421904       -3.3674412133612344E-002   7.6704023239678454E-003
  0.10790822500167867       -3.2966179362918416E-002   7.6743751139183546E-003
  0.10514009273913830       -3.1866897254638787E-002   7.8555533842947500E-003
  0.10896880684426319       -3.1940118171276302E-002   1.5554668486282126E-002
  0.10636218584263726       -3.1593369584806845E-002   1.5355293929206232E-002
  0.10375556484101131       -3.1079594276465023E-002   1.5301736413533478E-002
  0.10114894383938536       -3.0398792246250982E-002   1.5393995939263645E-002
   9.8542322837759461E-002  -2.9550963494164556E-002   1.5632072506396949E-002
  0.10161271170283419       -2.9962506680309427E-002   2.3447889586023354E-002
   9.9136213523099967E-002  -2.9195143602893086E-002   2.3175556027059379E-002
   9.6659715343365746E-002  -2.8484776419317757E-002   2.3017651070475629E-002
   9.4183217163631483E-002  -2.7831405129583549E-002   2.2974174716272347E-002
   9.1706718983897290E-002  -2.7235029733690422E-002   2.3045126964449318E-002
   9.4144336365012835E-002  -2.7984895189342524E-002   3.1873736484568219E-002
   9.1766572568147589E-002  -2.6796917620979278E-002   3.1304421308002713E-002
   8.9388808771282358E-002  -2.5889958562170447E-002   3.0818146294794693E-002
   8.7011044974417112E-002  -2.5264018012916160E-002   3.0414911444944376E-002
   8.4633281177551867E-002  -2.4919095973216232E-002   3.0094716758451767E-002
  0.11150002868803394       -3.4182831015112936E-002  -2.8443040185754942E-004
  0.10830494091784371       -3.2662561693929476E-002   2.4429723971264306E-005
  0.10510985314765342       -3.1418296612623325E-002   5.0625209793983550E-004
  0.10191476537746319       -3.0450035771195295E-002   1.1610367200479976E-003
   9.8719677607272904E-002  -2.9757779169644560E-002   1.9887835902958617E-003
  0.10514009273913830       -3.1866897254638787E-002   7.8555533842947500E-003
  0.10212751993494509       -3.0652528977352933E-002   7.7176916557722131E-003
   9.9114947130751849E-002  -2.9599037699640167E-002   7.7718976111041810E-003
   9.6102374326558632E-002  -2.8706423421500774E-002   8.0181712502904942E-003
   9.3089801522365401E-002  -2.7974686142934191E-002   8.4565125733312707E-003
   9.8542322837759461E-002  -2.9550963494164556E-002   1.5632072506396949E-002
   9.5731370435277990E-002  -2.8642496260776432E-002   1.5162616163827712E-002
   9.2920418032796506E-002  -2.7779778786656842E-002   1.4904332940827603E-002
   9.0109465630315022E-002  -2.6962811071806137E-002   1.4857222837396662E-002
   8.7298513227833510E-002  -2.6191593116223905E-002   1.5021285853534752E-002
   9.1706718983897290E-002  -2.7235029733690422E-002   2.3045126964449318E-002
   8.9116492418842314E-002  -2.6632463544199965E-002   2.2359203248137664E-002
   8.6526265853787324E-002  -2.5960519873673711E-002   2.1903558087110132E-002
   8.3936039288732375E-002  -2.5219198722111501E-002   2.1678191481366293E-002
   8.1345812723677371E-002  -2.4408500089513632E-002   2.1683103430906413E-002
   8.4633281177551867E-002  -2.4919095973216232E-002   3.0094716758451767E-002
   8.2282885885638146E-002  -2.4622430827623498E-002   2.9307452908702361E-002
   7.9932490593724370E-002  -2.4141260960690386E-002   2.8769573049951536E-002
   7.7582095301810608E-002  -2.3475586372416916E-002   2.8481077182199346E-002
   7.5231700009896901E-002  -2.2625407062803304E-002   2.8441965305445710E-002
   9.8719677607272904E-002  -2.9757779169644560E-002   1.9887835902958617E-003
   9.5840386492887952E-002  -2.9142012108850118E-002   2.3072235131548213E-003
   9.2961095378502973E-002  -2.8403219889690093E-002   2.7012894226386142E-003
   9.0081804264118007E-002  -2.7541402512164585E-002   3.1709813187481561E-003
   8.7202513149733041E-002  -2.6556559976274041E-002   3.7162992014819762E-003
   9.3089801522365401E-002  -2.7974686142934191E-002   8.4565125733312707E-003
   9.0297945863912654E-002  -2.7289947831882599E-002   8.7203018673278621E-003
   8.7506090205460046E-002  -2.6538330456287132E-002   9.0833360865639895E-003
   8.4714234547007342E-002  -2.5719834016147681E-002   9.5456152310398543E-003
   8.1922378888554637E-002  -2.4834458511464541E-002   1.0107139300755352E-002
   8.7298513227833510E-002  -2.6191593116223905E-002   1.5021285853534752E-002
   8.4617711963927755E-002  -2.5437883554915039E-002   1.5174278424847296E-002
   8.1936910700021987E-002  -2.4673441022883998E-002   1.5450134860013919E-002
   7.9256109436116190E-002  -2.3898265520130774E-002   1.5848855159034867E-002
   7.6575308172210449E-002  -2.3112357046655374E-002   1.6370439321910013E-002
   8.1345812723677371E-002  -2.4408500089513632E-002   2.1683103430906413E-002
   7.8799684792933089E-002  -2.3585819277947527E-002   2.1669153185713132E-002
   7.6253556862188751E-002  -2.2808551589480894E-002   2.1801685742988838E-002
   7.3707428931444441E-002  -2.2076697024113703E-002   2.2080701102733091E-002
   7.1161301000700117E-002  -2.1390255581846096E-002   2.2506199264946361E-002
   7.5231700009896901E-002  -2.2625407062803304E-002   2.8441965305445710E-002
   7.2843864350928683E-002  -2.1733755000979987E-002   2.8204926149925202E-002
   7.0456028691960423E-002  -2.0943662156077916E-002   2.8137988735488090E-002
   6.8068193032992219E-002  -2.0255128528096748E-002   2.8241153062134344E-002
   6.5680357374023973E-002  -1.9668154117036762E-002   2.8514419129864077E-002
   8.7202513149733041E-002  -2.6556559976274041E-002   3.7162992014819762E-003
   8.4036671509681971E-002  -2.5538586276723674E-002   3.4944638793665828E-003
   8.0870829869630956E-002  -2.4577375408221080E-002   3.5076763778354447E-003
   7.7704988229579913E-002  -2.3672927370764665E-002   3.7559366968886176E-003
   7.4539146589528871E-002  -2.2825242164356108E-002   4.2392448365253799E-003
   8.1922378888554637E-002  -2.4834458511464541E-002   1.0107139300755352E-002
   7.8985746172750587E-002  -2.3925895290844656E-002   9.7738953952780649E-003
   7.6049113456946482E-002  -2.3037835702895235E-002   9.6640215177108135E-003
   7.3112480741142391E-002  -2.2170279747616022E-002   9.7775176680533760E-003
   7.0175848025338328E-002  -2.1323227425007363E-002   1.0114383846305308E-002
   7.6575308172210449E-002  -2.3112357046655374E-002   1.6370439321910013E-002
   7.3856206587978868E-002  -2.2313204304965639E-002   1.5962046031447893E-002
   7.1137105003747356E-002  -2.1498295997569722E-002   1.5765344976221077E-002
   6.8418003419515816E-002  -2.0667632124467046E-002   1.5780336156229549E-002
   6.5698901835284262E-002  -1.9821212685658229E-002   1.6007019571473491E-002
   7.1161301000700117E-002  -2.1390255581846096E-002   2.2506199264946361E-002
   6.8648052755366784E-002  -2.0700513319086511E-002   2.2058915787875753E-002
   6.6134804510033438E-002  -1.9958756292244043E-002   2.1811646753366123E-002
   6.3621556264700091E-002  -1.9164984501317903E-002   2.1764392161417501E-002
   6.1108308019366744E-002  -1.8319197946309179E-002   2.1917152012029914E-002
   6.5680357374023973E-002  -1.9668154117036762E-002   2.8514419129864077E-002
   6.3361284674914420E-002  -1.9087822333207466E-002   2.8064504664561840E-002
   6.1042211975804853E-002  -1.8419216586918363E-002   2.7802926849146314E-002
   5.8723139276695265E-002  -1.7662336878169288E-002   2.7729685683617347E-002
   5.6404066577585732E-002  -1.6817183206960351E-002   2.7844781167974786E-002
   7.4539146589528871E-002  -2.2825242164356108E-002   4.2392448365253799E-003
   7.1309616447925939E-002  -2.2002507515962333E-002   4.5973530196627976E-003
   6.8080086306322896E-002  -2.1172911152551432E-002   5.2895933916044524E-003
   6.4850556164719853E-002  -2.0336453074123476E-002   6.3159659523502332E-003
   6.1621026023116920E-002  -1.9493133280679253E-002   7.6764707018998068E-003
   7.0175848025338328E-002  -2.1323227425007363E-002   1.0114383846305308E-002
   6.7254993066629853E-002  -2.0494805770239100E-002   1.0328439403672618E-002
   6.4334138107921351E-002  -1.9683141818481575E-002   1.0825713138024884E-002
   6.1413283149212808E-002  -1.8888235569735304E-002   1.1606205049361967E-002
   5.8492428190504375E-002  -1.8110087024000077E-002   1.2669915137684118E-002
   6.5698901835284262E-002  -1.9821212685658229E-002   1.6007019571473491E-002
   6.3035808047651090E-002  -1.8987104024515589E-002   1.6053403085042633E-002
   6.0372714260017890E-002  -1.8193372484411802E-002   1.6332090763777785E-002
   5.7709620472384690E-002  -1.7440018065346903E-002   1.6843082607678680E-002
   5.5046526684751518E-002  -1.6727040767321066E-002   1.7586378616744919E-002
   6.1108308019366744E-002  -1.8319197946309179E-002   2.1917152012029914E-002
   5.8652061390989718E-002  -1.7479402278792161E-002   2.1772244063773233E-002
   5.6195814762612671E-002  -1.6703603150341764E-002   2.1808726268863078E-002
   5.3739568134235680E-002  -1.5991800560958506E-002   2.2026598627299731E-002
   5.1283321505858639E-002  -1.5343994510641862E-002   2.2425861139082674E-002
   5.6404066577585732E-002  -1.6817183206960351E-002   2.7844781167974786E-002
   5.4103753096645696E-002  -1.5971700533068872E-002   2.7484962339864361E-002
   5.1803439615705660E-002  -1.5213833816272074E-002   2.7255619653281216E-002
   4.9503126134765624E-002  -1.4543583056570001E-002   2.7156753108225670E-002
   4.7202812653825532E-002  -1.3960948253962935E-002   2.7188362704697322E-002
   6.1621026023116920E-002  -1.9493133280679253E-002   7.6764707018998068E-003
   5.6985214553839980E-002  -1.8580001012504010E-002   8.3416217214674626E-003
   5.2349403084562929E-002  -1.7534105509883685E-002   1.0585611730461297E-002
   4.7713591615285877E-002  -1.6355446772818812E-002   1.4408440728882005E-002
   4.3077780146008937E-002  -1.5044024801309508E-002   1.9810108716729058E-002
   5.8492428190504375E-002  -1.8110087024000077E-002   1.2669915137684118E-002
   5.5211700900822724E-002  -1.7271851318143350E-002   1.2928855303129705E-002
   5.1930973611141074E-002  -1.6296683589032551E-002   1.4319124838339803E-002
   4.8650246321459534E-002  -1.5184583836667813E-002   1.6840723743314356E-002
   4.5369519031777772E-002  -1.3935552061048906E-002   2.0493652018052533E-002
   5.5046526684751518E-002  -1.6727040767321066E-002   1.7586378616744919E-002
   5.2673373955003072E-002  -1.5963701623782856E-002   1.7443276716878425E-002
   5.0300221225254654E-002  -1.5059261668181181E-002   1.7983994567113401E-002
   4.7927068495506125E-002  -1.4013720900516311E-002   1.9208532167451033E-002
   4.5553915765757735E-002  -1.2827079320787860E-002   2.1116889517890258E-002
   5.1283321505858639E-002  -1.5343994510641862E-002   2.2425861139082674E-002
   4.9370233716381183E-002  -1.4655551929422500E-002   2.1884885962712937E-002
   4.7457145926903685E-002  -1.3821839747329819E-002   2.1580220916782782E-002
   4.5544058137426215E-002  -1.2842857964364728E-002   2.1511866001292963E-002
   4.3630970347948744E-002  -1.1718606580527036E-002   2.1679821216242096E-002
   4.7202812653825532E-002  -1.3960948253962935E-002   2.7188362704697322E-002
   4.5302280184956883E-002  -1.3347402235061923E-002   2.6253683040633469E-002
   4.3401747716088152E-002  -1.2584417826478830E-002   2.5107803887347596E-002
   4.1501215247219475E-002  -1.1671995028213544E-002   2.3750725244838719E-002
   3.9600682778350715E-002  -1.0610133840266212E-002   2.2182447113108461E-002
   9.0360540384694349E-002   0.0000000000000000        4.9841389199321781E-002
   9.3961320850128205E-002  -5.4045217883154813E-003   5.3215786520357286E-002
   9.7562101315562075E-002  -1.0671715738610241E-002   5.4971383397484419E-002
  0.10116288178099593       -1.5801581850884282E-002   5.5108179830703180E-002
  0.10476366224642979       -2.0794120125137597E-002   5.3626175820013569E-002
   8.2424576828484947E-002   0.0000000000000000        4.4789686629509620E-002
   8.4635582655315802E-002  -4.5748106304818025E-003   4.8273328879198850E-002
   8.6846588482146644E-002  -9.0388036573302594E-003   5.0596222295590423E-002
   8.9057594308977486E-002  -1.3391979080545359E-002   5.1758366878684361E-002
   9.1268600135808314E-002  -1.7634336900127112E-002   5.1759762628480616E-002
   7.4244759674796865E-002   0.0000000000000000        4.0580950334724822E-002
   7.5524042473635422E-002  -3.7450994726481264E-003   4.4147327278680412E-002
   7.6803325272473980E-002  -7.4058915760502712E-003   4.7011006999949076E-002
   7.8082608071312523E-002  -1.0982376310206435E-002   4.9171989498530792E-002
   7.9361890870151081E-002  -1.4474553675116618E-002   5.0630274774425589E-002
   6.5821088923630117E-002   0.0000000000000000        3.7215180314967386E-002
   6.6626700305087092E-002  -2.9153883148144485E-003   4.0837781718801952E-002
   6.7432311686544094E-002  -5.7729794947702848E-003   4.4215737510560321E-002
   6.8237923068001055E-002  -8.5727735398675106E-003   4.7349047690242486E-002
   6.9043534449458058E-002  -1.1314770450106131E-002   5.0237712257848420E-002
   5.7153564574984689E-002   0.0000000000000000        3.4692376570237313E-002
   5.7943556149670825E-002  -2.0856771569807715E-003   3.8344692199563504E-002
   5.8733547724356960E-002  -4.1400674134903000E-003   4.2210413827424201E-002
   5.9523539299043096E-002  -6.1631707695285910E-003   4.6289541453819416E-002
   6.0313530873729232E-002  -8.1549872250956355E-003   5.0582075078749150E-002
  0.10476366224642979       -2.0794120125137597E-002   5.3626175820013569E-002
  0.10210883077607555       -2.4936449333082644E-002   4.5651294824744997E-002
   9.9453999305721311E-002  -2.7515688246431785E-002   3.9367594603747877E-002
   9.6799167835367059E-002  -2.8531836865185102E-002   3.4775075157022294E-002
   9.4144336365012835E-002  -2.7984895189342524E-002   3.1873736484568219E-002
   9.1268600135808314E-002  -1.7634336900127112E-002   5.1759762628480616E-002
   9.0067028196257504E-002  -2.1211054537039281E-002   4.6527089762858992E-002
   8.8865456256706693E-002  -2.3567309412245621E-002   4.2509755184572728E-002
   8.7663884317155855E-002  -2.4703101525746170E-002   3.9707758893621825E-002
   8.6462312377605044E-002  -2.4618430877540877E-002   3.8121100890006178E-002
   7.9361890870151081E-002  -1.4474553675116618E-002   5.0630274774425589E-002
   7.9137735974467494E-002  -1.7485659740995932E-002   4.7797182505560927E-002
   7.8913581078783920E-002  -1.9618930578059468E-002   4.5703586037095394E-002
   7.8689426183100361E-002  -2.0874366186307228E-002   4.4349485369029010E-002
   7.8465271287416802E-002  -2.1251966565739216E-002   4.3734880501361803E-002
   6.9043534449458058E-002  -1.1314770450106131E-002   5.0237712257848420E-002
   6.9320954110705560E-002  -1.3760264944952571E-002   4.9461573052850621E-002
   6.9598373771953062E-002  -1.5670551743873298E-002   4.8949087161315810E-002
   6.9875793433200564E-002  -1.7045630846868286E-002   4.8700254583243993E-002
   7.0153213094448080E-002  -1.7885502253937556E-002   4.8715075318635205E-002
   6.0313530873729232E-002  -8.1549872250956355E-003   5.0582075078749150E-002
   6.0616682604971661E-002  -1.0034870148909225E-002   5.1520261404728179E-002
   6.0919834336214077E-002  -1.1722172909687148E-002   5.2246258557234027E-002
   6.1222986067456506E-002  -1.3216895507429344E-002   5.2760066536266720E-002
   6.1526137798698928E-002  -1.4519037942135903E-002   5.3061685341826252E-002
   9.4144336365012835E-002  -2.7984895189342524E-002   3.1873736484568219E-002
   9.1766572568147589E-002  -2.6796917620979278E-002   3.1304421308002713E-002
   8.9388808771282358E-002  -2.5889958562170447E-002   3.0818146294794693E-002
   8.7011044974417112E-002  -2.5264018012916160E-002   3.0414911444944376E-002
   8.4633281177551867E-002  -2.4919095973216232E-002   3.0094716758451767E-002
   8.6462312377605044E-002  -2.4618430877540877E-002   3.8121100890006178E-002
   8.4212815522690082E-002  -2.3979526432862996E-002   3.7085488550095219E-002
   8.1963318667775106E-002  -2.3452617156945757E-002   3.6223369930727278E-002
   7.9713821812860158E-002  -2.3037703049789127E-002   3.5534745031902203E-002
   7.7464324957945210E-002  -2.2734784111393097E-002   3.5019613853620013E-002
   7.8465271287416802E-002  -2.1251966565739216E-002   4.3734880501361803E-002
   7.6434494931637398E-002  -2.1162135244746697E-002   4.2401994338899407E-002
   7.4403718575858008E-002  -2.1015275751721008E-002   4.1333055454165185E-002
   7.2372942220078618E-002  -2.0811388086662049E-002   4.0528063847159117E-002
   7.0342165864299228E-002  -2.0550472249569934E-002   3.9987019517881389E-002
   7.0153213094448080E-002  -1.7885502253937556E-002   4.8715075318635205E-002
   6.8431610794989550E-002  -1.8344744056630419E-002   4.7253938674415040E-002
   6.6710008495531006E-002  -1.8577934346496232E-002   4.6147202865108462E-002
   6.4988406196072476E-002  -1.8585073123535002E-002   4.5394867890715326E-002
   6.3266803896613960E-002  -1.8366160387746758E-002   4.4996933751235764E-002
   6.1526137798698928E-002  -1.4519037942135903E-002   5.3061685341826252E-002
   6.0204163112746532E-002  -1.5527352868514130E-002   5.1641321556642299E-002
   5.8882188426794144E-002  -1.6140592941271528E-002   5.0665812163557131E-002
   5.7560213740841762E-002  -1.6358758160407976E-002   5.0135157162570776E-002
   5.6238239054889380E-002  -1.6181848525923623E-002   5.0049356553683103E-002
   8.4633281177551867E-002  -2.4919095973216232E-002   3.0094716758451767E-002
   8.2282885885638146E-002  -2.4622430827623498E-002   2.9307452908702361E-002
   7.9932490593724370E-002  -2.4141260960690386E-002   2.8769573049951536E-002
   7.7582095301810608E-002  -2.3475586372416916E-002   2.8481077182199346E-002
   7.5231700009896901E-002  -2.2625407062803304E-002   2.8441965305445710E-002
   7.7464324957945210E-002  -2.2734784111393097E-002   3.5019613853620013E-002
   7.5353569021008496E-002  -2.2421066349796605E-002   3.4428451262060740E-002
   7.3242813084071851E-002  -2.1973755773038624E-002   3.4067183389456981E-002
   7.1132057147135136E-002  -2.1392852381119064E-002   3.3935810235808786E-002
   6.9021301210198477E-002  -2.0678356174038015E-002   3.4034331801116091E-002
   7.0342165864299228E-002  -2.0550472249569934E-002   3.9987019517881389E-002
   6.8451560010296550E-002  -2.0219701871969753E-002   3.9541046278333374E-002
   6.6560954156293900E-002  -1.9806250585386889E-002   3.9305478485697917E-002
   6.4670348302291250E-002  -1.9310118389821173E-002   3.9280316139974965E-002
   6.2779742448288600E-002  -1.8731305285272754E-002   3.9465559241164516E-002
   6.3266803896613960E-002  -1.8366160387746758E-002   4.4996933751235764E-002
   6.1576858853502253E-002  -1.8018337394142936E-002   4.4645237957520394E-002
   5.9886913810390609E-002  -1.7638745397735155E-002   4.4484458338674399E-002
   5.8196968767278937E-002  -1.7227384398523359E-002   4.4514594894697848E-002
   5.6507023724167271E-002  -1.6784254396507450E-002   4.4735647625590930E-002
   5.6238239054889380E-002  -1.6181848525923623E-002   5.0049356553683103E-002
   5.4729465550625661E-002  -1.5816972916316091E-002   4.9741026299621557E-002
   5.3220692046361921E-002  -1.5471240210083389E-002   4.9604122948386335E-002
   5.1711918542098195E-002  -1.5144650407225388E-002   4.9638646499977734E-002
   5.0203145037834490E-002  -1.4837203507742203E-002   4.9844596954395387E-002
   7.5231700009896901E-002  -2.2625407062803304E-002   2.8441965305445710E-002
   7.2843864350928683E-002  -2.1733755000979987E-002   2.8204926149925202E-002
   7.0456028691960423E-002  -2.0943662156077916E-002   2.8137988735488090E-002
   6.8068193032992219E-002  -2.0255128528096748E-002   2.8241153062134344E-002
   6.5680357374023973E-002  -1.9668154117036762E-002   2.8514419129864077E-002
   6.9021301210198477E-002  -2.0678356174038015E-002   3.4034331801116091E-002
   6.6810971375591124E-002  -1.9927192859117718E-002   3.3692627858459556E-002
   6.4600641540983744E-002  -1.9236288143680516E-002   3.3535833823441427E-002
   6.2390311706376364E-002  -1.8605642027726400E-002   3.3563949696061607E-002
   6.0179981871768984E-002  -1.8035254511255261E-002   3.3776975476320081E-002
   6.2779742448288600E-002  -1.8731305285272754E-002   3.9465559241164516E-002
   6.0761726604597076E-002  -1.8120630717255434E-002   3.9060491128809979E-002
   5.8743710760905551E-002  -1.7528914131283165E-002   3.8855141090648686E-002
   5.6725694917214034E-002  -1.6956155527355909E-002   3.8849509126680712E-002
   5.4707679073522510E-002  -1.6402354905473732E-002   3.9043595236906106E-002
   5.6507023724167271E-002  -1.6784254396507450E-002   4.4735647625590930E-002
   5.4696130037946551E-002  -1.6314068575393186E-002   4.4308515960976375E-002
   5.2885236351725810E-002  -1.5821540118885761E-002   4.4095910537110067E-002
   5.1074342665505090E-002  -1.5306669026985548E-002   4.4097831353992117E-002
   4.9263448979284349E-002  -1.4769455299692216E-002   4.4314278411622283E-002
   5.0203145037834490E-002  -1.4837203507742203E-002   4.9844596954395387E-002
   4.8614181675639523E-002  -1.4507506433530853E-002   4.9436702354958867E-002
   4.7025218313444569E-002  -1.4114166106488496E-002   4.9258142162825619E-002
   4.5436254951249609E-002  -1.3657182526615054E-002   4.9308916377995435E-002
   4.3847291589054649E-002  -1.3136555693910645E-002   4.9589025000468689E-002
   6.5680357374023973E-002  -1.9668154117036762E-002   2.8514419129864077E-002
   6.3361284674914420E-002  -1.9087822333207466E-002   2.8064504664561840E-002
   6.1042211975804853E-002  -1.8419216586918363E-002   2.7802926849146314E-002
   5.8723139276695265E-002  -1.7662336878169288E-002   2.7729685683617347E-002
   5.6404066577585732E-002  -1.6817183206960351E-002   2.7844781167974786E-002
   6.0179981871768984E-002  -1.8035254511255261E-002   3.3776975476320081E-002
   5.8047151115988946E-002  -1.7465505541323367E-002   3.3426666742901456E-002
   5.5914320360208825E-002  -1.6836775064986459E-002   3.3260505246255220E-002
   5.3781489604428717E-002  -1.6149063082244682E-002   3.3278490986381269E-002
   5.1648658848648665E-002  -1.5402369593098097E-002   3.3480623963279721E-002
   5.4707679073522510E-002  -1.6402354905473732E-002   3.9043595236906106E-002
   5.2756900847957595E-002  -1.5843188749439172E-002   3.8763599779316205E-002
   5.0806122622392660E-002  -1.5254333543054555E-002   3.8663562145384467E-002
   4.8855344396827732E-002  -1.4635789286320242E-002   3.8743482335110539E-002
   4.6904566171262818E-002  -1.3987555979235844E-002   3.9003360348494984E-002
   4.9263448979284349E-002  -1.4769455299692216E-002   4.4314278411622283E-002
   4.7490533870820383E-002  -1.4220871957554969E-002   4.4075303773806120E-002
   4.5717618762356381E-002  -1.3671892021122761E-002   4.4012097546533693E-002
   4.3944703653892414E-002  -1.3122515490395718E-002   4.4124659729805220E-002
   4.2171788545428482E-002  -1.2572742365373618E-002   4.4412990323620227E-002
   4.3847291589054649E-002  -1.3136555693910645E-002   4.9589025000468689E-002
   4.2248050184577307E-002  -1.2598555165670877E-002   4.9361778726371153E-002
   4.0648808780099979E-002  -1.2089450499190801E-002   4.9306111449703316E-002
   3.9049567375622644E-002  -1.1609241694471209E-002   4.9422023170464902E-002
   3.7450325971145310E-002  -1.1157928751511392E-002   4.9709513888655910E-002
   5.6404066577585732E-002  -1.6817183206960351E-002   2.7844781167974786E-002
   5.4103753096645696E-002  -1.5971700533068872E-002   2.7484962339864361E-002
   5.1803439615705660E-002  -1.5213833816272074E-002   2.7255619653281216E-002
   4.9503126134765624E-002  -1.4543583056570001E-002   2.7156753108225670E-002
   4.7202812653825532E-002  -1.3960948253962935E-002   2.7188362704697322E-002
   5.1648658848648665E-002  -1.5402369593098097E-002   3.3480623963279721E-002
   4.9487907611041757E-002  -1.4652339933503927E-002   3.3071243727224225E-002
   4.7327156373434862E-002  -1.3954619439419239E-002   3.2810511836307607E-002
   4.5166405135827987E-002  -1.3309208110844132E-002   3.2698428290529706E-002
   4.3005653898221086E-002  -1.2716105947778944E-002   3.2734993089891029E-002
   4.6904566171262818E-002  -1.3987555979235844E-002   3.9003360348494984E-002
   4.4901549380600585E-002  -1.3332979333938802E-002   3.8579725496079353E-002
   4.2898532589938379E-002  -1.2695405062566396E-002   3.8322911192414134E-002
   4.0895515799276187E-002  -1.2074833165118317E-002   3.8232917437499223E-002
   3.8892499008613954E-002  -1.1471263641595036E-002   3.8309744231334888E-002
   4.2171788545428482E-002  -1.2572742365373618E-002   4.4412990323620227E-002
   4.0344678405322368E-002  -1.2013618734373878E-002   4.4010407646429675E-002
   3.8517568265216309E-002  -1.1436190685713474E-002   4.3792817721601228E-002
   3.6690458125110258E-002  -1.0840458219392557E-002   4.3760220549134449E-002
   3.4863347985004185E-002  -1.0226421335411143E-002   4.3912616129029899E-002
   3.7450325971145310E-002  -1.1157928751511392E-002   4.9709513888655910E-002
   3.5817294685206919E-002  -1.0694258134808760E-002   4.9363290178275454E-002
   3.4184263399268541E-002  -1.0176976308860761E-002   4.9220231423868666E-002
   3.2551232113330143E-002  -9.6060832736664763E-003   4.9280337625435280E-002
   3.0918200827391773E-002  -8.9815790292272490E-003   4.9543608782975035E-002
   4.7202812653825532E-002  -1.3960948253962935E-002   2.7188362704697322E-002
   4.5302280184956883E-002  -1.3347402235061923E-002   2.6253683040633469E-002
   4.3401747716088152E-002  -1.2584417826478830E-002   2.5107803887347596E-002
   4.1501215247219475E-002  -1.1671995028213544E-002   2.3750725244838719E-002
   3.9600682778350715E-002  -1.0610133840266212E-002   2.2182447113108461E-002
   4.3005653898221086E-002  -1.2716105947778944E-002   3.2734993089891029E-002
   4.0952272994759648E-002  -1.2100388211423063E-002   3.2066157697340419E-002
   3.8898892091298168E-002  -1.1387130162976683E-002   3.1302824924826722E-002
   3.6845511187836612E-002  -1.0576331802439477E-002   3.0444994772349521E-002
   3.4792130284375167E-002  -9.6679931298115918E-003   2.9492667239909398E-002
   3.8892499008613954E-002  -1.1471263641595036E-002   3.8309744231334888E-002
   3.6802971779818776E-002  -1.0853374187784315E-002   3.7854855032706330E-002
   3.4713444551023612E-002  -1.0189842499474376E-002   3.7422170563373401E-002
   3.2623917322228378E-002  -9.4806685766651629E-003   3.7011690823336385E-002
   3.0534390093433256E-002  -8.7258524193568610E-003   3.6623415812595150E-002
   3.4863347985004185E-002  -1.0226421335411143E-002   4.3912616129029899E-002
   3.2854376540134372E-002  -9.6063601641455110E-003   4.3619775046731417E-002
   3.0845405095264501E-002  -8.9925548359721490E-003   4.3465840802988084E-002
   2.8836433650394698E-002  -8.3850053508910290E-003   4.3450813397799673E-002
   2.6827462205524809E-002  -7.7837117089021302E-003   4.3574692831165898E-002
   3.0918200827391773E-002  -8.9815790292272490E-003   4.9543608782975035E-002
   2.9106487275706361E-002  -8.3593461405067071E-003   4.9360917739415755E-002
   2.7294773724020879E-002  -7.7952671724699496E-003   4.9433835643670432E-002
   2.5483060172335460E-002  -7.2893421251167337E-003   4.9762362495738982E-002
   2.3671346620650013E-002  -6.8415709984475104E-003   5.0346498295621211E-002
   5.7153564574984689E-002   0.0000000000000000        3.4692376570237313E-002
   5.7943556149670825E-002  -2.0856771569807715E-003   3.8344692199563504E-002
   5.8733547724356960E-002  -4.1400674134903000E-003   4.2210413827424201E-002
   5.9523539299043096E-002  -6.1631707695285910E-003   4.6289541453819416E-002
   6.0313530873729232E-002  -8.1549872250956355E-003   5.0582075078749150E-002
   4.8654002689301493E-002   0.0000000000000000        3.2789721816436981E-002
   4.9592272448981942E-002  -1.7108084596477195E-003   3.6965512046598259E-002
   5.0530542208662391E-002  -3.4352560378223453E-003   4.1224452648213644E-002
   5.1468811968342847E-002  -5.1733427345238749E-003   4.5566543621283165E-002
   5.2407081728023303E-002  -6.9250685497523222E-003   4.9991784965806786E-002
   4.0734219327021405E-002   0.0000000000000000        3.1284398769468785E-002
   4.1690511644615777E-002  -1.3359397623146666E-003   3.5938737581466998E-002
   4.2646803962210149E-002  -2.7304446621543880E-003   4.0545971137838928E-002
   4.3603096279804521E-002  -4.1835146995191650E-003   4.5106099438584582E-002
   4.4559388597398900E-002  -5.6951498744089984E-003   4.9619122483703981E-002
   3.3394214488144433E-002   0.0000000000000000        3.0176407429332704E-002
   3.4238273736572337E-002  -9.6107106498161511E-004   3.5264368804169700E-002
   3.5082332985000235E-002  -2.0256332864864329E-003   4.0174969296300045E-002
   3.5926392233428139E-002  -3.1936866645144537E-003   4.4908208905723716E-002
   3.6770451481856037E-002  -4.4652311990656746E-003   4.9464087632440680E-002
   2.6633988172670580E-002   0.0000000000000000        2.9465747796028757E-002
   2.7235558724851616E-002  -5.8620236764856271E-004   3.4942405714706401E-002
   2.7837129277032652E-002  -1.3208219108184760E-003   4.0111447123596974E-002
   2.8438699829213689E-002  -2.2038586295097390E-003   4.4972872022700498E-002
   2.9040270381394728E-002  -3.2353125237223586E-003   4.9526680412016959E-002
   6.0313530873729232E-002  -8.1549872250956355E-003   5.0582075078749150E-002
   6.0616682604971661E-002  -1.0034870148909225E-002   5.1520261404728179E-002
   6.0919834336214077E-002  -1.1722172909687148E-002   5.2246258557234027E-002
   6.1222986067456506E-002  -1.3216895507429344E-002   5.2760066536266720E-002
   6.1526137798698928E-002  -1.4519037942135903E-002   5.3061685341826252E-002
   5.2407081728023303E-002  -6.9250685497523222E-003   4.9991784965806786E-002
   5.2536769410893316E-002  -8.5898588421201121E-003   5.1217497595610069E-002
   5.2666457093763337E-002  -1.0067138970239694E-002   5.2308471302141751E-002
   5.2796144776633358E-002  -1.1356908934111076E-002   5.3264706085401785E-002
   5.2925832459503372E-002  -1.2459168733734226E-002   5.4086201945390142E-002
   4.4559388597398900E-002  -5.6951498744089984E-003   4.9619122483703981E-002
   4.4593062482098045E-002  -7.1448475353309933E-003   5.1127291418544052E-002
   4.4626736366797218E-002  -8.4121050307922468E-003   5.2578171680314041E-002
   4.4660410251496363E-002  -9.4969223607927634E-003   5.3971763269013893E-002
   4.4694084136195536E-002  -1.0399299525332553E-002   5.5308066184643692E-002
   3.6770451481856037E-002  -4.4652311990656746E-003   4.9464087632440680E-002
   3.6785561818585867E-002  -5.6998362285418675E-003   5.1249642873530073E-002
   3.6800672155315697E-002  -6.7570710913448066E-003   5.3055359691750903E-002
   3.6815782492045535E-002  -7.6369357874744729E-003   5.4881238087103143E-002
   3.6830892828775365E-002  -8.3394303169308775E-003   5.6727278059586841E-002
   2.9040270381394728E-002  -3.2353125237223586E-003   4.9526680412016959E-002
   2.9114267420356763E-002  -4.2548249217527652E-003   5.1584551960568159E-002
   2.9188264459318811E-002  -5.1020371518973500E-003   5.3740035336452358E-002
   2.9262261498280855E-002  -5.7769492141561832E-003   5.5993130539669506E-002
   2.9336258537242886E-002  -6.2795611085292094E-003   5.8343837570219666E-002
   6.1526137798698928E-002  -1.4519037942135903E-002   5.3061685341826252E-002
   6.0204163112746532E-002  -1.5527352868514130E-002   5.1641321556642299E-002
   5.8882188426794144E-002  -1.6140592941271528E-002   5.0665812163557131E-002
   5.7560213740841762E-002  -1.6358758160407976E-002   5.0135157162570776E-002
   5.6238239054889380E-002  -1.6181848525923623E-002   5.0049356553683103E-002
   5.2925832459503372E-002  -1.2459168733734226E-002   5.4086201945390142E-002
   5.1998130143289967E-002  -1.3311777097836323E-002   5.3337246933941471E-002
   5.1070427827076527E-002  -1.3852592755144588E-002   5.2931982269871829E-002
   5.0142725510863101E-002  -1.4081615705658962E-002   5.2870407953181417E-002
   4.9215023194649675E-002  -1.3998845949379488E-002   5.3152523983870076E-002
   4.4694084136195536E-002  -1.0399299525332553E-002   5.5308066184643692E-002
   4.4059490145001420E-002  -1.1096201327158529E-002   5.5147237800103187E-002
   4.3424896153807298E-002  -1.1564592569017686E-002   5.5228935718222183E-002
   4.2790302162613182E-002  -1.1804473250909947E-002   5.5553159939000597E-002
   4.2155708171419046E-002  -1.1815843372835387E-002   5.6119910462438555E-002
   3.6830892828775365E-002  -8.3394303169308775E-003   5.6727278059586841E-002
   3.6388243117880893E-002  -8.8806255564807222E-003   5.7071294155127565E-002
   3.5945593406986429E-002  -9.2765923828907436E-003   5.7556672508608096E-002
   3.5502943696091971E-002  -9.5273307961609328E-003   5.8183413120028477E-002
   3.5060293985197506E-002  -9.6328407962913108E-003   5.8951515989388581E-002
   2.9336258537242886E-002  -6.2795611085292094E-003   5.8343837570219666E-002
   2.8984389061928427E-002  -6.6650497858029185E-003   5.9109415999014564E-002
   2.8632519586613950E-002  -6.9885921967638761E-003   5.9915192641029624E-002
   2.8280650111299488E-002  -7.2501883414118982E-003   6.0761167496264847E-002
   2.7928780635985022E-002  -7.4498382197471652E-003   6.1647340564720252E-002
   5.6238239054889380E-002  -1.6181848525923623E-002   5.0049356553683103E-002
   5.4729465550625661E-002  -1.5816972916316091E-002   4.9741026299621557E-002
   5.3220692046361921E-002  -1.5471240210083389E-002   4.9604122948386335E-002
   5.1711918542098195E-002  -1.5144650407225388E-002   4.9638646499977734E-002
   5.0203145037834490E-002  -1.4837203507742203E-002   4.9844596954395387E-002
   4.9215023194649675E-002  -1.3998845949379488E-002   5.3152523983870076E-002
   4.7884954290023374E-002  -1.3755662454316114E-002   5.2810318197328135E-002
   4.6554885385397093E-002  -1.3503444188478830E-002   5.2654094707234658E-002
   4.5224816480770799E-002  -1.3242191151867647E-002   5.2683853513589569E-002
   4.3894747576144519E-002  -1.2971903344482422E-002   5.2899594616393014E-002
   4.2155708171419046E-002  -1.1815843372835387E-002   5.6119910462438555E-002
   4.1018899260052206E-002  -1.1694351992316124E-002   5.5772006817564987E-002
   3.9882090348685333E-002  -1.1535648166874244E-002   5.5624640862761809E-002
   3.8745281437318480E-002  -1.1339731896509768E-002   5.5677812598029064E-002
   3.7608472525951626E-002  -1.1106603181222696E-002   5.5931522023366750E-002
   3.5060293985197506E-002  -9.6328407962913108E-003   5.8951515989388581E-002
   3.4131300460712083E-002  -9.6330415303160846E-003   5.8626092160332016E-002
   3.3202306936226653E-002  -9.5678521452696313E-003   5.8515761414967844E-002
   3.2273313411741250E-002  -9.4372726411519024E-003   5.8620523753296155E-002
   3.1344319887255813E-002  -9.2413030179629707E-003   5.8940379175316852E-002
   2.7928780635985022E-002  -7.4498382197471652E-003   6.1647340564720252E-002
   2.7222157892003031E-002  -7.5717310683161079E-003   6.1372574225629334E-002
   2.6515535148021057E-002  -7.6000561236650895E-003   6.1327456363852846E-002
   2.5808912404039083E-002  -7.5348133857941176E-003   6.1511986979390768E-002
   2.5102289660057092E-002  -7.3760028547031897E-003   6.1926166072243161E-002
   5.0203145037834490E-002  -1.4837203507742203E-002   4.9844596954395387E-002
   4.8614181675639523E-002  -1.4507506433530853E-002   4.9436702354958867E-002
   4.7025218313444569E-002  -1.4114166106488496E-002   4.9258142162825619E-002
   4.5436254951249609E-002  -1.3657182526615054E-002   4.9308916377995435E-002
   4.3847291589054649E-002  -1.3136555693910645E-002   4.9589025000468689E-002
   4.3894747576144519E-002  -1.2971903344482422E-002   5.2899594616393014E-002
   4.2528260069970382E-002  -1.2673171964798641E-002   5.2562711690498143E-002
   4.1161772563796287E-002  -1.2326588211291560E-002   5.2441446069341993E-002
   3.9795285057622150E-002  -1.1932152083961129E-002   5.2535797752924142E-002
   3.8428797551448055E-002  -1.1489863582807402E-002   5.2845766741244776E-002
   3.7608472525951626E-002  -1.1106603181222696E-002   5.5931522023366750E-002
   3.6450743773233513E-002  -1.0838837496066497E-002   5.5649859892006250E-002
   3.5293015020515434E-002  -1.0539010316094707E-002   5.5570097962819337E-002
   3.4135286267797334E-002  -1.0207121641307149E-002   5.5692236235805929E-002
   3.2977557515079255E-002  -9.8431714717040764E-003   5.6016274710966318E-002
   3.1344319887255813E-002  -9.2413030179629707E-003   5.8940379175316852E-002
   3.0381632785428936E-002  -9.0045030273342916E-003   5.8698146959482833E-002
   2.9418945683602048E-002  -8.7514324208977853E-003   5.8644097843257512E-002
   2.8456258581775164E-002  -8.4820911986532247E-003   5.8778231826641131E-002
   2.7493571479948277E-002  -8.1964793606007641E-003   5.9100548909633441E-002
   2.5102289660057092E-002  -7.3760028547031897E-003   6.1926166072243161E-002
   2.4320927106556603E-002  -7.1701685586021413E-003   6.1707572892927970E-002
   2.3539564553056114E-002  -6.9638545257009327E-003   6.1663445710656656E-002
   2.2758201999555618E-002  -6.7570607559992203E-003   6.1793784525429399E-002
   2.1976839446055121E-002  -6.5497872494974518E-003   6.2098589337246157E-002
   4.3847291589054649E-002  -1.3136555693910645E-002   4.9589025000468689E-002
   4.2248050184577307E-002  -1.2598555165670877E-002   4.9361778726371153E-002
   4.0648808780099979E-002  -1.2089450499190801E-002   4.9306111449703316E-002
   3.9049567375622644E-002  -1.1609241694471209E-002   4.9422023170464902E-002
   3.7450325971145310E-002  -1.1157928751511392E-002   4.9709513888655910E-002
   3.8428797551448055E-002  -1.1489863582807402E-002   5.2845766741244776E-002
   3.7006916663343187E-002  -1.1031459730456536E-002   5.2569297220733405E-002
   3.5585035775238340E-002  -1.0588677549534728E-002   5.2475969735537670E-002
   3.4163154887133479E-002  -1.0161517040041989E-002   5.2565784285657294E-002
   3.2741273999028625E-002  -9.7499782019783154E-003   5.2838740871092388E-002
   3.2977557515079255E-002  -9.8431714717040764E-003   5.6016274710966318E-002
   3.1744600181232811E-002  -9.4643642952421114E-003   5.5703856134372301E-002
   3.0511642847386351E-002  -9.0879045998783770E-003   5.5586142630979468E-002
   2.9278685513539890E-002  -8.7137923856127134E-003   5.5663134200788056E-002
   2.8045728179693440E-002  -8.3420276524453219E-003   5.5934830843797925E-002
   2.7493571479948277E-002  -8.1964793606007641E-003   5.9100548909633441E-002
   2.6461100738246125E-002  -7.8972688600277563E-003   5.8765455467287495E-002
   2.5428629996543991E-002  -7.5871316502221092E-003   5.8636630136028732E-002
   2.4396159254841846E-002  -7.2660677311835765E-003   5.8714072915857257E-002
   2.3363688513139705E-002  -6.9340771029123421E-003   5.8997783806773105E-002
   2.1976839446055121E-002  -6.5497872494974518E-003   6.2098589337246157E-002
   2.1156418334383198E-002  -6.3301734248132902E-003   6.1754095219479166E-002
   2.0335997222711281E-002  -6.0863587005659109E-003   6.1627432250685399E-002
   1.9515576111039355E-002  -5.8183430767542350E-003   6.1718600430864787E-002
   1.8695154999367455E-002  -5.5261265533792514E-003   6.2027599760017427E-002
   3.7450325971145310E-002  -1.1157928751511392E-002   4.9709513888655910E-002
   3.5817294685206919E-002  -1.0694258134808760E-002   4.9363290178275454E-002
   3.4184263399268541E-002  -1.0176976308860761E-002   4.9220231423868666E-002
   3.2551232113330143E-002  -9.6060832736664763E-003   4.9280337625435280E-002
   3.0918200827391773E-002  -8.9815790292272490E-003   4.9543608782975035E-002
   3.2741273999028625E-002  -9.7499782019783154E-003   5.2838740871092388E-002
   3.1310331559797289E-002  -9.3273316302470988E-003   5.2550671378232022E-002
   2.9879389120565925E-002  -8.8668479197517580E-003   5.2463614622812363E-002
   2.8448446681334595E-002  -8.3685270704919809E-003   5.2577570604833583E-002
   2.7017504242103224E-002  -7.8323690824679826E-003   5.2892539324295051E-002
   2.8045728179693440E-002  -8.3420276524453219E-003   5.5934830843797925E-002
   2.6814722368636371E-002  -7.9604051256854241E-003   5.5689141497976463E-002
   2.5583716557579298E-002  -7.5567195306428178E-003   5.5642312671062642E-002
   2.4352710746522212E-002  -7.1309708673172097E-003   5.5794344363056830E-002
   2.3121704935465164E-002  -6.6831591357088826E-003   5.6145236573958895E-002
   2.3363688513139705E-002  -6.9340771029123421E-003   5.8997783806773105E-002
   2.2330467111724164E-002  -6.5934786211238675E-003   5.8778700537508700E-002
   2.1297245710308613E-002  -6.2465911415339574E-003   5.8756325568619545E-002
   2.0264024308893076E-002  -5.8934146641425765E-003   5.8930658900105390E-002
   1.9230802907477550E-002  -5.5339491889497550E-003   5.9301700531966338E-002
   1.8695154999367455E-002  -5.5261265533792514E-003   6.2027599760017427E-002
   1.7857565789060670E-002  -5.2265521165621442E-003   6.1819348496828852E-002
   1.7019976578753919E-002  -4.9364627524249027E-003   6.1805653315482711E-002
   1.6182387368447165E-002  -4.6558584609678391E-003   6.1986514215979088E-002
   1.5344798158140383E-002  -4.3847392421905163E-003   6.2361931198317566E-002
   3.0918200827391773E-002  -8.9815790292272490E-003   4.9543608782975035E-002
   2.9106487275706361E-002  -8.3593461405067071E-003   4.9360917739415755E-002
   2.7294773724020879E-002  -7.7952671724699496E-003   4.9433835643670432E-002
   2.5483060172335460E-002  -7.2893421251167337E-003   4.9762362495738982E-002
   2.3671346620650013E-002  -6.8415709984475104E-003   5.0346498295621211E-002
   2.7017504242103224E-002  -7.8323690824679826E-003   5.2892539324295051E-002
   2.5455970851089693E-002  -7.2947159806266981E-003   5.2662816356337516E-002
   2.3894437460076204E-002  -6.7919097899149239E-003   5.2677844761909981E-002
   2.2332904069062638E-002  -6.3239505103323199E-003   5.2937624541011946E-002
   2.0771370678049184E-002  -5.8908381418794065E-003   5.3442155693644411E-002
   2.3121704935465164E-002  -6.6831591357088826E-003   5.6145236573958895E-002
   2.1799494130839467E-002  -6.2300858207466892E-003   5.5891788691157490E-002
   2.0477283326213760E-002  -5.7885524073597733E-003   5.5872234607601823E-002
   1.9155072521588053E-002  -5.3585588955477916E-003   5.6086574323292164E-002
   1.7832861716962384E-002  -4.9401052853113026E-003   5.6534807838228063E-002
   1.9230802907477550E-002  -5.5339491889497550E-003   5.9301700531966338E-002
   1.8137057114955609E-002  -5.1654556608667357E-003   5.9047834743875406E-002
   1.7043311322433665E-002  -4.7851950248046296E-003   5.9017005180746152E-002
   1.5949565529911721E-002  -4.3931672807634870E-003   5.9209211842578324E-002
   1.4855819737389815E-002  -3.9893724287431986E-003   5.9624454729372611E-002
   1.5344798158140383E-002  -4.3847392421905163E-003   6.2361931198317566E-002
   1.4468659803438130E-002  -4.1008255009866712E-003   6.2130954514491132E-002
   1.3592521448735864E-002  -3.7818376422494582E-003   6.2112156481342495E-002
   1.2716383094033626E-002  -3.4277756659787870E-003   6.2305537098871239E-002
   1.1840244739331374E-002  -3.0386395721750947E-003   6.2711096367077834E-002
   2.6633988172670580E-002   0.0000000000000000        2.9465747796028757E-002
   2.7235558724851616E-002  -5.8620236764856271E-004   3.4942405714706401E-002
   2.7837129277032652E-002  -1.3208219108184760E-003   4.0111447123596974E-002
   2.8438699829213689E-002  -2.2038586295097390E-003   4.4972872022700498E-002
   2.9040270381394728E-002  -3.2353125237223586E-003   4.9526680412016959E-002
   2.0116611121586664E-002   0.0000000000000000        2.9017753238614590E-002
   2.0449871131924067E-002  -4.3965177576230086E-004   3.4309772102029894E-002
   2.0783131142261463E-002  -9.9061643316829956E-004   3.9372786391544984E-002
   2.1116391152598866E-002  -1.6528939722179918E-003   4.4206796107159871E-002
   2.1449651162936269E-002  -2.4264843929113766E-003   4.8811801248874534E-002
   1.3505154075879506E-002   0.0000000000000000        2.8697757126147853E-002
   1.3648715480260124E-002  -2.9310118387603943E-004   3.3842241228178478E-002
   1.3792276884640737E-002  -6.6041095551811965E-004   3.8836332692195726E-002
   1.3935838289021351E-002  -1.1019293149262394E-003   4.3680031518199637E-002
   1.4079399693401967E-002  -1.6176562621004011E-003   4.8373337706190185E-002
   6.7996170355491131E-003   0.0000000000000000        2.8505759458628554E-002
   6.8320917698597924E-003  -1.4655059198977693E-004   3.3539813093152140E-002
   6.8645665041704744E-003  -3.3020547786794061E-004   3.8502086025549234E-002
   6.8970412384811546E-003  -5.5096465763448781E-004   4.3392578255819818E-002
   6.9295159727918347E-003  -8.0882813128942588E-004   4.8211289783963870E-002
   5.9547766023682058E-013   0.0000000000000000        2.8441760236056685E-002
   7.2307351078881865E-013  -1.0351615398196401E-013   3.3402487696950908E-002
   8.5067022870255471E-013  -2.1776330738632055E-013   3.8370046391605468E-002
   9.7826607925455278E-013  -3.4273799076611766E-013   4.3344436320020371E-002
   1.1058619298065508E-012  -4.7844627565352127E-013   4.8325657482195618E-002
   2.9040270381394728E-002  -3.2353125237223586E-003   4.9526680412016959E-002
   2.9114267420356763E-002  -4.2548249217527652E-003   5.1584551960568159E-002
   2.9188264459318811E-002  -5.1020371518973500E-003   5.3740035336452358E-002
   2.9262261498280855E-002  -5.7769492141561832E-003   5.5993130539669506E-002
   2.9336258537242886E-002  -6.2795611085292094E-003   5.8343837570219666E-002
   2.1449651162936269E-002  -2.4264843929113766E-003   4.8811801248874534E-002
   2.1592232257450175E-002  -3.1911186914402720E-003   5.1211775421498074E-002
   2.1734813351964085E-002  -3.8265278639964366E-003   5.3651305877892345E-002
   2.1877394446477998E-002  -4.3327119105799053E-003   5.6130392618057356E-002
   2.2019975540991905E-002  -4.7096708311906710E-003   5.8649035641993183E-002
   1.4079399693401967E-002  -1.6176562621004011E-003   4.8373337706190185E-002
   1.4232509299905528E-002  -2.1274124611277787E-003   5.1072339460972921E-002
   1.4385618906409088E-002  -2.5510185760955089E-003   5.3752841955964199E-002
   1.4538728512912649E-002  -2.8884746070036373E-003   5.6414845191164020E-002
   1.4691838119416213E-002  -3.1397805538521291E-003   5.9058349166572384E-002
   6.9295159727918347E-003  -8.0882813128942588E-004   4.8211289783963870E-002
   7.0350985477228281E-003  -1.0637062308152785E-003   5.1166244078992743E-002
   7.1406811226538223E-003  -1.2755092881945988E-003   5.4044643570667975E-002
   7.2462636975848174E-003  -1.4442373034273504E-003   5.6846488258989476E-002
   7.3518462725158090E-003  -1.5698902765135751E-003   5.9571778143957331E-002
   1.1058619298065508E-012  -4.7844627565352127E-013   4.8325657482195618E-002
   9.0207268738096147E-013  -5.0279658908580771E-013   5.1493489275557566E-002
   6.9828257759363410E-013  -2.9366678359898923E-013   5.4526710722003595E-002
   4.9449333516804472E-013   1.4890199533448834E-013   5.7425321821533745E-002
   2.9070322538071736E-013   8.2494427955381866E-013   6.0189322574148003E-002
   2.9336258537242886E-002  -6.2795611085292094E-003   5.8343837570219666E-002
   2.8984389061928427E-002  -6.6650497858029185E-003   5.9109415999014564E-002
   2.8632519586613950E-002  -6.9885921967638761E-003   5.9915192641029624E-002
   2.8280650111299488E-002  -7.2501883414118982E-003   6.0761167496264847E-002
   2.7928780635985022E-002  -7.4498382197471652E-003   6.1647340564720252E-002
   2.2019975540991905E-002  -4.7096708311906710E-003   5.8649035641993183E-002
   2.1720246567751886E-002  -4.9987873390117329E-003   5.9468904917277375E-002
   2.1420517594511870E-002  -5.2414441472261285E-003   6.0352856983490334E-002
   2.1120788621271855E-002  -5.4376412558337769E-003   6.1300891840632019E-002
   2.0821059648031832E-002  -5.5873786648348300E-003   6.2313009488702407E-002
   1.4691838119416213E-002  -3.1397805538521291E-003   5.9058349166572384E-002
   1.4468134225959205E-002  -3.3325248922205317E-003   5.9917022721639804E-002
   1.4244430332502202E-002  -3.4942960976883817E-003   6.0863663645344471E-002
   1.4020726439045197E-002  -3.6250941702556843E-003   6.1898271937686523E-002
   1.3797022545588193E-002  -3.7249191099224602E-003   6.3020847598665775E-002
   7.3518462725158090E-003  -1.5698902765135751E-003   5.9571778143957331E-002
   7.2280520365503829E-003  -1.6662624454293314E-003   6.0453769412101802E-002
   7.1042578005849517E-003  -1.7471480481506484E-003   6.1447612626592103E-002
   6.9804635646195257E-003  -1.8125470846775842E-003   6.2553307787428264E-002
   6.8566693286540928E-003  -1.8624595550101077E-003   6.3770854894610318E-002
   2.9070322538071736E-013   8.2494427955381866E-013   6.0189322574148003E-002
  -4.7458651591947287E-013   1.3618654814973041E-012   6.1079144988663403E-002
  -1.2398788593048771E-012   1.3870519316450114E-012   6.2104703927233190E-002
  -2.0051699016476743E-012   9.0052141091256921E-013   6.3265999389857400E-002
  -2.7704609439904715E-012  -9.7741259530437219E-014   6.4563031376536031E-002
   2.7928780635985022E-002  -7.4498382197471652E-003   6.1647340564720252E-002
   2.7222157892003031E-002  -7.5717310683161079E-003   6.1372574225629334E-002
   2.6515535148021057E-002  -7.6000561236650895E-003   6.1327456363852846E-002
   2.5808912404039083E-002  -7.5348133857941176E-003   6.1511986979390768E-002
   2.5102289660057092E-002  -7.3760028547031897E-003   6.1926166072243161E-002
   2.0821059648031832E-002  -5.5873786648348300E-003   6.2313009488702407E-002
   2.0330837183641162E-002  -5.6787983017194746E-003   6.2190550656320891E-002
   1.9840614719250495E-002  -5.7000420939780014E-003   6.2271243905807572E-002
   1.9350392254859829E-002  -5.6511100416105613E-003   6.2555089237162409E-002
   1.8860169790469151E-002  -5.5320021446170764E-003   6.3042086650385409E-002
   1.3797022545588193E-002  -3.7249191099224602E-003   6.3020847598665775E-002
   1.3496703965342570E-002  -3.7858655351228378E-003   6.3027304324399791E-002
   1.3196385385096949E-002  -3.8000280642910503E-003   6.3210416736555669E-002
   1.2896066804851326E-002  -3.7674066974270740E-003   6.3570184835133547E-002
   1.2595748224605699E-002  -3.6880014345308521E-003   6.4106608620133246E-002
   6.8566693286540928E-003  -1.8624595550101077E-003   6.3770854894610318E-002
   6.7197582371072498E-003  -1.8929327685262304E-003   6.3882835229865986E-002
   6.5828471455604068E-003  -1.9000140346040169E-003   6.4144974856097298E-002
   6.4459360540135733E-003  -1.8837033532435106E-003   6.4557273773304294E-002
   6.3090249624667243E-003  -1.8440007244447110E-003   6.5119731981486878E-002
  -2.7704609439904715E-012  -9.7741259530437219E-014   6.4563031376536031E-002
  -1.0647888820658480E-012  -1.9295814945863299E-012   6.4757143372719525E-002
   6.4088664930572747E-013  -4.9170355287397882E-012   6.5074918264432374E-002
   2.3465587112303510E-012  -9.0600504529247949E-012   6.5516356051674579E-002
   4.0522342426019264E-012  -1.4358514377477150E-011   6.6081456734446209E-002
   2.5102289660057092E-002  -7.3760028547031897E-003   6.1926166072243161E-002
   2.4320927106556603E-002  -7.1701685586021413E-003   6.1707572892927970E-002
   2.3539564553056114E-002  -6.9638545257009327E-003   6.1663445710656656E-002
   2.2758201999555618E-002  -6.7570607559992203E-003   6.1793784525429399E-002
   2.1976839446055121E-002  -6.5497872494974518E-003   6.2098589337246157E-002
   1.8860169790469151E-002  -5.5320021446170764E-003   6.3042086650385409E-002
   1.8258491894427457E-002  -5.3776264234670912E-003   6.2806830205452996E-002
   1.7656813998385756E-002  -5.2228908986304140E-003   6.2756477078394199E-002
   1.7055136102344055E-002  -5.0677955701066806E-003   6.2891027269208921E-002
   1.6453458206302368E-002  -4.9123404378964564E-003   6.3210480777897260E-002
   1.2595748224605699E-002  -3.6880014345308521E-003   6.4106608620133246E-002
   1.2184192306852411E-002  -3.5850842883319578E-003   6.3854568976470169E-002
   1.1772636389099117E-002  -3.4819272715597219E-003   6.3797869971510351E-002
   1.1361080471345830E-002  -3.3785303842141946E-003   6.3936511605253779E-002
   1.0949524553592532E-002  -3.2748936262953776E-003   6.4270493877700272E-002
   6.3090249624667243E-003  -1.8440007244447110E-003   6.5119731981486878E-002
   6.0980283438314574E-003  -1.7925421531968105E-003   6.4850789205979656E-002
   5.8870317251961922E-003  -1.7409636444891165E-003   6.4787624390005280E-002
   5.6760351065609270E-003  -1.6892651983216539E-003   6.4930237533563612E-002
   5.4650384879256662E-003  -1.6374468146943683E-003   6.5278628636654998E-002
   4.0522342426019264E-012  -1.4358514377477150E-011   6.6081456734446209E-002
   5.3646080633296123E-012  -1.8061760420629014E-011   6.5795490893981345E-002
   6.6769836187807741E-012  -1.7418552711312429E-011   6.5725740333878874E-002
   7.9893609089554118E-012  -1.2429123702473177E-011   6.5872205054138822E-002
   9.3017329949596217E-012  -3.0933589023618424E-012   6.6234885054761328E-002
   2.1976839446055121E-002  -6.5497872494974518E-003   6.2098589337246157E-002
   2.1156418334383198E-002  -6.3301734248132902E-003   6.1754095219479166E-002
   2.0335997222711281E-002  -6.0863587005659109E-003   6.1627432250685399E-002
   1.9515576111039355E-002  -5.8183430767542350E-003   6.1718600430864787E-002
   1.8695154999367455E-002  -5.5261265533792514E-003   6.2027599760017427E-002
   1.6453458206302368E-002  -4.9123404378964564E-003   6.3210480777897260E-002
   1.5847686775740305E-002  -4.7476300683066686E-003   6.2903428564627911E-002
   1.5241915345178242E-002  -4.5647690276449659E-003   6.2807844564605031E-002
   1.4636143914616182E-002  -4.3637573159111404E-003   6.2923728777828619E-002
   1.4030372484054122E-002  -4.1445949331054832E-003   6.3251081204298842E-002
   1.0949524553592532E-002  -3.2748936262953776E-003   6.4270493877700272E-002
   1.0552039868413705E-002  -3.1650867117997972E-003   6.3994833340436541E-002
   1.0154555183234873E-002  -3.0431793547240696E-003   6.3924278080692842E-002
   9.7570704980560405E-003  -2.9091715550679884E-003   6.4058828098468912E-002
   9.3595858128772101E-003  -2.7630633128317705E-003   6.4398483393764971E-002
   5.4650384879256662E-003  -1.6374468146943683E-003   6.5278628636654998E-002
   5.2694776124034238E-003  -1.5825433552929674E-003   6.5028309546905208E-002
   5.0739167368811944E-003  -1.5215896818031212E-003   6.4976732798948722E-002
   4.8783558613589573E-003  -1.4545857942247263E-003   6.5123898392785581E-002
   4.6827949858367210E-003  -1.3815316925580023E-003   6.5469806328415592E-002
   9.3017329949596217E-012  -3.0933589023618424E-012   6.6234885054761328E-002
   7.7094580719361261E-012   1.2137513216714524E-012   6.6003857184033787E-002
   6.1171866183595824E-012  -8.8822144084232946E-012   6.5965208719372836E-002
   4.5249108279743488E-012  -3.3381710590196789E-011   6.6118939660778656E-002
   2.9326402417595432E-012  -7.2284345176143461E-011   6.6465050008251092E-002
   1.8695154999367455E-002  -5.5261265533792514E-003   6.2027599760017427E-002
   1.7857565789060670E-002  -5.2265521165621442E-003   6.1819348496828852E-002
   1.7019976578753919E-002  -4.9364627524249027E-003   6.1805653315482711E-002
   1.6182387368447165E-002  -4.6558584609678391E-003   6.1986514215979088E-002
   1.5344798158140383E-002  -4.3847392421905163E-003   6.2361931198317566E-002
   1.4030372484054122E-002  -4.1445949331054832E-003   6.3251081204298842E-002
   1.3391049660016884E-002  -3.9199141131992798E-003   6.3032236654898433E-002
   1.2751726835979627E-002  -3.7023470901641764E-003   6.3015368796194404E-002
   1.2112404011942373E-002  -3.4918938640001521E-003   6.3200477628187077E-002
   1.1473081187905132E-002  -3.2885544347068807E-003   6.3587563150876492E-002
   9.3595858128772101E-003  -2.7630633128317705E-003   6.4398483393764971E-002
   8.9259499839636977E-003  -2.6132761098364987E-003   6.4171416833961437E-002
   8.4923141550501905E-003  -2.4682314279032141E-003   6.4153747573708675E-002
   8.0586783261366833E-003  -2.3279292670323505E-003   6.4345475613006881E-002
   7.6250424972231709E-003  -2.1923696272232451E-003   6.4746600951855748E-002
   4.6827949858367210E-003  -1.3815316925580023E-003   6.5469806328415592E-002
   4.4622667609011644E-003  -1.3066381064735927E-003   6.5236889034018031E-002
   4.2417385359656123E-003  -1.2341157656424809E-003   6.5220789648025371E-002
   4.0212103110300558E-003  -1.1639646700645507E-003   6.5421508170437861E-002
   3.8006820860945045E-003  -1.0961848197397206E-003   6.5839044601255309E-002
   2.9326402417595432E-012  -7.2284345176143461E-011   6.6465050008251092E-002
  -9.1707336169477571E-012  -1.0311085318903679E-010   6.6228653255068159E-002
  -2.1274104006208105E-011  -1.0338149780686479E-010   6.6216495019144561E-002
  -3.3377476130191930E-011  -7.3096799446670246E-011   6.6428575300480214E-002
  -4.5480848254175754E-011  -1.2255918502290797E-011   6.6864894099075201E-002
   1.5344798158140383E-002  -4.3847392421905163E-003   6.2361931198317566E-002
   1.4468659803438130E-002  -4.1008255009866712E-003   6.2130954514491132E-002
   1.3592521448735864E-002  -3.7818376422494582E-003   6.2112156481342495E-002
   1.2716383094033626E-002  -3.4277756659787870E-003   6.2305537098871239E-002
   1.1840244739331374E-002  -3.0386395721750947E-003   6.2711096367077834E-002
   1.1473081187905132E-002  -3.2885544347068807E-003   6.3587563150876492E-002
   1.0810835460583375E-002  -3.0756190968240227E-003   6.3412668589098109E-002
   1.0148589733261625E-002  -2.8363781448909331E-003   6.3453380631402961E-002
   9.4863440059398466E-003  -2.5708315789072303E-003   6.3709699277791437E-002
   8.8240982786181310E-003  -2.2789793988733376E-003   6.4181624528263148E-002
   7.6250424972231709E-003  -2.1923696272232451E-003   6.4746600951855748E-002
   7.1801173506876557E-003  -2.0504126926615962E-003   6.4619020008642530E-002
   6.7351922041521163E-003  -1.8909186475323664E-003   6.4710473622918332E-002
   6.2902670576166116E-003  -1.7138874918357326E-003   6.5020961794683391E-002
   5.8453419110810756E-003  -1.5193192255714694E-003   6.5550484523937247E-002
   3.8006820860945045E-003  -1.0961848197397206E-003   6.5839044601255309E-002
   3.5765054737509636E-003  -1.0252062884990032E-003   6.5750008773124202E-002
   3.3523288614074149E-003  -9.4545915017382048E-004   6.5883435455888151E-002
   3.1281522490638541E-003  -8.5694340476414992E-004   6.6239324649546502E-002
   2.9039756367203323E-003  -7.5965905226965669E-004   6.6817676354100283E-002
  -4.5480848254175754E-011  -1.2255918502290797E-011   6.6864894099075201E-002
  -1.7022669385191591E-010   1.1566342328350743E-010   6.6805634882543596E-002
  -2.9497254638854997E-010   3.4718462826877072E-010   6.6972266130312402E-002
  -4.1971839719046056E-010   6.8230743624497769E-010   6.7364787842381882E-002
  -5.4446423758403029E-010   1.1210321559929071E-009   6.7983200018751910E-002
   5.9547766023682058E-013   0.0000000000000000        2.8441760236056685E-002
   7.2307351078881865E-013  -1.0351615398196401E-013   3.3402487696950908E-002
   8.5067022870255471E-013  -2.1776330738632055E-013   3.8370046391605468E-002
   9.7826607925455278E-013  -3.4273799076611766E-013   4.3344436320020371E-002
   1.1058619298065508E-012  -4.7844627565352127E-013   4.8325657482195618E-002
  -6.7996170343662728E-003   0.0000000000000000        2.8505759458408206E-002
  -6.8320917684121969E-003   1.4655059173374584E-004   3.3539813092902764E-002
  -6.8645665024581210E-003   3.3020547733260495E-004   3.8502086025289935E-002
  -6.8970412365040451E-003   5.5096465679657560E-004   4.3392578255569740E-002
  -6.9295159705499683E-003   8.0882813012566127E-004   4.8211289783742145E-002
  -1.3505154074721018E-002   0.0000000000000000        2.8697757125659060E-002
  -1.3648715478808183E-002   2.9310118357100522E-004   3.3842241227629806E-002
  -1.3792276882895353E-002   6.6041095488296973E-004   3.8836332691625432E-002
  -1.3935838286982518E-002   1.1019293139358935E-003   4.3680031517645976E-002
  -1.4079399691069687E-002   1.6176562607297753E-003   4.8373337705691397E-002
  -2.0116611120468753E-002   0.0000000000000000        2.9017753237809255E-002
  -2.0449871130464887E-002   4.3965177540826548E-004   3.4309772101132022E-002
  -2.0783131140461025E-002   9.9061643243333452E-004   3.9372786390611966E-002
  -2.1116391150457155E-002   1.6528939710752110E-003   4.4206796106249079E-002
  -2.1449651160453293E-002   2.4264843913338894E-003   4.8811801248043359E-002
  -2.6633988171609481E-002   0.0000000000000000        2.9465747794858790E-002
  -2.7235558723382305E-002   5.8620236724552573E-004   3.4942405713409432E-002
  -2.7837129275155130E-002   1.3208219099837010E-003   4.0111447122249518E-002
  -2.8438699826927955E-002   2.2038586282145233E-003   4.4972872021379048E-002
  -2.9040270378700772E-002   3.2353125219379995E-003   4.9526680410798045E-002
   1.1058619298065508E-012  -4.7844627565352127E-013   4.8325657482195618E-002
   9.0207268738096147E-013  -5.0279658908580771E-013   5.1493489275557566E-002
   6.9828257759363410E-013  -2.9366678359898923E-013   5.4526710722003595E-002
   4.9449333516804472E-013   1.4890199533448834E-013   5.7425321821533745E-002
   2.9070322538071736E-013   8.2494427955381866E-013   6.0189322574148003E-002
  -6.9295159705499683E-003   8.0882813012566127E-004   4.8211289783742145E-002
  -7.0350985458650607E-003   1.0637062295300939E-003   5.1166244079304313E-002
  -7.1406811211801504E-003   1.2755092872201177E-003   5.4044643571559775E-002
  -7.2462636964952419E-003   1.4442373031957249E-003   5.6846488260508546E-002
  -7.3518462718103307E-003   1.5698902774569090E-003   5.9571778146150597E-002
  -1.4079399691069687E-002   1.6176562607297753E-003   4.8373337705691397E-002
  -1.4232509297886888E-002   2.1274124595629987E-003   5.1072339461505911E-002
  -1.4385618904704096E-002   2.5510185747339019E-003   5.3752841957622900E-002
  -1.4538728511521298E-002   2.8884746062425339E-003   5.6414845194042391E-002
  -1.4691838118338510E-002   3.1397805540888495E-003   5.9058349170764336E-002
  -2.1449651160453293E-002   2.4264843913338894E-003   4.8811801248043359E-002
  -2.1592232255163421E-002   3.1911186895958897E-003   5.1211775422162355E-002
  -2.1734813349873556E-002   3.8265278622476866E-003   5.3651305880193005E-002
  -2.1877394444583691E-002   4.3327119092893152E-003   5.6130392622135331E-002
  -2.2019975539293826E-002   4.7096708307207812E-003   5.8649035647989310E-002
  -2.9040270378700772E-002   3.2353125219379995E-003   4.9526680410798045E-002
  -2.9114267417694656E-002   4.2548249196287923E-003   5.1584551961273623E-002
  -2.9188264456688529E-002   5.1020371497614734E-003   5.3740035339270048E-002
  -2.9262261495682403E-002   5.7769492123361599E-003   5.5993130544787315E-002
  -2.9336258534676283E-002   6.2795611073527408E-003   5.8343837577825464E-002
   2.9070322538071736E-013   8.2494427955381866E-013   6.0189322574148003E-002
  -4.7458651591947287E-013   1.3618654814973041E-012   6.1079144988663403E-002
  -1.2398788593048771E-012   1.3870519316450114E-012   6.2104703927233190E-002
  -2.0051699016476743E-012   9.0052141091256921E-013   6.3265999389857400E-002
  -2.7704609439904715E-012  -9.7741259530437219E-014   6.4563031376536031E-002
  -7.3518462718103307E-003   1.5698902774569090E-003   5.9571778146150597E-002
  -7.2280520372423893E-003   1.6662624472851342E-003   6.0453769413686013E-002
  -7.1042578026744487E-003   1.7471480499619031E-003   6.1447612627833527E-002
  -6.9804635681065107E-003   1.8125470854871715E-003   6.2553307788593041E-002
  -6.8566693335385641E-003   1.8624595538610372E-003   6.3770854895964624E-002
  -1.4691838118338510E-002   3.1397805540888495E-003   5.9058349170764336E-002
  -1.4468134225879711E-002   3.3325248932084047E-003   5.9917022724680080E-002
  -1.4244430333420915E-002   3.4942960985367396E-003   6.0863663647765562E-002
  -1.4020726440962118E-002   3.6250941700738488E-003   6.1898271940020629E-002
  -1.3797022548503327E-002   3.7249191078197255E-003   6.3020847601445426E-002
  -2.2019975539293826E-002   4.7096708307207812E-003   5.8649035647989310E-002
  -2.1720246566386544E-002   4.9987873391316813E-003   5.9468904921645610E-002
  -2.1420517593479276E-002   5.2414441471115413E-003   6.0352856987029239E-002
  -2.1120788620572005E-002   5.4376412546605270E-003   6.1300891844140143E-002
  -2.0821059647664723E-002   5.5873786617784311E-003   6.2313009492978376E-002
  -2.9336258534676283E-002   6.2795611073527408E-003   5.8343837577825464E-002
  -2.8984389058762900E-002   6.6650497850549301E-003   5.9109416004582603E-002
  -2.8632519582849528E-002   6.9885921956864341E-003   5.9915192645624671E-002
  -2.8280650106936152E-002   7.2501883392471784E-003   6.0761167500951625E-002
  -2.7928780631022776E-002   7.4498382157371784E-003   6.1647340570563550E-002
  -2.7704609439904715E-012  -9.7741259530437219E-014   6.4563031376536031E-002
  -1.0647888820658480E-012  -1.9295814945863299E-012   6.4757143372719525E-002
   6.4088664930572747E-013  -4.9170355287397882E-012   6.5074918264432374E-002
   2.3465587112303510E-012  -9.0600504529247949E-012   6.5516356051674579E-002
   4.0522342426019264E-012  -1.4358514377477150E-011   6.6081456734446209E-002
  -6.8566693335385641E-003   1.8624595538610372E-003   6.3770854895964624E-002
  -6.7197582388117249E-003   1.8929327645712049E-003   6.3882835230777590E-002
  -6.5828471440848857E-003   1.9000140271056808E-003   6.4144974856103487E-002
  -6.4459360493580500E-003   1.8837033414643564E-003   6.4557273771942342E-002
  -6.3090249546312073E-003   1.8440007076472864E-003   6.5119731978294140E-002
  -1.3797022548503327E-002   3.7249191078197255E-003   6.3020847601445426E-002
  -1.3496703965771753E-002   3.7858655310720121E-003   6.3027304327867628E-002
  -1.3196385383040170E-002   3.8000280591283398E-003   6.3210416739786363E-002
  -1.2896066800308586E-002   3.7674066919886795E-003   6.3570184837201643E-002
  -1.2595748217577012E-002   3.6880014296530872E-003   6.4106608620113456E-002
  -2.0821059647664723E-002   5.5873786617784311E-003   6.2313009492978376E-002
  -2.0330837181944842E-002   5.6787982975728089E-003   6.2190550663989638E-002
  -1.9840614716224950E-002   5.7000420911509858E-003   6.2271243915481077E-002
  -1.9350392250505069E-002   5.6511100425129888E-003   6.2555089247452553E-002
  -1.8860169784785184E-002   5.5320021516588741E-003   6.3042086659904170E-002
  -2.7928780631022776E-002   7.4498382157371784E-003   6.1647340570563550E-002
  -2.7222157887331015E-002   7.5717310640736196E-003   6.1372574239143676E-002
  -2.6515535143639246E-002   7.6000561231736909E-003   6.1327456383187519E-002
  -2.5808912399947485E-002   7.5348133930373618E-003   6.1511987002695001E-002
  -2.5102289656255713E-002   7.3760028736647165E-003   6.1926166097666158E-002
   4.0522342426019264E-012  -1.4358514377477150E-011   6.6081456734446209E-002
   5.3646080633296123E-012  -1.8061760420629014E-011   6.5795490893981345E-002
   6.6769836187807741E-012  -1.7418552711312429E-011   6.5725740333878874E-002
   7.9893609089554118E-012  -1.2429123702473177E-011   6.5872205054138822E-002
   9.3017329949596217E-012  -3.0933589023618424E-012   6.6234885054761328E-002
  -6.3090249546312073E-003   1.8440007076472864E-003   6.5119731978294140E-002
  -6.0980283323636714E-003   1.7925421343275849E-003   6.4850789210917997E-002
  -5.8870317100961477E-003   1.7409636301784215E-003   6.4787624405089700E-002
  -5.6760350878286214E-003   1.6892651951998308E-003   6.4930237560809359E-002
  -5.4650384655610881E-003   1.6374468293918754E-003   6.5278628678076683E-002
  -1.2595748217577012E-002   3.6880014296530872E-003   6.4106608620113456E-002
  -1.2184192293168923E-002   3.5850842867168678E-003   6.3854568990650340E-002
  -1.1772636368760834E-002   3.4819272777754998E-003   6.3797870003920454E-002
  -1.1361080444352739E-002   3.3785304028287836E-003   6.3936511659923784E-002
  -1.0949524519944649E-002   3.2748936618770264E-003   6.4270493958660510E-002
  -1.8860169784785184E-002   5.5320021516588741E-003   6.3042086659904170E-002
  -1.8258491877051124E-002   5.3776264391061403E-003   6.2806830233178262E-002
  -1.7656813969317078E-002   5.2228909253724705E-003   6.2756477130370969E-002
  -1.7055136061583015E-002   5.0677956104578483E-003   6.2891027351482373E-002
  -1.6453458153848962E-002   4.9123404943621357E-003   6.3210480896512475E-002
  -2.5102289656255713E-002   7.3760028736647165E-003   6.1926166097666158E-002
  -2.4320927084010298E-002   7.1701685914954683E-003   6.1707572938501737E-002
  -2.3539564511764866E-002   6.9638545729695731E-003   6.1663445784441398E-002
  -2.2758201939519437E-002   6.7570608180866822E-003   6.1793784635485106E-002
  -2.1976839367274011E-002   6.5497873268474116E-003   6.2098589491632883E-002
   9.3017329949596217E-012  -3.0933589023618424E-012   6.6234885054761328E-002
   7.7094580719361261E-012   1.2137513216714524E-012   6.6003857184033787E-002
   6.1171866183595824E-012  -8.8822144084232946E-012   6.5965208719372836E-002
   4.5249108279743488E-012  -3.3381710590196789E-011   6.6118939660778656E-002
   2.9326402417595432E-012  -7.2284345176143461E-011   6.6465050008251092E-002
  -5.4650384655610881E-003   1.6374468293918754E-003   6.5278628678076683E-002
  -5.2694775937292731E-003   1.5825433765229019E-003   6.5028309566338108E-002
  -5.0739167218974580E-003   1.5215896803617429E-003   6.4976732795381104E-002
  -4.8783558500656334E-003   1.4545857409085337E-003   6.5123898365205615E-002
  -4.6827949782338278E-003   1.3815315581628407E-003   6.5469806275811560E-002
  -1.0949524519944649E-002   3.2748936618770264E-003   6.4270493958660510E-002
  -1.0552039839973847E-002   3.1650867518319969E-003   6.3994833377021956E-002
  -1.0154555160003059E-002   3.0431793696058043E-003   6.3924278070879775E-002
  -9.7570704800322584E-003   2.9091715151985543E-003   6.4058828040234037E-002
  -9.3595858000614617E-003   2.7630631886100543E-003   6.4398483285084768E-002
  -1.6453458153848962E-002   4.9123404943621357E-003   6.3210480896512475E-002
  -1.5847686731024282E-002   4.7476301271409810E-003   6.2903428616085041E-002
  -1.5241915308199615E-002   4.5647690588498414E-003   6.2807844545868907E-002
  -1.4636143885374948E-002   4.3637572894885757E-003   6.2923728685864058E-002
  -1.4030372462550261E-002   4.1445948190573928E-003   6.3251081036070633E-002
  -2.1976839367274011E-002   6.5497873268474116E-003   6.2098589491632883E-002
  -2.1156418266880580E-002   6.3301735024502703E-003   6.1754095283527710E-002
  -2.0335997166487138E-002   6.0863587480937814E-003   6.1627432220348610E-002
  -1.9515576066093700E-002   5.8183430637788087E-003   6.1718600302095875E-002
  -1.8695154965700261E-002   5.5261264495044538E-003   6.2027599528769128E-002
   2.9326402417595432E-012  -7.2284345176143461E-011   6.6465050008251092E-002
  -9.1707336169477571E-012  -1.0311085318903679E-010   6.6228653255068159E-002
  -2.1274104006208105E-011  -1.0338149780686479E-010   6.6216495019144561E-002
  -3.3377476130191930E-011  -7.3096799446670246E-011   6.6428575300480214E-002
  -4.5480848254175754E-011  -1.2255918502290797E-011   6.6864894099075201E-002
  -4.6827949782338278E-003   1.3815315581628407E-003   6.5469806275811560E-002
  -4.4622667791825235E-003   1.3066379038755849E-003   6.5236889041245083E-002
  -4.2417385801312296E-003   1.2341155497969936E-003   6.5220789711728733E-002
  -4.0212103810799323E-003   1.1639644959270598E-003   6.5421508287262314E-002
  -3.8006821820286314E-003   1.0961847422660820E-003   6.5839044767846078E-002
  -9.3595858000614617E-003   2.7630631886100543E-003   6.4398483285084768E-002
  -8.9259500020647461E-003   2.6132759108619674E-003   6.4171416838787743E-002
  -8.4923142040680272E-003   2.4682312029756376E-003   6.4153747685331497E-002
  -8.0586784060713065E-003   2.3279290649509711E-003   6.4345475824716114E-002
  -7.6250426080745996E-003   2.1923694967881657E-003   6.4746601256941413E-002
  -1.4030372462550261E-002   4.1445948190573928E-003   6.3251081036070633E-002
  -1.3391049677817381E-002   3.9199139178484332E-003   6.3032236647696055E-002
  -1.2751726893084493E-002   3.7023468561542608E-003   6.3015368939953159E-002
  -1.2112404108351602E-002   3.4918936339749674E-003   6.3200477912841557E-002
  -1.1473081323618723E-002   3.2885542513102634E-003   6.3587563566361707E-002
  -1.8695154965700261E-002   5.5261264495044538E-003   6.2027599528769128E-002
  -1.7857565806440458E-002   5.2265519248347880E-003   6.1819348467970103E-002
  -1.7019976647180642E-002   4.9364625093328146E-003   6.1805653475593358E-002
  -1.6182387487920825E-002   4.6558582029986688E-003   6.1986514551638963E-002
  -1.5344798328661015E-002   4.3847390058323055E-003   6.2361931696106765E-002
  -4.5480848254175754E-011  -1.2255918502290797E-011   6.6864894099075201E-002
  -1.7022669385191591E-010   1.1566342328350743E-010   6.6805634882543596E-002
  -2.9497254638854997E-010   3.4718462826877072E-010   6.6972266130312402E-002
  -4.1971839719046056E-010   6.8230743624497769E-010   6.7364787842381882E-002
  -5.4446423758403029E-010   1.1210321559929071E-009   6.7983200018751910E-002
  -3.8006821820286314E-003   1.0961847422660820E-003   6.5839044767846078E-002
  -3.5765058147574896E-003   1.0252064319041521E-003   6.5750009134528192E-002
  -3.3523294474863356E-003   9.4545970793148693E-004   6.5883436020943625E-002
  -3.1281530802151790E-003   8.5694457034802066E-004   6.6239325427092668E-002
  -2.9039767129440536E-003   7.5966101915403428E-004   6.6817677352974947E-002
  -7.6250426080745996E-003   2.1923694967881657E-003   6.4746601256941413E-002
  -7.1801176933536069E-003   2.0504127481446310E-003   6.4619020689624926E-002
  -6.7351927786326055E-003   1.8909190686780611E-003   6.4710474697474790E-002
  -6.2902678639116059E-003   1.7138884583884368E-003   6.5020963280490812E-002
  -5.8453429491906114E-003   1.5193209172758015E-003   6.5550486438673394E-002
  -1.1473081323618723E-002   3.2885542513102634E-003   6.3587563566361707E-002
  -1.0810835806015023E-002   3.0756190643852904E-003   6.3412669547834283E-002
  -1.0148590288411346E-002   2.8363784294248330E-003   6.3453382159905952E-002
  -9.4863447708076459E-003   2.5708323464288816E-003   6.3709701402576785E-002
  -8.8240992532039580E-003   2.2789808153975688E-003   6.4181627275846420E-002
  -1.5344798328661015E-002   4.3847390058323055E-003   6.2361931696106765E-002
  -1.4468660152741768E-002   4.1008253806258943E-003   6.2130955709155777E-002
  -1.3592521976822529E-002   3.7818377901714800E-003   6.2112158408236834E-002
  -1.2716383800903303E-002   3.4277762344695172E-003   6.2305539793349976E-002
  -1.1840245624984050E-002   3.0386407135194471E-003   6.2711099864494857E-002
  -2.6633988171609481E-002   0.0000000000000000        2.9465747794858790E-002
  -2.7235558723382305E-002   5.8620236724552573E-004   3.4942405713409432E-002
  -2.7837129275155130E-002   1.3208219099837010E-003   4.0111447122249518E-002
  -2.8438699826927955E-002   2.2038586282145233E-003   4.4972872021379048E-002
  -2.9040270378700772E-002   3.2353125219379995E-003   4.9526680410798045E-002
  -3.3394214487191348E-002   0.0000000000000000        3.0176407427735970E-002
  -3.4238273735150974E-002   9.6107106451787886E-004   3.5264368802330116E-002
  -3.5082332983110608E-002   2.0256332855611882E-003   4.0174969294261204E-002
  -3.5926392231070234E-002   3.1936866631299314E-003   4.4908208903529215E-002
  -3.6770451479029867E-002   4.4652311972241052E-003   4.9464087630134206E-002
  -4.0734219326262498E-002   0.0000000000000000        3.1284398767369118E-002
  -4.1690511643361433E-002   1.3359397617902316E-003   3.5938737579039544E-002
  -4.2646803960460389E-002   2.7304446611386779E-003   4.0545971135094415E-002
  -4.3603096277559331E-002   4.1835146980453387E-003   4.5106099435533696E-002
  -4.4559388594658272E-002   5.6951498725102117E-003   4.9619122480357429E-002
  -4.8654002688822924E-002   0.0000000000000000        3.2789721813758221E-002
  -4.9592272448013695E-002   1.7108084590625845E-003   3.6965512043537721E-002
  -5.0530542207204453E-002   3.4352560367161638E-003   4.1224452644749145E-002
  -5.1468811966395217E-002   5.1733427329607434E-003   4.5566543617392485E-002
  -5.2407081725585988E-002   6.9250685477963208E-003   4.9991784961467778E-002
  -5.7153564574872640E-002   0.0000000000000000        3.4692376566903285E-002
  -5.7943556149107733E-002   2.0856771563349365E-003   3.8344692195824641E-002
  -5.8733547723342834E-002   4.1400674122936548E-003   4.2210413823225407E-002
  -5.9523539297577928E-002   6.1631707678761541E-003   4.6289541449105596E-002
  -6.0313530871813022E-002   8.1549872230824213E-003   5.0582075073465196E-002
  -2.9040270378700772E-002   3.2353125219379995E-003   4.9526680410798045E-002
  -2.9114267417694656E-002   4.2548249196287923E-003   5.1584551961273623E-002
  -2.9188264456688529E-002   5.1020371497614734E-003   5.3740035339270048E-002
  -2.9262261495682403E-002   5.7769492123361599E-003   5.5993130544787315E-002
  -2.9336258534676283E-002   6.2795611073527408E-003   5.8343837577825464E-002
  -3.6770451479029867E-002   4.4652311972241052E-003   4.9464087630134206E-002
  -3.6785561815623792E-002   5.6998362263552278E-003   5.1249642873184759E-002
  -3.6800672152217724E-002   6.7570710890347916E-003   5.3055359693514353E-002
  -3.6815782488811649E-002   7.6369357852628366E-003   5.4881238091123011E-002
  -3.6830892825405595E-002   8.3394303150393159E-003   5.6727278066010717E-002
  -4.4559388594658272E-002   5.6951498725102117E-003   4.9619122480357429E-002
  -4.4593062479094059E-002   7.1448475330816849E-003   5.1127291417089479E-002
  -4.4626736363529831E-002   8.4121050283081106E-003   5.2578171680858786E-002
  -4.4660410247965625E-002   9.4969223581895142E-003   5.3971763271665335E-002
  -4.4694084132401377E-002   1.0399299522725884E-002   5.5308066189509127E-002
  -5.2407081725585988E-002   6.9250685477963208E-003   4.9991784961467778E-002
  -5.2536769408105422E-002   8.5898588398081316E-003   5.1217497592987854E-002
  -5.2666457090624869E-002   1.0067138967581431E-002   5.2308471301303339E-002
  -5.2796144773144302E-002   1.1356908931116192E-002   5.3264706086414280E-002
  -5.2925832455663756E-002   1.2459168730412442E-002   5.4086201948320679E-002
  -6.0313530871813022E-002   8.1549872230824213E-003   5.0582075073465196E-002
  -6.0616682602657929E-002   1.0034870146534583E-002   5.1520261400879772E-002
  -6.0919834333502808E-002   1.1722172906854744E-002   5.2246258554848019E-002
  -6.1222986064347708E-002   1.3216895504042881E-002   5.2760066535369833E-002
  -6.1526137795192601E-002   1.4519037938099034E-002   5.3061685342445368E-002
  -2.9336258534676283E-002   6.2795611073527408E-003   5.8343837577825464E-002
  -2.8984389058762900E-002   6.6650497850549301E-003   5.9109416004582603E-002
  -2.8632519582849528E-002   6.9885921956864341E-003   5.9915192645624671E-002
  -2.8280650106936152E-002   7.2501883392471784E-003   6.0761167500951625E-002
  -2.7928780631022776E-002   7.4498382157371784E-003   6.1647340570563550E-002
  -3.6830892825405595E-002   8.3394303150393159E-003   5.6727278066010717E-002
  -3.6388243113013016E-002   8.8806255547419118E-003   5.7071294158312136E-002
  -3.5945593400620438E-002   9.2765923807482439E-003   5.7556672509287039E-002
  -3.5502943688227852E-002   9.5273307930583782E-003   5.8183413118935434E-002
  -3.5060293975835294E-002   9.6328407916722730E-003   5.8951515987257272E-002
  -4.4694084132401377E-002   1.0399299522725884E-002   5.5308066189509127E-002
  -4.4059490139141060E-002   1.1096201324428880E-002   5.5147237800729339E-002
  -4.3424896145880722E-002   1.1564592565810123E-002   5.5228935715011571E-002
  -4.2790302152620412E-002   1.1804473246869618E-002   5.5553159932355850E-002
  -4.2155708159360067E-002   1.1815843367607375E-002   5.6119910452762156E-002
  -5.2925832455663756E-002   1.2459168730412442E-002   5.4086201948320679E-002
  -5.1998130137147096E-002   1.3311777094115840E-002   5.3337246931834142E-002
  -5.1070427818630436E-002   1.3852592750871974E-002   5.2931982262798188E-002
  -5.0142725500113776E-002   1.4081615700680825E-002   5.2870407941212887E-002
  -4.9215023181597123E-002   1.3998845943542473E-002   5.3152523967078140E-002
  -6.1526137795192601E-002   1.4519037938099034E-002   5.3061685342445368E-002
  -6.0204163107031076E-002   1.5527352863802815E-002   5.1641321551626596E-002
  -5.8882188418869524E-002   1.6140592935933819E-002   5.0665812152646969E-002
  -5.7560213730707972E-002   1.6358758154492083E-002   5.0135157145506537E-002
  -5.6238239042546448E-002   1.6181848519477571E-002   5.0049356530205286E-002
  -2.7928780631022776E-002   7.4498382157371784E-003   6.1647340570563550E-002
  -2.7222157887331015E-002   7.5717310640736196E-003   6.1372574239143676E-002
  -2.6515535143639246E-002   7.6000561231736909E-003   6.1327456383187519E-002
  -2.5808912399947485E-002   7.5348133930373618E-003   6.1511987002695001E-002
  -2.5102289656255713E-002   7.3760028736647165E-003   6.1926166097666158E-002
  -3.5060293975835294E-002   9.6328407916722730E-003   5.8951515987257272E-002
  -3.4131300453116985E-002   9.6330415262428845E-003   5.8626092168874620E-002
  -3.3202306930398690E-002   9.5678521464229969E-003   5.8515761433081383E-002
  -3.2273313407680394E-002   9.4372726522127248E-003   5.8620523779877531E-002
  -3.1344319884962106E-002   9.2413030436119814E-003   5.8940379209263094E-002
  -4.2155708159360067E-002   1.1815843367607375E-002   5.6119910452762156E-002
  -4.1018899250489502E-002   1.1694351988412073E-002   5.5772006822262660E-002
  -3.9882090341618937E-002   1.1535648169672218E-002   5.5624640881478296E-002
  -3.8745281432748378E-002   1.1339731911387960E-002   5.5677812630409065E-002
  -3.7608472523877799E-002   1.1106603213559232E-002   5.5931522069055016E-002
  -4.9215023181597123E-002   1.3998845943542473E-002   5.3152523967078140E-002
  -4.7884954279448548E-002   1.3755662450581244E-002   5.2810318199307746E-002
  -4.6554885377299980E-002   1.3503444192921508E-002   5.2654094728378245E-002
  -4.5224816475151398E-002   1.3242191170563260E-002   5.2683853554289603E-002
  -4.3894747573002824E-002   1.2971903383506490E-002   5.2899594677041840E-002
  -5.6238239042546448E-002   1.6181848519477571E-002   5.0049356530205286E-002
  -5.4729465539994124E-002   1.5816972912750485E-002   4.9741026300009955E-002
  -5.3220692037441820E-002   1.5471240216170745E-002   4.9604122973781251E-002
  -5.1711918534889489E-002   1.5144650429738518E-002   4.9638646551519144E-002
  -5.0203145032337179E-002   1.4837203553453748E-002   4.9844597033223637E-002
  -2.5102289656255713E-002   7.3760028736647165E-003   6.1926166097666158E-002
  -2.4320927084010298E-002   7.1701685914954683E-003   6.1707572938501737E-002
  -2.3539564511764866E-002   6.9638545729695731E-003   6.1663445784441398E-002
  -2.2758201939519437E-002   6.7570608180866822E-003   6.1793784635485106E-002
  -2.1976839367274011E-002   6.5497873268474116E-003   6.2098589491632883E-002
  -3.1344319884962106E-002   9.2413030436119814E-003   5.8940379209263094E-002
  -3.0381632755422661E-002   9.0045030695887207E-003   5.8698147015673580E-002
  -2.9418945625883222E-002   8.7514324791108378E-003   5.8644097931568051E-002
  -2.8456258496343784E-002   8.4820912721781314E-003   5.8778231956946432E-002
  -2.7493571366804338E-002   8.1964794487909276E-003   5.9100549091808785E-002
  -3.7608472523877799E-002   1.1106603213559232E-002   5.5931522069055016E-002
  -3.6450743732664485E-002   1.0838837547681932E-002   5.5649859960942433E-002
  -3.5293014941451178E-002   1.0539010385252134E-002   5.5570098066693732E-002
  -3.4135286150237878E-002   1.0207121726269582E-002   5.5692236386308831E-002
  -3.2977557359024551E-002   9.8431715707344991E-003   5.6016274919787709E-002
  -4.3894747573002824E-002   1.2971903383506490E-002   5.2899594677041840E-002
  -4.2528260015735765E-002   1.2673172025775205E-002   5.2562711774308359E-002
  -4.1161772458468700E-002   1.2326588291393303E-002   5.2441446189818566E-002
  -3.9795284901201634E-002   1.1932152180360920E-002   5.2535797923572436E-002
  -3.8428797343934569E-002   1.1489863692678126E-002   5.2845766975570030E-002
  -5.0203145032337179E-002   1.4837203553453748E-002   4.9844597033223637E-002
  -4.8614181604636500E-002   1.4507506503868395E-002   4.9436702455771309E-002
  -4.7025218176935814E-002   1.4114166197534722E-002   4.9258142300942415E-002
  -4.5436254749235155E-002   1.3657182634452376E-002   4.9308916568737149E-002
  -4.3847291321534476E-002   1.3136555814621642E-002   4.9589025259155428E-002
  -2.1976839367274011E-002   6.5497873268474116E-003   6.2098589491632883E-002
  -2.1156418266880580E-002   6.3301735024502703E-003   6.1754095283527710E-002
  -2.0335997166487138E-002   6.0863587480937814E-003   6.1627432220348610E-002
  -1.9515576066093700E-002   5.8183430637788087E-003   6.1718600302095875E-002
  -1.8695154965700261E-002   5.5261264495044538E-003   6.2027599528769128E-002
  -2.7493571366804338E-002   8.1964794487909276E-003   5.9100549091808785E-002
  -2.6461100641891819E-002   7.8972689489182762E-003   5.8765455537369074E-002
  -2.5428629916979289E-002   7.5871317125297544E-003   5.8636630087041355E-002
  -2.4396159192066759E-002   7.2660677396252857E-003   5.8714072740825664E-002
  -2.3363688467154236E-002   6.9340770302049326E-003   5.8997783498721812E-002
  -3.2977557359024551E-002   9.8431715707344991E-003   5.6016274919787709E-002
  -3.1744600050407162E-002   9.4643643953866846E-003   5.5703856212456687E-002
  -3.0511642741789760E-002   9.0879046769658314E-003   5.5586142568423376E-002
  -2.9278685433172347E-002   8.7137924154720939E-003   5.5663133987687768E-002
  -2.8045728124554966E-002   8.3420276109054670E-003   5.5934830470250010E-002
  -3.8428797343934569E-002   1.1489863692678126E-002   5.2845766975570030E-002
  -3.7006916492426538E-002   1.1031459841854892E-002   5.2569297308790501E-002
  -3.5585035640918534E-002   1.0588677641401884E-002   5.2475969664494602E-002
  -3.4163154789410510E-002   1.0161517091318791E-002   5.2565784042682126E-002
  -3.2741273937902500E-002   9.7499781916059458E-003   5.2838740443353086E-002
  -4.3847291321534476E-002   1.3136555814621642E-002   4.9589025259155428E-002
  -4.2248049967950035E-002   1.2598555288323127E-002   4.9361778826370550E-002
  -4.0648808614365622E-002   1.2089450605837881E-002   4.9306111375255007E-002
  -3.9049567260781209E-002   1.1609241767165518E-002   4.9422022905808716E-002
  -3.7450325907196783E-002   1.1157928772306425E-002   4.9709513418031759E-002
  -1.8695154965700261E-002   5.5261264495044538E-003   6.2027599528769128E-002
  -1.7857565806440458E-002   5.2265519248347880E-003   6.1819348467970103E-002
  -1.7019976647180642E-002   4.9364625093328146E-003   6.1805653475593358E-002
  -1.6182387487920825E-002   4.6558582029986688E-003   6.1986514551638963E-002
  -1.5344798328661015E-002   4.3847390058323055E-003   6.2361931696106765E-002
  -2.3363688467154236E-002   6.9340770302049326E-003   5.8997783498721812E-002
  -2.2330467134408827E-002   6.5934784664073987E-003   5.8778700455504013E-002
  -2.1297245801663423E-002   6.2465909303712763E-003   5.8756325690835054E-002
  -2.0264024468917993E-002   5.8934144220968432E-003   5.8930659204715033E-002
  -1.9230803136172609E-002   5.5339489415837106E-003   5.9301700997143769E-002
  -2.8045728124554966E-002   8.3420276109054670E-003   5.5934830470250010E-002
  -2.6814722408197378E-002   7.9604050079800648E-003   5.5689141363206976E-002
  -2.5583716691839779E-002   7.5567193514098005E-003   5.5642312744839557E-002
  -2.4352710975482170E-002   7.1309706411949083E-003   5.5794344615147498E-002
  -2.3121705259124586E-002   6.6831588773353101E-003   5.6145236974130971E-002
  -3.2741273937902500E-002   9.7499781916059458E-003   5.2838740443353086E-002
  -3.1310331627806116E-002   9.3273315495527032E-003   5.2550671191078924E-002
  -2.9879389317709754E-002   8.8668477724481824E-003   5.2463614637606702E-002
  -2.8448447007613339E-002   8.3685268602930844E-003   5.2577570782936602E-002
  -2.7017504697516983E-002   7.8323688130868679E-003   5.2892539627068622E-002
  -3.7450325907196783E-002   1.1157928772306425E-002   4.9709513418031759E-002
  -3.5817294793235047E-002   1.0694258091125342E-002   4.9363289939119925E-002
  -3.4184263679273290E-002   1.0176976193486800E-002   4.9220231369136697E-002
  -3.2551232565311533E-002   9.6060830793911235E-003   4.9280337708082170E-002
  -3.0918201451349783E-002   8.9815787488383148E-003   4.9543608955956220E-002
  -1.5344798328661015E-002   4.3847390058323055E-003   6.2361931696106765E-002
  -1.4468660152741768E-002   4.1008253806258943E-003   6.2130955709155777E-002
  -1.3592521976822529E-002   3.7818377901714800E-003   6.2112158408236834E-002
  -1.2716383800903303E-002   3.4277762344695172E-003   6.2305539793349976E-002
  -1.1840245624984050E-002   3.0386407135194471E-003   6.2711099864494857E-002
  -1.9230803136172609E-002   5.5339489415837106E-003   5.9301700997143769E-002
  -1.8137057492209098E-002   5.1654554756496440E-003   5.9047835994838788E-002
  -1.7043311848245549E-002   4.7851950111117564E-003   5.9017007242590708E-002
  -1.5949566204281982E-002   4.3931675479698153E-003   5.9209214740399321E-002
  -1.4855820560318485E-002   3.9893730862242682E-003   5.9624458488263810E-002
  -2.3121705259124586E-002   6.6831588773353101E-003   5.6145236974130971E-002
  -2.1799494583092147E-002   6.2300855706734215E-003   5.5891789923116234E-002
  -2.0477283907059669E-002   5.7885522320516511E-003   5.5872236686182651E-002
  -1.9155073231027265E-002   5.3585588614703372E-003   5.6086577263330453E-002
  -1.7832862554994781E-002   4.9401054589290894E-003   5.6534811654559258E-002
  -2.7017504697516983E-002   7.8323688130868679E-003   5.2892539627068622E-002
  -2.5455971425391018E-002   7.2947156656972406E-003   5.2662817493987921E-002
  -2.3894438153264998E-002   6.7919094529917921E-003   5.2677846739013170E-002
  -2.2332904881139017E-002   6.3239501749706361E-003   5.2937627362144322E-002
  -2.0771371609013045E-002   5.8908378316339105E-003   5.3442159363381439E-002
  -3.0918201451349783E-002   8.9815787488383148E-003   4.9543608955956220E-002
  -2.9106488019105620E-002   8.3593457607209487E-003   4.9360918707453905E-002
  -2.7294774586861463E-002   7.7952666739316834E-003   4.9433837401082148E-002
  -2.5483061154617331E-002   7.2893414884711502E-003   4.9762365036840617E-002
  -2.3671347722373171E-002   6.8415702043387316E-003   5.0346501614729755E-002
  -5.7153564574872640E-002   0.0000000000000000        3.4692376566903285E-002
  -5.7943556149107733E-002   2.0856771563349365E-003   3.8344692195824641E-002
  -5.8733547723342834E-002   4.1400674122936548E-003   4.2210413823225407E-002
  -5.9523539297577928E-002   6.1631707678761541E-003   4.6289541449105596E-002
  -6.0313530871813022E-002   8.1549872230824213E-003   5.0582075073465196E-002
  -6.5821088923926352E-002   0.0000000000000000        3.7215180311091597E-002
  -6.6626700305014039E-002   2.9153883144263726E-003   4.0837781714546918E-002
  -6.7432311686101712E-002   5.7729794939983458E-003   4.4215737505817664E-002
  -6.8237923067189399E-002   8.5727735387159196E-003   4.7349047684903840E-002
  -6.9043534448277058E-002   1.1314770448579094E-002   5.0237712251805414E-002
  -7.4244759675498789E-002   0.0000000000000000        4.0580950330610426E-002
  -7.5524042474103034E-002   3.7450994725178057E-003   4.4147327274121545E-002
  -7.6803325272707293E-002   7.4058915757030325E-003   4.7011006994784089E-002
  -7.8082608071311552E-002   1.0982376309555685E-002   4.9171989492598073E-002
  -7.9361890869915824E-002   1.4474553674075765E-002   5.0630274767563453E-002
  -8.2424576829589952E-002   0.0000000000000000        4.4789686625459776E-002
  -8.4635582656374789E-002   4.5748106306092379E-003   4.8273328874548514E-002
  -8.6846588483159598E-002   9.0388036574077218E-003   5.0596222290124691E-002
  -8.9057594309944421E-002   1.3391979080395451E-002   5.1758366872188280E-002
  -9.1268600136729258E-002   1.7634336899572427E-002   5.1759762620739308E-002
  -9.0360540386199825E-002   0.0000000000000000        4.9841389195639657E-002
  -9.3961320851829233E-002   5.4045217887006749E-003   5.3215786515827826E-002
  -9.7562101317458613E-002   1.0671715739112412E-002   5.4971383391839442E-002
 -0.10116288178308801        1.5801581851235216E-002   5.5108179823674483E-002
 -0.10476366224871740        2.0794120125069100E-002   5.3626175811332964E-002
  -6.0313530871813022E-002   8.1549872230824213E-003   5.0582075073465196E-002
  -6.0616682602657929E-002   1.0034870146534583E-002   5.1520261400879772E-002
  -6.0919834333502808E-002   1.1722172906854744E-002   5.2246258554848019E-002
  -6.1222986064347708E-002   1.3216895504042881E-002   5.2760066535369833E-002
  -6.1526137795192601E-002   1.4519037938099034E-002   5.3061685342445368E-002
  -6.9043534448277058E-002   1.1314770448579094E-002   5.0237712251805414E-002
  -6.9320954109103758E-002   1.3760264943044581E-002   4.9461573047973363E-002
  -6.9598373769930458E-002   1.5670551741569099E-002   4.8949087157624076E-002
  -6.9875793430757158E-002   1.7045630844152636E-002   4.8700254580757524E-002
  -7.0153213091583816E-002   1.7885502250795160E-002   4.8715075317373763E-002
  -7.9361890869915824E-002   1.4474553674075765E-002   5.0630274767563453E-002
  -7.9137735973795212E-002   1.7485659739554574E-002   4.7797182499675794E-002
  -7.8913581077674586E-002   1.9618930576283441E-002   4.5703586032200011E-002
  -7.8689426181553959E-002   2.0874366184262354E-002   4.4349485365136089E-002
  -7.8465271285433347E-002   2.1251966563491324E-002   4.3734880498484036E-002
  -9.1268600136729258E-002   1.7634336899572427E-002   5.1759762620739308E-002
  -9.0067028196732180E-002   2.1211054536064571E-002   4.6527089755987065E-002
  -8.8865456256735156E-002   2.3567309410997772E-002   4.2509755178575831E-002
  -8.7663884316738119E-002   2.4703101524372106E-002   3.9707758888505536E-002
  -8.6462312376741055E-002   2.4618430876187460E-002   3.8121100885776277E-002
 -0.10476366224871740        2.0794120125069100E-002   5.3626175811332964E-002
 -0.10210883077791481        2.4936449332574565E-002   4.5651294816907197E-002
  -9.9453999307112226E-002   2.7515688245712131E-002   3.9367594596751460E-002
  -9.6799167836309624E-002   2.8531836864481821E-002   3.4775075150865878E-002
  -9.4144336365507023E-002   2.7984895188883613E-002   3.1873736479250431E-002
  -6.1526137795192601E-002   1.4519037938099034E-002   5.3061685342445368E-002
  -6.0204163107031076E-002   1.5527352863802815E-002   5.1641321551626596E-002
  -5.8882188418869524E-002   1.6140592935933819E-002   5.0665812152646969E-002
  -5.7560213730707972E-002   1.6358758154492083E-002   5.0135157145506537E-002
  -5.6238239042546448E-002   1.6181848519477571E-002   5.0049356530205286E-002
  -7.0153213091583816E-002   1.7885502250795160E-002   4.8715075317373763E-002
  -6.8431610790356076E-002   1.8344744053063532E-002   4.7253938667133732E-002
  -6.6710008489128322E-002   1.8577934342524458E-002   4.6147202851186946E-002
  -6.4988406187900555E-002   1.8585073119177991E-002   4.5394867869533492E-002
  -6.3266803886672801E-002   1.8366160383024105E-002   4.4996933722173324E-002
  -7.8465271285433347E-002   2.1251966563491324E-002   4.3734880498484036E-002
  -7.6434494928685218E-002   2.1162135242324277E-002   4.2401994329588064E-002
  -7.4403718571937116E-002   2.1015275749115134E-002   4.1333055437439460E-002
  -7.2372942215189015E-002   2.0811388083863912E-002   4.0528063822038350E-002
  -7.0342165858440886E-002   2.0550472246570584E-002   3.9987019483384553E-002
  -8.6462312376741055E-002   2.4618430876187460E-002   3.8121100885776277E-002
  -8.4212815522018467E-002   2.3979526431585029E-002   3.7085488538989700E-002
  -8.1963318667295920E-002   2.3452617155705787E-002   3.6223369911404645E-002
  -7.9713821812573360E-002   2.3037703048549830E-002   3.5534745003021131E-002
  -7.7464324957850772E-002   2.2734784110117076E-002   3.5019613813839084E-002
  -9.4144336365507023E-002   2.7984895188883613E-002   3.1873736479250431E-002
  -9.1766572570355864E-002   2.6796917620845746E-002   3.1304421295338551E-002
  -8.9388808775204720E-002   2.5889958562296457E-002   3.0818146273082381E-002
  -8.7011044980053562E-002   2.5264018013235738E-002   3.0414911412481802E-002
  -8.4633281184902417E-002   2.4919095973663569E-002   3.0094716713536890E-002
  -5.6238239042546448E-002   1.6181848519477571E-002   5.0049356530205286E-002
  -5.4729465539994124E-002   1.5816972912750485E-002   4.9741026300009955E-002
  -5.3220692037441820E-002   1.5471240216170745E-002   4.9604122973781251E-002
  -5.1711918534889489E-002   1.5144650429738518E-002   4.9638646551519144E-002
  -5.0203145032337179E-002   1.4837203553453748E-002   4.9844597033223637E-002
  -6.3266803886672801E-002   1.8366160383024105E-002   4.4996933722173324E-002
  -6.1576858843980439E-002   1.8018337391356706E-002   4.4645237956473530E-002
  -5.9886913801288078E-002   1.7638745401469549E-002   4.4484458367087219E-002
  -5.8196968758595695E-002   1.7227384413362811E-002   4.4514594954014344E-002
  -5.6507023715903354E-002   1.6784254427036321E-002   4.4735647717254967E-002
  -7.0342165858440886E-002   2.0550472246570584E-002   3.9987019483384553E-002
  -6.8451560003261622E-002   2.0219701869962838E-002   3.9541046273813260E-002
  -6.6560954148082385E-002   1.9806250586768326E-002   3.9305478512902267E-002
  -6.4670348292903149E-002   1.9310118396987021E-002   3.9280316200651560E-002
  -6.2779742437723912E-002   1.8731305300618950E-002   3.9465559337061279E-002
  -7.7464324957850772E-002   2.2734784110117076E-002   3.5019613813839084E-002
  -7.5353569017837782E-002   2.2421066348569069E-002   3.4428451252029119E-002
  -7.3242813077824764E-002   2.1973755772067144E-002   3.4067183411226276E-002
  -7.1132057137811733E-002   2.1392852380611217E-002   3.3935810291430585E-002
  -6.9021301197798757E-002   2.0678356174201523E-002   3.4034331892642107E-002
  -8.4633281184902417E-002   2.4919095973663569E-002   3.0094716713536890E-002
  -8.2282885887708768E-002   2.4622430827175176E-002   2.9307452891121022E-002
  -7.9932490590515187E-002   2.4141260957365913E-002   2.8769573062059350E-002
  -7.7582095293321579E-002   2.3475586364235496E-002   2.8481077226351570E-002
  -7.5231699996127943E-002   2.2625407047784152E-002   2.8441965383997986E-002
  -5.0203145032337179E-002   1.4837203553453748E-002   4.9844597033223637E-002
  -4.8614181604636500E-002   1.4507506503868395E-002   4.9436702455771309E-002
  -4.7025218176935814E-002   1.4114166197534722E-002   4.9258142300942415E-002
  -4.5436254749235155E-002   1.3657182634452376E-002   4.9308916568737149E-002
  -4.3847291321534476E-002   1.3136555814621642E-002   4.9589025259155428E-002
  -5.6507023715903354E-002   1.6784254427036321E-002   4.4735647717254967E-002
  -5.4696129949431745E-002   1.6314068623168587E-002   4.4308516070889925E-002
  -5.2885236182960149E-002   1.5821540182437831E-002   4.4095910679443115E-002
  -5.1074342416488540E-002   1.5306669104843981E-002   4.4097831542914592E-002
  -4.9263448650016972E-002   1.4769455390387154E-002   4.4314278661304468E-002
  -6.2779742437723912E-002   1.8731305300618950E-002   3.9465559337061279E-002
  -6.0761726500186616E-002   1.8120630742468696E-002   3.9060491241668889E-002
  -5.8743710562649334E-002   1.7528914167340939E-002   3.8855141233489564E-002
  -5.6725694625112046E-002   1.6956155575235613E-002   3.8849509312523324E-002
  -5.4707678687574812E-002   1.6402354966152749E-002   3.9043595478770093E-002
  -6.9021301197798757E-002   2.0678356174201523E-002   3.4034331892642107E-002
  -6.6810971256901039E-002   1.9927192861768903E-002   3.3692627968108006E-002
  -6.4600641316003349E-002   1.9236288152244020E-002   3.3535833963081768E-002
  -6.2390311375105666E-002   1.8605642045627230E-002   3.3563949877563233E-002
  -6.0179981434207941E-002   1.8035254541918330E-002   3.3776975711552519E-002
  -7.5231699996127943E-002   2.2625407047784152E-002   2.8441965383997986E-002
  -7.2843864219575089E-002   2.1733754981068998E-002   2.8204926250207596E-002
  -7.0456028443022220E-002   2.0943662137147226E-002   2.8137988868219610E-002
  -6.8068192666469352E-002   2.0255128516018826E-002   2.8241153238034292E-002
  -6.5680356889916497E-002   1.9668154117683856E-002   2.8514419359651544E-002
  -4.3847291321534476E-002   1.3136555814621642E-002   4.9589025259155428E-002
  -4.2248049967950035E-002   1.2598555288323127E-002   4.9361778826370550E-002
  -4.0648808614365622E-002   1.2089450605837881E-002   4.9306111375255007E-002
  -3.9049567260781209E-002   1.1609241767165518E-002   4.9422022905808716E-002
  -3.7450325907196783E-002   1.1157928772306425E-002   4.9709513418031759E-002
  -4.9263448650016972E-002   1.4769455390387154E-002   4.4314278661304468E-002
  -4.7490533607675973E-002   1.4220872054049483E-002   4.4075303844988589E-002
  -4.5717618565334975E-002   1.3671892110812628E-002   4.4012097424516561E-002
  -4.3944703522994004E-002   1.3122515560676777E-002   4.4124659399888418E-002
  -4.2171788480653026E-002   1.2572742403641979E-002   4.4412989771104083E-002
  -5.4707678687574812E-002   1.6402354966152749E-002   3.9043595478770093E-002
  -5.2756900542302684E-002   1.5843188819775547E-002   3.8763599828211134E-002
  -5.0806122397030584E-002   1.5254333615787319E-002   3.8663561987670597E-002
  -4.8855344251758442E-002   1.4635789354187981E-002   3.8743481957148364E-002
  -4.6904566106486342E-002   1.3987556034977505E-002   3.9003359736644719E-002
  -6.0179981434207941E-002   1.8035254541918330E-002   3.3776975711552519E-002
  -5.8047150771830189E-002   1.7465505585501757E-002   3.3426666776038401E-002
  -5.5914320109452374E-002   1.6836775120762093E-002   3.3260505064717193E-002
  -5.3781489447074560E-002   1.6149063147698990E-002   3.3278490577588901E-002
  -5.1648658784696752E-002   1.5402369666313101E-002   3.3480623314653707E-002
  -6.5680356889916497E-002   1.9668154117683856E-002   2.8514419359651544E-002
  -6.3361284296258452E-002   1.9087822351227912E-002   2.8064504688470049E-002
  -6.1042211702600380E-002   1.8419216625736742E-002   2.7802926655656229E-002
  -5.8723139108942335E-002   1.7662336941210412E-002   2.7729685261209697E-002
  -5.6404066515284290E-002   1.6817183297648530E-002   2.7844780505130895E-002
  -3.7450325907196783E-002   1.1157928772306425E-002   4.9709513418031759E-002
  -3.5817294793235047E-002   1.0694258091125342E-002   4.9363289939119925E-002
  -3.4184263679273290E-002   1.0176976193486800E-002   4.9220231369136697E-002
  -3.2551232565311533E-002   9.6060830793911235E-003   4.9280337708082170E-002
  -3.0918201451349783E-002   8.9815787488383148E-003   4.9543608955956220E-002
  -4.2171788480653026E-002   1.2572742403641979E-002   4.4412989771104083E-002
  -4.0344678557240575E-002   1.2013618729811382E-002   4.4010407318762268E-002
  -3.8517568633828173E-002   1.1436190629288287E-002   4.3792817576393028E-002
  -3.6690458710415756E-002   1.0840458102072553E-002   4.3760220543996503E-002
  -3.4863348787003326E-002   1.0226421148164189E-002   4.3912616221572720E-002
  -4.6904566106486342E-002   1.3987556034977505E-002   3.9003359736644719E-002
  -4.4901549572579247E-002   1.3332979368497588E-002   3.8579725100637494E-002
  -4.2898533038672089E-002   1.2695405065089711E-002   3.8322910975647044E-002
  -4.0895516504764938E-002   1.2074833124753980E-002   3.8232917361673266E-002
  -3.8892499970857836E-002   1.1471263547490285E-002   3.8309744258716250E-002
  -5.1648658784696752E-002   1.5402369666313101E-002   3.3480623314653707E-002
  -4.9487907839250909E-002   1.4652340007183740E-002   3.3071243284745894E-002
  -4.7327156893805095E-002   1.3954619500891084E-002   3.2810511566898605E-002
  -4.5166405948359252E-002   1.3309208147435352E-002   3.2698428161112243E-002
  -4.3005655002913437E-002   1.2716105946816436E-002   3.2734993067386649E-002
  -5.6404066515284290E-002   1.6817183297648530E-002   2.7844780505130895E-002
  -5.4103753357255702E-002   1.5971700645869863E-002   2.7484961871086955E-002
  -5.1803440199227141E-002   1.5213833936692664E-002   2.7255619350147947E-002
  -4.9503127041198511E-002   1.4543583170116791E-002   2.7156752942313594E-002
  -4.7202813883169936E-002   1.3960948346142366E-002   2.7188362647583952E-002
  -3.0918201451349783E-002   8.9815787488383148E-003   4.9543608955956220E-002
  -2.9106488019105620E-002   8.3593457607209487E-003   4.9360918707453905E-002
  -2.7294774586861463E-002   7.7952666739316834E-003   4.9433837401082148E-002
  -2.5483061154617331E-002   7.2893414884711502E-003   4.9762365036840617E-002
  -2.3671347722373171E-002   6.8415702043387316E-003   5.0346501614729755E-002
  -3.4863348787003326E-002   1.0226421148164189E-002   4.3912616221572720E-002
  -3.2854377471637650E-002   9.6063598856276633E-003   4.3619775921242471E-002
  -3.0845406156272022E-002   8.9925544325268059E-003   4.3465842445024716E-002
  -2.8836434840906294E-002   8.3850047888620674E-003   4.3450815792919512E-002
  -2.6827463525540718E-002   7.7837109546331495E-003   4.3574695964927024E-002
  -3.8892499970857836E-002   1.1471263547490285E-002   3.8309744258716250E-002
  -3.6802972890388606E-002   1.0853374010534433E-002   3.7854855814665717E-002
  -3.4713445809919391E-002   1.0189842191121887E-002   3.7422172076709670E-002
  -3.2623918729450196E-002   9.4806680892529603E-003   3.7011693044848561E-002
  -3.0534391648981044E-002   8.7258517049274564E-003   3.6623418719081313E-002
  -4.3005655002913437E-002   1.2716105946816436E-002   3.2734993067386649E-002
  -4.0952274275358587E-002   1.2100388135441065E-002   3.2066158387723261E-002
  -3.8898893547803758E-002   1.1387129949717044E-002   3.1302826296136552E-002
  -3.6845512820248970E-002   1.0576331389643810E-002   3.0444996792626536E-002
  -3.4792132092694071E-002   9.6679924552217078E-003   2.9492669877193137E-002
  -4.7202813883169936E-002   1.3960948346142366E-002   2.7188362647583952E-002
  -4.5302281626547564E-002   1.3347402260347974E-002   2.6253683640415415E-002
  -4.3401749369925025E-002   1.2584417708312035E-002   2.5107805103305569E-002
  -4.1501217113302541E-002   1.1671994690034757E-002   2.3750727036254582E-002
  -3.9600684856680168E-002   1.0610133205516181E-002   2.2182449439262175E-002
  -9.0360540386199825E-002   0.0000000000000000        4.9841389195639657E-002
  -9.3961320851829233E-002   5.4045217887006749E-003   5.3215786515827826E-002
  -9.7562101317458613E-002   1.0671715739112412E-002   5.4971383391839442E-002
 -0.10116288178308801        1.5801581851235216E-002   5.5108179823674483E-002
 -0.10476366224871740        2.0794120125069100E-002   5.3626175811332964E-002
 -0.10329168360558211        0.0000000000000000        5.8669265528816281E-002
 -0.10682948188499357        1.0884405301583227E-002   5.2124406980303517E-002
 -0.11036728016440500        1.9172487289316718E-002   4.7324313248403228E-002
 -0.11390507844381643        2.4864245963200457E-002   4.4268984333115428E-002
 -0.11744287672322791        2.7959681323234467E-002   4.2958420234440110E-002
 -0.12645703974799055        0.0000000000000000        7.4206523112655853E-002
 -0.12656829058039501        1.6364288814465777E-002   5.5283413219881339E-002
 -0.12667954141279941        2.7673258839521014E-002   4.1468633404508341E-002
 -0.12679079224520384        3.3926910075165691E-002   3.2762183666536902E-002
 -0.12690204307760825        3.5125242521399834E-002   2.9164064005966970E-002
 -0.15985660881342509        0.0000000000000000        9.6453161947158375E-002
 -0.15317774693803349        2.1844172327348338E-002   6.2692805234561319E-002
 -0.14649888506264186        3.6174030389725317E-002   3.7404343860154829E-002
 -0.13982002318725029        4.2989574187130918E-002   2.0587777823938891E-002
 -0.13314116131185863        4.2290803719565222E-002   1.2243107125913557E-002
 -0.20349039080188577        0.0000000000000000       0.12540918203232387     
 -0.18665785095790907        2.7324055840230881E-002   7.4352583024343444E-002
 -0.16982531111393237        4.4674801939929620E-002   3.5131444615342636E-002
 -0.15299277126995567        5.2052238299096158E-002   7.7457668053214357E-003
 -0.13616023142597894        4.9456364917730575E-002  -7.8044504057201217E-003
 -0.10476366224871740        2.0794120125069100E-002   5.3626175811332964E-002
 -0.10210883077791481        2.4936449332574565E-002   4.5651294816907197E-002
  -9.9453999307112226E-002   2.7515688245712131E-002   3.9367594596751460E-002
  -9.6799167836309624E-002   2.8531836864481821E-002   3.4775075150865878E-002
  -9.4144336365507023E-002   2.7984895188883613E-002   3.1873736479250431E-002
 -0.11744287672322791        2.7959681323234467E-002   4.2958420234440110E-002
 -0.11348533546863623        2.9432813185373195E-002   3.6709429381508951E-002
 -0.10952779421404459        3.0257661365571085E-002   3.1374677321885806E-002
 -0.10557025295945295        3.0434225863828150E-002   2.6954164055570641E-002
 -0.10161271170486132        2.9962506680144378E-002   2.3447889582563518E-002
 -0.12690204307760825        3.5125242521399834E-002   2.9164064005966970E-002
 -0.12241873402018968        3.3929177038171811E-002   2.5555769906957571E-002
 -0.11793542496277111        3.2999634485430016E-002   2.2084772620293958E-002
 -0.11345211590535255        3.2336614863174497E-002   1.8751072145976280E-002
 -0.10896880684793395        3.1940118171405102E-002   1.5554668484004511E-002
 -0.13314116131185863        4.2290803719565222E-002   1.2243107125913557E-002
 -0.12890902643257524        3.8425540890970437E-002   1.2190316393252921E-002
 -0.12467689155329179        3.5741607605288980E-002   1.1497880491975945E-002
 -0.12044475667400838        3.4239003862520809E-002   1.0165799422082830E-002
 -0.11621262179472497        3.3917729662665888E-002   8.1940731835735484E-003
 -0.13616023142597894        4.9456364917730575E-002  -7.8044504057201217E-003
 -0.13295621270579280        4.2921904743769057E-002  -3.3869311596050194E-003
 -0.12975219398560664        3.8483580725147890E-002  -3.8599906306822397E-004
 -0.12654817526542048        3.6141392861867128E-002   1.1983458838904274E-003
 -0.12334415654523434        3.5895341153926619E-002   1.3661036812705474E-003
  -9.4144336365507023E-002   2.7984895188883613E-002   3.1873736479250431E-002
  -9.1766572570355864E-002   2.6796917620845746E-002   3.1304421295338551E-002
  -8.9388808775204720E-002   2.5889958562296457E-002   3.0818146273082381E-002
  -8.7011044980053562E-002   2.5264018013235738E-002   3.0414911412481802E-002
  -8.4633281184902417E-002   2.4919095973663569E-002   3.0094716713536890E-002
 -0.10161271170486132        2.9962506680144378E-002   2.3447889582563518E-002
  -9.9136213528254358E-002   2.9195143602755408E-002   2.3175556016742989E-002
  -9.6659715351647385E-002   2.8484776419896926E-002   2.3017651052178432E-002
  -9.4183217175040385E-002   2.7831405131568846E-002   2.2974174688869906E-002
  -9.1706718998433440E-002   2.7235029737771227E-002   2.3045126926817303E-002
 -0.10896880684793395        3.1940118171405102E-002   1.5554668484004511E-002
 -0.10636218585027082        3.1593369584665104E-002   1.5355293921317211E-002
 -0.10375556485260769        3.1079594277497336E-002   1.5301736399486249E-002
 -0.10114894385494454        3.0398792249901937E-002   1.5393995918511519E-002
  -9.8542322857281442E-002   2.9550963501878844E-002   1.5632072478393211E-002
 -0.11621262179472497        3.3917729662665888E-002   8.1940731835735484E-003
 -0.11344448953640532        3.3991595566574703E-002   7.8436350090612256E-003
 -0.11067635727808567        3.3674412135097788E-002   7.6704023150057027E-003
 -0.10790822501976598        3.2966179368235038E-002   7.6743751014067049E-003
 -0.10514009276144635        3.1866897265986398E-002   7.8555533682645954E-003
 -0.12334415654523434        3.5895341153926619E-002   1.3661036812705474E-003
 -0.12038312458665784        3.6389821548484413E-002   6.4057927997514252E-004
 -0.11742209262808131        3.6269229992698215E-002   1.2364879873684453E-004
 -0.11446106066950479        3.5533566486568136E-002  -1.8468776244446802E-004
 -0.11150002871092829        3.4182831030094063E-002  -2.8443040356868066E-004
  -8.4633281184902417E-002   2.4919095973663569E-002   3.0094716713536890E-002
  -8.2282885887708768E-002   2.4622430827175176E-002   2.9307452891121022E-002
  -7.9932490590515187E-002   2.4141260957365913E-002   2.8769573062059350E-002
  -7.7582095293321579E-002   2.3475586364235496E-002   2.8481077226351570E-002
  -7.5231699996127943E-002   2.2625407047784152E-002   2.8441965383997986E-002
  -9.1706718998433440E-002   2.7235029737771227E-002   2.3045126926817303E-002
  -8.9116492426937005E-002   2.6632463548707054E-002   2.2359203235841014E-002
  -8.6526265855440557E-002   2.5960519874578904E-002   2.1903558100116231E-002
  -8.3936039283944081E-002   2.5219198715387157E-002   2.1678191519643068E-002
  -8.1345812712447632E-002   2.4408500071131767E-002   2.1683103494421541E-002
  -9.8542322857281442E-002   2.9550963501878844E-002   1.5632072478393211E-002
  -9.5731370449584588E-002   2.8642496270238620E-002   1.5162616157113618E-002
  -9.2920418041887776E-002   2.7779778791792029E-002   1.4904332952983029E-002
  -9.0109465634190977E-002   2.6962811066538903E-002   1.4857222866001723E-002
  -8.7298513226494151E-002   2.6191593094479271E-002   1.5021285896169592E-002
 -0.10514009276144635        3.1866897265986398E-002   7.8555533682645954E-003
 -0.10212751995565159        3.0652528991770300E-002   7.7176916549387548E-003
  -9.9114947149856830E-002   2.9599037709005072E-002   7.7718976206599026E-003
  -9.6102374344062061E-002   2.8706423417690440E-002   8.0181712654277086E-003
  -9.3089801538267278E-002   2.7974686117826775E-002   8.4565125892422099E-003
 -0.11150002871092829        3.4182831030094063E-002  -2.8443040356868066E-004
 -0.10830494094513804        3.2662561713302118E-002   2.4429729316960413E-005
 -0.10510985317934773        3.1418296626218103E-002   5.0625210314671210E-004
 -0.10191476541355743        3.0450035768842230E-002   1.1610367179208970E-003
  -9.8719677647767179E-002   2.9757779141174501E-002   1.9887835736392412E-003
  -7.5231699996127943E-002   2.2625407047784152E-002   2.8441965383997986E-002
  -7.2843864219575089E-002   2.1733754981068998E-002   2.8204926250207596E-002
  -7.0456028443022220E-002   2.0943662137147226E-002   2.8137988868219610E-002
  -6.8068192666469352E-002   2.0255128516018826E-002   2.8241153238034292E-002
  -6.5680356889916497E-002   1.9668154117683856E-002   2.8514419359651544E-002
  -8.1345812712447632E-002   2.4408500071131767E-002   2.1683103494421541E-002
  -7.8799684652113941E-002   2.3585819248120421E-002   2.1669153270055488E-002
  -7.6253556591780097E-002   2.2808551552661080E-002   2.1801685861448844E-002
  -7.3707428531446295E-002   2.2076696984753990E-002   2.2080701268601260E-002
  -7.1161300471112562E-002   2.1390255544398828E-002   2.2506199491513251E-002
  -8.7298513226494151E-002   2.6191593094479271E-002   1.5021285896169592E-002
  -8.4617711818422675E-002   2.5437883515171789E-002   1.5174278485986709E-002
  -8.1936910410351227E-002   2.4673440968174983E-002   1.5450134955519675E-002
  -7.9256109002279806E-002   2.3898265453489095E-002   1.5848855304768827E-002
  -7.6575307594208344E-002   2.3112356971113857E-002   1.6370439533733933E-002
  -9.3089801538267278E-002   2.7974686117826775E-002   8.4565125892422099E-003
  -9.0297945718501443E-002   2.7289947782223156E-002   8.7203018980009823E-003
  -8.7506089898735553E-002   2.6538330383688972E-002   9.0833361504325180E-003
  -8.4714234078969747E-002   2.5719833922224176E-002   9.5456153465368412E-003
  -8.1922378259203815E-002   2.4834458397828746E-002   1.0107139486314032E-002
  -9.8719677647767179E-002   2.9757779141174501E-002   1.9887835736392412E-003
  -9.5840386352350149E-002   2.9142012049274690E-002   2.3072235060984658E-003
  -9.2961095056933091E-002   2.8403219799202933E-002   2.7012894461873604E-003
  -9.0081803761516047E-002   2.7541402390959209E-002   3.1709813939053838E-003
  -8.7202512466099003E-002   2.6556559824543857E-002   3.7162993492532714E-003
  -6.5680356889916497E-002   1.9668154117683856E-002   2.8514419359651544E-002
  -6.3361284296258452E-002   1.9087822351227912E-002   2.8064504688470049E-002
  -6.1042211702600380E-002   1.8419216625736742E-002   2.7802926655656229E-002
  -5.8723139108942335E-002   1.7662336941210412E-002   2.7729685261209697E-002
  -5.6404066515284290E-002   1.6817183297648530E-002   2.7844780505130895E-002
  -7.1161300471112562E-002   2.1390255544398828E-002   2.2506199491513251E-002
  -6.8648052341708232E-002   2.0700513291457903E-002   2.2058915819931316E-002
  -6.6134804212303944E-002   1.9958756285793425E-002   2.1811646581474400E-002
  -6.3621556082899669E-002   1.9164984527405258E-002   2.1764391776142505E-002
  -6.1108307953495297E-002   1.8319198016293503E-002   2.1917151403935520E-002
  -7.6575307594208344E-002   2.3112356971113857E-002   1.6370439533733933E-002
  -7.3856206134300315E-002   2.2313204231687894E-002   1.5962046068063312E-002
  -7.1137104674392229E-002   2.1498295945850114E-002   1.5765344830275189E-002
  -6.8418003214484199E-002   2.0667632113600051E-002   1.5780335820369373E-002
  -6.5698901754576114E-002   1.9821212734938504E-002   1.6007019038346185E-002
  -8.1922378259203815E-002   2.4834458397828746E-002   1.0107139486314032E-002
  -7.8985745674034560E-002   2.3925895171917969E-002   9.7738954328662371E-003
  -7.6049113088865333E-002   2.3037835605906856E-002   9.6640214020583797E-003
  -7.3112480503696134E-002   2.2170279699795369E-002   9.7775173938904475E-003
  -7.0175847918526837E-002   2.1323227453583379E-002   1.0114383408362414E-002
  -8.7202512466099003E-002   2.6556559824543857E-002   3.7162993492532714E-003
  -8.4036670960911164E-002   2.5538586112147710E-002   3.4944639143402734E-003
  -8.0870829455723214E-002   2.4577375265963403E-002   3.5076762968242609E-003
  -7.7704987950535293E-002   2.3672927285989999E-002   3.7559364967059729E-003
  -7.4539146445347426E-002   2.2825242172228366E-002   4.2392445139846080E-003
  -5.6404066515284290E-002   1.6817183297648530E-002   2.7844780505130895E-002
  -5.4103753357255702E-002   1.5971700645869863E-002   2.7484961871086955E-002
  -5.1803440199227141E-002   1.5213833936692664E-002   2.7255619350147947E-002
  -4.9503127041198511E-002   1.4543583170116791E-002   2.7156752942313594E-002
  -4.7202813883169936E-002   1.3960948346142366E-002   2.7188362647583952E-002
  -6.1108307953495297E-002   1.8319198016293503E-002   2.1917151403935520E-002
  -5.8652061682627848E-002   1.7479402394022653E-002   2.1772243643259470E-002
  -5.6195815411760282E-002   1.6703603302157227E-002   2.1808725995156444E-002
  -5.3739569140892743E-002   1.5991800740697303E-002   2.2026598459626380E-002
  -5.1283322870025266E-002   1.5343994709642927E-002   2.2425861036669714E-002
  -6.5698901754576114E-002   1.9821212734938504E-002   1.6007019038346185E-002
  -6.3035808371401381E-002   1.8987104142175373E-002   1.6053402738841704E-002
  -6.0372714988226626E-002   1.8193372667621908E-002   1.6332090551378957E-002
  -5.7709621605051886E-002   1.7440018311277929E-002   1.6843082475957370E-002
  -5.5046528221877139E-002   1.6727041073143767E-002   1.7586378512577494E-002
  -7.0175847918526837E-002   2.1323227453583379E-002   1.0114383408362414E-002
  -6.7254993423576465E-002   2.0494805890328378E-002   1.0328439157833883E-002
  -6.4334138928626119E-002   1.9683142033086642E-002   1.0825713018815403E-002
  -6.1413284433675788E-002   1.8888235881858773E-002   1.1606204991306455E-002
  -5.8492429938725436E-002   1.8110087436644245E-002   1.2669915075307445E-002
  -7.4539146445347426E-002   2.2825242172228366E-002   4.2392445139846080E-003
  -7.1309616839153156E-002   2.2002507638480939E-002   4.5973529002359959E-003
  -6.8080087232958830E-002   2.1172911398551347E-002   5.2895933974658194E-003
  -6.4850557626764560E-002   2.0336453452439195E-002   6.3159660056735512E-003
  -6.1621028020570234E-002   1.9493133800145057E-002   7.6764707248592190E-003
  -4.7202813883169936E-002   1.3960948346142366E-002   2.7188362647583952E-002
  -4.5302281626547564E-002   1.3347402260347974E-002   2.6253683640415415E-002
  -4.3401749369925025E-002   1.2584417708312035E-002   2.5107805103305569E-002
  -4.1501217113302541E-002   1.1671994690034757E-002   2.3750727036254582E-002
  -3.9600684856680168E-002   1.0610133205516181E-002   2.2182449439262175E-002
  -5.1283322870025266E-002   1.5343994709642927E-002   2.2425861036669714E-002
  -4.9370235323796224E-002   1.4655552111984022E-002   2.1884886419124810E-002
  -4.7457147777567169E-002   1.3821839850710962E-002   2.1580221910734360E-002
  -4.5544060231338085E-002   1.2842857925823129E-002   2.1511867511498417E-002
  -4.3630972685109126E-002   1.1718606337321136E-002   2.1679823221416927E-002
  -5.5046528221877139E-002   1.6727041073143767E-002   1.7586378512577494E-002
  -5.2673375746945673E-002   1.5963701963620208E-002   1.7443277087283202E-002
  -5.0300223272014180E-002   1.5059261993109890E-002   1.7983995410239151E-002
  -4.7927070797082812E-002   1.4013721161611585E-002   1.9208533481445370E-002
  -4.5553918322151180E-002   1.2827079469126312E-002   2.1116891300902052E-002
  -5.8492429938725436E-002   1.8110087436644245E-002   1.2669915075307445E-002
  -5.5211702895995689E-002   1.7271851815256714E-002   1.2928855644890640E-002
  -5.1930975853266031E-002   1.6296684135508319E-002   1.4319125601819954E-002
  -4.8650248810536430E-002   1.5184584397400055E-002   1.6840724946095616E-002
  -4.5369521767806675E-002   1.3935552600931489E-002   2.0493653677717244E-002
  -6.1621028020570234E-002   1.9493133800145057E-002   7.6764707248592190E-003
  -5.6985216770946479E-002   1.8580001666892887E-002   8.3416220919472761E-003
  -5.2349405521322723E-002   1.7534106277907718E-002   1.0585612485477042E-002
  -4.7713594271698884E-002   1.6355447633188074E-002   1.4408441905448537E-002
  -4.3077783022075211E-002   1.5044025732736444E-002   1.9810110351862420E-002
 </DataArray>
 </PointData>
 </Piece>
 <Piece  NumberOfPoints="          1600 "  NumberOfCells="         1024 ">
 <Points>
 <DataArray  type="Float64" NumberOfComponents="3"  format="ascii" >
  0.50000000000000000        0.0000000000000000        0.0000000000000000     
  0.53125000000000000        0.0000000000000000        0.0000000000000000     
  0.56250000000000000        0.0000000000000000        0.0000000000000000     
  0.59375000000000000        0.0000000000000000        0.0000000000000000     
  0.62500000000000000        0.0000000000000000        0.0000000000000000     
  0.50000000000000000        3.1250000000000000E-002   0.0000000000000000     
  0.53125000000000000        3.1250000000000000E-002   0.0000000000000000     
  0.56250000000000000        3.1250000000000000E-002   0.0000000000000000     
  0.59375000000000000        3.1250000000000000E-002   0.0000000000000000     
  0.62500000000000000        3.1250000000000000E-002   0.0000000000000000     
  0.50000000000000000        6.2500000000000000E-002   0.0000000000000000     
  0.53125000000000000        6.2500000000000000E-002   0.0000000000000000     
  0.56250000000000000        6.2500000000000000E-002   0.0000000000000000     
  0.59375000000000000        6.2500000000000000E-002   0.0000000000000000     
  0.62500000000000000        6.2500000000000000E-002   0.0000000000000000     
  0.50000000000000000        9.3750000000000000E-002   0.0000000000000000     
  0.53125000000000000        9.3750000000000000E-002   0.0000000000000000     
  0.56250000000000000        9.3750000000000000E-002   0.0000000000000000     
  0.59375000000000000        9.3750000000000000E-002   0.0000000000000000     
  0.62500000000000000        9.3750000000000000E-002   0.0000000000000000     
  0.50000000000000000       0.12500000000000000        0.0000000000000000     
  0.53125000000000000       0.12500000000000000        0.0000000000000000     
  0.56250000000000000       0.12500000000000000        0.0000000000000000     
  0.59375000000000000       0.12500000000000000        0.0000000000000000     
  0.62500000000000000       0.12500000000000000        0.0000000000000000     
  0.62500000000000000        0.0000000000000000        0.0000000000000000     
  0.65625000000000000        0.0000000000000000        0.0000000000000000     
  0.68750000000000000        0.0000000000000000        0.0000000000000000     
  0.71875000000000000        0.0000000000000000        0.0000000000000000     
  0.75000000000000000        0.0000000000000000        0.0000000000000000     
  0.62500000000000000        3.1250000000000000E-002   0.0000000000000000     
  0.65625000000000000        3.1250000000000000E-002   0.0000000000000000     
  0.68750000000000000        3.1250000000000000E-002   0.0000000000000000     
  0.71875000000000000        3.1250000000000000E-002   0.0000000000000000     
  0.75000000000000000        3.1250000000000000E-002   0.0000000000000000     
  0.62500000000000000        6.2500000000000000E-002   0.0000000000000000     
  0.65625000000000000        6.2500000000000000E-002   0.0000000000000000     
  0.68750000000000000        6.2500000000000000E-002   0.0000000000000000     
  0.71875000000000000        6.2500000000000000E-002   0.0000000000000000     
  0.75000000000000000        6.2500000000000000E-002   0.0000000000000000     
  0.62500000000000000        9.3750000000000000E-002   0.0000000000000000     
  0.65625000000000000        9.3750000000000000E-002   0.0000000000000000     
  0.68750000000000000        9.3750000000000000E-002   0.0000000000000000     
  0.71875000000000000        9.3750000000000000E-002   0.0000000000000000     
  0.75000000000000000        9.3750000000000000E-002   0.0000000000000000     
  0.62500000000000000       0.12500000000000000        0.0000000000000000     
  0.65625000000000000       0.12500000000000000        0.0000000000000000     
  0.68750000000000000       0.12500000000000000        0.0000000000000000     
  0.71875000000000000       0.12500000000000000        0.0000000000000000     
  0.75000000000000000       0.12500000000000000        0.0000000000000000     
  0.75000000000000000        0.0000000000000000        0.0000000000000000     
  0.78125000000000000        0.0000000000000000        0.0000000000000000     
  0.81250000000000000        0.0000000000000000        0.0000000000000000     
  0.84375000000000000        0.0000000000000000        0.0000000000000000     
  0.87500000000000000        0.0000000000000000        0.0000000000000000     
  0.75000000000000000        3.1250000000000000E-002   0.0000000000000000     
  0.78125000000000000        3.1250000000000000E-002   0.0000000000000000     
  0.81250000000000000        3.1250000000000000E-002   0.0000000000000000     
  0.84375000000000000        3.1250000000000000E-002   0.0000000000000000     
  0.87500000000000000        3.1250000000000000E-002   0.0000000000000000     
  0.75000000000000000        6.2500000000000000E-002   0.0000000000000000     
  0.78125000000000000        6.2500000000000000E-002   0.0000000000000000     
  0.81250000000000000        6.2500000000000000E-002   0.0000000000000000     
  0.84375000000000000        6.2500000000000000E-002   0.0000000000000000     
  0.87500000000000000        6.2500000000000000E-002   0.0000000000000000     
  0.75000000000000000        9.3750000000000000E-002   0.0000000000000000     
  0.78125000000000000        9.3750000000000000E-002   0.0000000000000000     
  0.81250000000000000        9.3750000000000000E-002   0.0000000000000000     
  0.84375000000000000        9.3750000000000000E-002   0.0000000000000000     
  0.87500000000000000        9.3750000000000000E-002   0.0000000000000000     
  0.75000000000000000       0.12500000000000000        0.0000000000000000     
  0.78125000000000000       0.12500000000000000        0.0000000000000000     
  0.81250000000000000       0.12500000000000000        0.0000000000000000     
  0.84375000000000000       0.12500000000000000        0.0000000000000000     
  0.87500000000000000       0.12500000000000000        0.0000000000000000     
  0.87500000000000000        0.0000000000000000        0.0000000000000000     
  0.90625000000000000        0.0000000000000000        0.0000000000000000     
  0.93750000000000000        0.0000000000000000        0.0000000000000000     
  0.96875000000000000        0.0000000000000000        0.0000000000000000     
   1.0000000000000000        0.0000000000000000        0.0000000000000000     
  0.87500000000000000        3.1250000000000000E-002   0.0000000000000000     
  0.90625000000000000        3.1250000000000000E-002   0.0000000000000000     
  0.93750000000000000        3.1250000000000000E-002   0.0000000000000000     
  0.96875000000000000        3.1250000000000000E-002   0.0000000000000000     
   1.0000000000000000        3.1250000000000000E-002   0.0000000000000000     
  0.87500000000000000        6.2500000000000000E-002   0.0000000000000000     
  0.90625000000000000        6.2500000000000000E-002   0.0000000000000000     
  0.93750000000000000        6.2500000000000000E-002   0.0000000000000000     
  0.96875000000000000        6.2500000000000000E-002   0.0000000000000000     
   1.0000000000000000        6.2500000000000000E-002   0.0000000000000000     
  0.87500000000000000        9.3750000000000000E-002   0.0000000000000000     
  0.90625000000000000        9.3750000000000000E-002   0.0000000000000000     
  0.93750000000000000        9.3750000000000000E-002   0.0000000000000000     
  0.96875000000000000        9.3750000000000000E-002   0.0000000000000000     
   1.0000000000000000        9.3750000000000000E-002   0.0000000000000000     
  0.87500000000000000       0.12500000000000000        0.0000000000000000     
  0.90625000000000000       0.12500000000000000        0.0000000000000000     
  0.93750000000000000       0.12500000000000000        0.0000000000000000     
  0.96875000000000000       0.12500000000000000        0.0000000000000000     
   1.0000000000000000       0.12500000000000000        0.0000000000000000     
   1.0000000000000000        0.0000000000000000        0.0000000000000000     
   1.0312500000000000        0.0000000000000000        0.0000000000000000     
   1.0625000000000000        0.0000000000000000        0.0000000000000000     
   1.0937500000000000        0.0000000000000000        0.0000000000000000     
   1.1250000000000000        0.0000000000000000        0.0000000000000000     
   1.0000000000000000        3.1250000000000000E-002   0.0000000000000000     
   1.0312500000000000        3.1250000000000000E-002   0.0000000000000000     
   1.0625000000000000        3.1250000000000000E-002   0.0000000000000000     
   1.0937500000000000        3.1250000000000000E-002   0.0000000000000000     
   1.1250000000000000        3.1250000000000000E-002   0.0000000000000000     
   1.0000000000000000        6.2500000000000000E-002   0.0000000000000000     
   1.0312500000000000        6.2500000000000000E-002   0.0000000000000000     
   1.0625000000000000        6.2500000000000000E-002   0.0000000000000000     
   1.0937500000000000        6.2500000000000000E-002   0.0000000000000000     
   1.1250000000000000        6.2500000000000000E-002   0.0000000000000000     
   1.0000000000000000        9.3750000000000000E-002   0.0000000000000000     
   1.0312500000000000        9.3750000000000000E-002   0.0000000000000000     
   1.0625000000000000        9.3750000000000000E-002   0.0000000000000000     
   1.0937500000000000        9.3750000000000000E-002   0.0000000000000000     
   1.1250000000000000        9.3750000000000000E-002   0.0000000000000000     
   1.0000000000000000       0.12500000000000000        0.0000000000000000     
   1.0312500000000000       0.12500000000000000        0.0000000000000000     
   1.0625000000000000       0.12500000000000000        0.0000000000000000     
   1.0937500000000000       0.12500000000000000        0.0000000000000000     
   1.1250000000000000       0.12500000000000000        0.0000000000000000     
   1.1250000000000000        0.0000000000000000        0.0000000000000000     
   1.1562500000000000        0.0000000000000000        0.0000000000000000     
   1.1875000000000000        0.0000000000000000        0.0000000000000000     
   1.2187500000000000        0.0000000000000000        0.0000000000000000     
   1.2500000000000000        0.0000000000000000        0.0000000000000000     
   1.1250000000000000        3.1250000000000000E-002   0.0000000000000000     
   1.1562500000000000        3.1250000000000000E-002   0.0000000000000000     
   1.1875000000000000        3.1250000000000000E-002   0.0000000000000000     
   1.2187500000000000        3.1250000000000000E-002   0.0000000000000000     
   1.2500000000000000        3.1250000000000000E-002   0.0000000000000000     
   1.1250000000000000        6.2500000000000000E-002   0.0000000000000000     
   1.1562500000000000        6.2500000000000000E-002   0.0000000000000000     
   1.1875000000000000        6.2500000000000000E-002   0.0000000000000000     
   1.2187500000000000        6.2500000000000000E-002   0.0000000000000000     
   1.2500000000000000        6.2500000000000000E-002   0.0000000000000000     
   1.1250000000000000        9.3750000000000000E-002   0.0000000000000000     
   1.1562500000000000        9.3750000000000000E-002   0.0000000000000000     
   1.1875000000000000        9.3750000000000000E-002   0.0000000000000000     
   1.2187500000000000        9.3750000000000000E-002   0.0000000000000000     
   1.2500000000000000        9.3750000000000000E-002   0.0000000000000000     
   1.1250000000000000       0.12500000000000000        0.0000000000000000     
   1.1562500000000000       0.12500000000000000        0.0000000000000000     
   1.1875000000000000       0.12500000000000000        0.0000000000000000     
   1.2187500000000000       0.12500000000000000        0.0000000000000000     
   1.2500000000000000       0.12500000000000000        0.0000000000000000     
   1.2500000000000000        0.0000000000000000        0.0000000000000000     
   1.2812500000000000        0.0000000000000000        0.0000000000000000     
   1.3125000000000000        0.0000000000000000        0.0000000000000000     
   1.3437500000000000        0.0000000000000000        0.0000000000000000     
   1.3750000000000000        0.0000000000000000        0.0000000000000000     
   1.2500000000000000        3.1250000000000000E-002   0.0000000000000000     
   1.2812500000000000        3.1250000000000000E-002   0.0000000000000000     
   1.3125000000000000        3.1250000000000000E-002   0.0000000000000000     
   1.3437500000000000        3.1250000000000000E-002   0.0000000000000000     
   1.3750000000000000        3.1250000000000000E-002   0.0000000000000000     
   1.2500000000000000        6.2500000000000000E-002   0.0000000000000000     
   1.2812500000000000        6.2500000000000000E-002   0.0000000000000000     
   1.3125000000000000        6.2500000000000000E-002   0.0000000000000000     
   1.3437500000000000        6.2500000000000000E-002   0.0000000000000000     
   1.3750000000000000        6.2500000000000000E-002   0.0000000000000000     
   1.2500000000000000        9.3750000000000000E-002   0.0000000000000000     
   1.2812500000000000        9.3750000000000000E-002   0.0000000000000000     
   1.3125000000000000        9.3750000000000000E-002   0.0000000000000000     
   1.3437500000000000        9.3750000000000000E-002   0.0000000000000000     
   1.3750000000000000        9.3750000000000000E-002   0.0000000000000000     
   1.2500000000000000       0.12500000000000000        0.0000000000000000     
   1.2812500000000000       0.12500000000000000        0.0000000000000000     
   1.3125000000000000       0.12500000000000000        0.0000000000000000     
   1.3437500000000000       0.12500000000000000        0.0000000000000000     
   1.3750000000000000       0.12500000000000000        0.0000000000000000     
   1.3750000000000000        0.0000000000000000        0.0000000000000000     
   1.4062500000000000        0.0000000000000000        0.0000000000000000     
   1.4375000000000000        0.0000000000000000        0.0000000000000000     
   1.4687500000000000        0.0000000000000000        0.0000000000000000     
   1.5000000000000000        0.0000000000000000        0.0000000000000000     
   1.3750000000000000        3.1250000000000000E-002   0.0000000000000000     
   1.4062500000000000        3.1250000000000000E-002   0.0000000000000000     
   1.4375000000000000        3.1250000000000000E-002   0.0000000000000000     
   1.4687500000000000        3.1250000000000000E-002   0.0000000000000000     
   1.5000000000000000        3.1250000000000000E-002   0.0000000000000000     
   1.3750000000000000        6.2500000000000000E-002   0.0000000000000000     
   1.4062500000000000        6.2500000000000000E-002   0.0000000000000000     
   1.4375000000000000        6.2500000000000000E-002   0.0000000000000000     
   1.4687500000000000        6.2500000000000000E-002   0.0000000000000000     
   1.5000000000000000        6.2500000000000000E-002   0.0000000000000000     
   1.3750000000000000        9.3750000000000000E-002   0.0000000000000000     
   1.4062500000000000        9.3750000000000000E-002   0.0000000000000000     
   1.4375000000000000        9.3750000000000000E-002   0.0000000000000000     
   1.4687500000000000        9.3750000000000000E-002   0.0000000000000000     
   1.5000000000000000        9.3750000000000000E-002   0.0000000000000000     
   1.3750000000000000       0.12500000000000000        0.0000000000000000     
   1.4062500000000000       0.12500000000000000        0.0000000000000000     
   1.4375000000000000       0.12500000000000000        0.0000000000000000     
   1.4687500000000000       0.12500000000000000        0.0000000000000000     
   1.5000000000000000       0.12500000000000000        0.0000000000000000     
  0.50000000000000000       0.12500000000000000        0.0000000000000000     
  0.53125000000000000       0.12500000000000000        0.0000000000000000     
  0.56250000000000000       0.12500000000000000        0.0000000000000000     
  0.59375000000000000       0.12500000000000000        0.0000000000000000     
  0.62500000000000000       0.12500000000000000        0.0000000000000000     
  0.50000000000000000       0.15625000000000000        0.0000000000000000     
  0.53125000000000000       0.15625000000000000        0.0000000000000000     
  0.56250000000000000       0.15625000000000000        0.0000000000000000     
  0.59375000000000000       0.15625000000000000        0.0000000000000000     
  0.62500000000000000       0.15625000000000000        0.0000000000000000     
  0.50000000000000000       0.18750000000000000        0.0000000000000000     
  0.53125000000000000       0.18750000000000000        0.0000000000000000     
  0.56250000000000000       0.18750000000000000        0.0000000000000000     
  0.59375000000000000       0.18750000000000000        0.0000000000000000     
  0.62500000000000000       0.18750000000000000        0.0000000000000000     
  0.50000000000000000       0.21875000000000000        0.0000000000000000     
  0.53125000000000000       0.21875000000000000        0.0000000000000000     
  0.56250000000000000       0.21875000000000000        0.0000000000000000     
  0.59375000000000000       0.21875000000000000        0.0000000000000000     
  0.62500000000000000       0.21875000000000000        0.0000000000000000     
  0.50000000000000000       0.25000000000000000        0.0000000000000000     
  0.53125000000000000       0.25000000000000000        0.0000000000000000     
  0.56250000000000000       0.25000000000000000        0.0000000000000000     
  0.59375000000000000       0.25000000000000000        0.0000000000000000     
  0.62500000000000000       0.25000000000000000        0.0000000000000000     
  0.62500000000000000       0.12500000000000000        0.0000000000000000     
  0.65625000000000000       0.12500000000000000        0.0000000000000000     
  0.68750000000000000       0.12500000000000000        0.0000000000000000     
  0.71875000000000000       0.12500000000000000        0.0000000000000000     
  0.75000000000000000       0.12500000000000000        0.0000000000000000     
  0.62500000000000000       0.15625000000000000        0.0000000000000000     
  0.65625000000000000       0.15625000000000000        0.0000000000000000     
  0.68750000000000000       0.15625000000000000        0.0000000000000000     
  0.71875000000000000       0.15625000000000000        0.0000000000000000     
  0.75000000000000000       0.15625000000000000        0.0000000000000000     
  0.62500000000000000       0.18750000000000000        0.0000000000000000     
  0.65625000000000000       0.18750000000000000        0.0000000000000000     
  0.68750000000000000       0.18750000000000000        0.0000000000000000     
  0.71875000000000000       0.18750000000000000        0.0000000000000000     
  0.75000000000000000       0.18750000000000000        0.0000000000000000     
  0.62500000000000000       0.21875000000000000        0.0000000000000000     
  0.65625000000000000       0.21875000000000000        0.0000000000000000     
  0.68750000000000000       0.21875000000000000        0.0000000000000000     
  0.71875000000000000       0.21875000000000000        0.0000000000000000     
  0.75000000000000000       0.21875000000000000        0.0000000000000000     
  0.62500000000000000       0.25000000000000000        0.0000000000000000     
  0.65625000000000000       0.25000000000000000        0.0000000000000000     
  0.68750000000000000       0.25000000000000000        0.0000000000000000     
  0.71875000000000000       0.25000000000000000        0.0000000000000000     
  0.75000000000000000       0.25000000000000000        0.0000000000000000     
  0.75000000000000000       0.12500000000000000        0.0000000000000000     
  0.78125000000000000       0.12500000000000000        0.0000000000000000     
  0.81250000000000000       0.12500000000000000        0.0000000000000000     
  0.84375000000000000       0.12500000000000000        0.0000000000000000     
  0.87500000000000000       0.12500000000000000        0.0000000000000000     
  0.75000000000000000       0.15625000000000000        0.0000000000000000     
  0.78125000000000000       0.15625000000000000        0.0000000000000000     
  0.81250000000000000       0.15625000000000000        0.0000000000000000     
  0.84375000000000000       0.15625000000000000        0.0000000000000000     
  0.87500000000000000       0.15625000000000000        0.0000000000000000     
  0.75000000000000000       0.18750000000000000        0.0000000000000000     
  0.78125000000000000       0.18750000000000000        0.0000000000000000     
  0.81250000000000000       0.18750000000000000        0.0000000000000000     
  0.84375000000000000       0.18750000000000000        0.0000000000000000     
  0.87500000000000000       0.18750000000000000        0.0000000000000000     
  0.75000000000000000       0.21875000000000000        0.0000000000000000     
  0.78125000000000000       0.21875000000000000        0.0000000000000000     
  0.81250000000000000       0.21875000000000000        0.0000000000000000     
  0.84375000000000000       0.21875000000000000        0.0000000000000000     
  0.87500000000000000       0.21875000000000000        0.0000000000000000     
  0.75000000000000000       0.25000000000000000        0.0000000000000000     
  0.78125000000000000       0.25000000000000000        0.0000000000000000     
  0.81250000000000000       0.25000000000000000        0.0000000000000000     
  0.84375000000000000       0.25000000000000000        0.0000000000000000     
  0.87500000000000000       0.25000000000000000        0.0000000000000000     
  0.87500000000000000       0.12500000000000000        0.0000000000000000     
  0.90625000000000000       0.12500000000000000        0.0000000000000000     
  0.93750000000000000       0.12500000000000000        0.0000000000000000     
  0.96875000000000000       0.12500000000000000        0.0000000000000000     
   1.0000000000000000       0.12500000000000000        0.0000000000000000     
  0.87500000000000000       0.15625000000000000        0.0000000000000000     
  0.90625000000000000       0.15625000000000000        0.0000000000000000     
  0.93750000000000000       0.15625000000000000        0.0000000000000000     
  0.96875000000000000       0.15625000000000000        0.0000000000000000     
   1.0000000000000000       0.15625000000000000        0.0000000000000000     
  0.87500000000000000       0.18750000000000000        0.0000000000000000     
  0.90625000000000000       0.18750000000000000        0.0000000000000000     
  0.93750000000000000       0.18750000000000000        0.0000000000000000     
  0.96875000000000000       0.18750000000000000        0.0000000000000000     
   1.0000000000000000       0.18750000000000000        0.0000000000000000     
  0.87500000000000000       0.21875000000000000        0.0000000000000000     
  0.90625000000000000       0.21875000000000000        0.0000000000000000     
  0.93750000000000000       0.21875000000000000        0.0000000000000000     
  0.96875000000000000       0.21875000000000000        0.0000000000000000     
   1.0000000000000000       0.21875000000000000        0.0000000000000000     
  0.87500000000000000       0.25000000000000000        0.0000000000000000     
  0.90625000000000000       0.25000000000000000        0.0000000000000000     
  0.93750000000000000       0.25000000000000000        0.0000000000000000     
  0.96875000000000000       0.25000000000000000        0.0000000000000000     
   1.0000000000000000       0.25000000000000000        0.0000000000000000     
   1.0000000000000000       0.12500000000000000        0.0000000000000000     
   1.0312500000000000       0.12500000000000000        0.0000000000000000     
   1.0625000000000000       0.12500000000000000        0.0000000000000000     
   1.0937500000000000       0.12500000000000000        0.0000000000000000     
   1.1250000000000000       0.12500000000000000        0.0000000000000000     
   1.0000000000000000       0.15625000000000000        0.0000000000000000     
   1.0312500000000000       0.15625000000000000        0.0000000000000000     
   1.0625000000000000       0.15625000000000000        0.0000000000000000     
   1.0937500000000000       0.15625000000000000        0.0000000000000000     
   1.1250000000000000       0.15625000000000000        0.0000000000000000     
   1.0000000000000000       0.18750000000000000        0.0000000000000000     
   1.0312500000000000       0.18750000000000000        0.0000000000000000     
   1.0625000000000000       0.18750000000000000        0.0000000000000000     
   1.0937500000000000       0.18750000000000000        0.0000000000000000     
   1.1250000000000000       0.18750000000000000        0.0000000000000000     
   1.0000000000000000       0.21875000000000000        0.0000000000000000     
   1.0312500000000000       0.21875000000000000        0.0000000000000000     
   1.0625000000000000       0.21875000000000000        0.0000000000000000     
   1.0937500000000000       0.21875000000000000        0.0000000000000000     
   1.1250000000000000       0.21875000000000000        0.0000000000000000     
   1.0000000000000000       0.25000000000000000        0.0000000000000000     
   1.0312500000000000       0.25000000000000000        0.0000000000000000     
   1.0625000000000000       0.25000000000000000        0.0000000000000000     
   1.0937500000000000       0.25000000000000000        0.0000000000000000     
   1.1250000000000000       0.25000000000000000        0.0000000000000000     
   1.1250000000000000       0.12500000000000000        0.0000000000000000     
   1.1562500000000000       0.12500000000000000        0.0000000000000000     
   1.1875000000000000       0.12500000000000000        0.0000000000000000     
   1.2187500000000000       0.12500000000000000        0.0000000000000000     
   1.2500000000000000       0.12500000000000000        0.0000000000000000     
   1.1250000000000000       0.15625000000000000        0.0000000000000000     
   1.1562500000000000       0.15625000000000000        0.0000000000000000     
   1.1875000000000000       0.15625000000000000        0.0000000000000000     
   1.2187500000000000       0.15625000000000000        0.0000000000000000     
   1.2500000000000000       0.15625000000000000        0.0000000000000000     
   1.1250000000000000       0.18750000000000000        0.0000000000000000     
   1.1562500000000000       0.18750000000000000        0.0000000000000000     
   1.1875000000000000       0.18750000000000000        0.0000000000000000     
   1.2187500000000000       0.18750000000000000        0.0000000000000000     
   1.2500000000000000       0.18750000000000000        0.0000000000000000     
   1.1250000000000000       0.21875000000000000        0.0000000000000000     
   1.1562500000000000       0.21875000000000000        0.0000000000000000     
   1.1875000000000000       0.21875000000000000        0.0000000000000000     
   1.2187500000000000       0.21875000000000000        0.0000000000000000     
   1.2500000000000000       0.21875000000000000        0.0000000000000000     
   1.1250000000000000       0.25000000000000000        0.0000000000000000     
   1.1562500000000000       0.25000000000000000        0.0000000000000000     
   1.1875000000000000       0.25000000000000000        0.0000000000000000     
   1.2187500000000000       0.25000000000000000        0.0000000000000000     
   1.2500000000000000       0.25000000000000000        0.0000000000000000     
   1.2500000000000000       0.12500000000000000        0.0000000000000000     
   1.2812500000000000       0.12500000000000000        0.0000000000000000     
   1.3125000000000000       0.12500000000000000        0.0000000000000000     
   1.3437500000000000       0.12500000000000000        0.0000000000000000     
   1.3750000000000000       0.12500000000000000        0.0000000000000000     
   1.2500000000000000       0.15625000000000000        0.0000000000000000     
   1.2812500000000000       0.15625000000000000        0.0000000000000000     
   1.3125000000000000       0.15625000000000000        0.0000000000000000     
   1.3437500000000000       0.15625000000000000        0.0000000000000000     
   1.3750000000000000       0.15625000000000000        0.0000000000000000     
   1.2500000000000000       0.18750000000000000        0.0000000000000000     
   1.2812500000000000       0.18750000000000000        0.0000000000000000     
   1.3125000000000000       0.18750000000000000        0.0000000000000000     
   1.3437500000000000       0.18750000000000000        0.0000000000000000     
   1.3750000000000000       0.18750000000000000        0.0000000000000000     
   1.2500000000000000       0.21875000000000000        0.0000000000000000     
   1.2812500000000000       0.21875000000000000        0.0000000000000000     
   1.3125000000000000       0.21875000000000000        0.0000000000000000     
   1.3437500000000000       0.21875000000000000        0.0000000000000000     
   1.3750000000000000       0.21875000000000000        0.0000000000000000     
   1.2500000000000000       0.25000000000000000        0.0000000000000000     
   1.2812500000000000       0.25000000000000000        0.0000000000000000     
   1.3125000000000000       0.25000000000000000        0.0000000000000000     
   1.3437500000000000       0.25000000000000000        0.0000000000000000     
   1.3750000000000000       0.25000000000000000        0.0000000000000000     
   1.3750000000000000       0.12500000000000000        0.0000000000000000     
   1.4062500000000000       0.12500000000000000        0.0000000000000000     
   1.4375000000000000       0.12500000000000000        0.0000000000000000     
   1.4687500000000000       0.12500000000000000        0.0000000000000000     
   1.5000000000000000       0.12500000000000000        0.0000000000000000     
   1.3750000000000000       0.15625000000000000        0.0000000000000000     
   1.4062500000000000       0.15625000000000000        0.0000000000000000     
   1.4375000000000000       0.15625000000000000        0.0000000000000000     
   1.4687500000000000       0.15625000000000000        0.0000000000000000     
   1.5000000000000000       0.15625000000000000        0.0000000000000000     
   1.3750000000000000       0.18750000000000000        0.0000000000000000     
   1.4062500000000000       0.18750000000000000        0.0000000000000000     
   1.4375000000000000       0.18750000000000000        0.0000000000000000     
   1.4687500000000000       0.18750000000000000        0.0000000000000000     
   1.5000000000000000       0.18750000000000000        0.0000000000000000     
   1.3750000000000000       0.21875000000000000        0.0000000000000000     
   1.4062500000000000       0.21875000000000000        0.0000000000000000     
   1.4375000000000000       0.21875000000000000        0.0000000000000000     
   1.4687500000000000       0.21875000000000000        0.0000000000000000     
   1.5000000000000000       0.21875000000000000        0.0000000000000000     
   1.3750000000000000       0.25000000000000000        0.0000000000000000     
   1.4062500000000000       0.25000000000000000        0.0000000000000000     
   1.4375000000000000       0.25000000000000000        0.0000000000000000     
   1.4687500000000000       0.25000000000000000        0.0000000000000000     
   1.5000000000000000       0.25000000000000000        0.0000000000000000     
  0.50000000000000000       0.25000000000000000        0.0000000000000000     
  0.53125000000000000       0.25000000000000000        0.0000000000000000     
  0.56250000000000000       0.25000000000000000        0.0000000000000000     
  0.59375000000000000       0.25000000000000000        0.0000000000000000     
  0.62500000000000000       0.25000000000000000        0.0000000000000000     
  0.50000000000000000       0.28125000000000000        0.0000000000000000     
  0.53125000000000000       0.28125000000000000        0.0000000000000000     
  0.56250000000000000       0.28125000000000000        0.0000000000000000     
  0.59375000000000000       0.28125000000000000        0.0000000000000000     
  0.62500000000000000       0.28125000000000000        0.0000000000000000     
  0.50000000000000000       0.31250000000000000        0.0000000000000000     
  0.53125000000000000       0.31250000000000000        0.0000000000000000     
  0.56250000000000000       0.31250000000000000        0.0000000000000000     
  0.59375000000000000       0.31250000000000000        0.0000000000000000     
  0.62500000000000000       0.31250000000000000        0.0000000000000000     
  0.50000000000000000       0.34375000000000000        0.0000000000000000     
  0.53125000000000000       0.34375000000000000        0.0000000000000000     
  0.56250000000000000       0.34375000000000000        0.0000000000000000     
  0.59375000000000000       0.34375000000000000        0.0000000000000000     
  0.62500000000000000       0.34375000000000000        0.0000000000000000     
  0.50000000000000000       0.37500000000000000        0.0000000000000000     
  0.53125000000000000       0.37500000000000000        0.0000000000000000     
  0.56250000000000000       0.37500000000000000        0.0000000000000000     
  0.59375000000000000       0.37500000000000000        0.0000000000000000     
  0.62500000000000000       0.37500000000000000        0.0000000000000000     
  0.62500000000000000       0.25000000000000000        0.0000000000000000     
  0.65625000000000000       0.25000000000000000        0.0000000000000000     
  0.68750000000000000       0.25000000000000000        0.0000000000000000     
  0.71875000000000000       0.25000000000000000        0.0000000000000000     
  0.75000000000000000       0.25000000000000000        0.0000000000000000     
  0.62500000000000000       0.28125000000000000        0.0000000000000000     
  0.65625000000000000       0.28125000000000000        0.0000000000000000     
  0.68750000000000000       0.28125000000000000        0.0000000000000000     
  0.71875000000000000       0.28125000000000000        0.0000000000000000     
  0.75000000000000000       0.28125000000000000        0.0000000000000000     
  0.62500000000000000       0.31250000000000000        0.0000000000000000     
  0.65625000000000000       0.31250000000000000        0.0000000000000000     
  0.68750000000000000       0.31250000000000000        0.0000000000000000     
  0.71875000000000000       0.31250000000000000        0.0000000000000000     
  0.75000000000000000       0.31250000000000000        0.0000000000000000     
  0.62500000000000000       0.34375000000000000        0.0000000000000000     
  0.65625000000000000       0.34375000000000000        0.0000000000000000     
  0.68750000000000000       0.34375000000000000        0.0000000000000000     
  0.71875000000000000       0.34375000000000000        0.0000000000000000     
  0.75000000000000000       0.34375000000000000        0.0000000000000000     
  0.62500000000000000       0.37500000000000000        0.0000000000000000     
  0.65625000000000000       0.37500000000000000        0.0000000000000000     
  0.68750000000000000       0.37500000000000000        0.0000000000000000     
  0.71875000000000000       0.37500000000000000        0.0000000000000000     
  0.75000000000000000       0.37500000000000000        0.0000000000000000     
  0.75000000000000000       0.25000000000000000        0.0000000000000000     
  0.78125000000000000       0.25000000000000000        0.0000000000000000     
  0.81250000000000000       0.25000000000000000        0.0000000000000000     
  0.84375000000000000       0.25000000000000000        0.0000000000000000     
  0.87500000000000000       0.25000000000000000        0.0000000000000000     
  0.75000000000000000       0.28125000000000000        0.0000000000000000     
  0.78125000000000000       0.28125000000000000        0.0000000000000000     
  0.81250000000000000       0.28125000000000000        0.0000000000000000     
  0.84375000000000000       0.28125000000000000        0.0000000000000000     
  0.87500000000000000       0.28125000000000000        0.0000000000000000     
  0.75000000000000000       0.31250000000000000        0.0000000000000000     
  0.78125000000000000       0.31250000000000000        0.0000000000000000     
  0.81250000000000000       0.31250000000000000        0.0000000000000000     
  0.84375000000000000       0.31250000000000000        0.0000000000000000     
  0.87500000000000000       0.31250000000000000        0.0000000000000000     
  0.75000000000000000       0.34375000000000000        0.0000000000000000     
  0.78125000000000000       0.34375000000000000        0.0000000000000000     
  0.81250000000000000       0.34375000000000000        0.0000000000000000     
  0.84375000000000000       0.34375000000000000        0.0000000000000000     
  0.87500000000000000       0.34375000000000000        0.0000000000000000     
  0.75000000000000000       0.37500000000000000        0.0000000000000000     
  0.78125000000000000       0.37500000000000000        0.0000000000000000     
  0.81250000000000000       0.37500000000000000        0.0000000000000000     
  0.84375000000000000       0.37500000000000000        0.0000000000000000     
  0.87500000000000000       0.37500000000000000        0.0000000000000000     
  0.87500000000000000       0.25000000000000000        0.0000000000000000     
  0.90625000000000000       0.25000000000000000        0.0000000000000000     
  0.93750000000000000       0.25000000000000000        0.0000000000000000     
  0.96875000000000000       0.25000000000000000        0.0000000000000000     
   1.0000000000000000       0.25000000000000000        0.0000000000000000     
  0.87500000000000000       0.28125000000000000        0.0000000000000000     
  0.90625000000000000       0.28125000000000000        0.0000000000000000     
  0.93750000000000000       0.28125000000000000        0.0000000000000000     
  0.96875000000000000       0.28125000000000000        0.0000000000000000     
   1.0000000000000000       0.28125000000000000        0.0000000000000000     
  0.87500000000000000       0.31250000000000000        0.0000000000000000     
  0.90625000000000000       0.31250000000000000        0.0000000000000000     
  0.93750000000000000       0.31250000000000000        0.0000000000000000     
  0.96875000000000000       0.31250000000000000        0.0000000000000000     
   1.0000000000000000       0.31250000000000000        0.0000000000000000     
  0.87500000000000000       0.34375000000000000        0.0000000000000000     
  0.90625000000000000       0.34375000000000000        0.0000000000000000     
  0.93750000000000000       0.34375000000000000        0.0000000000000000     
  0.96875000000000000       0.34375000000000000        0.0000000000000000     
   1.0000000000000000       0.34375000000000000        0.0000000000000000     
  0.87500000000000000       0.37500000000000000        0.0000000000000000     
  0.90625000000000000       0.37500000000000000        0.0000000000000000     
  0.93750000000000000       0.37500000000000000        0.0000000000000000     
  0.96875000000000000       0.37500000000000000        0.0000000000000000     
   1.0000000000000000       0.37500000000000000        0.0000000000000000     
   1.0000000000000000       0.25000000000000000        0.0000000000000000     
   1.0312500000000000       0.25000000000000000        0.0000000000000000     
   1.0625000000000000       0.25000000000000000        0.0000000000000000     
   1.0937500000000000       0.25000000000000000        0.0000000000000000     
   1.1250000000000000       0.25000000000000000        0.0000000000000000     
   1.0000000000000000       0.28125000000000000        0.0000000000000000     
   1.0312500000000000       0.28125000000000000        0.0000000000000000     
   1.0625000000000000       0.28125000000000000        0.0000000000000000     
   1.0937500000000000       0.28125000000000000        0.0000000000000000     
   1.1250000000000000       0.28125000000000000        0.0000000000000000     
   1.0000000000000000       0.31250000000000000        0.0000000000000000     
   1.0312500000000000       0.31250000000000000        0.0000000000000000     
   1.0625000000000000       0.31250000000000000        0.0000000000000000     
   1.0937500000000000       0.31250000000000000        0.0000000000000000     
   1.1250000000000000       0.31250000000000000        0.0000000000000000     
   1.0000000000000000       0.34375000000000000        0.0000000000000000     
   1.0312500000000000       0.34375000000000000        0.0000000000000000     
   1.0625000000000000       0.34375000000000000        0.0000000000000000     
   1.0937500000000000       0.34375000000000000        0.0000000000000000     
   1.1250000000000000       0.34375000000000000        0.0000000000000000     
   1.0000000000000000       0.37500000000000000        0.0000000000000000     
   1.0312500000000000       0.37500000000000000        0.0000000000000000     
   1.0625000000000000       0.37500000000000000        0.0000000000000000     
   1.0937500000000000       0.37500000000000000        0.0000000000000000     
   1.1250000000000000       0.37500000000000000        0.0000000000000000     
   1.1250000000000000       0.25000000000000000        0.0000000000000000     
   1.1562500000000000       0.25000000000000000        0.0000000000000000     
   1.1875000000000000       0.25000000000000000        0.0000000000000000     
   1.2187500000000000       0.25000000000000000        0.0000000000000000     
   1.2500000000000000       0.25000000000000000        0.0000000000000000     
   1.1250000000000000       0.28125000000000000        0.0000000000000000     
   1.1562500000000000       0.28125000000000000        0.0000000000000000     
   1.1875000000000000       0.28125000000000000        0.0000000000000000     
   1.2187500000000000       0.28125000000000000        0.0000000000000000     
   1.2500000000000000       0.28125000000000000        0.0000000000000000     
   1.1250000000000000       0.31250000000000000        0.0000000000000000     
   1.1562500000000000       0.31250000000000000        0.0000000000000000     
   1.1875000000000000       0.31250000000000000        0.0000000000000000     
   1.2187500000000000       0.31250000000000000        0.0000000000000000     
   1.2500000000000000       0.31250000000000000        0.0000000000000000     
   1.1250000000000000       0.34375000000000000        0.0000000000000000     
   1.1562500000000000       0.34375000000000000        0.0000000000000000     
   1.1875000000000000       0.34375000000000000        0.0000000000000000     
   1.2187500000000000       0.34375000000000000        0.0000000000000000     
   1.2500000000000000       0.34375000000000000        0.0000000000000000     
   1.1250000000000000       0.37500000000000000        0.0000000000000000     
   1.1562500000000000       0.37500000000000000        0.0000000000000000     
   1.1875000000000000       0.37500000000000000        0.0000000000000000     
   1.2187500000000000       0.37500000000000000        0.0000000000000000     
   1.2500000000000000       0.37500000000000000        0.0000000000000000     
   1.2500000000000000       0.25000000000000000        0.0000000000000000     
   1.2812500000000000       0.25000000000000000        0.0000000000000000     
   1.3125000000000000       0.25000000000000000        0.0000000000000000     
   1.3437500000000000       0.25000000000000000        0.0000000000000000     
   1.3750000000000000       0.25000000000000000        0.0000000000000000     
   1.2500000000000000       0.28125000000000000        0.0000000000000000     
   1.2812500000000000       0.28125000000000000        0.0000000000000000     
   1.3125000000000000       0.28125000000000000        0.0000000000000000     
   1.3437500000000000       0.28125000000000000        0.0000000000000000     
   1.3750000000000000       0.28125000000000000        0.0000000000000000     
   1.2500000000000000       0.31250000000000000        0.0000000000000000     
   1.2812500000000000       0.31250000000000000        0.0000000000000000     
   1.3125000000000000       0.31250000000000000        0.0000000000000000     
   1.3437500000000000       0.31250000000000000        0.0000000000000000     
   1.3750000000000000       0.31250000000000000        0.0000000000000000     
   1.2500000000000000       0.34375000000000000        0.0000000000000000     
   1.2812500000000000       0.34375000000000000        0.0000000000000000     
   1.3125000000000000       0.34375000000000000        0.0000000000000000     
   1.3437500000000000       0.34375000000000000        0.0000000000000000     
   1.3750000000000000       0.34375000000000000        0.0000000000000000     
   1.2500000000000000       0.37500000000000000        0.0000000000000000     
   1.2812500000000000       0.37500000000000000        0.0000000000000000     
   1.3125000000000000       0.37500000000000000        0.0000000000000000     
   1.3437500000000000       0.37500000000000000        0.0000000000000000     
   1.3750000000000000       0.37500000000000000        0.0000000000000000     
   1.3750000000000000       0.25000000000000000        0.0000000000000000     
   1.4062500000000000       0.25000000000000000        0.0000000000000000     
   1.4375000000000000       0.25000000000000000        0.0000000000000000     
   1.4687500000000000       0.25000000000000000        0.0000000000000000     
   1.5000000000000000       0.25000000000000000        0.0000000000000000     
   1.3750000000000000       0.28125000000000000        0.0000000000000000     
   1.4062500000000000       0.28125000000000000        0.0000000000000000     
   1.4375000000000000       0.28125000000000000        0.0000000000000000     
   1.4687500000000000       0.28125000000000000        0.0000000000000000     
   1.5000000000000000       0.28125000000000000        0.0000000000000000     
   1.3750000000000000       0.31250000000000000        0.0000000000000000     
   1.4062500000000000       0.31250000000000000        0.0000000000000000     
   1.4375000000000000       0.31250000000000000        0.0000000000000000     
   1.4687500000000000       0.31250000000000000        0.0000000000000000     
   1.5000000000000000       0.31250000000000000        0.0000000000000000     
   1.3750000000000000       0.34375000000000000        0.0000000000000000     
   1.4062500000000000       0.34375000000000000        0.0000000000000000     
   1.4375000000000000       0.34375000000000000        0.0000000000000000     
   1.4687500000000000       0.34375000000000000        0.0000000000000000     
   1.5000000000000000       0.34375000000000000        0.0000000000000000     
   1.3750000000000000       0.37500000000000000        0.0000000000000000     
   1.4062500000000000       0.37500000000000000        0.0000000000000000     
   1.4375000000000000       0.37500000000000000        0.0000000000000000     
   1.4687500000000000       0.37500000000000000        0.0000000000000000     
   1.5000000000000000       0.37500000000000000        0.0000000000000000     
  0.50000000000000000       0.37500000000000000        0.0000000000000000     
  0.53125000000000000       0.37500000000000000        0.0000000000000000     
  0.56250000000000000       0.37500000000000000        0.0000000000000000     
  0.59375000000000000       0.37500000000000000        0.0000000000000000     
  0.62500000000000000       0.37500000000000000        0.0000000000000000     
  0.50000000000000000       0.40625000000000000        0.0000000000000000     
  0.53125000000000000       0.40625000000000000        0.0000000000000000     
  0.56250000000000000       0.40625000000000000        0.0000000000000000     
  0.59375000000000000       0.40625000000000000        0.0000000000000000     
  0.62500000000000000       0.40625000000000000        0.0000000000000000     
  0.50000000000000000       0.43750000000000000        0.0000000000000000     
  0.53125000000000000       0.43750000000000000        0.0000000000000000     
  0.56250000000000000       0.43750000000000000        0.0000000000000000     
  0.59375000000000000       0.43750000000000000        0.0000000000000000     
  0.62500000000000000       0.43750000000000000        0.0000000000000000     
  0.50000000000000000       0.46875000000000000        0.0000000000000000     
  0.53125000000000000       0.46875000000000000        0.0000000000000000     
  0.56250000000000000       0.46875000000000000        0.0000000000000000     
  0.59375000000000000       0.46875000000000000        0.0000000000000000     
  0.62500000000000000       0.46875000000000000        0.0000000000000000     
  0.50000000000000000       0.50000000000000000        0.0000000000000000     
  0.53125000000000000       0.50000000000000000        0.0000000000000000     
  0.56250000000000000       0.50000000000000000        0.0000000000000000     
  0.59375000000000000       0.50000000000000000        0.0000000000000000     
  0.62500000000000000       0.50000000000000000        0.0000000000000000     
  0.62500000000000000       0.37500000000000000        0.0000000000000000     
  0.65625000000000000       0.37500000000000000        0.0000000000000000     
  0.68750000000000000       0.37500000000000000        0.0000000000000000     
  0.71875000000000000       0.37500000000000000        0.0000000000000000     
  0.75000000000000000       0.37500000000000000        0.0000000000000000     
  0.62500000000000000       0.40625000000000000        0.0000000000000000     
  0.65625000000000000       0.40625000000000000        0.0000000000000000     
  0.68750000000000000       0.40625000000000000        0.0000000000000000     
  0.71875000000000000       0.40625000000000000        0.0000000000000000     
  0.75000000000000000       0.40625000000000000        0.0000000000000000     
  0.62500000000000000       0.43750000000000000        0.0000000000000000     
  0.65625000000000000       0.43750000000000000        0.0000000000000000     
  0.68750000000000000       0.43750000000000000        0.0000000000000000     
  0.71875000000000000       0.43750000000000000        0.0000000000000000     
  0.75000000000000000       0.43750000000000000        0.0000000000000000     
  0.62500000000000000       0.46875000000000000        0.0000000000000000     
  0.65625000000000000       0.46875000000000000        0.0000000000000000     
  0.68750000000000000       0.46875000000000000        0.0000000000000000     
  0.71875000000000000       0.46875000000000000        0.0000000000000000     
  0.75000000000000000       0.46875000000000000        0.0000000000000000     
  0.62500000000000000       0.50000000000000000        0.0000000000000000     
  0.65625000000000000       0.50000000000000000        0.0000000000000000     
  0.68750000000000000       0.50000000000000000        0.0000000000000000     
  0.71875000000000000       0.50000000000000000        0.0000000000000000     
  0.75000000000000000       0.50000000000000000        0.0000000000000000     
  0.75000000000000000       0.37500000000000000        0.0000000000000000     
  0.78125000000000000       0.37500000000000000        0.0000000000000000     
  0.81250000000000000       0.37500000000000000        0.0000000000000000     
  0.84375000000000000       0.37500000000000000        0.0000000000000000     
  0.87500000000000000       0.37500000000000000        0.0000000000000000     
  0.75000000000000000       0.40625000000000000        0.0000000000000000     
  0.78125000000000000       0.40625000000000000        0.0000000000000000     
  0.81250000000000000       0.40625000000000000        0.0000000000000000     
  0.84375000000000000       0.40625000000000000        0.0000000000000000     
  0.87500000000000000       0.40625000000000000        0.0000000000000000     
  0.75000000000000000       0.43750000000000000        0.0000000000000000     
  0.78125000000000000       0.43750000000000000        0.0000000000000000     
  0.81250000000000000       0.43750000000000000        0.0000000000000000     
  0.84375000000000000       0.43750000000000000        0.0000000000000000     
  0.87500000000000000       0.43750000000000000        0.0000000000000000     
  0.75000000000000000       0.46875000000000000        0.0000000000000000     
  0.78125000000000000       0.46875000000000000        0.0000000000000000     
  0.81250000000000000       0.46875000000000000        0.0000000000000000     
  0.84375000000000000       0.46875000000000000        0.0000000000000000     
  0.87500000000000000       0.46875000000000000        0.0000000000000000     
  0.75000000000000000       0.50000000000000000        0.0000000000000000     
  0.78125000000000000       0.50000000000000000        0.0000000000000000     
  0.81250000000000000       0.50000000000000000        0.0000000000000000     
  0.84375000000000000       0.50000000000000000        0.0000000000000000     
  0.87500000000000000       0.50000000000000000        0.0000000000000000     
  0.87500000000000000       0.37500000000000000        0.0000000000000000     
  0.90625000000000000       0.37500000000000000        0.0000000000000000     
  0.93750000000000000       0.37500000000000000        0.0000000000000000     
  0.96875000000000000       0.37500000000000000        0.0000000000000000     
   1.0000000000000000       0.37500000000000000        0.0000000000000000     
  0.87500000000000000       0.40625000000000000        0.0000000000000000     
  0.90625000000000000       0.40625000000000000        0.0000000000000000     
  0.93750000000000000       0.40625000000000000        0.0000000000000000     
  0.96875000000000000       0.40625000000000000        0.0000000000000000     
   1.0000000000000000       0.40625000000000000        0.0000000000000000     
  0.87500000000000000       0.43750000000000000        0.0000000000000000     
  0.90625000000000000       0.43750000000000000        0.0000000000000000     
  0.93750000000000000       0.43750000000000000        0.0000000000000000     
  0.96875000000000000       0.43750000000000000        0.0000000000000000     
   1.0000000000000000       0.43750000000000000        0.0000000000000000     
  0.87500000000000000       0.46875000000000000        0.0000000000000000     
  0.90625000000000000       0.46875000000000000        0.0000000000000000     
  0.93750000000000000       0.46875000000000000        0.0000000000000000     
  0.96875000000000000       0.46875000000000000        0.0000000000000000     
   1.0000000000000000       0.46875000000000000        0.0000000000000000     
  0.87500000000000000       0.50000000000000000        0.0000000000000000     
  0.90625000000000000       0.50000000000000000        0.0000000000000000     
  0.93750000000000000       0.50000000000000000        0.0000000000000000     
  0.96875000000000000       0.50000000000000000        0.0000000000000000     
   1.0000000000000000       0.50000000000000000        0.0000000000000000     
   1.0000000000000000       0.37500000000000000        0.0000000000000000     
   1.0312500000000000       0.37500000000000000        0.0000000000000000     
   1.0625000000000000       0.37500000000000000        0.0000000000000000     
   1.0937500000000000       0.37500000000000000        0.0000000000000000     
   1.1250000000000000       0.37500000000000000        0.0000000000000000     
   1.0000000000000000       0.40625000000000000        0.0000000000000000     
   1.0312500000000000       0.40625000000000000        0.0000000000000000     
   1.0625000000000000       0.40625000000000000        0.0000000000000000     
   1.0937500000000000       0.40625000000000000        0.0000000000000000     
   1.1250000000000000       0.40625000000000000        0.0000000000000000     
   1.0000000000000000       0.43750000000000000        0.0000000000000000     
   1.0312500000000000       0.43750000000000000        0.0000000000000000     
   1.0625000000000000       0.43750000000000000        0.0000000000000000     
   1.0937500000000000       0.43750000000000000        0.0000000000000000     
   1.1250000000000000       0.43750000000000000        0.0000000000000000     
   1.0000000000000000       0.46875000000000000        0.0000000000000000     
   1.0312500000000000       0.46875000000000000        0.0000000000000000     
   1.0625000000000000       0.46875000000000000        0.0000000000000000     
   1.0937500000000000       0.46875000000000000        0.0000000000000000     
   1.1250000000000000       0.46875000000000000        0.0000000000000000     
   1.0000000000000000       0.50000000000000000        0.0000000000000000     
   1.0312500000000000       0.50000000000000000        0.0000000000000000     
   1.0625000000000000       0.50000000000000000        0.0000000000000000     
   1.0937500000000000       0.50000000000000000        0.0000000000000000     
   1.1250000000000000       0.50000000000000000        0.0000000000000000     
   1.1250000000000000       0.37500000000000000        0.0000000000000000     
   1.1562500000000000       0.37500000000000000        0.0000000000000000     
   1.1875000000000000       0.37500000000000000        0.0000000000000000     
   1.2187500000000000       0.37500000000000000        0.0000000000000000     
   1.2500000000000000       0.37500000000000000        0.0000000000000000     
   1.1250000000000000       0.40625000000000000        0.0000000000000000     
   1.1562500000000000       0.40625000000000000        0.0000000000000000     
   1.1875000000000000       0.40625000000000000        0.0000000000000000     
   1.2187500000000000       0.40625000000000000        0.0000000000000000     
   1.2500000000000000       0.40625000000000000        0.0000000000000000     
   1.1250000000000000       0.43750000000000000        0.0000000000000000     
   1.1562500000000000       0.43750000000000000        0.0000000000000000     
   1.1875000000000000       0.43750000000000000        0.0000000000000000     
   1.2187500000000000       0.43750000000000000        0.0000000000000000     
   1.2500000000000000       0.43750000000000000        0.0000000000000000     
   1.1250000000000000       0.46875000000000000        0.0000000000000000     
   1.1562500000000000       0.46875000000000000        0.0000000000000000     
   1.1875000000000000       0.46875000000000000        0.0000000000000000     
   1.2187500000000000       0.46875000000000000        0.0000000000000000     
   1.2500000000000000       0.46875000000000000        0.0000000000000000     
   1.1250000000000000       0.50000000000000000        0.0000000000000000     
   1.1562500000000000       0.50000000000000000        0.0000000000000000     
   1.1875000000000000       0.50000000000000000        0.0000000000000000     
   1.2187500000000000       0.50000000000000000        0.0000000000000000     
   1.2500000000000000       0.50000000000000000        0.0000000000000000     
   1.2500000000000000       0.37500000000000000        0.0000000000000000     
   1.2812500000000000       0.37500000000000000        0.0000000000000000     
   1.3125000000000000       0.37500000000000000        0.0000000000000000     
   1.3437500000000000       0.37500000000000000        0.0000000000000000     
   1.3750000000000000       0.37500000000000000        0.0000000000000000     
   1.2500000000000000       0.40625000000000000        0.0000000000000000     
   1.2812500000000000       0.40625000000000000        0.0000000000000000     
   1.3125000000000000       0.40625000000000000        0.0000000000000000     
   1.3437500000000000       0.40625000000000000        0.0000000000000000     
   1.3750000000000000       0.40625000000000000        0.0000000000000000     
   1.2500000000000000       0.43750000000000000        0.0000000000000000     
   1.2812500000000000       0.43750000000000000        0.0000000000000000     
   1.3125000000000000       0.43750000000000000        0.0000000000000000     
   1.3437500000000000       0.43750000000000000        0.0000000000000000     
   1.3750000000000000       0.43750000000000000        0.0000000000000000     
   1.2500000000000000       0.46875000000000000        0.0000000000000000     
   1.2812500000000000       0.46875000000000000        0.0000000000000000     
   1.3125000000000000       0.46875000000000000        0.0000000000000000     
   1.3437500000000000       0.46875000000000000        0.0000000000000000     
   1.3750000000000000       0.46875000000000000        0.0000000000000000     
   1.2500000000000000       0.50000000000000000        0.0000000000000000     
   1.2812500000000000       0.50000000000000000        0.0000000000000000     
   1.3125000000000000       0.50000000000000000        0.0000000000000000     
   1.3437500000000000       0.50000000000000000        0.0000000000000000     
   1.3750000000000000       0.50000000000000000        0.0000000000000000     
   1.3750000000000000       0.37500000000000000        0.0000000000000000     
   1.4062500000000000       0.37500000000000000        0.0000000000000000     
   1.4375000000000000       0.37500000000000000        0.0000000000000000     
   1.4687500000000000       0.37500000000000000        0.0000000000000000     
   1.5000000000000000       0.37500000000000000        0.0000000000000000     
   1.3750000000000000       0.40625000000000000        0.0000000000000000     
   1.4062500000000000       0.40625000000000000        0.0000000000000000     
   1.4375000000000000       0.40625000000000000        0.0000000000000000     
   1.4687500000000000       0.40625000000000000        0.0000000000000000     
   1.5000000000000000       0.40625000000000000        0.0000000000000000     
   1.3750000000000000       0.43750000000000000        0.0000000000000000     
   1.4062500000000000       0.43750000000000000        0.0000000000000000     
   1.4375000000000000       0.43750000000000000        0.0000000000000000     
   1.4687500000000000       0.43750000000000000        0.0000000000000000     
   1.5000000000000000       0.43750000000000000        0.0000000000000000     
   1.3750000000000000       0.46875000000000000        0.0000000000000000     
   1.4062500000000000       0.46875000000000000        0.0000000000000000     
   1.4375000000000000       0.46875000000000000        0.0000000000000000     
   1.4687500000000000       0.46875000000000000        0.0000000000000000     
   1.5000000000000000       0.46875000000000000        0.0000000000000000     
   1.3750000000000000       0.50000000000000000        0.0000000000000000     
   1.4062500000000000       0.50000000000000000        0.0000000000000000     
   1.4375000000000000       0.50000000000000000        0.0000000000000000     
   1.4687500000000000       0.50000000000000000        0.0000000000000000     
   1.5000000000000000       0.50000000000000000        0.0000000000000000     
  0.50000000000000000       0.50000000000000000        0.0000000000000000     
  0.53125000000000000       0.50000000000000000        0.0000000000000000     
  0.56250000000000000       0.50000000000000000        0.0000000000000000     
  0.59375000000000000       0.50000000000000000        0.0000000000000000     
  0.62500000000000000       0.50000000000000000        0.0000000000000000     
  0.50000000000000000       0.53125000000000000        0.0000000000000000     
  0.53125000000000000       0.53125000000000000        0.0000000000000000     
  0.56250000000000000       0.53125000000000000        0.0000000000000000     
  0.59375000000000000       0.53125000000000000        0.0000000000000000     
  0.62500000000000000       0.53125000000000000        0.0000000000000000     
  0.50000000000000000       0.56250000000000000        0.0000000000000000     
  0.53125000000000000       0.56250000000000000        0.0000000000000000     
  0.56250000000000000       0.56250000000000000        0.0000000000000000     
  0.59375000000000000       0.56250000000000000        0.0000000000000000     
  0.62500000000000000       0.56250000000000000        0.0000000000000000     
  0.50000000000000000       0.59375000000000000        0.0000000000000000     
  0.53125000000000000       0.59375000000000000        0.0000000000000000     
  0.56250000000000000       0.59375000000000000        0.0000000000000000     
  0.59375000000000000       0.59375000000000000        0.0000000000000000     
  0.62500000000000000       0.59375000000000000        0.0000000000000000     
  0.50000000000000000       0.62500000000000000        0.0000000000000000     
  0.53125000000000000       0.62500000000000000        0.0000000000000000     
  0.56250000000000000       0.62500000000000000        0.0000000000000000     
  0.59375000000000000       0.62500000000000000        0.0000000000000000     
  0.62500000000000000       0.62500000000000000        0.0000000000000000     
  0.62500000000000000       0.50000000000000000        0.0000000000000000     
  0.65625000000000000       0.50000000000000000        0.0000000000000000     
  0.68750000000000000       0.50000000000000000        0.0000000000000000     
  0.71875000000000000       0.50000000000000000        0.0000000000000000     
  0.75000000000000000       0.50000000000000000        0.0000000000000000     
  0.62500000000000000       0.53125000000000000        0.0000000000000000     
  0.65625000000000000       0.53125000000000000        0.0000000000000000     
  0.68750000000000000       0.53125000000000000        0.0000000000000000     
  0.71875000000000000       0.53125000000000000        0.0000000000000000     
  0.75000000000000000       0.53125000000000000        0.0000000000000000     
  0.62500000000000000       0.56250000000000000        0.0000000000000000     
  0.65625000000000000       0.56250000000000000        0.0000000000000000     
  0.68750000000000000       0.56250000000000000        0.0000000000000000     
  0.71875000000000000       0.56250000000000000        0.0000000000000000     
  0.75000000000000000       0.56250000000000000        0.0000000000000000     
  0.62500000000000000       0.59375000000000000        0.0000000000000000     
  0.65625000000000000       0.59375000000000000        0.0000000000000000     
  0.68750000000000000       0.59375000000000000        0.0000000000000000     
  0.71875000000000000       0.59375000000000000        0.0000000000000000     
  0.75000000000000000       0.59375000000000000        0.0000000000000000     
  0.62500000000000000       0.62500000000000000        0.0000000000000000     
  0.65625000000000000       0.62500000000000000        0.0000000000000000     
  0.68750000000000000       0.62500000000000000        0.0000000000000000     
  0.71875000000000000       0.62500000000000000        0.0000000000000000     
  0.75000000000000000       0.62500000000000000        0.0000000000000000     
  0.75000000000000000       0.50000000000000000        0.0000000000000000     
  0.78125000000000000       0.50000000000000000        0.0000000000000000     
  0.81250000000000000       0.50000000000000000        0.0000000000000000     
  0.84375000000000000       0.50000000000000000        0.0000000000000000     
  0.87500000000000000       0.50000000000000000        0.0000000000000000     
  0.75000000000000000       0.53125000000000000        0.0000000000000000     
  0.78125000000000000       0.53125000000000000        0.0000000000000000     
  0.81250000000000000       0.53125000000000000        0.0000000000000000     
  0.84375000000000000       0.53125000000000000        0.0000000000000000     
  0.87500000000000000       0.53125000000000000        0.0000000000000000     
  0.75000000000000000       0.56250000000000000        0.0000000000000000     
  0.78125000000000000       0.56250000000000000        0.0000000000000000     
  0.81250000000000000       0.56250000000000000        0.0000000000000000     
  0.84375000000000000       0.56250000000000000        0.0000000000000000     
  0.87500000000000000       0.56250000000000000        0.0000000000000000     
  0.75000000000000000       0.59375000000000000        0.0000000000000000     
  0.78125000000000000       0.59375000000000000        0.0000000000000000     
  0.81250000000000000       0.59375000000000000        0.0000000000000000     
  0.84375000000000000       0.59375000000000000        0.0000000000000000     
  0.87500000000000000       0.59375000000000000        0.0000000000000000     
  0.75000000000000000       0.62500000000000000        0.0000000000000000     
  0.78125000000000000       0.62500000000000000        0.0000000000000000     
  0.81250000000000000       0.62500000000000000        0.0000000000000000     
  0.84375000000000000       0.62500000000000000        0.0000000000000000     
  0.87500000000000000       0.62500000000000000        0.0000000000000000     
  0.87500000000000000       0.50000000000000000        0.0000000000000000     
  0.90625000000000000       0.50000000000000000        0.0000000000000000     
  0.93750000000000000       0.50000000000000000        0.0000000000000000     
  0.96875000000000000       0.50000000000000000        0.0000000000000000     
   1.0000000000000000       0.50000000000000000        0.0000000000000000     
  0.87500000000000000       0.53125000000000000        0.0000000000000000     
  0.90625000000000000       0.53125000000000000        0.0000000000000000     
  0.93750000000000000       0.53125000000000000        0.0000000000000000     
  0.96875000000000000       0.53125000000000000        0.0000000000000000     
   1.0000000000000000       0.53125000000000000        0.0000000000000000     
  0.87500000000000000       0.56250000000000000        0.0000000000000000     
  0.90625000000000000       0.56250000000000000        0.0000000000000000     
  0.93750000000000000       0.56250000000000000        0.0000000000000000     
  0.96875000000000000       0.56250000000000000        0.0000000000000000     
   1.0000000000000000       0.56250000000000000        0.0000000000000000     
  0.87500000000000000       0.59375000000000000        0.0000000000000000     
  0.90625000000000000       0.59375000000000000        0.0000000000000000     
  0.93750000000000000       0.59375000000000000        0.0000000000000000     
  0.96875000000000000       0.59375000000000000        0.0000000000000000     
   1.0000000000000000       0.59375000000000000        0.0000000000000000     
  0.87500000000000000       0.62500000000000000        0.0000000000000000     
  0.90625000000000000       0.62500000000000000        0.0000000000000000     
  0.93750000000000000       0.62500000000000000        0.0000000000000000     
  0.96875000000000000       0.62500000000000000        0.0000000000000000     
   1.0000000000000000       0.62500000000000000        0.0000000000000000     
   1.0000000000000000       0.50000000000000000        0.0000000000000000     
   1.0312500000000000       0.50000000000000000        0.0000000000000000     
   1.0625000000000000       0.50000000000000000        0.0000000000000000     
   1.0937500000000000       0.50000000000000000        0.0000000000000000     
   1.1250000000000000       0.50000000000000000        0.0000000000000000     
   1.0000000000000000       0.53125000000000000        0.0000000000000000     
   1.0312500000000000       0.53125000000000000        0.0000000000000000     
   1.0625000000000000       0.53125000000000000        0.0000000000000000     
   1.0937500000000000       0.53125000000000000        0.0000000000000000     
   1.1250000000000000       0.53125000000000000        0.0000000000000000     
   1.0000000000000000       0.56250000000000000        0.0000000000000000     
   1.0312500000000000       0.56250000000000000        0.0000000000000000     
   1.0625000000000000       0.56250000000000000        0.0000000000000000     
   1.0937500000000000       0.56250000000000000        0.0000000000000000     
   1.1250000000000000       0.56250000000000000        0.0000000000000000     
   1.0000000000000000       0.59375000000000000        0.0000000000000000     
   1.0312500000000000       0.59375000000000000        0.0000000000000000     
   1.0625000000000000       0.59375000000000000        0.0000000000000000     
   1.0937500000000000       0.59375000000000000        0.0000000000000000     
   1.1250000000000000       0.59375000000000000        0.0000000000000000     
   1.0000000000000000       0.62500000000000000        0.0000000000000000     
   1.0312500000000000       0.62500000000000000        0.0000000000000000     
   1.0625000000000000       0.62500000000000000        0.0000000000000000     
   1.0937500000000000       0.62500000000000000        0.0000000000000000     
   1.1250000000000000       0.62500000000000000        0.0000000000000000     
   1.1250000000000000       0.50000000000000000        0.0000000000000000     
   1.1562500000000000       0.50000000000000000        0.0000000000000000     
   1.1875000000000000       0.50000000000000000        0.0000000000000000     
   1.2187500000000000       0.50000000000000000        0.0000000000000000     
   1.2500000000000000       0.50000000000000000        0.0000000000000000     
   1.1250000000000000       0.53125000000000000        0.0000000000000000     
   1.1562500000000000       0.53125000000000000        0.0000000000000000     
   1.1875000000000000       0.53125000000000000        0.0000000000000000     
   1.2187500000000000       0.53125000000000000        0.0000000000000000     
   1.2500000000000000       0.53125000000000000        0.0000000000000000     
   1.1250000000000000       0.56250000000000000        0.0000000000000000     
   1.1562500000000000       0.56250000000000000        0.0000000000000000     
   1.1875000000000000       0.56250000000000000        0.0000000000000000     
   1.2187500000000000       0.56250000000000000        0.0000000000000000     
   1.2500000000000000       0.56250000000000000        0.0000000000000000     
   1.1250000000000000       0.59375000000000000        0.0000000000000000     
   1.1562500000000000       0.59375000000000000        0.0000000000000000     
   1.1875000000000000       0.59375000000000000        0.0000000000000000     
   1.2187500000000000       0.59375000000000000        0.0000000000000000     
   1.2500000000000000       0.59375000000000000        0.0000000000000000     
   1.1250000000000000       0.62500000000000000        0.0000000000000000     
   1.1562500000000000       0.62500000000000000        0.0000000000000000     
   1.1875000000000000       0.62500000000000000        0.0000000000000000     
   1.2187500000000000       0.62500000000000000        0.0000000000000000     
   1.2500000000000000       0.62500000000000000        0.0000000000000000     
   1.2500000000000000       0.50000000000000000        0.0000000000000000     
   1.2812500000000000       0.50000000000000000        0.0000000000000000     
   1.3125000000000000       0.50000000000000000        0.0000000000000000     
   1.3437500000000000       0.50000000000000000        0.0000000000000000     
   1.3750000000000000       0.50000000000000000        0.0000000000000000     
   1.2500000000000000       0.53125000000000000        0.0000000000000000     
   1.2812500000000000       0.53125000000000000        0.0000000000000000     
   1.3125000000000000       0.53125000000000000        0.0000000000000000     
   1.3437500000000000       0.53125000000000000        0.0000000000000000     
   1.3750000000000000       0.53125000000000000        0.0000000000000000     
   1.2500000000000000       0.56250000000000000        0.0000000000000000     
   1.2812500000000000       0.56250000000000000        0.0000000000000000     
   1.3125000000000000       0.56250000000000000        0.0000000000000000     
   1.3437500000000000       0.56250000000000000        0.0000000000000000     
   1.3750000000000000       0.56250000000000000        0.0000000000000000     
   1.2500000000000000       0.59375000000000000        0.0000000000000000     
   1.2812500000000000       0.59375000000000000        0.0000000000000000     
   1.3125000000000000       0.59375000000000000        0.0000000000000000     
   1.3437500000000000       0.59375000000000000        0.0000000000000000     
   1.3750000000000000       0.59375000000000000        0.0000000000000000     
   1.2500000000000000       0.62500000000000000        0.0000000000000000     
   1.2812500000000000       0.62500000000000000        0.0000000000000000     
   1.3125000000000000       0.62500000000000000        0.0000000000000000     
   1.3437500000000000       0.62500000000000000        0.0000000000000000     
   1.3750000000000000       0.62500000000000000        0.0000000000000000     
   1.3750000000000000       0.50000000000000000        0.0000000000000000     
   1.4062500000000000       0.50000000000000000        0.0000000000000000     
   1.4375000000000000       0.50000000000000000        0.0000000000000000     
   1.4687500000000000       0.50000000000000000        0.0000000000000000     
   1.5000000000000000       0.50000000000000000        0.0000000000000000     
   1.3750000000000000       0.53125000000000000        0.0000000000000000     
   1.4062500000000000       0.53125000000000000        0.0000000000000000     
   1.4375000000000000       0.53125000000000000        0.0000000000000000     
   1.4687500000000000       0.53125000000000000        0.0000000000000000     
   1.5000000000000000       0.53125000000000000        0.0000000000000000     
   1.3750000000000000       0.56250000000000000        0.0000000000000000     
   1.4062500000000000       0.56250000000000000        0.0000000000000000     
   1.4375000000000000       0.56250000000000000        0.0000000000000000     
   1.4687500000000000       0.56250000000000000        0.0000000000000000     
   1.5000000000000000       0.56250000000000000        0.0000000000000000     
   1.3750000000000000       0.59375000000000000        0.0000000000000000     
   1.4062500000000000       0.59375000000000000        0.0000000000000000     
   1.4375000000000000       0.59375000000000000        0.0000000000000000     
   1.4687500000000000       0.59375000000000000        0.0000000000000000     
   1.5000000000000000       0.59375000000000000        0.0000000000000000     
   1.3750000000000000       0.62500000000000000        0.0000000000000000     
   1.4062500000000000       0.62500000000000000        0.0000000000000000     
   1.4375000000000000       0.62500000000000000        0.0000000000000000     
   1.4687500000000000       0.62500000000000000        0.0000000000000000     
   1.5000000000000000       0.62500000000000000        0.0000000000000000     
  0.50000000000000000       0.62500000000000000        0.0000000000000000     
  0.53125000000000000       0.62500000000000000        0.0000000000000000     
  0.56250000000000000       0.62500000000000000        0.0000000000000000     
  0.59375000000000000       0.62500000000000000        0.0000000000000000     
  0.62500000000000000       0.62500000000000000        0.0000000000000000     
  0.50000000000000000       0.65625000000000000        0.0000000000000000     
  0.53125000000000000       0.65625000000000000        0.0000000000000000     
  0.56250000000000000       0.65625000000000000        0.0000000000000000     
  0.59375000000000000       0.65625000000000000        0.0000000000000000     
  0.62500000000000000       0.65625000000000000        0.0000000000000000     
  0.50000000000000000       0.68750000000000000        0.0000000000000000     
  0.53125000000000000       0.68750000000000000        0.0000000000000000     
  0.56250000000000000       0.68750000000000000        0.0000000000000000     
  0.59375000000000000       0.68750000000000000        0.0000000000000000     
  0.62500000000000000       0.68750000000000000        0.0000000000000000     
  0.50000000000000000       0.71875000000000000        0.0000000000000000     
  0.53125000000000000       0.71875000000000000        0.0000000000000000     
  0.56250000000000000       0.71875000000000000        0.0000000000000000     
  0.59375000000000000       0.71875000000000000        0.0000000000000000     
  0.62500000000000000       0.71875000000000000        0.0000000000000000     
  0.50000000000000000       0.75000000000000000        0.0000000000000000     
  0.53125000000000000       0.75000000000000000        0.0000000000000000     
  0.56250000000000000       0.75000000000000000        0.0000000000000000     
  0.59375000000000000       0.75000000000000000        0.0000000000000000     
  0.62500000000000000       0.75000000000000000        0.0000000000000000     
  0.62500000000000000       0.62500000000000000        0.0000000000000000     
  0.65625000000000000       0.62500000000000000        0.0000000000000000     
  0.68750000000000000       0.62500000000000000        0.0000000000000000     
  0.71875000000000000       0.62500000000000000        0.0000000000000000     
  0.75000000000000000       0.62500000000000000        0.0000000000000000     
  0.62500000000000000       0.65625000000000000        0.0000000000000000     
  0.65625000000000000       0.65625000000000000        0.0000000000000000     
  0.68750000000000000       0.65625000000000000        0.0000000000000000     
  0.71875000000000000       0.65625000000000000        0.0000000000000000     
  0.75000000000000000       0.65625000000000000        0.0000000000000000     
  0.62500000000000000       0.68750000000000000        0.0000000000000000     
  0.65625000000000000       0.68750000000000000        0.0000000000000000     
  0.68750000000000000       0.68750000000000000        0.0000000000000000     
  0.71875000000000000       0.68750000000000000        0.0000000000000000     
  0.75000000000000000       0.68750000000000000        0.0000000000000000     
  0.62500000000000000       0.71875000000000000        0.0000000000000000     
  0.65625000000000000       0.71875000000000000        0.0000000000000000     
  0.68750000000000000       0.71875000000000000        0.0000000000000000     
  0.71875000000000000       0.71875000000000000        0.0000000000000000     
  0.75000000000000000       0.71875000000000000        0.0000000000000000     
  0.62500000000000000       0.75000000000000000        0.0000000000000000     
  0.65625000000000000       0.75000000000000000        0.0000000000000000     
  0.68750000000000000       0.75000000000000000        0.0000000000000000     
  0.71875000000000000       0.75000000000000000        0.0000000000000000     
  0.75000000000000000       0.75000000000000000        0.0000000000000000     
  0.75000000000000000       0.62500000000000000        0.0000000000000000     
  0.78125000000000000       0.62500000000000000        0.0000000000000000     
  0.81250000000000000       0.62500000000000000        0.0000000000000000     
  0.84375000000000000       0.62500000000000000        0.0000000000000000     
  0.87500000000000000       0.62500000000000000        0.0000000000000000     
  0.75000000000000000       0.65625000000000000        0.0000000000000000     
  0.78125000000000000       0.65625000000000000        0.0000000000000000     
  0.81250000000000000       0.65625000000000000        0.0000000000000000     
  0.84375000000000000       0.65625000000000000        0.0000000000000000     
  0.87500000000000000       0.65625000000000000        0.0000000000000000     
  0.75000000000000000       0.68750000000000000        0.0000000000000000     
  0.78125000000000000       0.68750000000000000        0.0000000000000000     
  0.81250000000000000       0.68750000000000000        0.0000000000000000     
  0.84375000000000000       0.68750000000000000        0.0000000000000000     
  0.87500000000000000       0.68750000000000000        0.0000000000000000     
  0.75000000000000000       0.71875000000000000        0.0000000000000000     
  0.78125000000000000       0.71875000000000000        0.0000000000000000     
  0.81250000000000000       0.71875000000000000        0.0000000000000000     
  0.84375000000000000       0.71875000000000000        0.0000000000000000     
  0.87500000000000000       0.71875000000000000        0.0000000000000000     
  0.75000000000000000       0.75000000000000000        0.0000000000000000     
  0.78125000000000000       0.75000000000000000        0.0000000000000000     
  0.81250000000000000       0.75000000000000000        0.0000000000000000     
  0.84375000000000000       0.75000000000000000        0.0000000000000000     
  0.87500000000000000       0.75000000000000000        0.0000000000000000     
  0.87500000000000000       0.62500000000000000        0.0000000000000000     
  0.90625000000000000       0.62500000000000000        0.0000000000000000     
  0.93750000000000000       0.62500000000000000        0.0000000000000000     
  0.96875000000000000       0.62500000000000000        0.0000000000000000     
   1.0000000000000000       0.62500000000000000        0.0000000000000000     
  0.87500000000000000       0.65625000000000000        0.0000000000000000     
  0.90625000000000000       0.65625000000000000        0.0000000000000000     
  0.93750000000000000       0.65625000000000000        0.0000000000000000     
  0.96875000000000000       0.65625000000000000        0.0000000000000000     
   1.0000000000000000       0.65625000000000000        0.0000000000000000     
  0.87500000000000000       0.68750000000000000        0.0000000000000000     
  0.90625000000000000       0.68750000000000000        0.0000000000000000     
  0.93750000000000000       0.68750000000000000        0.0000000000000000     
  0.96875000000000000       0.68750000000000000        0.0000000000000000     
   1.0000000000000000       0.68750000000000000        0.0000000000000000     
  0.87500000000000000       0.71875000000000000        0.0000000000000000     
  0.90625000000000000       0.71875000000000000        0.0000000000000000     
  0.93750000000000000       0.71875000000000000        0.0000000000000000     
  0.96875000000000000       0.71875000000000000        0.0000000000000000     
   1.0000000000000000       0.71875000000000000        0.0000000000000000     
  0.87500000000000000       0.75000000000000000        0.0000000000000000     
  0.90625000000000000       0.75000000000000000        0.0000000000000000     
  0.93750000000000000       0.75000000000000000        0.0000000000000000     
  0.96875000000000000       0.75000000000000000        0.0000000000000000     
   1.0000000000000000       0.75000000000000000        0.0000000000000000     
   1.0000000000000000       0.62500000000000000        0.0000000000000000     
   1.0312500000000000       0.62500000000000000        0.0000000000000000     
   1.0625000000000000       0.62500000000000000        0.0000000000000000     
   1.0937500000000000       0.62500000000000000        0.0000000000000000     
   1.1250000000000000       0.62500000000000000        0.0000000000000000     
   1.0000000000000000       0.65625000000000000        0.0000000000000000     
   1.0312500000000000       0.65625000000000000        0.0000000000000000     
   1.0625000000000000       0.65625000000000000        0.0000000000000000     
   1.0937500000000000       0.65625000000000000        0.0000000000000000     
   1.1250000000000000       0.65625000000000000        0.0000000000000000     
   1.0000000000000000       0.68750000000000000        0.0000000000000000     
   1.0312500000000000       0.68750000000000000        0.0000000000000000     
   1.0625000000000000       0.68750000000000000        0.0000000000000000     
   1.0937500000000000       0.68750000000000000        0.0000000000000000     
   1.1250000000000000       0.68750000000000000        0.0000000000000000     
   1.0000000000000000       0.71875000000000000        0.0000000000000000     
   1.0312500000000000       0.71875000000000000        0.0000000000000000     
   1.0625000000000000       0.71875000000000000        0.0000000000000000     
   1.0937500000000000       0.71875000000000000        0.0000000000000000     
   1.1250000000000000       0.71875000000000000        0.0000000000000000     
   1.0000000000000000       0.75000000000000000        0.0000000000000000     
   1.0312500000000000       0.75000000000000000        0.0000000000000000     
   1.0625000000000000       0.75000000000000000        0.0000000000000000     
   1.0937500000000000       0.75000000000000000        0.0000000000000000     
   1.1250000000000000       0.75000000000000000        0.0000000000000000     
   1.1250000000000000       0.62500000000000000        0.0000000000000000     
   1.1562500000000000       0.62500000000000000        0.0000000000000000     
   1.1875000000000000       0.62500000000000000        0.0000000000000000     
   1.2187500000000000       0.62500000000000000        0.0000000000000000     
   1.2500000000000000       0.62500000000000000        0.0000000000000000     
   1.1250000000000000       0.65625000000000000        0.0000000000000000     
   1.1562500000000000       0.65625000000000000        0.0000000000000000     
   1.1875000000000000       0.65625000000000000        0.0000000000000000     
   1.2187500000000000       0.65625000000000000        0.0000000000000000     
   1.2500000000000000       0.65625000000000000        0.0000000000000000     
   1.1250000000000000       0.68750000000000000        0.0000000000000000     
   1.1562500000000000       0.68750000000000000        0.0000000000000000     
   1.1875000000000000       0.68750000000000000        0.0000000000000000     
   1.2187500000000000       0.68750000000000000        0.0000000000000000     
   1.2500000000000000       0.68750000000000000        0.0000000000000000     
   1.1250000000000000       0.71875000000000000        0.0000000000000000     
   1.1562500000000000       0.71875000000000000        0.0000000000000000     
   1.1875000000000000       0.71875000000000000        0.0000000000000000     
   1.2187500000000000       0.71875000000000000        0.0000000000000000     
   1.2500000000000000       0.71875000000000000        0.0000000000000000     
   1.1250000000000000       0.75000000000000000        0.0000000000000000     
   1.1562500000000000       0.75000000000000000        0.0000000000000000     
   1.1875000000000000       0.75000000000000000        0.0000000000000000     
   1.2187500000000000       0.75000000000000000        0.0000000000000000     
   1.2500000000000000       0.75000000000000000        0.0000000000000000     
   1.2500000000000000       0.62500000000000000        0.0000000000000000     
   1.2812500000000000       0.62500000000000000        0.0000000000000000     
   1.3125000000000000       0.62500000000000000        0.0000000000000000     
   1.3437500000000000       0.62500000000000000        0.0000000000000000     
   1.3750000000000000       0.62500000000000000        0.0000000000000000     
   1.2500000000000000       0.65625000000000000        0.0000000000000000     
   1.2812500000000000       0.65625000000000000        0.0000000000000000     
   1.3125000000000000       0.65625000000000000        0.0000000000000000     
   1.3437500000000000       0.65625000000000000        0.0000000000000000     
   1.3750000000000000       0.65625000000000000        0.0000000000000000     
   1.2500000000000000       0.68750000000000000        0.0000000000000000     
   1.2812500000000000       0.68750000000000000        0.0000000000000000     
   1.3125000000000000       0.68750000000000000        0.0000000000000000     
   1.3437500000000000       0.68750000000000000        0.0000000000000000     
   1.3750000000000000       0.68750000000000000        0.0000000000000000     
   1.2500000000000000       0.71875000000000000        0.0000000000000000     
   1.2812500000000000       0.71875000000000000        0.0000000000000000     
   1.3125000000000000       0.71875000000000000        0.0000000000000000     
   1.3437500000000000       0.71875000000000000        0.0000000000000000     
   1.3750000000000000       0.71875000000000000        0.0000000000000000     
   1.2500000000000000       0.75000000000000000        0.0000000000000000     
   1.2812500000000000       0.75000000000000000        0.0000000000000000     
   1.3125000000000000       0.75000000000000000        0.0000000000000000     
   1.3437500000000000       0.75000000000000000        0.0000000000000000     
   1.3750000000000000       0.75000000000000000        0.0000000000000000     
   1.3750000000000000       0.62500000000000000        0.0000000000000000     
   1.4062500000000000       0.62500000000000000        0.0000000000000000     
   1.4375000000000000       0.62500000000000000        0.0000000000000000     
   1.4687500000000000       0.62500000000000000        0.0000000000000000     
   1.5000000000000000       0.62500000000000000        0.0000000000000000     
   1.3750000000000000       0.65625000000000000        0.0000000000000000     
   1.4062500000000000       0.65625000000000000        0.0000000000000000     
   1.4375000000000000       0.65625000000000000        0.0000000000000000     
   1.4687500000000000       0.65625000000000000        0.0000000000000000     
   1.5000000000000000       0.65625000000000000        0.0000000000000000     
   1.3750000000000000       0.68750000000000000        0.0000000000000000     
   1.4062500000000000       0.68750000000000000        0.0000000000000000     
   1.4375000000000000       0.68750000000000000        0.0000000000000000     
   1.4687500000000000       0.68750000000000000        0.0000000000000000     
   1.5000000000000000       0.68750000000000000        0.0000000000000000     
   1.3750000000000000       0.71875000000000000        0.0000000000000000     
   1.4062500000000000       0.71875000000000000        0.0000000000000000     
   1.4375000000000000       0.71875000000000000        0.0000000000000000     
   1.4687500000000000       0.71875000000000000        0.0000000000000000     
   1.5000000000000000       0.71875000000000000        0.0000000000000000     
   1.3750000000000000       0.75000000000000000        0.0000000000000000     
   1.4062500000000000       0.75000000000000000        0.0000000000000000     
   1.4375000000000000       0.75000000000000000        0.0000000000000000     
   1.4687500000000000       0.75000000000000000        0.0000000000000000     
   1.5000000000000000       0.75000000000000000        0.0000000000000000     
  0.50000000000000000       0.75000000000000000        0.0000000000000000     
  0.53125000000000000       0.75000000000000000        0.0000000000000000     
  0.56250000000000000       0.75000000000000000        0.0000000000000000     
  0.59375000000000000       0.75000000000000000        0.0000000000000000     
  0.62500000000000000       0.75000000000000000        0.0000000000000000     
  0.50000000000000000       0.78125000000000000        0.0000000000000000     
  0.53125000000000000       0.78125000000000000        0.0000000000000000     
  0.56250000000000000       0.78125000000000000        0.0000000000000000     
  0.59375000000000000       0.78125000000000000        0.0000000000000000     
  0.62500000000000000       0.78125000000000000        0.0000000000000000     
  0.50000000000000000       0.81250000000000000        0.0000000000000000     
  0.53125000000000000       0.81250000000000000        0.0000000000000000     
  0.56250000000000000       0.81250000000000000        0.0000000000000000     
  0.59375000000000000       0.81250000000000000        0.0000000000000000     
  0.62500000000000000       0.81250000000000000        0.0000000000000000     
  0.50000000000000000       0.84375000000000000        0.0000000000000000     
  0.53125000000000000       0.84375000000000000        0.0000000000000000     
  0.56250000000000000       0.84375000000000000        0.0000000000000000     
  0.59375000000000000       0.84375000000000000        0.0000000000000000     
  0.62500000000000000       0.84375000000000000        0.0000000000000000     
  0.50000000000000000       0.87500000000000000        0.0000000000000000     
  0.53125000000000000       0.87500000000000000        0.0000000000000000     
  0.56250000000000000       0.87500000000000000        0.0000000000000000     
  0.59375000000000000       0.87500000000000000        0.0000000000000000     
  0.62500000000000000       0.87500000000000000        0.0000000000000000     
  0.62500000000000000       0.75000000000000000        0.0000000000000000     
  0.65625000000000000       0.75000000000000000        0.0000000000000000     
  0.68750000000000000       0.75000000000000000        0.0000000000000000     
  0.71875000000000000       0.75000000000000000        0.0000000000000000     
  0.75000000000000000       0.75000000000000000        0.0000000000000000     
  0.62500000000000000       0.78125000000000000        0.0000000000000000     
  0.65625000000000000       0.78125000000000000        0.0000000000000000     
  0.68750000000000000       0.78125000000000000        0.0000000000000000     
  0.71875000000000000       0.78125000000000000        0.0000000000000000     
  0.75000000000000000       0.78125000000000000        0.0000000000000000     
  0.62500000000000000       0.81250000000000000        0.0000000000000000     
  0.65625000000000000       0.81250000000000000        0.0000000000000000     
  0.68750000000000000       0.81250000000000000        0.0000000000000000     
  0.71875000000000000       0.81250000000000000        0.0000000000000000     
  0.75000000000000000       0.81250000000000000        0.0000000000000000     
  0.62500000000000000       0.84375000000000000        0.0000000000000000     
  0.65625000000000000       0.84375000000000000        0.0000000000000000     
  0.68750000000000000       0.84375000000000000        0.0000000000000000     
  0.71875000000000000       0.84375000000000000        0.0000000000000000     
  0.75000000000000000       0.84375000000000000        0.0000000000000000     
  0.62500000000000000       0.87500000000000000        0.0000000000000000     
  0.65625000000000000       0.87500000000000000        0.0000000000000000     
  0.68750000000000000       0.87500000000000000        0.0000000000000000     
  0.71875000000000000       0.87500000000000000        0.0000000000000000     
  0.75000000000000000       0.87500000000000000        0.0000000000000000     
  0.75000000000000000       0.75000000000000000        0.0000000000000000     
  0.78125000000000000       0.75000000000000000        0.0000000000000000     
  0.81250000000000000       0.75000000000000000        0.0000000000000000     
  0.84375000000000000       0.75000000000000000        0.0000000000000000     
  0.87500000000000000       0.75000000000000000        0.0000000000000000     
  0.75000000000000000       0.78125000000000000        0.0000000000000000     
  0.78125000000000000       0.78125000000000000        0.0000000000000000     
  0.81250000000000000       0.78125000000000000        0.0000000000000000     
  0.84375000000000000       0.78125000000000000        0.0000000000000000     
  0.87500000000000000       0.78125000000000000        0.0000000000000000     
  0.75000000000000000       0.81250000000000000        0.0000000000000000     
  0.78125000000000000       0.81250000000000000        0.0000000000000000     
  0.81250000000000000       0.81250000000000000        0.0000000000000000     
  0.84375000000000000       0.81250000000000000        0.0000000000000000     
  0.87500000000000000       0.81250000000000000        0.0000000000000000     
  0.75000000000000000       0.84375000000000000        0.0000000000000000     
  0.78125000000000000       0.84375000000000000        0.0000000000000000     
  0.81250000000000000       0.84375000000000000        0.0000000000000000     
  0.84375000000000000       0.84375000000000000        0.0000000000000000     
  0.87500000000000000       0.84375000000000000        0.0000000000000000     
  0.75000000000000000       0.87500000000000000        0.0000000000000000     
  0.78125000000000000       0.87500000000000000        0.0000000000000000     
  0.81250000000000000       0.87500000000000000        0.0000000000000000     
  0.84375000000000000       0.87500000000000000        0.0000000000000000     
  0.87500000000000000       0.87500000000000000        0.0000000000000000     
  0.87500000000000000       0.75000000000000000        0.0000000000000000     
  0.90625000000000000       0.75000000000000000        0.0000000000000000     
  0.93750000000000000       0.75000000000000000        0.0000000000000000     
  0.96875000000000000       0.75000000000000000        0.0000000000000000     
   1.0000000000000000       0.75000000000000000        0.0000000000000000     
  0.87500000000000000       0.78125000000000000        0.0000000000000000     
  0.90625000000000000       0.78125000000000000        0.0000000000000000     
  0.93750000000000000       0.78125000000000000        0.0000000000000000     
  0.96875000000000000       0.78125000000000000        0.0000000000000000     
   1.0000000000000000       0.78125000000000000        0.0000000000000000     
  0.87500000000000000       0.81250000000000000        0.0000000000000000     
  0.90625000000000000       0.81250000000000000        0.0000000000000000     
  0.93750000000000000       0.81250000000000000        0.0000000000000000     
  0.96875000000000000       0.81250000000000000        0.0000000000000000     
   1.0000000000000000       0.81250000000000000        0.0000000000000000     
  0.87500000000000000       0.84375000000000000        0.0000000000000000     
  0.90625000000000000       0.84375000000000000        0.0000000000000000     
  0.93750000000000000       0.84375000000000000        0.0000000000000000     
  0.96875000000000000       0.84375000000000000        0.0000000000000000     
   1.0000000000000000       0.84375000000000000        0.0000000000000000     
  0.87500000000000000       0.87500000000000000        0.0000000000000000     
  0.90625000000000000       0.87500000000000000        0.0000000000000000     
  0.93750000000000000       0.87500000000000000        0.0000000000000000     
  0.96875000000000000       0.87500000000000000        0.0000000000000000     
   1.0000000000000000       0.87500000000000000        0.0000000000000000     
   1.0000000000000000       0.75000000000000000        0.0000000000000000     
   1.0312500000000000       0.75000000000000000        0.0000000000000000     
   1.0625000000000000       0.75000000000000000        0.0000000000000000     
   1.0937500000000000       0.75000000000000000        0.0000000000000000     
   1.1250000000000000       0.75000000000000000        0.0000000000000000     
   1.0000000000000000       0.78125000000000000        0.0000000000000000     
   1.0312500000000000       0.78125000000000000        0.0000000000000000     
   1.0625000000000000       0.78125000000000000        0.0000000000000000     
   1.0937500000000000       0.78125000000000000        0.0000000000000000     
   1.1250000000000000       0.78125000000000000        0.0000000000000000     
   1.0000000000000000       0.81250000000000000        0.0000000000000000     
   1.0312500000000000       0.81250000000000000        0.0000000000000000     
   1.0625000000000000       0.81250000000000000        0.0000000000000000     
   1.0937500000000000       0.81250000000000000        0.0000000000000000     
   1.1250000000000000       0.81250000000000000        0.0000000000000000     
   1.0000000000000000       0.84375000000000000        0.0000000000000000     
   1.0312500000000000       0.84375000000000000        0.0000000000000000     
   1.0625000000000000       0.84375000000000000        0.0000000000000000     
   1.0937500000000000       0.84375000000000000        0.0000000000000000     
   1.1250000000000000       0.84375000000000000        0.0000000000000000     
   1.0000000000000000       0.87500000000000000        0.0000000000000000     
   1.0312500000000000       0.87500000000000000        0.0000000000000000     
   1.0625000000000000       0.87500000000000000        0.0000000000000000     
   1.0937500000000000       0.87500000000000000        0.0000000000000000     
   1.1250000000000000       0.87500000000000000        0.0000000000000000     
   1.1250000000000000       0.75000000000000000        0.0000000000000000     
   1.1562500000000000       0.75000000000000000        0.0000000000000000     
   1.1875000000000000       0.75000000000000000        0.0000000000000000     
   1.2187500000000000       0.75000000000000000        0.0000000000000000     
   1.2500000000000000       0.75000000000000000        0.0000000000000000     
   1.1250000000000000       0.78125000000000000        0.0000000000000000     
   1.1562500000000000       0.78125000000000000        0.0000000000000000     
   1.1875000000000000       0.78125000000000000        0.0000000000000000     
   1.2187500000000000       0.78125000000000000        0.0000000000000000     
   1.2500000000000000       0.78125000000000000        0.0000000000000000     
   1.1250000000000000       0.81250000000000000        0.0000000000000000     
   1.1562500000000000       0.81250000000000000        0.0000000000000000     
   1.1875000000000000       0.81250000000000000        0.0000000000000000     
   1.2187500000000000       0.81250000000000000        0.0000000000000000     
   1.2500000000000000       0.81250000000000000        0.0000000000000000     
   1.1250000000000000       0.84375000000000000        0.0000000000000000     
   1.1562500000000000       0.84375000000000000        0.0000000000000000     
   1.1875000000000000       0.84375000000000000        0.0000000000000000     
   1.2187500000000000       0.84375000000000000        0.0000000000000000     
   1.2500000000000000       0.84375000000000000        0.0000000000000000     
   1.1250000000000000       0.87500000000000000        0.0000000000000000     
   1.1562500000000000       0.87500000000000000        0.0000000000000000     
   1.1875000000000000       0.87500000000000000        0.0000000000000000     
   1.2187500000000000       0.87500000000000000        0.0000000000000000     
   1.2500000000000000       0.87500000000000000        0.0000000000000000     
   1.2500000000000000       0.75000000000000000        0.0000000000000000     
   1.2812500000000000       0.75000000000000000        0.0000000000000000     
   1.3125000000000000       0.75000000000000000        0.0000000000000000     
   1.3437500000000000       0.75000000000000000        0.0000000000000000     
   1.3750000000000000       0.75000000000000000        0.0000000000000000     
   1.2500000000000000       0.78125000000000000        0.0000000000000000     
   1.2812500000000000       0.78125000000000000        0.0000000000000000     
   1.3125000000000000       0.78125000000000000        0.0000000000000000     
   1.3437500000000000       0.78125000000000000        0.0000000000000000     
   1.3750000000000000       0.78125000000000000        0.0000000000000000     
   1.2500000000000000       0.81250000000000000        0.0000000000000000     
   1.2812500000000000       0.81250000000000000        0.0000000000000000     
   1.3125000000000000       0.81250000000000000        0.0000000000000000     
   1.3437500000000000       0.81250000000000000        0.0000000000000000     
   1.3750000000000000       0.81250000000000000        0.0000000000000000     
   1.2500000000000000       0.84375000000000000        0.0000000000000000     
   1.2812500000000000       0.84375000000000000        0.0000000000000000     
   1.3125000000000000       0.84375000000000000        0.0000000000000000     
   1.3437500000000000       0.84375000000000000        0.0000000000000000     
   1.3750000000000000       0.84375000000000000        0.0000000000000000     
   1.2500000000000000       0.87500000000000000        0.0000000000000000     
   1.2812500000000000       0.87500000000000000        0.0000000000000000     
   1.3125000000000000       0.87500000000000000        0.0000000000000000     
   1.3437500000000000       0.87500000000000000        0.0000000000000000     
   1.3750000000000000       0.87500000000000000        0.0000000000000000     
   1.3750000000000000       0.75000000000000000        0.0000000000000000     
   1.4062500000000000       0.75000000000000000        0.0000000000000000     
   1.4375000000000000       0.75000000000000000        0.0000000000000000     
   1.4687500000000000       0.75000000000000000        0.0000000000000000     
   1.5000000000000000       0.75000000000000000        0.0000000000000000     
   1.3750000000000000       0.78125000000000000        0.0000000000000000     
   1.4062500000000000       0.78125000000000000        0.0000000000000000     
   1.4375000000000000       0.78125000000000000        0.0000000000000000     
   1.4687500000000000       0.78125000000000000        0.0000000000000000     
   1.5000000000000000       0.78125000000000000        0.0000000000000000     
   1.3750000000000000       0.81250000000000000        0.0000000000000000     
   1.4062500000000000       0.81250000000000000        0.0000000000000000     
   1.4375000000000000       0.81250000000000000        0.0000000000000000     
   1.4687500000000000       0.81250000000000000        0.0000000000000000     
   1.5000000000000000       0.81250000000000000        0.0000000000000000     
   1.3750000000000000       0.84375000000000000        0.0000000000000000     
   1.4062500000000000       0.84375000000000000        0.0000000000000000     
   1.4375000000000000       0.84375000000000000        0.0000000000000000     
   1.4687500000000000       0.84375000000000000        0.0000000000000000     
   1.5000000000000000       0.84375000000000000        0.0000000000000000     
   1.3750000000000000       0.87500000000000000        0.0000000000000000     
   1.4062500000000000       0.87500000000000000        0.0000000000000000     
   1.4375000000000000       0.87500000000000000        0.0000000000000000     
   1.4687500000000000       0.87500000000000000        0.0000000000000000     
   1.5000000000000000       0.87500000000000000        0.0000000000000000     
  0.50000000000000000       0.87500000000000000        0.0000000000000000     
  0.53125000000000000       0.87500000000000000        0.0000000000000000     
  0.56250000000000000       0.87500000000000000        0.0000000000000000     
  0.59375000000000000       0.87500000000000000        0.0000000000000000     
  0.62500000000000000       0.87500000000000000        0.0000000000000000     
  0.50000000000000000       0.90625000000000000        0.0000000000000000     
  0.53125000000000000       0.90625000000000000        0.0000000000000000     
  0.56250000000000000       0.90625000000000000        0.0000000000000000     
  0.59375000000000000       0.90625000000000000        0.0000000000000000     
  0.62500000000000000       0.90625000000000000        0.0000000000000000     
  0.50000000000000000       0.93750000000000000        0.0000000000000000     
  0.53125000000000000       0.93750000000000000        0.0000000000000000     
  0.56250000000000000       0.93750000000000000        0.0000000000000000     
  0.59375000000000000       0.93750000000000000        0.0000000000000000     
  0.62500000000000000       0.93750000000000000        0.0000000000000000     
  0.50000000000000000       0.96875000000000000        0.0000000000000000     
  0.53125000000000000       0.96875000000000000        0.0000000000000000     
  0.56250000000000000       0.96875000000000000        0.0000000000000000     
  0.59375000000000000       0.96875000000000000        0.0000000000000000     
  0.62500000000000000       0.96875000000000000        0.0000000000000000     
  0.50000000000000000        1.0000000000000000        0.0000000000000000     
  0.53125000000000000        1.0000000000000000        0.0000000000000000     
  0.56250000000000000        1.0000000000000000        0.0000000000000000     
  0.59375000000000000        1.0000000000000000        0.0000000000000000     
  0.62500000000000000        1.0000000000000000        0.0000000000000000     
  0.62500000000000000       0.87500000000000000        0.0000000000000000     
  0.65625000000000000       0.87500000000000000        0.0000000000000000     
  0.68750000000000000       0.87500000000000000        0.0000000000000000     
  0.71875000000000000       0.87500000000000000        0.0000000000000000     
  0.75000000000000000       0.87500000000000000        0.0000000000000000     
  0.62500000000000000       0.90625000000000000        0.0000000000000000     
  0.65625000000000000       0.90625000000000000        0.0000000000000000     
  0.68750000000000000       0.90625000000000000        0.0000000000000000     
  0.71875000000000000       0.90625000000000000        0.0000000000000000     
  0.75000000000000000       0.90625000000000000        0.0000000000000000     
  0.62500000000000000       0.93750000000000000        0.0000000000000000     
  0.65625000000000000       0.93750000000000000        0.0000000000000000     
  0.68750000000000000       0.93750000000000000        0.0000000000000000     
  0.71875000000000000       0.93750000000000000        0.0000000000000000     
  0.75000000000000000       0.93750000000000000        0.0000000000000000     
  0.62500000000000000       0.96875000000000000        0.0000000000000000     
  0.65625000000000000       0.96875000000000000        0.0000000000000000     
  0.68750000000000000       0.96875000000000000        0.0000000000000000     
  0.71875000000000000       0.96875000000000000        0.0000000000000000     
  0.75000000000000000       0.96875000000000000        0.0000000000000000     
  0.62500000000000000        1.0000000000000000        0.0000000000000000     
  0.65625000000000000        1.0000000000000000        0.0000000000000000     
  0.68750000000000000        1.0000000000000000        0.0000000000000000     
  0.71875000000000000        1.0000000000000000        0.0000000000000000     
  0.75000000000000000        1.0000000000000000        0.0000000000000000     
  0.75000000000000000       0.87500000000000000        0.0000000000000000     
  0.78125000000000000       0.87500000000000000        0.0000000000000000     
  0.81250000000000000       0.87500000000000000        0.0000000000000000     
  0.84375000000000000       0.87500000000000000        0.0000000000000000     
  0.87500000000000000       0.87500000000000000        0.0000000000000000     
  0.75000000000000000       0.90625000000000000        0.0000000000000000     
  0.78125000000000000       0.90625000000000000        0.0000000000000000     
  0.81250000000000000       0.90625000000000000        0.0000000000000000     
  0.84375000000000000       0.90625000000000000        0.0000000000000000     
  0.87500000000000000       0.90625000000000000        0.0000000000000000     
  0.75000000000000000       0.93750000000000000        0.0000000000000000     
  0.78125000000000000       0.93750000000000000        0.0000000000000000     
  0.81250000000000000       0.93750000000000000        0.0000000000000000     
  0.84375000000000000       0.93750000000000000        0.0000000000000000     
  0.87500000000000000       0.93750000000000000        0.0000000000000000     
  0.75000000000000000       0.96875000000000000        0.0000000000000000     
  0.78125000000000000       0.96875000000000000        0.0000000000000000     
  0.81250000000000000       0.96875000000000000        0.0000000000000000     
  0.84375000000000000       0.96875000000000000        0.0000000000000000     
  0.87500000000000000       0.96875000000000000        0.0000000000000000     
  0.75000000000000000        1.0000000000000000        0.0000000000000000     
  0.78125000000000000        1.0000000000000000        0.0000000000000000     
  0.81250000000000000        1.0000000000000000        0.0000000000000000     
  0.84375000000000000        1.0000000000000000        0.0000000000000000     
  0.87500000000000000        1.0000000000000000        0.0000000000000000     
  0.87500000000000000       0.87500000000000000        0.0000000000000000     
  0.90625000000000000       0.87500000000000000        0.0000000000000000     
  0.93750000000000000       0.87500000000000000        0.0000000000000000     
  0.96875000000000000       0.87500000000000000        0.0000000000000000     
   1.0000000000000000       0.87500000000000000        0.0000000000000000     
  0.87500000000000000       0.90625000000000000        0.0000000000000000     
  0.90625000000000000       0.90625000000000000        0.0000000000000000     
  0.93750000000000000       0.90625000000000000        0.0000000000000000     
  0.96875000000000000       0.90625000000000000        0.0000000000000000     
   1.0000000000000000       0.90625000000000000        0.0000000000000000     
  0.87500000000000000       0.93750000000000000        0.0000000000000000     
  0.90625000000000000       0.93750000000000000        0.0000000000000000     
  0.93750000000000000       0.93750000000000000        0.0000000000000000     
  0.96875000000000000       0.93750000000000000        0.0000000000000000     
   1.0000000000000000       0.93750000000000000        0.0000000000000000     
  0.87500000000000000       0.96875000000000000        0.0000000000000000     
  0.90625000000000000       0.96875000000000000        0.0000000000000000     
  0.93750000000000000       0.96875000000000000        0.0000000000000000     
  0.96875000000000000       0.96875000000000000        0.0000000000000000     
   1.0000000000000000       0.96875000000000000        0.0000000000000000     
  0.87500000000000000        1.0000000000000000        0.0000000000000000     
  0.90625000000000000        1.0000000000000000        0.0000000000000000     
  0.93750000000000000        1.0000000000000000        0.0000000000000000     
  0.96875000000000000        1.0000000000000000        0.0000000000000000     
   1.0000000000000000        1.0000000000000000        0.0000000000000000     
   1.0000000000000000       0.87500000000000000        0.0000000000000000     
   1.0312500000000000       0.87500000000000000        0.0000000000000000     
   1.0625000000000000       0.87500000000000000        0.0000000000000000     
   1.0937500000000000       0.87500000000000000        0.0000000000000000     
   1.1250000000000000       0.87500000000000000        0.0000000000000000     
   1.0000000000000000       0.90625000000000000        0.0000000000000000     
   1.0312500000000000       0.90625000000000000        0.0000000000000000     
   1.0625000000000000       0.90625000000000000        0.0000000000000000     
   1.0937500000000000       0.90625000000000000        0.0000000000000000     
   1.1250000000000000       0.90625000000000000        0.0000000000000000     
   1.0000000000000000       0.93750000000000000        0.0000000000000000     
   1.0312500000000000       0.93750000000000000        0.0000000000000000     
   1.0625000000000000       0.93750000000000000        0.0000000000000000     
   1.0937500000000000       0.93750000000000000        0.0000000000000000     
   1.1250000000000000       0.93750000000000000        0.0000000000000000     
   1.0000000000000000       0.96875000000000000        0.0000000000000000     
   1.0312500000000000       0.96875000000000000        0.0000000000000000     
   1.0625000000000000       0.96875000000000000        0.0000000000000000     
   1.0937500000000000       0.96875000000000000        0.0000000000000000     
   1.1250000000000000       0.96875000000000000        0.0000000000000000     
   1.0000000000000000        1.0000000000000000        0.0000000000000000     
   1.0312500000000000        1.0000000000000000        0.0000000000000000     
   1.0625000000000000        1.0000000000000000        0.0000000000000000     
   1.0937500000000000        1.0000000000000000        0.0000000000000000     
   1.1250000000000000        1.0000000000000000        0.0000000000000000     
   1.1250000000000000       0.87500000000000000        0.0000000000000000     
   1.1562500000000000       0.87500000000000000        0.0000000000000000     
   1.1875000000000000       0.87500000000000000        0.0000000000000000     
   1.2187500000000000       0.87500000000000000        0.0000000000000000     
   1.2500000000000000       0.87500000000000000        0.0000000000000000     
   1.1250000000000000       0.90625000000000000        0.0000000000000000     
   1.1562500000000000       0.90625000000000000        0.0000000000000000     
   1.1875000000000000       0.90625000000000000        0.0000000000000000     
   1.2187500000000000       0.90625000000000000        0.0000000000000000     
   1.2500000000000000       0.90625000000000000        0.0000000000000000     
   1.1250000000000000       0.93750000000000000        0.0000000000000000     
   1.1562500000000000       0.93750000000000000        0.0000000000000000     
   1.1875000000000000       0.93750000000000000        0.0000000000000000     
   1.2187500000000000       0.93750000000000000        0.0000000000000000     
   1.2500000000000000       0.93750000000000000        0.0000000000000000     
   1.1250000000000000       0.96875000000000000        0.0000000000000000     
   1.1562500000000000       0.96875000000000000        0.0000000000000000     
   1.1875000000000000       0.96875000000000000        0.0000000000000000     
   1.2187500000000000       0.96875000000000000        0.0000000000000000     
   1.2500000000000000       0.96875000000000000        0.0000000000000000     
   1.1250000000000000        1.0000000000000000        0.0000000000000000     
   1.1562500000000000        1.0000000000000000        0.0000000000000000     
   1.1875000000000000        1.0000000000000000        0.0000000000000000     
   1.2187500000000000        1.0000000000000000        0.0000000000000000     
   1.2500000000000000        1.0000000000000000        0.0000000000000000     
   1.2500000000000000       0.87500000000000000        0.0000000000000000     
   1.2812500000000000       0.87500000000000000        0.0000000000000000     
   1.3125000000000000       0.87500000000000000        0.0000000000000000     
   1.3437500000000000       0.87500000000000000        0.0000000000000000     
   1.3750000000000000       0.87500000000000000        0.0000000000000000     
   1.2500000000000000       0.90625000000000000        0.0000000000000000     
   1.2812500000000000       0.90625000000000000        0.0000000000000000     
   1.3125000000000000       0.90625000000000000        0.0000000000000000     
   1.3437500000000000       0.90625000000000000        0.0000000000000000     
   1.3750000000000000       0.90625000000000000        0.0000000000000000     
   1.2500000000000000       0.93750000000000000        0.0000000000000000     
   1.2812500000000000       0.93750000000000000        0.0000000000000000     
   1.3125000000000000       0.93750000000000000        0.0000000000000000     
   1.3437500000000000       0.93750000000000000        0.0000000000000000     
   1.3750000000000000       0.93750000000000000        0.0000000000000000     
   1.2500000000000000       0.96875000000000000        0.0000000000000000     
   1.2812500000000000       0.96875000000000000        0.0000000000000000     
   1.3125000000000000       0.96875000000000000        0.0000000000000000     
   1.3437500000000000       0.96875000000000000        0.0000000000000000     
   1.3750000000000000       0.96875000000000000        0.0000000000000000     
   1.2500000000000000        1.0000000000000000        0.0000000000000000     
   1.2812500000000000        1.0000000000000000        0.0000000000000000     
   1.3125000000000000        1.0000000000000000        0.0000000000000000     
   1.3437500000000000        1.0000000000000000        0.0000000000000000     
   1.3750000000000000        1.0000000000000000        0.0000000000000000     
   1.3750000000000000       0.87500000000000000        0.0000000000000000     
   1.4062500000000000       0.87500000000000000        0.0000000000000000     
   1.4375000000000000       0.87500000000000000        0.0000000000000000     
   1.4687500000000000       0.87500000000000000        0.0000000000000000     
   1.5000000000000000       0.87500000000000000        0.0000000000000000     
   1.3750000000000000       0.90625000000000000        0.0000000000000000     
   1.4062500000000000       0.90625000000000000        0.0000000000000000     
   1.4375000000000000       0.90625000000000000        0.0000000000000000     
   1.4687500000000000       0.90625000000000000        0.0000000000000000     
   1.5000000000000000       0.90625000000000000        0.0000000000000000     
   1.3750000000000000       0.93750000000000000        0.0000000000000000     
   1.4062500000000000       0.93750000000000000        0.0000000000000000     
   1.4375000000000000       0.93750000000000000        0.0000000000000000     
   1.4687500000000000       0.93750000000000000        0.0000000000000000     
   1.5000000000000000       0.93750000000000000        0.0000000000000000     
   1.3750000000000000       0.96875000000000000        0.0000000000000000     
   1.4062500000000000       0.96875000000000000        0.0000000000000000     
   1.4375000000000000       0.96875000000000000        0.0000000000000000     
   1.4687500000000000       0.96875000000000000        0.0000000000000000     
   1.5000000000000000       0.96875000000000000        0.0000000000000000     
   1.3750000000000000        1.0000000000000000        0.0000000000000000     
   1.4062500000000000        1.0000000000000000        0.0000000000000000     
   1.4375000000000000        1.0000000000000000        0.0000000000000000     
   1.4687500000000000        1.0000000000000000        0.0000000000000000     
   1.5000000000000000        1.0000000000000000        0.0000000000000000     
 </DataArray>
 </Points>
 <Cells>
 <DataArray  type="Int32"  Name="connectivity"  format="ascii">
           0           1           6           5
           1           2           7           6
           2           3           8           7
           3           4           9           8
           5           6          11          10
           6           7          12          11
           7           8          13          12
           8           9          14          13
          10          11          16          15
          11          12          17          16
          12          13          18          17
          13          14          19          18
          15          16          21          20
          16          17          22          21
          17          18          23          22
          18          19          24          23
          25          26          31          30
          26          27          32          31
          27          28          33          32
          28          29          34          33
          30          31          36          35
          31          32          37          36
          32          33          38          37
          33          34          39          38
          35          36          41          40
          36          37          42          41
          37          38          43          42
          38          39          44          43
          40          41          46          45
          41          42          47          46
          42          43          48          47
          43          44          49          48
          50          51          56          55
          51          52          57          56
          52          53          58          57
          53          54          59          58
          55          56          61          60
          56          57          62          61
          57          58          63          62
          58          59          64          63
          60          61          66          65
          61          62          67          66
          62          63          68          67
          63          64          69          68
          65          66          71          70
          66          67          72          71
          67          68          73          72
          68          69          74          73
          75          76          81          80
          76          77          82          81
          77          78          83          82
          78          79          84          83
          80          81          86          85
          81          82          87          86
          82          83          88          87
          83          84          89          88
          85          86          91          90
          86          87          92          91
          87          88          93          92
          88          89          94          93
          90          91          96          95
          91          92          97          96
          92          93          98          97
          93          94          99          98
         100         101         106         105
         101         102         107         106
         102         103         108         107
         103         104         109         108
         105         106         111         110
         106         107         112         111
         107         108         113         112
         108         109         114         113
         110         111         116         115
         111         112         117         116
         112         113         118         117
         113         114         119         118
         115         116         121         120
         116         117         122         121
         117         118         123         122
         118         119         124         123
         125         126         131         130
         126         127         132         131
         127         128         133         132
         128         129         134         133
         130         131         136         135
         131         132         137         136
         132         133         138         137
         133         134         139         138
         135         136         141         140
         136         137         142         141
         137         138         143         142
         138         139         144         143
         140         141         146         145
         141         142         147         146
         142         143         148         147
         143         144         149         148
         150         151         156         155
         151         152         157         156
         152         153         158         157
         153         154         159         158
         155         156         161         160
         156         157         162         161
         157         158         163         162
         158         159         164         163
         160         161         166         165
         161         162         167         166
         162         163         168         167
         163         164         169         168
         165         166         171         170
         166         167         172         171
         167         168         173         172
         168         169         174         173
         175         176         181         180
         176         177         182         181
         177         178         183         182
         178         179         184         183
         180         181         186         185
         181         182         187         186
         182         183         188         187
         183         184         189         188
         185         186         191         190
         186         187         192         191
         187         188         193         192
         188         189         194         193
         190         191         196         195
         191         192         197         196
         192         193         198         197
         193         194         199         198
         200         201         206         205
         201         202         207         206
         202         203         208         207
         203         204         209         208
         205         206         211         210
         206         207         212         211
         207         208         213         212
         208         209         214         213
         210         211         216         215
         211         212         217         216
         212         213         218         217
         213         214         219         218
         215         216         221         220
         216         217         222         221
         217         218         223         222
         218         219         224         223
         225         226         231         230
         226         227         232         231
         227         228         233         232
         228         229         234         233
         230         231         236         235
         231         232         237         236
         232         233         238         237
         233         234         239         238
         235         236         241         240
         236         237         242         241
         237         238         243         242
         238         239         244         243
         240         241         246         245
         241         242         247         246
         242         243         248         247
         243         244         249         248
         250         251         256         255
         251         252         257         256
         252         253         258         257
         253         254         259         258
         255         256         261         260
         256         257         262         261
         257         258         263         262
         258         259         264         263
         260         261         266         265
         261         262         267         266
         262         263         268         267
         263         264         269         268
         265         266         271         270
         266         267         272         271
         267         268         273         272
         268         269         274         273
         275         276         281         280
         276         277         282         281
         277         278         283         282
         278         279         284         283
         280         281         286         285
         281         282         287         286
         282         283         288         287
         283         284         289         288
         285         286         291         290
         286         287         292         291
         287         288         293         292
         288         289         294         293
         290         291         296         295
         291         292         297         296
         292         293         298         297
         293         294         299         298
         300         301         306         305
         301         302         307         306
         302         303         308         307
         303         304         309         308
         305         306         311         310
         306         307         312         311
         307         308         313         312
         308         309         314         313
         310         311         316         315
         311         312         317         316
         312         313         318         317
         313         314         319         318
         315         316         321         320
         316         317         322         321
         317         318         323         322
         318         319         324         323
         325         326         331         330
         326         327         332         331
         327         328         333         332
         328         329         334         333
         330         331         336         335
         331         332         337         336
         332         333         338         337
         333         334         339         338
         335         336         341         340
         336         337         342         341
         337         338         343         342
         338         339         344         343
         340         341         346         345
         341         342         347         346
         342         343         348         347
         343         344         349         348
         350         351         356         355
         351         352         357         356
         352         353         358         357
         353         354         359         358
         355         356         361         360
         356         357         362         361
         357         358         363         362
         358         359         364         363
         360         361         366         365
         361         362         367         366
         362         363         368         367
         363         364         369         368
         365         366         371         370
         366         367         372         371
         367         368         373         372
         368         369         374         373
         375         376         381         380
         376         377         382         381
         377         378         383         382
         378         379         384         383
         380         381         386         385
         381         382         387         386
         382         383         388         387
         383         384         389         388
         385         386         391         390
         386         387         392         391
         387         388         393         392
         388         389         394         393
         390         391         396         395
         391         392         397         396
         392         393         398         397
         393         394         399         398
         400         401         406         405
         401         402         407         406
         402         403         408         407
         403         404         409         408
         405         406         411         410
         406         407         412         411
         407         408         413         412
         408         409         414         413
         410         411         416         415
         411         412         417         416
         412         413         418         417
         413         414         419         418
         415         416         421         420
         416         417         422         421
         417         418         423         422
         418         419         424         423
         425         426         431         430
         426         427         432         431
         427         428         433         432
         428         429         434         433
         430         431         436         435
         431         432         437         436
         432         433         438         437
         433         434         439         438
         435         436         441         440
         436         437         442         441
         437         438         443         442
         438         439         444         443
         440         441         446         445
         441         442         447         446
         442         443         448         447
         443         444         449         448
         450         451         456         455
         451         452         457         456
         452         453         458         457
         453         454         459         458
         455         456         461         460
         456         457         462         461
         457         458         463         462
         458         459         464         463
         460         461         466         465
         461         462         467         466
         462         463         468         467
         463         464         469         468
         465         466         471         470
         466         467         472         471
         467         468         473         472
         468         469         474         473
         475         476         481         480
         476         477         482         481
         477         478         483         482
         478         479         484         483
         480         481         486         485
         481         482         487         486
         482         483         488         487
         483         484         489         488
         485         486         491         490
         486         487         492         491
         487         488         493         492
         488         489         494         493
         490         491         496         495
         491         492         497         496
         492         493         498         497
         493         494         499         498
         500         501         506         505
         501         502         507         506
         502         503         508         507
         503         504         509         508
         505         506         511         510
         506         507         512         511
         507         508         513         512
         508         509         514         513
         510         511         516         515
         511         512         517         516
         512         513         518         517
         513         514         519         518
         515         516         521         520
         516         517         522         521
         517         518         523         522
         518         519         524         523
         525         526         531         530
         526         527         532         531
         527         528         533         532
         528         529         534         533
         530         531         536         535
         531         532         537         536
         532         533         538         537
         533         534         539         538
         535         536         541         540
         536         537         542         541
         537         538         543         542
         538         539         544         543
         540         541         546         545
         541         542         547         546
         542         543         548         547
         543         544         549         548
         550         551         556         555
         551         552         557         556
         552         553         558         557
         553         554         559         558
         555         556         561         560
         556         557         562         561
         557         558         563         562
         558         559         564         563
         560         561         566         565
         561         562         567         566
         562         563         568         567
         563         564         569         568
         565         566         571         570
         566         567         572         571
         567         568         573         572
         568         569         574         573
         575         576         581         580
         576         577         582         581
         577         578         583         582
         578         579         584         583
         580         581         586         585
         581         582         587         586
         582         583         588         587
         583         584         589         588
         585         586         591         590
         586         587         592         591
         587         588         593         592
         588         589         594         593
         590         591         596         595
         591         592         597         596
         592         593         598         597
         593         594         599         598
         600         601         606         605
         601         602         607         606
         602         603         608         607
         603         604         609         608
         605         606         611         610
         606         607         612         611
         607         608         613         612
         608         609         614         613
         610         611         616         615
         611         612         617         616
         612         613         618         617
         613         614         619         618
         615         616         621         620
         616         617         622         621
         617         618         623         622
         618         619         624         623
         625         626         631         630
         626         627         632         631
         627         628         633         632
         628         629         634         633
         630         631         636         635
         631         632         637         636
         632         633         638         637
         633         634         639         638
         635         636         641         640
         636         637         642         641
         637         638         643         642
         638         639         644         643
         640         641         646         645
         641         642         647         646
         642         643         648         647
         643         644         649         648
         650         651         656         655
         651         652         657         656
         652         653         658         657
         653         654         659         658
         655         656         661         660
         656         657         662         661
         657         658         663         662
         658         659         664         663
         660         661         666         665
         661         662         667         666
         662         663         668         667
         663         664         669         668
         665         666         671         670
         666         667         672         671
         667         668         673         672
         668         669         674         673
         675         676         681         680
         676         677         682         681
         677         678         683         682
         678         679         684         683
         680         681         686         685
         681         682         687         686
         682         683         688         687
         683         684         689         688
         685         686         691         690
         686         687         692         691
         687         688         693         692
         688         689         694         693
         690         691         696         695
         691         692         697         696
         692         693         698         697
         693         694         699         698
         700         701         706         705
         701         702         707         706
         702         703         708         707
         703         704         709         708
         705         706         711         710
         706         707         712         711
         707         708         713         712
         708         709         714         713
         710         711         716         715
         711         712         717         716
         712         713         718         717
         713         714         719         718
         715         716         721         720
         716         717         722         721
         717         718         723         722
         718         719         724         723
         725         726         731         730
         726         727         732         731
         727         728         733         732
         728         729         734         733
         730         731         736         735
         731         732         737         736
         732         733         738         737
         733         734         739         738
         735         736         741         740
         736         737         742         741
         737         738         743         742
         738         739         744         743
         740         741         746         745
         741         742         747         746
         742         743         748         747
         743         744         749         748
         750         751         756         755
         751         752         757         756
         752         753         758         757
         753         754         759         758
         755         756         761         760
         756         757         762         761
         757         758         763         762
         758         759         764         763
         760         761         766         765
         761         762         767         766
         762         763         768         767
         763         764         769         768
         765         766         771         770
         766         767         772         771
         767         768         773         772
         768         769         774         773
         775         776         781         780
         776         777         782         781
         777         778         783         782
         778         779         784         783
         780         781         786         785
         781         782         787         786
         782         783         788         787
         783         784         789         788
         785         786         791         790
         786         787         792         791
         787         788         793         792
         788         789         794         793
         790         791         796         795
         791         792         797         796
         792         793         798         797
         793         794         799         798
         800         801         806         805
         801         802         807         806
         802         803         808         807
         803         804         809         808
         805         806         811         810
         806         807         812         811
         807         808         813         812
         808         809         814         813
         810         811         816         815
         811         812         817         816
         812         813         818         817
         813         814         819         818
         815         816         821         820
         816         817         822         821
         817         818         823         822
         818         819         824         823
         825         826         831         830
         826         827         832         831
         827         828         833         832
         828         829         834         833
         830         831         836         835
         831         832         837         836
         832         833         838         837
         833         834         839         838
         835         836         841         840
         836         837         842         841
         837         838         843         842
         838         839         844         843
         840         841         846         845
         841         842         847         846
         842         843         848         847
         843         844         849         848
         850         851         856         855
         851         852         857         856
         852         853         858         857
         853         854         859         858
         855         856         861         860
         856         857         862         861
         857         858         863         862
         858         859         864         863
         860         861         866         865
         861         862         867         866
         862         863         868         867
         863         864         869         868
         865         866         871         870
         866         867         872         871
         867         868         873         872
         868         869         874         873
         875         876         881         880
         876         877         882         881
         877         878         883         882
         878         879         884         883
         880         881         886         885
         881         882         887         886
         882         883         888         887
         883         884         889         888
         885         886         891         890
         886         887         892         891
         887         888         893         892
         888         889         894         893
         890         891         896         895
         891         892         897         896
         892         893         898         897
         893         894         899         898
         900         901         906         905
         901         902         907         906
         902         903         908         907
         903         904         909         908
         905         906         911         910
         906         907         912         911
         907         908         913         912
         908         909         914         913
         910         911         916         915
         911         912         917         916
         912         913         918         917
         913         914         919         918
         915         916         921         920
         916         917         922         921
         917         918         923         922
         918         919         924         923
         925         926         931         930
         926         927         932         931
         927         928         933         932
         928         929         934         933
         930         931         936         935
         931         932         937         936
         932         933         938         937
         933         934         939         938
         935         936         941         940
         936         937         942         941
         937         938         943         942
         938         939         944         943
         940         941         946         945
         941         942         947         946
         942         943         948         947
         943         944         949         948
         950         951         956         955
         951         952         957         956
         952         953         958         957
         953         954         959         958
         955         956         961         960
         956         957         962         961
         957         958         963         962
         958         959         964         963
         960         961         966         965
         961         962         967         966
         962         963         968         967
         963         964         969         968
         965         966         971         970
         966         967         972         971
         967         968         973         972
         968         969         974         973
         975         976         981         980
         976         977         982         981
         977         978         983         982
         978         979         984         983
         980         981         986         985
         981         982         987         986
         982         983         988         987
         983         984         989         988
         985         986         991         990
         986         987         992         991
         987         988         993         992
         988         989         994         993
         990         991         996         995
         991         992         997         996
         992         993         998         997
         993         994         999         998
        1000        1001        1006        1005
        1001        1002        1007        1006
        1002        1003        1008        1007
        1003        1004        1009        1008
        1005        1006        1011        1010
        1006        1007        1012        1011
        1007        1008        1013        1012
        1008        1009        1014        1013
        1010        1011        1016        1015
        1011        1012        1017        1016
        1012        1013        1018        1017
        1013        1014        1019        1018
        1015        1016        1021        1020
        1016        1017        1022        1021
        1017        1018        1023        1022
        1018        1019        1024        1023
        1025        1026        1031        1030
        1026        1027        1032        1031
        1027        1028        1033        1032
        1028        1029        1034        1033
        1030        1031        1036        1035
        1031        1032        1037        1036
        1032        1033        1038        1037
        1033        1034        1039        1038
        1035        1036        1041        1040
        1036        1037        1042        1041
        1037        1038        1043        1042
        1038        1039        1044        1043
        1040        1041        1046        1045
        1041        1042        1047        1046
        1042        1043        1048        1047
        1043        1044        1049        1048
        1050        1051        1056        1055
        1051        1052        1057        1056
        1052        1053        1058        1057
        1053        1054        1059        1058
        1055        1056        1061        1060
        1056        1057        1062        1061
        1057        1058        1063        1062
        1058        1059        1064        1063
        1060        1061        1066        1065
        1061        1062        1067        1066
        1062        1063        1068        1067
        1063        1064        1069        1068
        1065        1066        1071        1070
        1066        1067        1072        1071
        1067        1068        1073        1072
        1068        1069        1074        1073
        1075        1076        1081        1080
        1076        1077        1082        1081
        1077        1078        1083        1082
        1078        1079        1084        1083
        1080        1081        1086        1085
        1081        1082        1087        1086
        1082        1083        1088        1087
        1083        1084        1089        1088
        1085        1086        1091        1090
        1086        1087        1092        1091
        1087        1088        1093        1092
        1088        1089        1094        1093
        1090        1091        1096        1095
        1091        1092        1097        1096
        1092        1093        1098        1097
        1093        1094        1099        1098
        1100        1101        1106        1105
        1101        1102        1107        1106
        1102        1103        1108        1107
        1103        1104        1109        1108
        1105        1106        1111        1110
        1106        1107        1112        1111
        1107        1108        1113        1112
        1108        1109        1114        1113
        1110        1111        1116        1115
        1111        1112        1117        1116
        1112        1113        1118        1117
        1113        1114        1119        1118
        1115        1116        1121        1120
        1116        1117        1122        1121
        1117        1118        1123        1122
        1118        1119        1124        1123
        1125        1126        1131        1130
        1126        1127        1132        1131
        1127        1128        1133        1132
        1128        1129        1134        1133
        1130        1131        1136        1135
        1131        1132        1137        1136
        1132        1133        1138        1137
        1133        1134        1139        1138
        1135        1136        1141        1140
        1136        1137        1142        1141
        1137        1138        1143        1142
        1138        1139        1144        1143
        1140        1141        1146        1145
        1141        1142        1147        1146
        1142        1143        1148        1147
        1143        1144        1149        1148
        1150        1151        1156        1155
        1151        1152        1157        1156
        1152        1153        1158        1157
        1153        1154        1159        1158
        1155        1156        1161        1160
        1156        1157        1162        1161
        1157        1158        1163        1162
        1158        1159        1164        1163
        1160        1161        1166        1165
        1161        1162        1167        1166
        1162        1163        1168        1167
        1163        1164        1169        1168
        1165        1166        1171        1170
        1166        1167        1172        1171
        1167        1168        1173        1172
        1168        1169        1174        1173
        1175        1176        1181        1180
        1176        1177        1182        1181
        1177        1178        1183        1182
        1178        1179        1184        1183
        1180        1181        1186        1185
        1181        1182        1187        1186
        1182        1183        1188        1187
        1183        1184        1189        1188
        1185        1186        1191        1190
        1186        1187        1192        1191
        1187        1188        1193        1192
        1188        1189        1194        1193
        1190        1191        1196        1195
        1191        1192        1197        1196
        1192        1193        1198        1197
        1193        1194        1199        1198
        1200        1201        1206        1205
        1201        1202        1207        1206
        1202        1203        1208        1207
        1203        1204        1209        1208
        1205        1206        1211        1210
        1206        1207        1212        1211
        1207        1208        1213        1212
        1208        1209        1214        1213
        1210        1211        1216        1215
        1211        1212        1217        1216
        1212        1213        1218        1217
        1213        1214        1219        1218
        1215        1216        1221        1220
        1216        1217        1222        1221
        1217        1218        1223        1222
        1218        1219        1224        1223
        1225        1226        1231        1230
        1226        1227        1232        1231
        1227        1228        1233        1232
        1228        1229        1234        1233
        1230        1231        1236        1235
        1231        1232        1237        1236
        1232        1233        1238        1237
        1233        1234        1239        1238
        1235        1236        1241        1240
        1236        1237        1242        1241
        1237        1238        1243        1242
        1238        1239        1244        1243
        1240        1241        1246        1245
        1241        1242        1247        1246
        1242        1243        1248        1247
        1243        1244        1249        1248
        1250        1251        1256        1255
        1251        1252        1257        1256
        1252        1253        1258        1257
        1253        1254        1259        1258
        1255        1256        1261        1260
        1256        1257        1262        1261
        1257        1258        1263        1262
        1258        1259        1264        1263
        1260        1261        1266        1265
        1261        1262        1267        1266
        1262        1263        1268        1267
        1263        1264        1269        1268
        1265        1266        1271        1270
        1266        1267        1272        1271
        1267        1268        1273        1272
        1268        1269        1274        1273
        1275        1276        1281        1280
        1276        1277        1282        1281
        1277        1278        1283        1282
        1278        1279        1284        1283
        1280        1281        1286        1285
        1281        1282        1287        1286
        1282        1283        1288        1287
        1283        1284        1289        1288
        1285        1286        1291        1290
        1286        1287        1292        1291
        1287        1288        1293        1292
        1288        1289        1294        1293
        1290        1291        1296        1295
        1291        1292        1297        1296
        1292        1293        1298        1297
        1293        1294        1299        1298
        1300        1301        1306        1305
        1301        1302        1307        1306
        1302        1303        1308        1307
        1303        1304        1309        1308
        1305        1306        1311        1310
        1306        1307        1312        1311
        1307        1308        1313        1312
        1308        1309        1314        1313
        1310        1311        1316        1315
        1311        1312        1317        1316
        1312        1313        1318        1317
        1313        1314        1319        1318
        1315        1316        1321        1320
        1316        1317        1322        1321
        1317        1318        1323        1322
        1318        1319        1324        1323
        1325        1326        1331        1330
        1326        1327        1332        1331
        1327        1328        1333        1332
        1328        1329        1334        1333
        1330        1331        1336        1335
        1331        1332        1337        1336
        1332        1333        1338        1337
        1333        1334        1339        1338
        1335        1336        1341        1340
        1336        1337        1342        1341
        1337        1338        1343        1342
        1338        1339        1344        1343
        1340        1341        1346        1345
        1341        1342        1347        1346
        1342        1343        1348        1347
        1343        1344        1349        1348
        1350        1351        1356        1355
        1351        1352        1357        1356
        1352        1353        1358        1357
        1353        1354        1359        1358
        1355        1356        1361        1360
        1356        1357        1362        1361
        1357        1358        1363        1362
        1358        1359        1364        1363
        1360        1361        1366        1365
        1361        1362        1367        1366
        1362        1363        1368        1367
        1363        1364        1369        1368
        1365        1366        1371        1370
        1366        1367        1372        1371
        1367        1368        1373        1372
        1368        1369        1374        1373
        1375        1376        1381        1380
        1376        1377        1382        1381
        1377        1378        1383        1382
        1378        1379        1384        1383
        1380        1381        1386        1385
        1381        1382        1387        1386
        1382        1383        1388        1387
        1383        1384        1389        1388
        1385        1386        1391        1390
        1386        1387        1392        1391
        1387        1388        1393        1392
        1388        1389        1394        1393
        1390        1391        1396        1395
        1391        1392        1397        1396
        1392        1393        1398        1397
        1393        1394        1399        1398
        1400        1401        1406        1405
        1401        1402        1407        1406
        1402        1403        1408        1407
        1403        1404        1409        1408
        1405        1406        1411        1410
        1406        1407        1412        1411
        1407        1408        1413        1412
        1408        1409        1414        1413
        1410        1411        1416        1415
        1411        1412        1417        1416
        1412        1413        1418        1417
        1413        1414        1419        1418
        1415        1416        1421        1420
        1416        1417        1422        1421
        1417        1418        1423        1422
        1418        1419        1424        1423
        1425        1426        1431        1430
        1426        1427        1432        1431
        1427        1428        1433        1432
        1428        1429        1434        1433
        1430        1431        1436        1435
        1431        1432        1437        1436
        1432        1433        1438        1437
        1433        1434        1439        1438
        1435        1436        1441        1440
        1436        1437        1442        1441
        1437        1438        1443        1442
        1438        1439        1444        1443
        1440        1441        1446        1445
        1441        1442        1447        1446
        1442        1443        1448        1447
        1443        1444        1449        1448
        1450        1451        1456        1455
        1451        1452        1457        1456
        1452        1453        1458        1457
        1453        1454        1459        1458
        1455        1456        1461        1460
        1456        1457        1462        1461
        1457        1458        1463        1462
        1458        1459        1464        1463
        1460        1461        1466        1465
        1461        1462        1467        1466
        1462        1463        1468        1467
        1463        1464        1469        1468
        1465        1466        1471        1470
        1466        1467        1472        1471
        1467        1468        1473        1472
        1468        1469        1474        1473
        1475        1476        1481        1480
        1476        1477        1482        1481
        1477        1478        1483        1482
        1478        1479        1484        1483
        1480        1481        1486        1485
        1481        1482        1487        1486
        1482        1483        1488        1487
        1483        1484        1489        1488
        1485        1486        1491        1490
        1486        1487        1492        1491
        1487        1488        1493        1492
        1488        1489        1494        1493
        1490        1491        1496        1495
        1491        1492        1497        1496
        1492        1493        1498        1497
        1493        1494        1499        1498
        1500        1501        1506        1505
        1501        1502        1507        1506
        1502        1503        1508        1507
        1503        1504        1509        1508
        1505        1506        1511        1510
        1506        1507        1512        1511
        1507        1508        1513        1512
        1508        1509        1514        1513
        1510        1511        1516        1515
        1511        1512        1517        1516
        1512        1513        1518        1517
        1513        1514        1519        1518
        1515        1516        1521        1520
        1516        1517        1522        1521
        1517        1518        1523        1522
        1518        1519        1524        1523
        1525        1526        1531        1530
        1526        1527        1532        1531
        1527        1528        1533        1532
        1528        1529        1534        1533
        1530        1531        1536        1535
        1531        1532        1537        1536
        1532        1533        1538        1537
        1533        1534        1539        1538
        1535        1536        1541        1540
        1536        1537        1542        1541
        1537        1538        1543        1542
        1538        1539        1544        1543
        1540        1541        1546        1545
        1541        1542        1547        1546
        1542        1543        1548        1547
        1543        1544        1549        1548
        1550        1551        1556        1555
        1551        1552        1557        1556
        1552        1553        1558        1557
        1553        1554        1559        1558
        1555        1556        1561        1560
        1556        1557        1562        1561
        1557        1558        1563        1562
        1558        1559        1564        1563
        1560        1561        1566        1565
        1561        1562        1567        1566
        1562        1563        1568        1567
        1563        1564        1569        1568
        1565        1566        1571        1570
        1566        1567        1572        1571
        1567        1568        1573        1572
        1568        1569        1574        1573
        1575        1576        1581        1580
        1576        1577        1582        1581
        1577        1578        1583        1582
        1578        1579        1584        1583
        1580        1581        1586        1585
        1581        1582        1587        1586
        1582        1583        1588        1587
        1583        1584        1589        1588
        1585        1586        1591        1590
        1586        1587        1592        1591
        1587        1588        1593        1592
        1588        1589        1594        1593
        1590        1591        1596        1595
        1591        1592        1597        1596
        1592        1593        1598        1597
        1593        1594        1599        1598
 </DataArray>
 <DataArray  type="Int32"  Name="offsets"  format="ascii"> 
           4
           8
          12
          16
          20
          24
          28
          32
          36
          40
          44
          48
          52
          56
          60
          64
          68
          72
          76
          80
          84
          88
          92
          96
         100
         104
         108
         112
         116
         120
         124
         128
         132
         136
         140
         144
         148
         152
         156
         160
         164
         168
         172
         176
         180
         184
         188
         192
         196
         200
         204
         208
         212
         216
         220
         224
         228
         232
         236
         240
         244
         248
         252
         256
         260
         264
         268
         272
         276
         280
         284
         288
         292
         296
         300
         304
         308
         312
         316
         320
         324
         328
         332
         336
         340
         344
         348
         352
         356
         360
         364
         368
         372
         376
         380
         384
         388
         392
         396
         400
         404
         408
         412
         416
         420
         424
         428
         432
         436
         440
         444
         448
         452
         456
         460
         464
         468
         472
         476
         480
         484
         488
         492
         496
         500
         504
         508
         512
         516
         520
         524
         528
         532
         536
         540
         544
         548
         552
         556
         560
         564
         568
         572
         576
         580
         584
         588
         592
         596
         600
         604
         608
         612
         616
         620
         624
         628
         632
         636
         640
         644
         648
         652
         656
         660
         664
         668
         672
         676
         680
         684
         688
         692
         696
         700
         704
         708
         712
         716
         720
         724
         728
         732
         736
         740
         744
         748
         752
         756
         760
         764
         768
         772
         776
         780
         784
         788
         792
         796
         800
         804
         808
         812
         816
         820
         824
         828
         832
         836
         840
         844
         848
         852
         856
         860
         864
         868
         872
         876
         880
         884
         888
         892
         896
         900
         904
         908
         912
         916
         920
         924
         928
         932
         936
         940
         944
         948
         952
         956
         960
         964
         968
         972
         976
         980
         984
         988
         992
         996
        1000
        1004
        1008
        1012
        1016
        1020
        1024
        1028
        1032
        1036
        1040
        1044
        1048
        1052
        1056
        1060
        1064
        1068
        1072
        1076
        1080
        1084
        1088
        1092
        1096
        1100
        1104
        1108
        1112
        1116
        1120
        1124
        1128
        1132
        1136
        1140
        1144
        1148
        1152
        1156
        1160
        1164
        1168
        1172
        1176
        1180
        1184
        1188
        1192
        1196
        1200
        1204
        1208
        1212
        1216
        1220
        1224
        1228
        1232
        1236
        1240
        1244
        1248
        1252
        1256
        1260
        1264
        1268
        1272
        1276
        1280
        1284
        1288
        1292
        1296
        1300
        1304
        1308
        1312
        1316
        1320
        1324
        1328
        1332
        1336
        1340
        1344
        1348
        1352
        1356
        1360
        1364
        1368
        1372
        1376
        1380
        1384
        1388
        1392
        1396
        1400
        1404
        1408
        1412
        1416
        1420
        1424
        1428
        1432
        1436
        1440
        1444
        1448
        1452
        1456
        1460
        1464
        1468
        1472
        1476
        1480
        1484
        1488
        1492
        1496
        1500
        1504
        1508
        1512
        1516
        1520
        1524
        1528
        1532
        1536
        1540
        1544
        1548
        1552
        1556
        1560
        1564
        1568
        1572
        1576
        1580
        1584
        1588
        1592
        1596
        1600
        1604
        1608
        1612
        1616
        1620
        1624
        1628
        1632
        1636
        1640
        1644
        1648
        1652
        1656
        1660
        1664
        1668
        1672
        1676
        1680
        1684
        1688
        1692
        1696
        1700
        1704
        1708
        1712
        1716
        1720
        1724
        1728
        1732
        1736
        1740
        1744
        1748
        1752
        1756
        1760
        1764
        1768
        1772
        1776
        1780
        1784
        1788
        1792
        1796
        1800
        1804
        1808
        1812
        1816
        1820
        1824
        1828
        1832
        1836
        1840
        1844
        1848
        1852
        1856
        1860
        1864
        1868
        1872
        1876
        1880
        1884
        1888
        1892
        1896
        1900
        1904
        1908
        1912
        1916
        1920
        1924
        1928
        1932
        1936
        1940
        1944
        1948
        1952
        1956
        1960
        1964
        1968
        1972
        1976
        1980
        1984
        1988
        1992
        1996
        2000
        2004
        2008
        2012
        2016
        2020
        2024
        2028
        2032
        2036
        2040
        2044
        2048
        2052
        2056
        2060
        2064
        2068
        2072
        2076
        2080
        2084
        2088
        2092
        2096
        2100
        2104
        2108
        2112
        2116
        2120
        2124
        2128
        2132
        2136
        2140
        2144
        2148
        2152
        2156
        2160
        2164
        2168
        2172
        2176
        2180
        2184
        2188
        2192
        2196
        2200
        2204
        2208
        2212
        2216
        2220
        2224
        2228
        2232
        2236
        2240
        2244
        2248
        2252
        2256
        2260
        2264
        2268
        2272
        2276
        2280
        2284
        2288
        2292
        2296
        2300
        2304
        2308
        2312
        2316
        2320
        2324
        2328
        2332
        2336
        2340
        2344
        2348
        2352
        2356
        2360
        2364
        2368
        2372
        2376
        2380
        2384
        2388
        2392
        2396
        2400
        2404
        2408
        2412
        2416
        2420
        2424
        2428
        2432
        2436
        2440
        2444
        2448
        2452
        2456
        2460
        2464
        2468
        2472
        2476
        2480
        2484
        2488
        2492
        2496
        2500
        2504
        2508
        2512
        2516
        2520
        2524
        2528
        2532
        2536
        2540
        2544
        2548
        2552
        2556
        2560
        2564
        2568
        2572
        2576
        2580
        2584
        2588
        2592
        2596
        2600
        2604
        2608
        2612
        2616
        2620
        2624
        2628
        2632
        2636
        2640
        2644
        2648
        2652
        2656
        2660
        2664
        2668
        2672
        2676
        2680
        2684
        2688
        2692
        2696
        2700
        2704
        2708
        2712
        2716
        2720
        2724
        2728
        2732
        2736
        2740
        2744
        2748
        2752
        2756
        2760
        2764
        2768
        2772
        2776
        2780
        2784
        2788
        2792
        2796
        2800
        2804
        2808
        2812
        2816
        2820
        2824
        2828
        2832
        2836
        2840
        2844
        2848
        2852
        2856
        2860
        2864
        2868
        2872
        2876
        2880
        2884
        2888
        2892
        2896
        2900
        2904
        2908
        2912
        2916
        2920
        2924
        2928
        2932
        2936
        2940
        2944
        2948
        2952
        2956
        2960
        2964
        2968
        2972
        2976
        2980
        2984
        2988
        2992
        2996
        3000
        3004
        3008
        3012
        3016
        3020
        3024
        3028
        3032
        3036
        3040
        3044
        3048
        3052
        3056
        3060
        3064
        3068
        3072
        3076
        3080
        3084
        3088
        3092
        3096
        3100
        3104
        3108
        3112
        3116
        3120
        3124
        3128
        3132
        3136
        3140
        3144
        3148
        3152
        3156
        3160
        3164
        3168
        3172
        3176
        3180
        3184
        3188
        3192
        3196
        3200
        3204
        3208
        3212
        3216
        3220
        3224
        3228
        3232
        3236
        3240
        3244
        3248
        3252
        3256
        3260
        3264
        3268
        3272
        3276
        3280
        3284
        3288
        3292
        3296
        3300
        3304
        3308
        3312
        3316
        3320
        3324
        3328
        3332
        3336
        3340
        3344
        3348
        3352
        3356
        3360
        3364
        3368
        3372
        3376
        3380
        3384
        3388
        3392
        3396
        3400
        3404
        3408
        3412
        3416
        3420
        3424
        3428
        3432
        3436
        3440
        3444
        3448
        3452
        3456
        3460
        3464
        3468
        3472
        3476
        3480
        3484
        3488
        3492
        3496
        3500
        3504
        3508
        3512
        3516
        3520
        3524
        3528
        3532
        3536
        3540
        3544
        3548
        3552
        3556
        3560
        3564
        3568
        3572
        3576
        3580
        3584
        3588
        3592
        3596
        3600
        3604
        3608
        3612
        3616
        3620
        3624
        3628
        3632
        3636
        3640
        3644
        3648
        3652
        3656
        3660
        3664
        3668
        3672
        3676
        3680
        3684
        3688
        3692
        3696
        3700
        3704
        3708
        3712
        3716
        3720
        3724
        3728
        3732
        3736
        3740
        3744
        3748
        3752
        3756
        3760
        3764
        3768
        3772
        3776
        3780
        3784
        3788
        3792
        3796
        3800
        3804
        3808
        3812
        3816
        3820
        3824
        3828
        3832
        3836
        3840
        3844
        3848
        3852
        3856
        3860
        3864
        3868
        3872
        3876
        3880
        3884
        3888
        3892
        3896
        3900
        3904
        3908
        3912
        3916
        3920
        3924
        3928
        3932
        3936
        3940
        3944
        3948
        3952
        3956
        3960
        3964
        3968
        3972
        3976
        3980
        3984
        3988
        3992
        3996
        4000
        4004
        4008
        4012
        4016
        4020
        4024
        4028
        4032
        4036
        4040
        4044
        4048
        4052
        4056
        4060
        4064
        4068
        4072
        4076
        4080
        4084
        4088
        4092
        4096
 </DataArray>
 <DataArray  type="UInt8"  Name="types"  format="ascii">
 9
 9
 9
 9
 9
 9
 9
 9
 9
 9
 9
 9
 9
 9
 9
 9
 9
 9
 9
 9
 9
 9
 9
 9
 9
 9
 9
 9
 9
 9
 9
 9
 9
 9
 9
 9
 9
 9
 9
 9
 9
 9
 9
 9
 9
 9
 9
 9
 9
 9
 9
 9
 9
 9
 9
 9
 9
 9
 9
 9
 9
 9
 9
 9
 9
 9
 9
 9
 9
 9
 9
 9
 9
 9
 9
 9
 9
 9
 9
 9
 9
 9
 9
 9
 9
 9
 9
 9
 9
 9
 9
 9
 9
 9
 9
 9
 9
 9
 9
 9
 9
 9
 9
 9
 9
 9
 9
 9
 9
 9
 9
 9
 9
 9
 9
 9
 9
 9
 9
 9
 9
 9
 9
 9
 9
 9
 9
 9
 9
 9
 9
 9
 9
 9
 9
 9
 9
 9
 9
 9
 9
 9
 9
 9
 9
 9
 9
 9
 9
 9
 9
 9
 9
 9
 9
 9
 9
 9
 9
 9
 9
 9
 9
 9
 9
 9
 9
 9
 9
 9
 9
 9
 9
 9
 9
 9
 9
 9
 9
 9
 9
 9
 9
 9
 9
 9
 9
 9
 9
 9
 9
 9
 9
 9
 9
 9
 9
 9
 9
 9
 9
 9
 9
 9
 9
 9
 9
 9
 9
 9
 9
 9
 9
 9
 9
 9
 9
 9
 9
 9
 9
 9
 9
 9
 9
 9
 9
 9
 9
 9
 9
 9
 9
 9
 9
 9
 9
 9
 9
 9
 9
 9
 9
 9
 9
 9
 9
 9
 9
 9
 9
 9
 9
 9
 9
 9
 9
 9
 9
 9
 9
 9
 9
 9
 9
 9
 9
 9
 9
 9
 9
 9
 9
 9
 9
 9
 9
 9
 9
 9
 9
 9
 9
 9
 9
 9
 9
 9
 9
 9
 9
 9
 9
 9
 9
 9
 9
 9
 9
 9
 9
 9
 9
 9
 9
 9
 9
 9
 9
 9
 9
 9
 9
 9
 9
 9
 9
 9
 9
 9
 9
 9
 9
 9
 9
 9
 9
 9
 9
 9
 9
 9
 9
 9
 9
 9
 9
 9
 9
 9
 9
 9
 9
 9
 9
 9
 9
 9
 9
 9
 9
 9
 9
 9
 9
 9
 9
 9
 9
 9
 9
 9
 9
 9
 9
 9
 9
 9
 9
 9
 9
 9
 9
 9
 9
 9
 9
 9
 9
 9
 9
 9
 9
 9
 9
 9
 9
 9
 9
 9
 9
 9
 9
 9
 9
 9
 9
 9
 9
 9
 9
 9
 9
 9
 9
 9
 9
 9
 9
 9
 9
 9
 9
 9
 9
 9
 9
 9
 9
 9
 9
 9
 9
 9
 9
 9
 9
 9
 9
 9
 9
 9
 9
 9
 9
 9
 9
 9
 9
 9
 9
 9
 9
 9
 9
 9
 9
 9
 9
 9
 9
 9
 9
 9
 9
 9
 9
 9
 9
 9
 9
 9
 9
 9
 9
 9
 9
 9
 9
 9
 9
 9
 9
 9
 9
 9
 9
 9
 9
 9
 9
 9
 9
 9
 9
 9
 9
 9
 9
 9
 9
 9
 9
 9
 9
 9
 9
 9
 9
 9
 9
 9
 9
 9
 9
 9
 9
 9
 9
 9
 9
 9
 9
 9
 9
 9
 9
 9
 9
 9
 9
 9
 9
 9
 9
 9
 9
 9
 9
 9
 9
 9
 9
 9
 9
 9
 9
 9
 9
 9
 9
 9
 9
 9
 9
 9
 9
 9
 9
 9
 9
 9
 9
 9
 9
 9
 9
 9
 9
 9
 9
 9
 9
 9
 9
 9
 9
 9
 9
 9
 9
 9
 9
 9
 9
 9
 9
 9
 9
 9
 9
 9
 9
 9
 9
 9
 9
 9
 9
 9
 9
 9
 9
 9
 9
 9
 9
 9
 9
 9
 9
 9
 9
 9
 9
 9
 9
 9
 9
 9
 9
 9
 9
 9
 9
 9
 9
 9
 9
 9
 9
 9
 9
 9
 9
 9
 9
 9
 9
 9
 9
 9
 9
 9
 9
 9
 9
 9
 9
 9
 9
 9
 9
 9
 9
 9
 9
 9
 9
 9
 9
 9
 9
 9
 9
 9
 9
 9
 9
 9
 9
 9
 9
 9
 9
 9
 9
 9
 9
 9
 9
 9
 9
 9
 9
 9
 9
 9
 9
 9
 9
 9
 9
 9
 9
 9
 9
 9
 9
 9
 9
 9
 9
 9
 9
 9
 9
 9
 9
 9
 9
 9
 9
 9
 9
 9
 9
 9
 9
 9
 9
 9
 9
 9
 9
 9
 9
 9
 9
 9
 9
 9
 9
 9
 9
 9
 9
 9
 9
 9
 9
 9
 9
 9
 9
 9
 9
 9
 9
 9
 9
 9
 9
 9
 9
 9
 9
 9
 9
 9
 9
 9
 9
 9
 9
 9
 9
 9
 9
 9
 9
 9
 9
 9
 9
 9
 9
 9
 9
 9
 9
 9
 9
 9
 9
 9
 9
 9
 9
 9
 9
 9
 9
 9
 9
 9
 9
 9
 9
 9
 9
 9
 9
 9
 9
 9
 9
 9
 9
 9
 9
 9
 9
 9
 9
 9
 9
 9
 9
 9
 9
 9
 9
 9
 9
 9
 9
 9
 9
 9
 9
 9
 9
 9
 9
 9
 9
 9
 9
 9
 9
 9
 9
 9
 9
 9
 9
 9
 9
 9
 9
 9
 9
 9
 9
 9
 9
 9
 9
 9
 9
 9
 9
 9
 9
 9
 9
 9
 9
 9
 9
 9
 9
 9
 9
 9
 9
 9
 9
 9
 9
 9
 9
 9
 9
 9
 9
 9
 9
 9
 9
 9
 9
 9
 9
 9
 9
 9
 9
 9
 9
 9
 9
 9
 9
 9
 9
 9
 9
 9
 9
 9
 9
 9
 9
 9
 9
 9
 9
 9
 9
 9
 9
 9
 9
 9
 9
 9
 9
 9
 9
 9
 9
 9
 9
 9
 9
 9
 9
 9
 9
 9
 9
 9
 9
 9
 9
 9
 9
 9
 9
 9
 9
 9
 9
 9
 9
 9
 9
 9
 9
 9
 9
 9
 9
 9
 9
 9
 9
 9
 9
 9
 9
 9
 9
 9
 9
 9
 9
 9
 9
 9
 9
 9
 9
 9
 9
 9
 9
 9
 9
 9
 9
 9
 9
 9
 9
 9
 9
 9
 9
 9
 9
 9
 9
 9
 9
 9
 9
 9
 9
 9
 9
 9
 9
 9
 9
 9
 9
 9
 9
 9
 9
 9
 9
 9
 9
 9
 9
 9
 9
 9
 9
 9
 </DataArray>
 </Cells> 
 <PointData>
 <DataArray  type="Float64" Name="disp" NumberOfComponents="3" format="ascii">
   6.6925376405502612E-002   6.1963124930872047E-002   0.0000000000000000     
   6.9494907488198143E-002   6.7713523372389284E-002   0.0000000000000000     
   7.2087433493136704E-002   7.3534845603257709E-002   0.0000000000000000     
   7.4702954420318296E-002   7.9427091623477303E-002   0.0000000000000000     
   7.7341470269742946E-002   8.5390261433048079E-002   0.0000000000000000     
   6.0616280881775682E-002   6.1609697472995835E-002   0.0000000000000000     
   6.3340568403101871E-002   6.7151370410147779E-002   0.0000000000000000     
   6.6011793199017371E-002   7.2832954535906297E-002   0.0000000000000000     
   6.8629955269522133E-002   7.8654449850271410E-002   0.0000000000000000     
   7.1195054614616171E-002   8.4615856353243091E-002   0.0000000000000000     
   5.4919959644950105E-002   6.1113988271051543E-002   0.0000000000000000     
   5.7673176968729110E-002   6.6529513319155520E-002   0.0000000000000000     
   6.0326956828543846E-002   7.2129724045070148E-002   0.0000000000000000     
   6.2881299224394283E-002   7.7914620448795421E-002   0.0000000000000000     
   6.5336204156280442E-002   8.3884202530331367E-002   0.0000000000000000     
   4.9836412695025895E-002   6.0475997325039180E-002   0.0000000000000000     
   5.2492733185079847E-002   6.5847952099412493E-002   0.0000000000000000     
   5.5032924381716135E-002   7.1425154130749222E-002   0.0000000000000000     
   5.7456986284934758E-002   7.7207603419049378E-002   0.0000000000000000     
   5.9764918894735744E-002   8.3195299964312922E-002   0.0000000000000000     
   4.5365640032003038E-002   5.9695724634958716E-002   0.0000000000000000     
   4.7799237052154067E-002   6.5106686750918727E-002   0.0000000000000000     
   5.0129695858534253E-002   7.0719244792943572E-002   0.0000000000000000     
   5.2357016451143587E-002   7.6533398761033253E-002   0.0000000000000000     
   5.4481198829982071E-002   8.2549148655187754E-002   0.0000000000000000     
   7.7341470269742946E-002   8.5390261433048079E-002   0.0000000000000000     
   7.9949958396393558E-002   9.1472173949612795E-002   0.0000000000000000     
   8.2475396155253081E-002   9.7720648090814224E-002   0.0000000000000000     
   8.4917783546321512E-002  0.10413568385665237        0.0000000000000000     
   8.7277120569598854E-002  0.11071728124712721        0.0000000000000000     
   7.1195054614616171E-002   8.4615856353243091E-002   0.0000000000000000     
   7.3689906153217896E-002   9.0729217192575692E-002   0.0000000000000000     
   7.6097324804245678E-002   9.7006575516023583E-002   0.0000000000000000     
   7.8417310567699544E-002  0.10344793132358676        0.0000000000000000     
   8.0649863443579467E-002  0.11005328461526519        0.0000000000000000     
   6.5336204156280442E-002   8.3884202530331367E-002   0.0000000000000000     
   6.7697453679567129E-002   9.0027053092216133E-002   0.0000000000000000     
   6.9970829849619193E-002   9.6331754936987868E-002   0.0000000000000000     
   7.2156332666436618E-002  0.10279830806464660        0.0000000000000000     
   7.4253962130019405E-002  0.10942671247519231        0.0000000000000000     
   5.9764918894735744E-002   8.3195299964312922E-002   0.0000000000000000     
   6.1972600975441265E-002   8.9365681648534090E-002   0.0000000000000000     
   6.4095911291373597E-002   9.5696186353707080E-002   0.0000000000000000     
   6.6134849842532734E-002  0.10218681407983185        0.0000000000000000     
   6.8089416628918639E-002  0.10883756482690850        0.0000000000000000     
   5.4481198829982071E-002   8.2549148655187754E-002   0.0000000000000000     
   5.6515348040840310E-002   8.8745102861529576E-002   0.0000000000000000     
   5.8472569129508913E-002   9.5099869766181191E-002   0.0000000000000000     
   6.0352862095987878E-002  0.10161344936914261        0.0000000000000000     
   6.2156226940277198E-002  0.10828584167041383        0.0000000000000000     
   8.7277120569598854E-002  0.11071728124712721        0.0000000000000000     
   8.9549025918839592E-002  0.11744566432289463        0.0000000000000000     
   9.1729118287798284E-002  0.12430105714461047        0.0000000000000000     
   9.3817397676474901E-002  0.13128345971227476        0.0000000000000000     
   9.5813864084869443E-002  0.13839287202588740        0.0000000000000000     
   8.0649863443579467E-002  0.11005328461526519        0.0000000000000000     
   8.2794608652139876E-002  0.11680485832050327        0.0000000000000000     
   8.4851171413635199E-002  0.12368487536874531        0.0000000000000000     
   8.6819551728065450E-002  0.13069333575999134        0.0000000000000000     
   8.8699749595430588E-002  0.13783023949424131        0.0000000000000000     
   7.4253962130019405E-002  0.10942671247519231        0.0000000000000000     
   7.6265664730305285E-002  0.11620092691440596        0.0000000000000000     
   7.8193386957232061E-002  0.12310491012806855        0.0000000000000000     
   8.0037128810799663E-002  0.13013866211618005        0.0000000000000000     
   8.1796890291008145E-002  0.13730218287874049        0.0000000000000000     
   6.8089416628918639E-002  0.10883756482690850        0.0000000000000000     
   6.9962194153335835E-002  0.11563387010460267        0.0000000000000000     
   7.1755764918588830E-002  0.12256116142258014        0.0000000000000000     
   7.3470128924677580E-002  0.12961943878084090        0.0000000000000000     
   7.5105286171602101E-002  0.13680870217938493        0.0000000000000000     
   6.2156226940277198E-002  0.10828584167041383        0.0000000000000000     
   6.3884196921231540E-002  0.11510368789109346        0.0000000000000000     
   6.5538305297705518E-002  0.12205362925228014        0.0000000000000000     
   6.7118552069699147E-002  0.12913566575397387        0.0000000000000000     
   6.8624937237212441E-002  0.13634979739617464        0.0000000000000000     
   9.5813864084869443E-002  0.13839287202588740        0.0000000000000000     
   9.7717598353237151E-002  0.14562286492495269        0.0000000000000000     
   9.9527681321833261E-002  0.15296700924897480        0.0000000000000000     
  0.10124411299065778       0.16042530499795371        0.0000000000000000     
  0.10286689335971072       0.16799775217188945        0.0000000000000000     
   8.8699749595430588E-002  0.13783023949424131        0.0000000000000000     
   9.0491913639305130E-002  0.14508776371319024        0.0000000000000000     
   9.2196192483263537E-002  0.15245808555853299        0.0000000000000000     
   9.3812586127305822E-002  0.15994120503026971        0.0000000000000000     
   9.5341094571431972E-002  0.16753712212840027        0.0000000000000000     
   8.1796890291008145E-002  0.13730218287874049        0.0000000000000000     
   8.3473389094499140E-002  0.14458646870568229        0.0000000000000000     
   8.5067342917914318E-002  0.15198251588693787        0.0000000000000000     
   8.6578751761253681E-002  0.15949032442250724        0.0000000000000000     
   8.8007615624517227E-002  0.16710989431239048        0.0000000000000000     
   7.5105286171602101E-002  0.13680870217938493        0.0000000000000000     
   7.6662024718819194E-002  0.14411897990242889        0.0000000000000000     
   7.8141132625785592E-002  0.15154030023418935        0.0000000000000000     
   7.9542609892501365E-002  0.15907266317466645        0.0000000000000000     
   8.0866456518966456E-002  0.16671606872386011        0.0000000000000000     
   6.8624937237212441E-002  0.13634979739617464        0.0000000000000000     
   7.0057820512265237E-002  0.14368529730343002        0.0000000000000000     
   7.1417561606877372E-002  0.15113143860028758        0.0000000000000000     
   7.2704160521048861E-002  0.15868822128674723        0.0000000000000000     
   7.3917617254779688E-002  0.16635564536280911        0.0000000000000000     
  0.10286689335971072       0.16799775217188945        0.0000000000000000     
  0.10440145395570853       0.17567083349599383        0.0000000000000000     
  0.10585322630536766       0.18343103169547870        0.0000000000000000     
  0.10722221040868808       0.19127834677034411        0.0000000000000000     
  0.10850840626566982       0.19921277872059001        0.0000000000000000     
   9.5341094571431972E-002  0.16753712212840027        0.0000000000000000     
   9.6784308260589688E-002  0.17523365392021806        0.0000000000000000     
   9.8144817639726711E-002  0.18301861747301643        0.0000000000000000     
   9.9422622708842973E-002  0.19089201278679543        0.0000000000000000     
  0.10061772346793850       0.19885383986155494        0.0000000000000000     
   8.8007615624517227E-002  0.16710989431239048        0.0000000000000000     
   8.9354539885998785E-002  0.17482995267993312        0.0000000000000000     
   9.0620129923992182E-002  0.18263922664848087        0.0000000000000000     
   9.1804385738497446E-002  0.19053771621803367        0.0000000000000000     
   9.2907307329514577E-002  0.19852542138859156        0.0000000000000000     
   8.0866456518966456E-002  0.16671606872386011        0.0000000000000000     
   8.2112148831935766E-002  0.17445972977513902        0.0000000000000000     
   8.3279163158164124E-002  0.18229285922187194        0.0000000000000000     
   8.4367499497651544E-002  0.19021545706405887        0.0000000000000000     
   8.5377157850398025E-002  0.19822752330169982        0.0000000000000000     
   7.3917617254779688E-002  0.16635564536280911        0.0000000000000000     
   7.5057135098400632E-002  0.17412298520583575        0.0000000000000000     
   7.6121917342242496E-002  0.18197951519318972        0.0000000000000000     
   7.7111963986305238E-002  0.18992523532487107        0.0000000000000000     
   7.8027275030588858E-002  0.19796014560087974        0.0000000000000000     
  0.10850840626566982       0.19921277872059001        0.0000000000000000     
  0.10971562442468040       0.20723177440862800        0.0000000000000000     
  0.11084767543408734       0.21533278069686973        0.0000000000000000     
  0.11190455929389065       0.22351579758531512        0.0000000000000000     
  0.11288627600409032       0.23178082507396428        0.0000000000000000     
  0.10061772346793850       0.19885383986155494        0.0000000000000000     
  0.10173484119506725       0.20689873032075751        0.0000000000000000     
  0.10277869716828308       0.21502131578786554        0.0000000000000000     
  0.10374929138758608       0.22322159626287905        0.0000000000000000     
  0.10464662385297616       0.23149957174579802        0.0000000000000000     
   9.2907307329514577E-002  0.19852542138859156        0.0000000000000000     
   9.3933376913521202E-002  0.20659529538625612        0.0000000000000000     
   9.4887076706995005E-002  0.21474029143712908        0.0000000000000000     
   9.5768406709935958E-002  0.22296040954121038        0.0000000000000000     
   9.6577366922344102E-002  0.23125564969850004        0.0000000000000000     
   8.5377157850398025E-002  0.19822752330169982        0.0000000000000000     
   8.6311231580042280E-002  0.20632146960512390        0.0000000000000000     
   8.7172814050223049E-002  0.21448970764466035        0.0000000000000000     
   8.7961905260940346E-002  0.22273223742030912        0.0000000000000000     
   8.8678505212194114E-002  0.23104905893207023        0.0000000000000000     
   7.8027275030588858E-002  0.19796014560087974        0.0000000000000000     
   7.8868405194630509E-002  0.20607725297736085        0.0000000000000000     
   7.9635909197967286E-002  0.21426956441045933        0.0000000000000000     
   8.0329787040599177E-002  0.22253707990017529        0.0000000000000000     
   8.0950038722526207E-002  0.23087979944650863        0.0000000000000000     
  0.11288627600409032       0.23178082507396428        0.0000000000000000     
  0.11382091213055966       0.24014432286714268        0.0000000000000000     
  0.11473655423917199       0.24862275066917583        0.0000000000000000     
  0.11563320232992730       0.25721610848006382        0.0000000000000000     
  0.11651085640282560       0.26592439629980658        0.0000000000000000     
  0.10464662385297616       0.23149957174579802        0.0000000000000000     
  0.10547579769191316       0.23987868938439380        0.0000000000000000     
  0.10624191603185687       0.24838239632643763        0.0000000000000000     
  0.10694497887280731       0.25701069257192960        0.0000000000000000     
  0.10758498621476445       0.26576357812086970        0.0000000000000000     
   9.6577366922344102E-002  0.23125564969850004        0.0000000000000000     
   9.7304986908335264E-002  0.23965249429736660        0.0000000000000000     
   9.7942296232025411E-002  0.24817742572617868        0.0000000000000000     
   9.8489294893414528E-002  0.25683044398493632        0.0000000000000000     
   9.8945982892502587E-002  0.26561154907363943        0.0000000000000000     
   8.8678505212194114E-002  0.23104905893207023        0.0000000000000000     
   8.9308479779825978E-002  0.23946573760606099        0.0000000000000000     
   8.9837694839677615E-002  0.24800783886839886        0.0000000000000000     
   9.0266150391748942E-002  0.25667536271908381        0.0000000000000000     
   9.0593846436040029E-002  0.26546830915811581        0.0000000000000000     
   8.0950038722526207E-002  0.23087979944650863        0.0000000000000000     
   8.1486276306385330E-002  0.23931841931047709        0.0000000000000000     
   8.1928111854813468E-002  0.24787363575309826        0.0000000000000000     
   8.2275545367810607E-002  0.25654544877437219        0.0000000000000000     
   8.2528576845376761E-002  0.26533385837429890        0.0000000000000000     
  0.11651085640282560       0.26592439629980658        0.0000000000000000     
  0.11730984410186934       0.27491216784563594        0.0000000000000000     
  0.11797049307106099       0.28434397683478346        0.0000000000000000     
  0.11849280331040046       0.29421982326724933        0.0000000000000000     
  0.11887677481988783       0.30453970714303341        0.0000000000000000     
  0.10758498621476445       0.26576357812086970        0.0000000000000000     
  0.10814291211433882       0.27477313905384304        0.0000000000000000     
  0.10859973062814099       0.28417146145143485        0.0000000000000000     
  0.10895544175617093       0.29395854531364501        0.0000000000000000     
  0.10921004549842864       0.30413439064047360        0.0000000000000000     
   9.8945982892502587E-002  0.26561154907363943        0.0000000000000000     
   9.9323318137049380E-002  0.27461897425554255        0.0000000000000000     
   9.9632258534814722E-002  0.28395095279389992        0.0000000000000000     
   9.9872804085798544E-002  0.29360748468871162        0.0000000000000000     
  0.10004495479000092       0.30358856993997763        0.0000000000000000     
   9.0593846436040029E-002  0.26546830915811581        0.0000000000000000     
   9.0851062170001010E-002  0.27444967345073440        0.0000000000000000     
   9.1068076791082100E-002  0.28368245086217880        0.0000000000000000     
   9.1244890299283329E-002  0.29316664139244919        0.0000000000000000     
   9.1381502694604669E-002  0.30290224504154545        0.0000000000000000     
   8.2528576845376761E-002  0.26533385837429890        0.0000000000000000     
   8.2726144213193714E-002  0.27426523663941860        0.0000000000000000     
   8.2907185396943223E-002  0.28336595565627148        0.0000000000000000     
   8.3071700396625286E-002  0.29263601542485773        0.0000000000000000     
   8.3219689212239892E-002  0.30207541594517723        0.0000000000000000     
   4.5365640032003038E-002   5.9695724634958716E-002   0.0000000000000000     
   4.7799237052154067E-002   6.5106686750918727E-002   0.0000000000000000     
   5.0129695858534253E-002   7.0719244792943572E-002   0.0000000000000000     
   5.2357016451143587E-002   7.6533398761033253E-002   0.0000000000000000     
   5.4481198829982071E-002   8.2549148655187754E-002   0.0000000000000000     
   4.1223680689540250E-002   5.8896458363613693E-002   0.0000000000000000     
   4.3385792002755968E-002   6.4377810718978148E-002   0.0000000000000000     
   4.5469359906863738E-002   7.0047430737783634E-002   0.0000000000000000     
   4.7474384401863551E-002   7.5905318420030121E-002   0.0000000000000000     
   4.9400865487755428E-002   8.1951473765717653E-002   0.0000000000000000     
   3.7126573701296212E-002   5.8201486673807604E-002   0.0000000000000000     
   3.9045501469689700E-002   6.3733417448894714E-002   0.0000000000000000     
   4.0904005174570122E-002   6.9445146671399893E-002   0.0000000000000000     
   4.2702084815937499E-002   7.5336674341323115E-002   0.0000000000000000     
   4.4439740393791817E-002   8.1408000458664420E-002   0.0000000000000000     
   3.3074319067270937E-002   5.7610809565540447E-002   0.0000000000000000     
   3.4778365452955262E-002   6.3173506940668422E-002   0.0000000000000000     
   3.6433631661653421E-002   6.8912392593792365E-002   0.0000000000000000     
   3.8040117693365419E-002   7.4827466524912234E-002   0.0000000000000000     
   3.9597823548091243E-002   8.0918728734028070E-002   0.0000000000000000     
   2.9066916787464404E-002   5.7124427038812216E-002   0.0000000000000000     
   3.0584383952552675E-002   6.2698079194299289E-002   0.0000000000000000     
   3.2058239368113639E-002   6.8449168504961036E-002   0.0000000000000000     
   3.3488483034147309E-002   7.4377694970797464E-002   0.0000000000000000     
   3.4875114950653680E-002   8.0483658591808560E-002   0.0000000000000000     
   5.4481198829982071E-002   8.2549148655187754E-002   0.0000000000000000     
   5.6515348040840310E-002   8.8745102861529576E-002   0.0000000000000000     
   5.8472569129508913E-002   9.5099869766181191E-002   0.0000000000000000     
   6.0352862095987878E-002  0.10161344936914261        0.0000000000000000     
   6.2156226940277198E-002  0.10828584167041383        0.0000000000000000     
   4.9400865487755428E-002   8.1951473765717653E-002   0.0000000000000000     
   5.1254026932169662E-002   8.8170728376456356E-002   0.0000000000000000     
   5.3039092502736536E-002   9.4547913853856358E-002   0.0000000000000000     
   5.4756062199456043E-002  0.10108303019791773        0.0000000000000000     
   5.6404936022328218E-002  0.10777607740864038        0.0000000000000000     
   4.4439740393791817E-002   8.1408000458664420E-002   0.0000000000000000     
   4.6116969705834725E-002   8.7647969838568152E-002   0.0000000000000000     
   4.7733770549767879E-002   9.4045427296178721E-002   0.0000000000000000     
   4.9290142925591231E-002  0.10060037283149609        0.0000000000000000     
   5.0786086833304829E-002  0.10731280644452029        0.0000000000000000     
   3.9597823548091243E-002   8.0918728734028070E-002   0.0000000000000000     
   4.1104176361835533E-002   8.7176827247865019E-002   0.0000000000000000     
   4.2556603270602920E-002   9.3592410093148240E-002   0.0000000000000000     
   4.3955104274393433E-002  0.10016547726987775        0.0000000000000000     
   4.5299679373207044E-002  0.10689602877805356        0.0000000000000000     
   3.4875114950653680E-002   8.0483658591808560E-002   0.0000000000000000     
   3.6215646900172045E-002   8.6757300604346888E-002   0.0000000000000000     
   3.7507590665241695E-002   9.3188862244764928E-002   0.0000000000000000     
   3.8750946245862630E-002   9.9778343513062681E-002   0.0000000000000000     
   3.9945713642034850E-002  0.10652574440924016        0.0000000000000000     
   6.2156226940277198E-002  0.10828584167041383        0.0000000000000000     
   6.3884196921231540E-002  0.11510368789109346        0.0000000000000000     
   6.5538305297705518E-002  0.12205362925228014        0.0000000000000000     
   6.7118552069699147E-002  0.12913566575397387        0.0000000000000000     
   6.8624937237212441E-002  0.13634979739617464        0.0000000000000000     
   5.6404936022328218E-002  0.10777607740864038        0.0000000000000000     
   5.7985659217542326E-002  0.11461460746018998        0.0000000000000000     
   5.9498177031287659E-002  0.12158617232673212        0.0000000000000000     
   6.0942489463564231E-002  0.12869077200826684        0.0000000000000000     
   6.2318596514372028E-002  0.13592840650479404        0.0000000000000000     
   5.0786086833304829E-002  0.10731280644452029        0.0000000000000000     
   5.2220567225818165E-002  0.11417085599820394        0.0000000000000000     
   5.3592549056040752E-002  0.12116264935549971        0.0000000000000000     
   5.4902032323972595E-002  0.12828818651640755        0.0000000000000000     
   5.6149017029613675E-002  0.13554746748092750        0.0000000000000000     
   4.5299679373207044E-002  0.10689602877805356        0.0000000000000000     
   4.6588920946059063E-002  0.11377243350513534        0.0000000000000000     
   4.7821421371964795E-002  0.12078306033858288        0.0000000000000000     
   4.8997180650924246E-002  0.12792790927839615        0.0000000000000000     
   5.0116198782937396E-002  0.13520698032457509        0.0000000000000000     
   3.9945713642034850E-002  0.10652574440924016        0.0000000000000000     
   4.1090720378265014E-002  0.11341933998098422        0.0000000000000000     
   4.2184793979059797E-002  0.12044740527598165        0.0000000000000000     
   4.3227934444419185E-002  0.12760994029423250        0.0000000000000000     
   4.4220141774343184E-002  0.13490694503573672        0.0000000000000000     
   6.8624937237212441E-002  0.13634979739617464        0.0000000000000000     
   7.0057820512265237E-002  0.14368529730343002        0.0000000000000000     
   7.1417561606877372E-002  0.15113143860028758        0.0000000000000000     
   7.2704160521048861E-002  0.15868822128674723        0.0000000000000000     
   7.3917617254779688E-002  0.16635564536280911        0.0000000000000000     
   6.2318596514372028E-002  0.13592840650479404        0.0000000000000000     
   6.3626266037479451E-002  0.14328779490382657        0.0000000000000000     
   6.4865265886654880E-002  0.15075765629287727        0.0000000000000000     
   6.6035596061898350E-002  0.15833799067194607        0.0000000000000000     
   6.7137256563209818E-002  0.16602879804103302        0.0000000000000000     
   5.6149017029613675E-002  0.13554746748092750        0.0000000000000000     
   5.7332850857103962E-002  0.14292884669875952        0.0000000000000000     
   5.8452881490583412E-002  0.15042067861960348        0.0000000000000000     
   5.9509108930052006E-002  0.15802296324345944        0.0000000000000000     
   6.0501533175509763E-002  0.16573570057032730        0.0000000000000000     
   5.0116198782937396E-002  0.13520698032457509        0.0000000000000000     
   5.1177574971138791E-002  0.14260845268822875        0.0000000000000000     
   5.2180408418662928E-002  0.15012050558046611        0.0000000000000000     
   5.3124699125509850E-002  0.15774313900128725        0.0000000000000000     
   5.4010447091679514E-002  0.16547635295069205        0.0000000000000000     
   4.4220141774343184E-002  0.13490694503573672        0.0000000000000000     
   4.5160438379583903E-002  0.14232661287223433        0.0000000000000000     
   4.6047846670893462E-002  0.14985713717546525        0.0000000000000000     
   4.6882366648271862E-002  0.15749851794542954        0.0000000000000000     
   4.7663998311719080E-002  0.16525075518212709        0.0000000000000000     
   7.3917617254779688E-002  0.16635564536280911        0.0000000000000000     
   7.5057135098400632E-002  0.17412298520583575        0.0000000000000000     
   7.6121917342242496E-002  0.18197951519318972        0.0000000000000000     
   7.7111963986305238E-002  0.18992523532487107        0.0000000000000000     
   7.8027275030588858E-002  0.19796014560087974        0.0000000000000000     
   6.7137256563209818E-002  0.16602879804103302        0.0000000000000000     
   6.8169538013593961E-002  0.17381921142929488        0.0000000000000000     
   6.9131731036055452E-002  0.18169836386588845        0.0000000000000000     
   7.0023835630594292E-002  0.18966625535081372        0.0000000000000000     
   7.0845851797210452E-002  0.19772288588407078        0.0000000000000000     
   6.0501533175509763E-002  0.16573570057032730        0.0000000000000000     
   6.1429396905716284E-002  0.17354790090278807        0.0000000000000000     
   6.2291942799431212E-002  0.18144857454342245        0.0000000000000000     
   6.3089170856654525E-002  0.18943772149223051        0.0000000000000000     
   6.3821081077386238E-002  0.19751534174921220        0.0000000000000000     
   5.4010447091679514E-002  0.16547635295069205        0.0000000000000000     
   5.4836711774767601E-002  0.17330905362631527        0.0000000000000000     
   5.5602552632369732E-002  0.18123014722579167        0.0000000000000000     
   5.6307969664485924E-002  0.18923963374912134        0.0000000000000000     
   5.6952962871116175E-002  0.19733751319630419        0.0000000000000000     
   4.7663998311719080E-002  0.16525075518212709        0.0000000000000000     
   4.8391482620747897E-002  0.17310266959987652        0.0000000000000000     
   4.9063560534871029E-002  0.18104308191299628        0.0000000000000000     
   4.9680232054088488E-002  0.18907199212148629        0.0000000000000000     
   5.0241497178400270E-002  0.19718940022534662        0.0000000000000000     
   7.8027275030588858E-002  0.19796014560087974        0.0000000000000000     
   7.8868405194630509E-002  0.20607725297736085        0.0000000000000000     
   7.9635909197967286E-002  0.21426956441045933        0.0000000000000000     
   8.0329787040599177E-002  0.22253707990017529        0.0000000000000000     
   8.0950038722526207E-002  0.23087979944650863        0.0000000000000000     
   7.0845851797210452E-002  0.19772288588407078        0.0000000000000000     
   7.1595796731446740E-002  0.20586204383463241        0.0000000000000000     
   7.2271687628845907E-002  0.21407751757147178        0.0000000000000000     
   7.2873524489407954E-002  0.22236930709458874        0.0000000000000000     
   7.3401307313132880E-002  0.23073741240398341        0.0000000000000000     
   6.3821081077386238E-002  0.19751534174921220        0.0000000000000000     
   6.4484305164651937E-002  0.20567524050860428        0.0000000000000000     
   6.5075474821477214E-002  0.21391122296464340        0.0000000000000000     
   6.5594590047862070E-002  0.22222328911732947        0.0000000000000000     
   6.6041650843806518E-002  0.23061143896666256        0.0000000000000000     
   5.6952962871116175E-002  0.19733751319630419        0.0000000000000000     
   5.7533930494246072E-002  0.20551684299927639        0.0000000000000000     
   5.8047270775861200E-002  0.21377068058997412        0.0000000000000000     
   5.8492983715961566E-002  0.22209902596839737        0.0000000000000000     
   5.8871069314547171E-002  0.23050187913454617        0.0000000000000000     
   5.0241497178400270E-002  0.19718940022534662        0.0000000000000000     
   5.0744672720229145E-002  0.20538685130664874        0.0000000000000000     
   5.1187075491997858E-002  0.21365589044746403        0.0000000000000000     
   5.1568705493706415E-002  0.22199651764779249        0.0000000000000000     
   5.1889562725354818E-002  0.23040873290763420        0.0000000000000000     
   8.0950038722526207E-002  0.23087979944650863        0.0000000000000000     
   8.1486276306385330E-002  0.23931841931047709        0.0000000000000000     
   8.1928111854813468E-002  0.24787363575309826        0.0000000000000000     
   8.2275545367810607E-002  0.25654544877437219        0.0000000000000000     
   8.2528576845376761E-002  0.26533385837429890        0.0000000000000000     
   7.3401307313132880E-002  0.23073741240398341        0.0000000000000000     
   7.3851958259411182E-002  0.23919557906184899        0.0000000000000000     
   7.4222399487633428E-002  0.24775755263037882        0.0000000000000000     
   7.4512630997799548E-002  0.25642333310957288        0.0000000000000000     
   7.4722652789909610E-002  0.26519292049943122        0.0000000000000000     
   6.6041650843806518E-002  0.23061143896666256        0.0000000000000000     
   6.6419107410301492E-002  0.23908225651141082        0.0000000000000000     
   6.6729409948337953E-002  0.24764232575034242        0.0000000000000000     
   6.6972558457915901E-002  0.25629164668345722        0.0000000000000000     
   6.7148552939035336E-002  0.26503021931075532        0.0000000000000000     
   5.8871069314547171E-002  0.23050187913454617        0.0000000000000000     
   5.9187723759056253E-002  0.23897845165916268        0.0000000000000000     
   5.9449143236927092E-002  0.24752795511298897        0.0000000000000000     
   5.9655327748159653E-002  0.25615038949602525        0.0000000000000000     
   5.9806277292753972E-002  0.26484575480827127        0.0000000000000000     
   5.1889562725354818E-002  0.23040873290763420        0.0000000000000000     
   5.2157807305675478E-002  0.23888416450510444        0.0000000000000000     
   5.2381599353400816E-002  0.24741444071831864        0.0000000000000000     
   5.2560938868530825E-002  0.25599956154727682        0.0000000000000000     
   5.2695825851065504E-002  0.26463952699197907        0.0000000000000000     
   8.2528576845376761E-002  0.26533385837429890        0.0000000000000000     
   8.2726144213193714E-002  0.27426523663941860        0.0000000000000000     
   8.2907185396943223E-002  0.28336595565627148        0.0000000000000000     
   8.3071700396625286E-002  0.29263601542485773        0.0000000000000000     
   8.3219689212239892E-002  0.30207541594517723        0.0000000000000000     
   7.4722652789909610E-002  0.26519292049943122        0.0000000000000000     
   7.4893392041741336E-002  0.27405997787849246        0.0000000000000000     
   7.5065775931072540E-002  0.28301816832529558        0.0000000000000000     
   7.5239804457903181E-002  0.29206749183984038        0.0000000000000000     
   7.5415477622233273E-002  0.30120794842212695        0.0000000000000000     
   6.7148552939035336E-002  0.26503021931075532        0.0000000000000000     
   6.7297633430757731E-002  0.27382821122485340        0.0000000000000000     
   6.7460039972144559E-002  0.28265579001836838        0.0000000000000000     
   6.7635772563195792E-002  0.29151295569130020        0.0000000000000000     
   6.7824831203911473E-002  0.30039970824364887        0.0000000000000000     
   5.9806277292753972E-002  0.26484575480827127        0.0000000000000000     
   5.9938868380242892E-002  0.27356993667850149        0.0000000000000000     
   6.0089977520159280E-002  0.28227882073549010        0.0000000000000000     
   6.0259604712503141E-002  0.29097240697923721        0.0000000000000000     
   6.0447749957274477E-002  0.29965069540974287        0.0000000000000000     
   5.2695825851065504E-002  0.26463952699197907        0.0000000000000000     
   5.2817096890196820E-002  0.27328515423943656        0.0000000000000000     
   5.2955588575116730E-002  0.28188726047666074        0.0000000000000000     
   5.3111300905825221E-002  0.29044584570365156        0.0000000000000000     
   5.3284233882322306E-002  0.29896090992040908        0.0000000000000000     
   2.9066916787464404E-002   5.7124427038812216E-002   0.0000000000000000     
   3.0584383952552675E-002   6.2698079194299289E-002   0.0000000000000000     
   3.2058239368113639E-002   6.8449168504961036E-002   0.0000000000000000     
   3.3488483034147309E-002   7.4377694970797464E-002   0.0000000000000000     
   3.4875114950653680E-002   8.0483658591808560E-002   0.0000000000000000     
   2.5136592600251608E-002   5.6715075342659280E-002   0.0000000000000000     
   2.6478534283816173E-002   6.2290550787792533E-002   0.0000000000000000     
   2.7779417750136506E-002   6.8046700435543006E-002   0.0000000000000000     
   2.9039242999212591E-002   7.3983524285910693E-002   0.0000000000000000     
   3.0258010031044447E-002   8.0101022338895572E-002   0.0000000000000000     
   2.1315572244007513E-002   5.6355490726117986E-002   0.0000000000000000     
   2.2475793762080025E-002   6.1934338299153457E-002   0.0000000000000000     
   2.3598756263907755E-002   6.7696214416175404E-002   0.0000000000000000     
   2.4684459749490687E-002   7.3641119077183806E-002   0.0000000000000000     
   2.5732904218828831E-002   7.9769052282178676E-002   0.0000000000000000     
   1.7603855718732114E-002   5.6045673189188336E-002   0.0000000000000000     
   1.8576162387344219E-002   6.1629441728382035E-002   0.0000000000000000     
   1.9516254909427377E-002   6.7397710446858189E-002   0.0000000000000000     
   2.0424133284981581E-002   7.3350479344616831E-002   0.0000000000000000     
   2.1299797514006836E-002   7.9487748421657928E-002   0.0000000000000000     
   1.4001443024425412E-002   5.5785622731870335E-002   0.0000000000000000     
   1.4779640159608760E-002   6.1375861075478273E-002   0.0000000000000000     
   1.5531913686695386E-002   6.7151188527591416E-002   0.0000000000000000     
   1.6258263605685285E-002   7.3111605088209741E-002   0.0000000000000000     
   1.6958689916578455E-002   7.9257110757333257E-002   0.0000000000000000     
   3.4875114950653680E-002   8.0483658591808560E-002   0.0000000000000000     
   3.6215646900172045E-002   8.6757300604346888E-002   0.0000000000000000     
   3.7507590665241695E-002   9.3188862244764928E-002   0.0000000000000000     
   3.8750946245862630E-002   9.9778343513062681E-002   0.0000000000000000     
   3.9945713642034850E-002  0.10652574440924016        0.0000000000000000     
   3.0258010031044447E-002   8.0101022338895572E-002   0.0000000000000000     
   3.1434451463466975E-002   8.6388113572375760E-002   0.0000000000000000     
   3.2567299914315090E-002   9.2833716964229346E-002   0.0000000000000000     
   3.3656555383588777E-002   9.9437832514456287E-002   0.0000000000000000     
   3.4702217871288056E-002  0.10620046022305660        0.0000000000000000     
   2.5732904218828831E-002   7.9769052282178676E-002   0.0000000000000000     
   2.6743660194342999E-002   8.6067989816313570E-002   0.0000000000000000     
   2.7716298198453990E-002   9.2525907464741972E-002   0.0000000000000000     
   2.8650818231161806E-002   9.9142805227463909E-002   0.0000000000000000     
   2.9547220292466446E-002  0.10591868310447936        0.0000000000000000     
   2.1299797514006836E-002   7.9487748421657928E-002   0.0000000000000000     
   2.2143273092800116E-002   8.5796929336160316E-002   0.0000000000000000     
   2.2954585517658412E-002   9.2265433746302861E-002   0.0000000000000000     
   2.3733734788581717E-002   9.8893261652085562E-002   0.0000000000000000     
   2.4480720905570040E-002  0.10568041305350838        0.0000000000000000     
   1.6958689916578455E-002   7.9257110757333257E-002   0.0000000000000000     
   1.7633290158838334E-002   8.5574932131916012E-002   0.0000000000000000     
   1.8282161871928354E-002   9.2052295808911999E-002   0.0000000000000000     
   1.8905305055848514E-002   9.8689201788321232E-002   0.0000000000000000     
   1.9502719710598818E-002  0.10548565007014374        0.0000000000000000     
   3.9945713642034850E-002  0.10652574440924016        0.0000000000000000     
   4.1090720378265014E-002  0.11341933998098422        0.0000000000000000     
   4.2184793979059797E-002  0.12044740527598165        0.0000000000000000     
   4.3227934444419185E-002  0.12760994029423250        0.0000000000000000     
   4.4220141774343184E-002  0.13490694503573672        0.0000000000000000     
   3.4702217871288056E-002  0.10620046022305660        0.0000000000000000     
   3.5703571966606458E-002  0.11310965552165901        0.0000000000000000     
   3.6659902258737546E-002  0.12015347384189218        0.0000000000000000     
   3.7571208747681314E-002  0.12733191518375600        0.0000000000000000     
   3.8437491433437755E-002  0.13464497954725063        0.0000000000000000     
   2.9547220292466446E-002  0.10591868310447936        0.0000000000000000     
   3.0405082155253831E-002  0.11284146022306824        0.0000000000000000     
   3.1223981592409841E-002  0.11989905571051047        0.0000000000000000     
   3.2003918603934513E-002  0.12709146956680606        0.0000000000000000     
   3.2744893189827824E-002  0.13441870179195495        0.0000000000000000     
   2.4480720905570040E-002  0.10568041305350838        0.0000000000000000     
   2.5195250944207114E-002  0.11261475408521192        0.0000000000000000     
   2.5877031980076695E-002  0.11968415088183665        0.0000000000000000     
   2.6526064013178786E-002  0.12688860344338257        0.0000000000000000     
   2.7142347043513385E-002  0.13422811176984972        0.0000000000000000     
   1.9502719710598818E-002  0.10548565007014374        0.0000000000000000     
   2.0074078333466326E-002  0.11242953710808998        0.0000000000000000     
   2.0619053421738098E-002  0.11950875935587062        0.0000000000000000     
   2.1137644975414135E-002  0.12672331681348556        0.0000000000000000     
   2.1629852994494443E-002  0.13407320948093487        0.0000000000000000     
   4.4220141774343184E-002  0.13490694503573672        0.0000000000000000     
   4.5160438379583903E-002  0.14232661287223433        0.0000000000000000     
   4.6047846670893462E-002  0.14985713717546525        0.0000000000000000     
   4.6882366648271862E-002  0.15749851794542954        0.0000000000000000     
   4.7663998311719080E-002  0.16525075518212709        0.0000000000000000     
   3.8437491433437755E-002  0.13464497954725063        0.0000000000000000     
   3.9257795107535159E-002  0.14208095047162420        0.0000000000000000     
   4.0031164561501818E-002  0.14962811149612495        0.0000000000000000     
   4.0757599795337718E-002  0.15728646262075291        0.0000000000000000     
   4.1437100809042879E-002  0.16505600384550803        0.0000000000000000     
   3.2744893189827824E-002  0.13441870179195495        0.0000000000000000     
   3.3445999180088386E-002  0.14186908870724632        0.0000000000000000     
   3.4106330404714821E-002  0.14943096663396935        0.0000000000000000     
   3.4725886863707124E-002  0.15710433557212397        0.0000000000000000     
   3.5304668557065301E-002  0.16488919552171022        0.0000000000000000     
   2.7142347043513385E-002  0.13422811176984972        0.0000000000000000     
   2.7725050597243579E-002  0.14169102757910074        0.0000000000000000     
   2.8273344200532482E-002  0.14926570258899843        0.0000000000000000     
   2.8787227853380074E-002  0.15695213679954276        0.0000000000000000     
   2.9266701555786374E-002  0.16475033021073368        0.0000000000000000     
   2.1629852994494443E-002  0.13407320948093487        0.0000000000000000     
   2.2094949359000748E-002  0.14154676708718744        0.0000000000000000     
   2.2532205948954796E-002  0.14913231936121221        0.0000000000000000     
   2.2941622764356573E-002  0.15682986630300924        0.0000000000000000     
   2.3323199805206085E-002  0.16463940791257842        0.0000000000000000     
   4.7663998311719080E-002  0.16525075518212709        0.0000000000000000     
   4.8391482620747897E-002  0.17310266959987652        0.0000000000000000     
   4.9063560534871029E-002  0.18104308191299628        0.0000000000000000     
   4.9680232054088488E-002  0.18907199212148629        0.0000000000000000     
   5.0241497178400270E-002  0.19718940022534662        0.0000000000000000     
   4.1437100809042879E-002  0.16505600384550803        0.0000000000000000     
   4.2068122056514556E-002  0.17292544296285192        0.0000000000000000     
   4.2649117991650026E-002  0.18088348776524610        0.0000000000000000     
   4.3180088614449295E-002  0.18893013825269067        0.0000000000000000     
   4.3661033924912371E-002  0.19706539442518556        0.0000000000000000     
   3.5304668557065301E-002  0.16488919552171022        0.0000000000000000     
   3.5841042694924947E-002  0.17277406785462154        0.0000000000000000     
   3.6333376487421659E-002  0.18074747394275145        0.0000000000000000     
   3.6781669934555429E-002  0.18880941378609986        0.0000000000000000     
   3.7185923036326271E-002  0.19695988738466691        0.0000000000000000     
   2.9266701555786374E-002  0.16475033021073368        0.0000000000000000     
   2.9710244535979088E-002  0.17264854427518544        0.0000000000000000     
   3.0116336022185924E-002  0.18063504044551215        0.0000000000000000     
   3.0484976014406896E-002  0.18870981872171394        0.0000000000000000     
   3.0816164512641988E-002  0.19687287910379067        0.0000000000000000     
   2.3323199805206085E-002  0.16463940791257842        0.0000000000000000     
   2.3675727579676960E-002  0.17254887222454354        0.0000000000000000     
   2.3997996595942823E-002  0.18054618727352831        0.0000000000000000     
   2.4290006854003676E-002  0.18863135305953274        0.0000000000000000     
   2.4551758353859525E-002  0.19680436958255687        0.0000000000000000     
   5.0241497178400270E-002  0.19718940022534662        0.0000000000000000     
   5.0744672720229145E-002  0.20538685130664874        0.0000000000000000     
   5.1187075491997858E-002  0.21365589044746403        0.0000000000000000     
   5.1568705493706415E-002  0.22199651764779249        0.0000000000000000     
   5.1889562725354818E-002  0.23040873290763420        0.0000000000000000     
   4.3661033924912371E-002  0.19706539442518556        0.0000000000000000     
   4.4090593838310613E-002  0.20527895922462008        0.0000000000000000     
   4.4467408269915451E-002  0.21356053559288349        0.0000000000000000     
   4.4791477219726865E-002  0.22191012352997586        0.0000000000000000     
   4.5062800687744854E-002  0.23032772303589716        0.0000000000000000     
   3.7185923036326271E-002  0.19695988738466691        0.0000000000000000     
   3.7545755844199953E-002  0.20518686054708904        0.0000000000000000     
   3.7860788409642243E-002  0.21347829908200289        0.0000000000000000     
   3.8131020732653155E-002  0.22183420298940848        0.0000000000000000     
   3.8356452813232682E-002  0.23025457226930571        0.0000000000000000     
   3.0816164512641988E-002  0.19687287910379067        0.0000000000000000     
   3.1110158737897128E-002  0.20511055527405567        0.0000000000000000     
   3.1367215911178227E-002  0.21340918091482222        0.0000000000000000     
   3.1587336032485279E-002  0.22176875602609022        0.0000000000000000     
   3.1770519101818301E-002  0.23018928060785981        0.0000000000000000     
   2.4551758353859525E-002  0.19680436958255687        0.0000000000000000     
   2.4783802519402168E-002  0.20505004340551997        0.0000000000000000     
   2.4986690774523406E-002  0.21335318109134147        0.0000000000000000     
   2.5160423119223257E-002  0.22171378264002128        0.0000000000000000     
   2.5304999553501704E-002  0.23013184805155945        0.0000000000000000     
   5.1889562725354818E-002  0.23040873290763420        0.0000000000000000     
   5.2157807305675478E-002  0.23888416450510444        0.0000000000000000     
   5.2381599353400816E-002  0.24741444071831864        0.0000000000000000     
   5.2560938868530825E-002  0.25599956154727682        0.0000000000000000     
   5.2695825851065504E-002  0.26463952699197907        0.0000000000000000     
   4.5062800687744854E-002  0.23032772303589716        0.0000000000000000     
   4.5290226560314076E-002  0.23879799749960551        0.0000000000000000     
   4.5482602723779145E-002  0.24730561031005893        0.0000000000000000     
   4.5639929178140096E-002  0.25585056146725754        0.0000000000000000     
   4.5762205923396915E-002  0.26443285097120134        0.0000000000000000     
   3.8356452813232682E-002  0.23025457226930571        0.0000000000000000     
   3.8545850033126966E-002  0.23871855309303525        0.0000000000000000     
   3.8707977774082150E-002  0.24720529163193758        0.0000000000000000     
   3.8842836036098213E-002  0.25571478788601271        0.0000000000000000     
   3.8950424819175183E-002  0.26424704185526077        0.0000000000000000     
   3.1770519101818301E-002  0.23018928060785981        0.0000000000000000     
   3.1924677724114170E-002  0.23864583128539368        0.0000000000000000     
   3.2057724504309798E-002  0.24711348468395450        0.0000000000000000     
   3.2169659442405178E-002  0.25559224080354243        0.0000000000000000     
   3.2260482538400324E-002  0.26408209964415735        0.0000000000000000     
   2.5304999553501704E-002  0.23013184805155945        0.0000000000000000     
   2.5426709633275677E-002  0.23857983207668074        0.0000000000000000     
   2.5531842914462109E-002  0.24703018946610975        0.0000000000000000     
   2.5620399397060987E-002  0.25548292021984653        0.0000000000000000     
   2.5692379081072317E-002  0.26393802433789104        0.0000000000000000     
   5.2695825851065504E-002  0.26463952699197907        0.0000000000000000     
   5.2817096890196820E-002  0.27328515423943656        0.0000000000000000     
   5.2955588575116730E-002  0.28188726047666074        0.0000000000000000     
   5.3111300905825221E-002  0.29044584570365156        0.0000000000000000     
   5.3284233882322306E-002  0.29896090992040908        0.0000000000000000     
   4.5762205923396915E-002  0.26443285097120134        0.0000000000000000     
   4.5873570372034829E-002  0.27300257904499675        0.0000000000000000     
   4.5998159936539065E-002  0.28150984591175038        0.0000000000000000     
   4.6135974616909638E-002  0.28995465157146227        0.0000000000000000     
   4.6287014413146532E-002  0.29833699602413227        0.0000000000000000     
   3.8950424819175183E-002  0.26424704185526077        0.0000000000000000     
   3.9049540237172220E-002  0.27275092623252012        0.0000000000000000     
   3.9158978403948483E-002  0.28117531371062926        0.0000000000000000     
   3.9278739319503993E-002  0.28952020428958830        0.0000000000000000     
   3.9408822983838722E-002  0.29778559796939730        0.0000000000000000     
   3.2260482538400324E-002  0.26408209964415735        0.0000000000000000     
   3.2345006485609000E-002  0.27253019580200660        0.0000000000000000     
   3.2438043977344982E-002  0.28088366387329744        0.0000000000000000     
   3.2539595013608279E-002  0.28914250385803003        0.0000000000000000     
   3.2649659594398882E-002  0.29730671575620415        0.0000000000000000     
   2.5692379081072317E-002  0.26393802433789104        0.0000000000000000     
   2.5759969117345155E-002  0.27234038775345626        0.0000000000000000     
   2.5835356656728554E-002  0.28063489639975492        0.0000000000000000     
   2.5918541699222506E-002  0.28882155027678713        0.0000000000000000     
   2.6009524244827019E-002  0.29690034938455284        0.0000000000000000     
   1.4001443024425412E-002   5.5785622731870335E-002   0.0000000000000000     
   1.4779640159608760E-002   6.1375861075478273E-002   0.0000000000000000     
   1.5531913686695386E-002   6.7151188527591416E-002   0.0000000000000000     
   1.6258263605685285E-002   7.3111605088209741E-002   0.0000000000000000     
   1.6958689916578455E-002   7.9257110757333257E-002   0.0000000000000000     
   1.0465532252264672E-002   5.5579851683865568E-002   0.0000000000000000     
   1.1047186909369988E-002   6.1176428721166645E-002   0.0000000000000000     
   1.1609723213658631E-002   6.6958223996622296E-002   0.0000000000000000     
   1.2153141165130608E-002   7.2925237510232485E-002   0.0000000000000000     
   1.2677440763785913E-002   7.9077469261997227E-002   0.0000000000000000     
   6.9533214934271604E-003   5.5432872374875590E-002   0.0000000000000000     
   7.3397624671242305E-003   6.1033977046171632E-002   0.0000000000000000     
   7.7136741082639649E-003   6.6820392192198111E-002   0.0000000000000000     
   8.0750564168463636E-003   7.2792117812955012E-002   0.0000000000000000     
   8.4239093928714249E-003   7.8949153908442329E-002   0.0000000000000000     
   3.4648107479128732E-003   5.5344684804900429E-002   0.0000000000000000     
   3.6573668328714936E-003   6.0948506050493220E-002   0.0000000000000000     
   3.8437663705113865E-003   6.6737693114318861E-002   0.0000000000000000     
   4.0240093608325533E-003   7.2712245996377309E-002   0.0000000000000000     
   4.1980958038349923E-003   7.8872164696668565E-002   0.0000000000000000     
   1.5721812740565611E-011   5.5315288973940058E-002   0.0000000000000000     
   6.6117749296379369E-012   6.0920015734131430E-002   0.0000000000000000     
   4.0089611318128160E-013   6.6710126762984517E-002   0.0000000000000000     
  -2.9108243051155502E-012   7.2685622060499361E-002   0.0000000000000000     
  -3.3233858373615810E-012   7.8846501626675947E-002   0.0000000000000000     
   1.6958689916578455E-002   7.9257110757333257E-002   0.0000000000000000     
   1.7633290158838334E-002   8.5574932131916012E-002   0.0000000000000000     
   1.8282161871928354E-002   9.2052295808911999E-002   0.0000000000000000     
   1.8905305055848514E-002   9.8689201788321232E-002   0.0000000000000000     
   1.9502719710598818E-002  0.10548565007014374        0.0000000000000000     
   1.2677440763785913E-002   7.9077469261997227E-002   0.0000000000000000     
   1.3182623886136828E-002   8.5402149761364995E-002   0.0000000000000000     
   1.3668692408695627E-002   9.1886509517784279E-002   0.0000000000000000     
   1.4135646331462311E-002   9.8530548531255049E-002   0.0000000000000000     
   1.4583485654436882E-002  0.10533426680177732        0.0000000000000000     
   8.4239093928714249E-003   7.8949153908442329E-002   0.0000000000000000     
   8.7601867683747784E-003   8.5278733782291671E-002   0.0000000000000000     
   9.0838422753920459E-003   9.1768090738134564E-002   0.0000000000000000     
   9.3948759139232309E-003   9.8417224775971091E-002   0.0000000000000000     
   9.6932876839683282E-003  0.10522613589580115        0.0000000000000000     
   4.1980958038349923E-003   7.8872164696668565E-002   0.0000000000000000     
   4.3659788055521844E-003   8.5204684194695998E-002   0.0000000000000000     
   4.5276114720176099E-003   9.1697039469962910E-002   0.0000000000000000     
   4.6829938032312670E-003   9.8349230522469328E-002   0.0000000000000000     
   4.8321257991931574E-003  0.10516125735221522        0.0000000000000000     
  -3.3233858373615810E-012   7.8846501626675947E-002   0.0000000000000000     
  -2.3309501030743807E-012   8.5180000998578004E-002   0.0000000000000000     
  -1.4276791554523882E-012   9.1673355713269303E-002   0.0000000000000000     
  -6.1357472921907963E-013   9.8326565770749830E-002   0.0000000000000000     
   1.1136664507249705E-013  0.10513963117101957        0.0000000000000000     
   1.9502719710598818E-002  0.10548565007014374        0.0000000000000000     
   2.0074078333466326E-002  0.11242953710808998        0.0000000000000000     
   2.0619053421738098E-002  0.11950875935587062        0.0000000000000000     
   2.1137644975414135E-002  0.12672331681348556        0.0000000000000000     
   2.1629852994494443E-002  0.13407320948093487        0.0000000000000000     
   1.4583485654436882E-002  0.10533426680177732        0.0000000000000000     
   1.5011815954734624E-002  0.11228562376104573        0.0000000000000000     
   1.5420242809470824E-002  0.11937257884075488        0.0000000000000000     
   1.5808766218645479E-002  0.12659513204090483        0.0000000000000000     
   1.6177386182258592E-002  0.13395328336149553        0.0000000000000000     
   9.6932876839683282E-003  0.10522613589580115        0.0000000000000000     
   9.9787154397151922E-003  0.11218282851342229        0.0000000000000000     
   1.0250797035351662E-002  0.11927530704463195        0.0000000000000000     
   1.0509532470877738E-002  0.12650357148943012        0.0000000000000000     
   1.0754921746293422E-002  0.13386762184781678        0.0000000000000000     
   4.8321257991931574E-003  0.10516125735221522        0.0000000000000000     
   4.9747767884080240E-003  0.11212115136521969        0.0000000000000000     
   5.1107160993806074E-003  0.11921694396750172        0.0000000000000000     
   5.2399437321109096E-003  0.12644863515906138        0.0000000000000000     
   5.3624596865989305E-003  0.13381622493989861        0.0000000000000000     
   1.1136664507249705E-013  0.10513963117101957        0.0000000000000000     
   8.1311910329895376E-013  0.11210059231643794        0.0000000000000000     
   1.5576628528690684E-012  0.11919748960936428        0.0000000000000000     
   2.3449964843200166E-012  0.12643032304979865        0.0000000000000000     
   3.1751190218698433E-012  0.13379909263774101        0.0000000000000000     
   2.1629852994494443E-002  0.13407320948093487        0.0000000000000000     
   2.2094949359000748E-002  0.14154676708718744        0.0000000000000000     
   2.2532205948954796E-002  0.14913231936121221        0.0000000000000000     
   2.2941622764356573E-002  0.15682986630300924        0.0000000000000000     
   2.3323199805206085E-002  0.16463940791257842        0.0000000000000000     
   1.6177386182258592E-002  0.13395328336149553        0.0000000000000000     
   1.6525506849851705E-002  0.14143532693511943        0.0000000000000000     
   1.6852532370966365E-002  0.14902955689436895        0.0000000000000000     
   1.7158462745602572E-002  0.15673597323924407        0.0000000000000000     
   1.7443297973760329E-002  0.16455457596974479        0.0000000000000000     
   1.0754921746293422E-002  0.13386762184781678        0.0000000000000000     
   1.0986534454288261E-002  0.14135572682650976        0.0000000000000000     
   1.1203940187551803E-002  0.14895615513222685        0.0000000000000000     
   1.1407138946084049E-002  0.15666890676496800        0.0000000000000000     
   1.1596130729884999E-002  0.16449398172473326        0.0000000000000000     
   5.3624596865989305E-003  0.13381622493989861        0.0000000000000000     
   5.4780321723104141E-003  0.14130796676135843        0.0000000000000000     
   5.5864293987111036E-003  0.14891211407478591        0.0000000000000000     
   5.6876513658009999E-003  0.15662866688018107        0.0000000000000000     
   5.7816980735801030E-003  0.16445762517754381        0.0000000000000000     
   3.1751190218698433E-012  0.13379909263774101        0.0000000000000000     
   3.9181654882397554E-012  0.14129204673966550        0.0000000000000000     
   4.4442663525018355E-012  0.14889743372204617        0.0000000000000000     
   4.7534231867492338E-012  0.15661525358488318        0.0000000000000000     
   4.8456351778303208E-012  0.16444550632817645        0.0000000000000000     
   2.3323199805206085E-002  0.16463940791257842        0.0000000000000000     
   2.3675727579676960E-002  0.17254887222454354        0.0000000000000000     
   2.3997996595942823E-002  0.18054618727352831        0.0000000000000000     
   2.4290006854003676E-002  0.18863135305953274        0.0000000000000000     
   2.4551758353859525E-002  0.19680436958255687        0.0000000000000000     
   1.7443297973760329E-002  0.16455457596974479        0.0000000000000000     
   1.7706212340012181E-002  0.17247296922404762        0.0000000000000000     
   1.7946380128930680E-002  0.18047875714032902        0.0000000000000000     
   1.8163801340515828E-002  0.18857193971858890        0.0000000000000000     
   1.8358475974767623E-002  0.19675251695882739        0.0000000000000000     
   1.1596130729884999E-002  0.16449398172473326        0.0000000000000000     
   1.1770419330978355E-002  0.17241875279504945        0.0000000000000000     
   1.1929508541387811E-002  0.18043059275944331        0.0000000000000000     
   1.2073398361113373E-002  0.18852950161791490        0.0000000000000000     
   1.2202088790155033E-002  0.19671547937046424        0.0000000000000000     
   5.7816980735801030E-003  0.16445762517754381        0.0000000000000000     
   5.8683485525754860E-003  0.17238622293754896        0.0000000000000000     
   5.9473818333142248E-003  0.18040169413087129        0.0000000000000000     
   6.0187979157963149E-003  0.18850403875751073        0.0000000000000000     
   6.0825968000217607E-003  0.19669325681746735        0.0000000000000000     
   4.8456351778303208E-012  0.16444550632817645        0.0000000000000000     
   4.8035746387509182E-012  0.17237537965154623        0.0000000000000000     
   4.7099138825168474E-012  0.18039206125461285        0.0000000000000000     
   4.5646572459367984E-012  0.18849555113737634        0.0000000000000000     
   4.3677999585212124E-012  0.19668584929983668        0.0000000000000000     
   2.4551758353859525E-002  0.19680436958255687        0.0000000000000000     
   2.4783802519402168E-002  0.20505004340551997        0.0000000000000000     
   2.4986690774523406E-002  0.21335318109134147        0.0000000000000000     
   2.5160423119223257E-002  0.22171378264002128        0.0000000000000000     
   2.5304999553501704E-002  0.23013184805155945        0.0000000000000000     
   1.8358475974767623E-002  0.19675251695882739        0.0000000000000000     
   1.8531013031256687E-002  0.20500400513502798        0.0000000000000000     
   1.8682021509553646E-002  0.21330992052117415        0.0000000000000000     
   1.8811501409658499E-002  0.22167026311726595        0.0000000000000000     
   1.8919452731571241E-002  0.23008503292330335        0.0000000000000000     
   1.2202088790155033E-002  0.19671547937046424        0.0000000000000000     
   1.2316116116002333E-002  0.20497112065612574        0.0000000000000000     
   1.2416016626144801E-002  0.21327902011393388        0.0000000000000000     
   1.2501790320582441E-002  0.22163917774388867        0.0000000000000000     
   1.2573437199315253E-002  0.23005159354599011        0.0000000000000000     
   6.0825968000217607E-003  0.19669325681746735        0.0000000000000000     
   6.1391117736391007E-003  0.20495138996881324        0.0000000000000000     
   6.1886761242968772E-003  0.21326047986962063        0.0000000000000000     
   6.2312898519950909E-003  0.22162052651988945        0.0000000000000000     
   6.2669529567337410E-003  0.23003152991961978        0.0000000000000000     
   4.3677999585212124E-012  0.19668584929983668        0.0000000000000000     
   4.1669898868251787E-012  0.20494481307309048        0.0000000000000000     
   4.0098686090311864E-012  0.21325429978823435        0.0000000000000000     
   3.8964419256208582E-012  0.22161430944526830        0.0000000000000000     
   3.8267045782136577E-012  0.23002484204419230        0.0000000000000000     
   2.5304999553501704E-002  0.23013184805155945        0.0000000000000000     
   2.5426709633275677E-002  0.23857983207668074        0.0000000000000000     
   2.5531842914462109E-002  0.24703018946610975        0.0000000000000000     
   2.5620399397060987E-002  0.25548292021984653        0.0000000000000000     
   2.5692379081072317E-002  0.26393802433789104        0.0000000000000000     
   1.8919452731571241E-002  0.23008503292330335        0.0000000000000000     
   1.9010265795119028E-002  0.23852502390609015        0.0000000000000000     
   1.9088330920129019E-002  0.24696103003243017        0.0000000000000000     
   1.9153648106601206E-002  0.25539305130232343        0.0000000000000000     
   1.9206217354535593E-002  0.26382108771576995        0.0000000000000000     
   1.2573437199315253E-002  0.23005159354599011        0.0000000000000000     
   1.2633666244151756E-002  0.23848587521281564        0.0000000000000000     
   1.2685186436900477E-002  0.24691163043694284        0.0000000000000000     
   1.2727997777561411E-002  0.25532885921837151        0.0000000000000000     
   1.2762100266134559E-002  0.26373756155710176        0.0000000000000000     
   6.2669529567337410E-003  0.23003152991961978        0.0000000000000000     
   6.2969109803738604E-003  0.23846238599685723        0.0000000000000000     
   6.3224094647764788E-003  0.24688199067964756        0.0000000000000000     
   6.3434484099415996E-003  0.25529034396799072        0.0000000000000000     
   6.3600278158692175E-003  0.26368744586188669        0.0000000000000000     
   3.8267045782136577E-012  0.23002484204419230        0.0000000000000000     
   3.7853405306098598E-012  0.23845455625821485        0.0000000000000000     
   3.7570297350617010E-012  0.24687211076054444        0.0000000000000000     
   3.7417706465810857E-012  0.25527750555118106        0.0000000000000000     
   3.7395659485683908E-012  0.26367074063012474        0.0000000000000000     
   2.5692379081072317E-002  0.26393802433789104        0.0000000000000000     
   2.5759969117345155E-002  0.27234038775345626        0.0000000000000000     
   2.5835356656728554E-002  0.28063489639975492        0.0000000000000000     
   2.5918541699222506E-002  0.28882155027678713        0.0000000000000000     
   2.6009524244827019E-002  0.29690034938455284        0.0000000000000000     
   1.9206217354535593E-002  0.26382108771576995        0.0000000000000000     
   1.9256004165284585E-002  0.27218783425307824        0.0000000000000000     
   1.9312974040200576E-002  0.28043598589455676        0.0000000000000000     
   1.9377126979283569E-002  0.28856554264020579        0.0000000000000000     
   1.9448462982533568E-002  0.29657650449002504        0.0000000000000000     
   1.2762100266134559E-002  0.26373756155710176        0.0000000000000000     
   1.2794687662331158E-002  0.27207886746708143        0.0000000000000000     
   1.2832953725862425E-002  0.28029390696225809        0.0000000000000000     
   1.2876898456728372E-002  0.28838268004263173        0.0000000000000000     
   1.2926521854928992E-002  0.29634518670820253        0.0000000000000000     
   6.3600278158692175E-003  0.26368744586188669        0.0000000000000000     
   6.3760196084848737E-003  0.27201348739546594        0.0000000000000000     
   6.3952957137141039E-003  0.28020865960285879        0.0000000000000000     
   6.4178561315569099E-003  0.28827296248406520        0.0000000000000000     
   6.4437008620132890E-003  0.29620639603908522        0.0000000000000000     
   3.7395659485683908E-012  0.26367074063012474        0.0000000000000000     
   3.7457370104937437E-012  0.27199169403823187        0.0000000000000000     
   3.7556107312583520E-012  0.28018024381635903        0.0000000000000000     
   3.7691838311506437E-012  0.28823638996450607        0.0000000000000000     
   3.7864572588475198E-012  0.29616013248267314        0.0000000000000000     
   1.5721812740565611E-011   5.5315288973940058E-002   0.0000000000000000     
   6.6117749296379369E-012   6.0920015734131430E-002   0.0000000000000000     
   4.0089611318128160E-013   6.6710126762984517E-002   0.0000000000000000     
  -2.9108243051155502E-012   7.2685622060499361E-002   0.0000000000000000     
  -3.3233858373615810E-012   7.8846501626675947E-002   0.0000000000000000     
  -3.4648107143313571E-003   5.5344684874803950E-002   0.0000000000000000     
  -3.6573668177258744E-003   6.0948506092246890E-002   0.0000000000000000     
  -3.8437663680874852E-003   6.6737693135160703E-002   0.0000000000000000     
  -4.0240093654161906E-003   7.2712246003545408E-002   0.0000000000000000     
  -4.1980958097119908E-003   7.8872164697401020E-002   0.0000000000000000     
  -6.9533214534319727E-003   5.5432872500301530E-002   0.0000000000000000     
  -7.3397624462124044E-003   6.1033977120000242E-002   0.0000000000000000     
  -7.7136741009737348E-003   6.6820392227812941E-002   0.0000000000000000     
  -8.0750564177159666E-003   7.2792117823739635E-002   0.0000000000000000     
  -8.4239093964391023E-003   7.8949153907780331E-002   0.0000000000000000     
  -1.0465532201580030E-002   5.5579851850432800E-002   0.0000000000000000     
  -1.1047186878847811E-002   6.1176428817391493E-002   0.0000000000000000     
  -1.1609723198257853E-002   6.6958224040941247E-002   0.0000000000000000     
  -1.2153141159810157E-002   7.2925237521082029E-002   0.0000000000000000     
  -1.2677440763504721E-002   7.9077469257813907E-002   0.0000000000000000     
  -1.4001442958775534E-002   5.5785622925197766E-002   0.0000000000000000     
  -1.4779640115632101E-002   6.1375861184420649E-002   0.0000000000000000     
  -1.5531913659939844E-002   6.7151188574545606E-002   0.0000000000000000     
  -1.6258263591698758E-002   7.3111605095572629E-002   0.0000000000000000     
  -1.6958689910908847E-002   7.9257110747501705E-002   0.0000000000000000     
  -3.3233858373615810E-012   7.8846501626675947E-002   0.0000000000000000     
  -2.3309501030743807E-012   8.5180000998578004E-002   0.0000000000000000     
  -1.4276791554523882E-012   9.1673355713269303E-002   0.0000000000000000     
  -6.1357472921907963E-013   9.8326565770749830E-002   0.0000000000000000     
   1.1136664507249705E-013  0.10513963117101957        0.0000000000000000     
  -4.1980958097119908E-003   7.8872164697401020E-002   0.0000000000000000     
  -4.3659788099000441E-003   8.5204684193266961E-002   0.0000000000000000     
  -4.5276114749055133E-003   9.1697039467682720E-002   0.0000000000000000     
  -4.6829938047283966E-003   9.8349230520648312E-002   0.0000000000000000     
  -4.8321257993686941E-003  0.10516125735216371        0.0000000000000000     
  -8.4239093964391023E-003   7.8949153907780331E-002   0.0000000000000000     
  -8.7601867717805142E-003   8.5278733778092142E-002   0.0000000000000000     
  -9.0838422783775814E-003   9.1768090732832264E-002   0.0000000000000000     
  -9.3948759162303004E-003   9.8417224772000600E-002   0.0000000000000000     
  -9.6932876853386765E-003  0.10522613589559726        0.0000000000000000     
  -1.2677440763504721E-002   7.9077469257813907E-002   0.0000000000000000     
  -1.3182623887972360E-002   8.5402149753053574E-002   0.0000000000000000     
  -1.3668692411843880E-002   9.1886509508717851E-002   0.0000000000000000     
  -1.4135646335119288E-002   9.8530548524806735E-002   0.0000000000000000     
  -1.4583485657798581E-002  0.10533426680132024        0.0000000000000000     
  -1.6958689910908847E-002   7.9257110747501705E-002   0.0000000000000000     
  -1.7633290158475583E-002   8.5574932118151245E-002   0.0000000000000000     
  -1.8282161875304417E-002   9.2052295795339564E-002   0.0000000000000000     
  -1.8905305061395362E-002   9.8689201779066663E-002   0.0000000000000000     
  -1.9502719716748409E-002  0.10548565006933258        0.0000000000000000     
   1.1136664507249705E-013  0.10513963117101957        0.0000000000000000     
   8.1311910329895376E-013  0.11210059231643794        0.0000000000000000     
   1.5576628528690684E-012  0.11919748960936428        0.0000000000000000     
   2.3449964843200166E-012  0.12643032304979865        0.0000000000000000     
   3.1751190218698433E-012  0.13379909263774101        0.0000000000000000     
  -4.8321257993686941E-003  0.10516125735216371        0.0000000000000000     
  -4.9747767872361567E-003  0.11212115136709255        0.0000000000000000     
  -5.1107160967405326E-003  0.11921694397029838        0.0000000000000000     
  -5.2399437278818220E-003  0.12644863516178118        0.0000000000000000     
  -5.3624596806600274E-003  0.13381622494154105        0.0000000000000000     
  -9.6932876853386765E-003  0.10522613589559726        0.0000000000000000     
  -9.9787154399064472E-003  0.11218282851719903        0.0000000000000000     
  -1.0250797034137345E-002  0.11927530705038271        0.0000000000000000     
  -1.0509532468031369E-002  0.12650357149514832        0.0000000000000000     
  -1.0754921741588527E-002  0.13386762185149587        0.0000000000000000     
  -1.4583485657798581E-002  0.10533426680132024        0.0000000000000000     
  -1.5011815957197744E-002  0.11228562376675739        0.0000000000000000     
  -1.5420242810632766E-002  0.11937257884961731        0.0000000000000000     
  -1.5808766218103648E-002  0.12659513204989997        0.0000000000000000     
  -1.6177386179610377E-002  0.13395328336760542        0.0000000000000000     
  -1.9502719716748409E-002  0.10548565006933258        0.0000000000000000     
  -2.0074078339110055E-002  0.11242953711576764        0.0000000000000000     
  -2.0619053426226802E-002  0.11950875936800219        0.0000000000000000     
  -2.1137644978098648E-002  0.12672331682603624        0.0000000000000000     
  -2.1629852994725588E-002  0.13407320948986973        0.0000000000000000     
   3.1751190218698433E-012  0.13379909263774101        0.0000000000000000     
   3.9181654882397554E-012  0.14129204673966550        0.0000000000000000     
   4.4442663525018355E-012  0.14889743372204617        0.0000000000000000     
   4.7534231867492338E-012  0.15661525358488318        0.0000000000000000     
   4.8456351778303208E-012  0.16444550632817645        0.0000000000000000     
  -5.3624596806600274E-003  0.13381622494154105        0.0000000000000000     
  -5.4780321648233033E-003  0.14130796676166607        0.0000000000000000     
  -5.5864293901198092E-003  0.14891211407424446        0.0000000000000000     
  -5.6876513565495444E-003  0.15662866687927612        0.0000000000000000     
  -5.7816980641125105E-003  0.16445762517676116        0.0000000000000000     
  -1.0754921741588527E-002  0.13386762185149587        0.0000000000000000     
  -1.0986534447848811E-002  0.14135572682759551        0.0000000000000000     
  -1.1203940179852228E-002  0.14895615513161742        0.0000000000000000     
  -1.1407138937598767E-002  0.15666890676356163        0.0000000000000000     
  -1.1596130721088439E-002  0.16449398172342805        0.0000000000000000     
  -1.6177386179610377E-002  0.13395328336760542        0.0000000000000000     
  -1.6525506845158366E-002  0.14143532693745375        0.0000000000000000     
  -1.6852532364752988E-002  0.14902955689416519        0.0000000000000000     
  -1.7158462738394248E-002  0.15673597323773961        0.0000000000000000     
  -1.7443297966082148E-002  0.16455457596817716        0.0000000000000000     
  -2.1629852994725588E-002  0.13407320948986973        0.0000000000000000     
  -2.2094949356751957E-002  0.14154676709124084        0.0000000000000000     
  -2.2532205944822092E-002  0.14913231936188767        0.0000000000000000     
  -2.2941622758935982E-002  0.15682986630181020        0.0000000000000000     
  -2.3323199799093641E-002  0.16463940791100842        0.0000000000000000     
   4.8456351778303208E-012  0.16444550632817645        0.0000000000000000     
   4.8035746387509182E-012  0.17237537965154623        0.0000000000000000     
   4.7099138825168474E-012  0.18039206125461285        0.0000000000000000     
   4.5646572459367984E-012  0.18849555113737634        0.0000000000000000     
   4.3677999585212124E-012  0.19668584929983668        0.0000000000000000     
  -5.7816980641125105E-003  0.16445762517676116        0.0000000000000000     
  -5.8683485431646372E-003  0.17238622293709335        0.0000000000000000     
  -5.9473818240618559E-003  0.18040169413066653        0.0000000000000000     
  -6.0187979068041693E-003  0.18850403875748067        0.0000000000000000     
  -6.0825967913915703E-003  0.19669325681753586        0.0000000000000000     
  -1.1596130721088439E-002  0.16449398172342805        0.0000000000000000     
  -1.1770419322156403E-002  0.17241875279424254        0.0000000000000000     
  -1.1929508532637830E-002  0.18043059275903073        0.0000000000000000     
  -1.2073398352532721E-002  0.18852950161779267        0.0000000000000000     
  -1.2202088781841073E-002  0.19671547937052836        0.0000000000000000     
  -1.7443297966082148E-002  0.16455457596817716        0.0000000000000000     
  -1.7706212332171727E-002  0.17247296922299377        0.0000000000000000     
  -1.7946380121018009E-002  0.18047875713970549        0.0000000000000000     
  -1.8163801332621004E-002  0.18857193971831232        0.0000000000000000     
  -1.8358475966980710E-002  0.19675251695881427        0.0000000000000000     
  -2.3323199799093641E-002  0.16463940791100842        0.0000000000000000     
  -2.3675727573210601E-002  0.17254887222334708        0.0000000000000000     
  -2.3997996589202385E-002  0.18054618727269078        0.0000000000000000     
  -2.4290006847069015E-002  0.18863135305903961        0.0000000000000000     
  -2.4551758346810476E-002  0.19680436958239347        0.0000000000000000     
   4.3677999585212124E-012  0.19668584929983668        0.0000000000000000     
   4.1669898868251787E-012  0.20494481307309048        0.0000000000000000     
   4.0098686090311864E-012  0.21325429978823435        0.0000000000000000     
   3.8964419256208582E-012  0.22161430944526830        0.0000000000000000     
   3.8267045782136577E-012  0.23002484204419230        0.0000000000000000     
  -6.0825967913915703E-003  0.19669325681753586        0.0000000000000000     
  -6.1391117653810676E-003  0.20495138996892728        0.0000000000000000     
  -6.1886761163296626E-003  0.21326047986975030        0.0000000000000000     
  -6.2312898442373607E-003  0.22162052652000491        0.0000000000000000     
  -6.2669529491041539E-003  0.23003152991969114        0.0000000000000000     
  -1.2202088781841073E-002  0.19671547937052836        0.0000000000000000     
  -1.2316116107972138E-002  0.20497112065629350        0.0000000000000000     
  -1.2416016618335171E-002  0.21327902011414376        0.0000000000000000     
  -1.2501790312930167E-002  0.22163917774407918        0.0000000000000000     
  -1.2573437191757127E-002  0.23005159354609972        0.0000000000000000     
  -1.8358475966980710E-002  0.19675251695881427        0.0000000000000000     
  -1.8531013023606224E-002  0.20500400513518910        0.0000000000000000     
  -1.8682021502006645E-002  0.21330992052141468        0.0000000000000000     
  -1.8811501402181980E-002  0.22167026311749100        0.0000000000000000     
  -1.8919452724132223E-002  0.23008503292341806        0.0000000000000000     
  -2.4551758346810476E-002  0.19680436958239347        0.0000000000000000     
  -2.4783802512283324E-002  0.20505004340561409        0.0000000000000000     
  -2.4986690767344097E-002  0.21335318109156304        0.0000000000000000     
  -2.5160423111992805E-002  0.22171378264024041        0.0000000000000000     
  -2.5304999546229438E-002  0.23013184805164616        0.0000000000000000     
   3.8267045782136577E-012  0.23002484204419230        0.0000000000000000     
   3.7853405306098598E-012  0.23845455625821485        0.0000000000000000     
   3.7570297350617010E-012  0.24687211076054444        0.0000000000000000     
   3.7417706465810857E-012  0.25527750555118106        0.0000000000000000     
   3.7395659485683908E-012  0.26367074063012474        0.0000000000000000     
  -6.2669529491041539E-003  0.23003152991969114        0.0000000000000000     
  -6.2969109728194155E-003  0.23846238599687508        0.0000000000000000     
  -6.3224094572725100E-003  0.24688199067962296        0.0000000000000000     
  -6.3434484024634434E-003  0.25529034396793476        0.0000000000000000     
  -6.3600278083922141E-003  0.26368744586181048        0.0000000000000000     
  -1.2573437191757127E-002  0.23005159354609972        0.0000000000000000     
  -1.2633666236646014E-002  0.23848587521282449        0.0000000000000000     
  -1.2685186429426778E-002  0.24691163043687264        0.0000000000000000     
  -1.2727997770099420E-002  0.25532885921824405        0.0000000000000000     
  -1.2762100258663939E-002  0.26373756155693884        0.0000000000000000     
  -1.8919452724132223E-002  0.23008503292341806        0.0000000000000000     
  -1.9010265787694457E-002  0.23852502390606309        0.0000000000000000     
  -1.9088330912705769E-002  0.24696103003229342        0.0000000000000000     
  -1.9153648099166153E-002  0.25539305130210899        0.0000000000000000     
  -1.9206217347075612E-002  0.26382108771550977        0.0000000000000000     
  -2.5304999546229438E-002  0.23013184805164616        0.0000000000000000     
  -2.5426709625964748E-002  0.23857983207659092        0.0000000000000000     
  -2.5531842907109484E-002  0.24703018946588537        0.0000000000000000     
  -2.5620399389663651E-002  0.25548292021952951        0.0000000000000000     
  -2.5692379073627234E-002  0.26393802433752334        0.0000000000000000     
   3.7395659485683908E-012  0.26367074063012474        0.0000000000000000     
   3.7457370104937437E-012  0.27199169403823187        0.0000000000000000     
   3.7556107312583520E-012  0.28018024381635903        0.0000000000000000     
   3.7691838311506437E-012  0.28823638996450607        0.0000000000000000     
   3.7864572588475198E-012  0.29616013248267314        0.0000000000000000     
  -6.3600278083922141E-003  0.26368744586181048        0.0000000000000000     
  -6.3760196009933073E-003  0.27201348739537567        0.0000000000000000     
  -6.3952957062012213E-003  0.28020865960275587        0.0000000000000000     
  -6.4178561240159481E-003  0.28827296248395118        0.0000000000000000     
  -6.4437008544374914E-003  0.29620639603896137        0.0000000000000000     
  -1.2762100258663939E-002  0.26373756155693884        0.0000000000000000     
  -1.2794687654839322E-002  0.27207886746689403        0.0000000000000000     
  -1.2832953718344552E-002  0.28029390696204681        0.0000000000000000     
  -1.2876898449179625E-002  0.28838268004239714        0.0000000000000000     
  -1.2926521847344542E-002  0.29634518670794496        0.0000000000000000     
  -1.9206217347075612E-002  0.26382108771550977        0.0000000000000000     
  -1.9256004157792300E-002  0.27218783425278698        0.0000000000000000     
  -1.9312974032674384E-002  0.28043598589423174        0.0000000000000000     
  -1.9377126971721843E-002  0.28856554263984413        0.0000000000000000     
  -1.9448462974934699E-002  0.29657650448962386        0.0000000000000000     
  -2.5692379073627234E-002  0.26393802433752334        0.0000000000000000     
  -2.5759969109852253E-002  0.27234038775305452        0.0000000000000000     
  -2.5835356649190708E-002  0.28063489639931072        0.0000000000000000     
  -2.5918541691642621E-002  0.28882155027629197        0.0000000000000000     
  -2.6009524237207961E-002  0.29690034938399812        0.0000000000000000     
  -1.4001442958775534E-002   5.5785622925197766E-002   0.0000000000000000     
  -1.4779640115632101E-002   6.1375861184420649E-002   0.0000000000000000     
  -1.5531913659939844E-002   6.7151188574545606E-002   0.0000000000000000     
  -1.6258263591698758E-002   7.3111605095572629E-002   0.0000000000000000     
  -1.6958689910908847E-002   7.9257110747501705E-002   0.0000000000000000     
  -1.7603855635238096E-002   5.6045673395786880E-002   0.0000000000000000     
  -1.8576162328016899E-002   6.1629441841307420E-002   0.0000000000000000     
  -1.9516254870274096E-002   6.7397710491286386E-002   0.0000000000000000     
  -2.0424133262009682E-002   7.3350479345723751E-002   0.0000000000000000     
  -2.1299797503223659E-002   7.9487748404619557E-002   0.0000000000000000     
  -2.1315572141187331E-002   5.6355490933390609E-002   0.0000000000000000     
  -2.2475793687453834E-002   6.1934338408271526E-002   0.0000000000000000     
  -2.3598756213514999E-002   6.7696214453823914E-002   0.0000000000000000     
  -2.4684459719370826E-002   7.3641119070047792E-002   0.0000000000000000     
  -2.5732904205021324E-002   7.9769052256943168E-002   0.0000000000000000     
  -2.5136592476623240E-002   5.6715075538008947E-002   0.0000000000000000     
  -2.6478534193942898E-002   6.2290550885312941E-002   0.0000000000000000     
  -2.7779417689662553E-002   6.8046700462158202E-002   0.0000000000000000     
  -2.9039242963782203E-002   7.3983524268544765E-002   0.0000000000000000     
  -3.0258010016301847E-002   8.0101022304472580E-002   0.0000000000000000     
  -2.9066916641545818E-002   5.7124427209641886E-002   0.0000000000000000     
  -3.0584383847484103E-002   6.2698079272431692E-002   0.0000000000000000     
  -3.2058239298716769E-002   6.8449168516289252E-002   0.0000000000000000     
  -3.3488482995243804E-002   7.4377694941214614E-002   0.0000000000000000     
  -3.4875114937065223E-002   8.0483658547207765E-002   0.0000000000000000     
  -1.6958689910908847E-002   7.9257110747501705E-002   0.0000000000000000     
  -1.7633290158475583E-002   8.5574932118151245E-002   0.0000000000000000     
  -1.8282161875304417E-002   9.2052295795339564E-002   0.0000000000000000     
  -1.8905305061395362E-002   9.8689201779066663E-002   0.0000000000000000     
  -1.9502719716748409E-002  0.10548565006933258        0.0000000000000000     
  -2.1299797503223659E-002   7.9487748404619557E-002   0.0000000000000000     
  -2.2143273090959505E-002   8.5796929315925557E-002   0.0000000000000000     
  -2.2954585522260706E-002   9.2265433727593549E-002   0.0000000000000000     
  -2.3733734797127252E-002   9.8893261639623545E-002   0.0000000000000000     
  -2.4480720915559147E-002  0.10568041305201549        0.0000000000000000     
  -2.5732904205021324E-002   7.9769052256943168E-002   0.0000000000000000     
  -2.6743660193093471E-002   8.6067989788916929E-002   0.0000000000000000     
  -2.7716298206214268E-002   9.2525907440376018E-002   0.0000000000000000     
  -2.8650818244383706E-002   9.9142805211320406E-002   0.0000000000000000     
  -2.9547220307601787E-002  0.10591868310175012        0.0000000000000000     
  -3.0258010016301847E-002   8.0101022304472580E-002   0.0000000000000000     
  -3.1434451464877479E-002   8.6388113537125402E-002   0.0000000000000000     
  -3.2567299927165110E-002   9.2833716933686986E-002   0.0000000000000000     
  -3.3656555403164728E-002   9.9437832494157358E-002   0.0000000000000000     
  -3.4702217892876336E-002  0.10620046021853644        0.0000000000000000     
  -3.4875114937065223E-002   8.0483658547207765E-002   0.0000000000000000     
  -3.6215646906311523E-002   8.6757300560550948E-002   0.0000000000000000     
  -3.7507590685113223E-002   9.3188862207526452E-002   0.0000000000000000     
  -3.8750946273470303E-002   9.9778343488134288E-002   0.0000000000000000     
  -3.9945713671382797E-002  0.10652574440237444        0.0000000000000000     
  -1.9502719716748409E-002  0.10548565006933258        0.0000000000000000     
  -2.0074078339110055E-002  0.11242953711576764        0.0000000000000000     
  -2.0619053426226802E-002  0.11950875936800219        0.0000000000000000     
  -2.1137644978098648E-002  0.12672331682603624        0.0000000000000000     
  -2.1629852994725588E-002  0.13407320948986973        0.0000000000000000     
  -2.4480720915559147E-002  0.10568041305201549        0.0000000000000000     
  -2.5195250953930833E-002  0.11261475409455415        0.0000000000000000     
  -2.5877031988616763E-002  0.11968415089702415        0.0000000000000000     
  -2.6526064019616914E-002  0.12688860345942551        0.0000000000000000     
  -2.7142347046931310E-002  0.13422811178175820        0.0000000000000000     
  -2.9547220307601787E-002  0.10591868310175012        0.0000000000000000     
  -3.0405082169947532E-002  0.11284146023344126        0.0000000000000000     
  -3.1223981605499926E-002  0.11989905572817003        0.0000000000000000     
  -3.2003918614258990E-002  0.12709146958593637        0.0000000000000000     
  -3.2744893196224707E-002  0.13441870180674029        0.0000000000000000     
  -3.4702217892876336E-002  0.10620046021853644        0.0000000000000000     
  -3.5703571987160142E-002  0.11310965553242902        0.0000000000000000     
  -3.6659902276876315E-002  0.12015347386143976        0.0000000000000000     
  -3.7571208762024869E-002  0.12733191520556875        0.0000000000000000     
  -3.8437491442605796E-002  0.13464497956481591        0.0000000000000000     
  -3.9945713671382797E-002  0.10652574440237444        0.0000000000000000     
  -4.1090720405568680E-002  0.11341933999151735        0.0000000000000000     
  -4.2184794002745926E-002  0.12044740529683345        0.0000000000000000     
  -4.3227934462914556E-002  0.12760994031832273        0.0000000000000000     
  -4.4220141786074550E-002  0.13490694505598516        0.0000000000000000     
  -2.1629852994725588E-002  0.13407320948986973        0.0000000000000000     
  -2.2094949356751957E-002  0.14154676709124084        0.0000000000000000     
  -2.2532205944822092E-002  0.14913231936188767        0.0000000000000000     
  -2.2941622758935982E-002  0.15682986630181020        0.0000000000000000     
  -2.3323199799093641E-002  0.16463940791100842        0.0000000000000000     
  -2.7142347046931310E-002  0.13422811178175820        0.0000000000000000     
  -2.7725050597548356E-002  0.14169102758521335        0.0000000000000000     
  -2.8273344198456465E-002  0.14926570259098207        0.0000000000000000     
  -2.8787227849655633E-002  0.15695213679906436        0.0000000000000000     
  -2.9266701551145864E-002  0.16475033020946020        0.0000000000000000     
  -3.2744893196224707E-002  0.13441870180674029        0.0000000000000000     
  -3.3445999182466324E-002  0.14186908871562795        0.0000000000000000     
  -3.4106330404053024E-002  0.14943096663764557        0.0000000000000000     
  -3.4725886860984843E-002  0.15710433557279319        0.0000000000000000     
  -3.5304668553261753E-002  0.16488919552107079        0.0000000000000000     
  -3.8437491442605796E-002  0.13464497956481591        0.0000000000000000     
  -3.9257795111505851E-002  0.14208095048248462        0.0000000000000000     
  -4.0031164561611793E-002  0.14962811150187821        0.0000000000000000     
  -4.0757599792923607E-002  0.15728646262299675        0.0000000000000000     
  -4.1437100805441315E-002  0.16505600384584015        0.0000000000000000     
  -4.4220141786074550E-002  0.13490694505598516        0.0000000000000000     
  -4.5160438384666955E-002  0.14232661288578341        0.0000000000000000     
  -4.6047846671132750E-002  0.14985713718368002        0.0000000000000000     
  -4.6882366645471955E-002  0.15749851794967501        0.0000000000000000     
  -4.7663998307684551E-002  0.16525075518376836        0.0000000000000000     
  -2.3323199799093641E-002  0.16463940791100842        0.0000000000000000     
  -2.3675727573210601E-002  0.17254887222334708        0.0000000000000000     
  -2.3997996589202385E-002  0.18054618727269078        0.0000000000000000     
  -2.4290006847069015E-002  0.18863135305903961        0.0000000000000000     
  -2.4551758346810476E-002  0.19680436958239347        0.0000000000000000     
  -2.9266701551145864E-002  0.16475033020946020        0.0000000000000000     
  -2.9710244530820062E-002  0.17264854427399778        0.0000000000000000     
  -3.0116336016571123E-002  0.18063504044450537        0.0000000000000000     
  -3.0484976008399060E-002  0.18870981872098289        0.0000000000000000     
  -3.0816164506303857E-002  0.19687287910343040        0.0000000000000000     
  -3.5304668553261753E-002  0.16488919552107079        0.0000000000000000     
  -3.5841042690547137E-002  0.17277406785364133        0.0000000000000000     
  -3.6333376482504356E-002  0.18074747394166799        0.0000000000000000     
  -3.6781669929133419E-002  0.18880941378515068        0.0000000000000000     
  -3.7185923030434317E-002  0.19695988738408943        0.0000000000000000     
  -4.1437100805441315E-002  0.16505600384584015        0.0000000000000000     
  -4.2068122052391840E-002  0.17292544296227771        0.0000000000000000     
  -4.2649117987002105E-002  0.18088348776417862        0.0000000000000000     
  -4.3180088609272103E-002  0.18893013825154290        0.0000000000000000     
  -4.3661033919201855E-002  0.19706539442437049        0.0000000000000000     
  -4.7663998307684551E-002  0.16525075518376836        0.0000000000000000     
  -4.8391482616354148E-002  0.17310266959990689        0.0000000000000000     
  -4.9063560530064339E-002  0.18104308191203727        0.0000000000000000     
  -4.9680232048815116E-002  0.18907199212015954        0.0000000000000000     
  -5.0241497172606488E-002  0.19718940022427367        0.0000000000000000     
  -2.4551758346810476E-002  0.19680436958239347        0.0000000000000000     
  -2.4783802512283324E-002  0.20505004340561409        0.0000000000000000     
  -2.4986690767344097E-002  0.21335318109156304        0.0000000000000000     
  -2.5160423111992805E-002  0.22171378264024041        0.0000000000000000     
  -2.5304999546229438E-002  0.23013184805164616        0.0000000000000000     
  -3.0816164506303857E-002  0.19687287910343040        0.0000000000000000     
  -3.1110158731285510E-002  0.20511055527403299        0.0000000000000000     
  -3.1367215904343985E-002  0.21340918091497582        0.0000000000000000     
  -3.1587336025479300E-002  0.22176875602625892        0.0000000000000000     
  -3.1770519094691439E-002  0.23018928060788230        0.0000000000000000     
  -3.7185923030434317E-002  0.19695988738408943        0.0000000000000000     
  -3.7545755837894837E-002  0.20518686054691046        0.0000000000000000     
  -3.7860788403002769E-002  0.21347829908204002        0.0000000000000000     
  -3.8131020725758129E-002  0.22183420298947817        0.0000000000000000     
  -3.8356452806160901E-002  0.23025457226922483        0.0000000000000000     
  -4.3661033919201855E-002  0.19706539442437049        0.0000000000000000     
  -4.4090593832111329E-002  0.20527895922424644        0.0000000000000000     
  -4.4467408263320476E-002  0.21356053559275562        0.0000000000000000     
  -4.4791477212829313E-002  0.22191012352989806        0.0000000000000000     
  -4.5062800680637810E-002  0.23032772303567375        0.0000000000000000     
  -5.0241497172606488E-002  0.19718940022427367        0.0000000000000000     
  -5.0744672713934971E-002  0.20538685130604098        0.0000000000000000     
  -5.1187075485297079E-002  0.21365589044712263        0.0000000000000000     
  -5.1568705486692824E-002  0.22199651764751865        0.0000000000000000     
  -5.1889562718122187E-002  0.23040873290722907        0.0000000000000000     
  -2.5304999546229438E-002  0.23013184805164616        0.0000000000000000     
  -2.5426709625964748E-002  0.23857983207659092        0.0000000000000000     
  -2.5531842907109484E-002  0.24703018946588537        0.0000000000000000     
  -2.5620399389663651E-002  0.25548292021952951        0.0000000000000000     
  -2.5692379073627234E-002  0.26393802433752334        0.0000000000000000     
  -3.1770519094691439E-002  0.23018928060788230        0.0000000000000000     
  -3.1924677716895500E-002  0.23864583128521433        0.0000000000000000     
  -3.2057724497006571E-002  0.24711348468362360        0.0000000000000000     
  -3.2169659435024651E-002  0.25559224080310994        0.0000000000000000     
  -3.2260482530949743E-002  0.26408209964367352        0.0000000000000000     
  -3.8356452806160901E-002  0.23025457226922483        0.0000000000000000     
  -3.8545850025925331E-002  0.23871855309273984        0.0000000000000000     
  -3.8707977766765669E-002  0.24720529163148311        0.0000000000000000     
  -3.8842836028681924E-002  0.25571478788545465        0.0000000000000000     
  -3.8950424811674079E-002  0.26424704185465436        0.0000000000000000     
  -4.5062800680637810E-002  0.23032772303567375        0.0000000000000000     
  -4.5290226553054230E-002  0.23879799749916752        0.0000000000000000     
  -4.5482602716386787E-002  0.24730561030946410        0.0000000000000000     
  -4.5639929170635446E-002  0.25585056146656360        0.0000000000000000     
  -4.5762205915800235E-002  0.26443285097046593        0.0000000000000000     
  -5.1889562718122187E-002  0.23040873290722907        0.0000000000000000     
  -5.2157807298282219E-002  0.23888416450449723        0.0000000000000000     
  -5.2381599345869896E-002  0.24741444071756646        0.0000000000000000     
  -5.2560938860885240E-002  0.25599956154643677        0.0000000000000000     
  -5.2695825843328228E-002  0.26463952699110815        0.0000000000000000     
  -2.5692379073627234E-002  0.26393802433752334        0.0000000000000000     
  -2.5759969109852253E-002  0.27234038775305452        0.0000000000000000     
  -2.5835356649190708E-002  0.28063489639931072        0.0000000000000000     
  -2.5918541691642621E-002  0.28882155027629197        0.0000000000000000     
  -2.6009524237207961E-002  0.29690034938399812        0.0000000000000000     
  -3.2260482530949743E-002  0.26408209964367352        0.0000000000000000     
  -3.2345006478095663E-002  0.27253019580148874        0.0000000000000000     
  -3.2438043969776245E-002  0.28088366387273012        0.0000000000000000     
  -3.2539595005991490E-002  0.28914250385739759        0.0000000000000000     
  -3.2649659586741396E-002  0.29730671575549122        0.0000000000000000     
  -3.8950424811674079E-002  0.26424704185465436        0.0000000000000000     
  -3.9049540229599042E-002  0.27275092623188180        0.0000000000000000     
  -3.9158978396313680E-002  0.28117531370993637        0.0000000000000000     
  -3.9278739311818030E-002  0.28952020428881803        0.0000000000000000     
  -3.9408822976112076E-002  0.29778559796852677        0.0000000000000000     
  -4.5762205915800235E-002  0.26443285097046593        0.0000000000000000     
  -4.5873570364362369E-002  0.27300257904423370        0.0000000000000000     
  -4.5998159928803031E-002  0.28150984591092942        0.0000000000000000     
  -4.6135974609122256E-002  0.28995465157055311        0.0000000000000000     
  -4.6287014405319994E-002  0.29833699602310476        0.0000000000000000     
  -5.2695825843328228E-002  0.26463952699110815        0.0000000000000000     
  -5.2817096882385658E-002  0.27328515423854444        0.0000000000000000     
  -5.2955588567244291E-002  0.28188726047570939        0.0000000000000000     
  -5.3111300897904126E-002  0.29044584570260290        0.0000000000000000     
  -5.3284233874365164E-002  0.29896090991922508        0.0000000000000000     
  -2.9066916641545818E-002   5.7124427209641886E-002   0.0000000000000000     
  -3.0584383847484103E-002   6.2698079272431692E-002   0.0000000000000000     
  -3.2058239298716769E-002   6.8449168516289252E-002   0.0000000000000000     
  -3.3488482995243804E-002   7.4377694941214614E-002   0.0000000000000000     
  -3.4875114937065223E-002   8.0483658547207765E-002   0.0000000000000000     
  -3.3074318899091855E-002   5.7610809712178745E-002   0.0000000000000000     
  -3.4778365333247449E-002   6.3173507000239174E-002   0.0000000000000000     
  -3.6433631584203548E-002   6.8912392590918692E-002   0.0000000000000000     
  -3.8040117651960158E-002   7.4827466484217287E-002   0.0000000000000000     
  -3.9597823536517286E-002   8.0918728680134944E-002   0.0000000000000000     
  -3.7126573512398148E-002   5.8201486809508859E-002   0.0000000000000000     
  -3.9045501336402930E-002   6.3733417499346842E-002   0.0000000000000000     
  -4.0904005089648823E-002   6.9445146660748081E-002   0.0000000000000000     
  -4.2702084772135794E-002   7.5336674293712574E-002   0.0000000000000000     
  -4.4439740383863870E-002   8.1408000398240324E-002   0.0000000000000000     
  -4.1223680481464672E-002   5.8896458501632200E-002   0.0000000000000000     
  -4.3385791856950552E-002   6.4377810769754684E-002   0.0000000000000000     
  -4.5469359815052568E-002   7.0047430725777460E-002   0.0000000000000000     
  -4.7474384355770692E-002   7.5905318369700533E-002   0.0000000000000000     
  -4.9400865479104959E-002   8.1951473701523933E-002   0.0000000000000000     
  -4.5365639806291463E-002   5.9695724788548780E-002   0.0000000000000000     
  -4.7799236894890323E-002   6.5106686811462686E-002   0.0000000000000000     
  -5.0129695760414789E-002   7.0719244786006830E-002   0.0000000000000000     
  -5.2357016402864880E-002   7.6533398712181164E-002   0.0000000000000000     
  -5.4481198822240576E-002   8.2549148589985744E-002   0.0000000000000000     
  -3.4875114937065223E-002   8.0483658547207765E-002   0.0000000000000000     
  -3.6215646906311523E-002   8.6757300560550948E-002   0.0000000000000000     
  -3.7507590685113223E-002   9.3188862207526452E-002   0.0000000000000000     
  -3.8750946273470303E-002   9.9778343488134288E-002   0.0000000000000000     
  -3.9945713671382797E-002  0.10652574440237444        0.0000000000000000     
  -3.9597823536517286E-002   8.0918728680134944E-002   0.0000000000000000     
  -4.1104176373360259E-002   8.7176827196071754E-002   0.0000000000000000     
  -4.2556603297974421E-002   9.3592410049427741E-002   0.0000000000000000     
  -4.3955104310359767E-002  0.10016547724020292        0.0000000000000000     
  -4.5299679410516283E-002  0.10689602876839725        0.0000000000000000     
  -4.4439740383863870E-002   8.1408000398240324E-002   0.0000000000000000     
  -4.6116969721988338E-002   8.7647969780565979E-002   0.0000000000000000     
  -4.7733770583664500E-002   9.4045427246924121E-002   0.0000000000000000     
  -4.9290142968892350E-002  0.10060037279731479        0.0000000000000000     
  -5.0786086877671888E-002  0.10731280643173795        0.0000000000000000     
  -4.9400865479104959E-002   8.1951473701523933E-002   0.0000000000000000     
  -5.1254026952195761E-002   8.8170728314033636E-002   0.0000000000000000     
  -5.3039092542183461E-002   9.4547913800015634E-002   0.0000000000000000     
  -5.4756062249068101E-002  0.10108303015946994        0.0000000000000000     
  -5.6404936072849653E-002  0.10777607739239654        0.0000000000000000     
  -5.4481198822240576E-002   8.2549148589985744E-002   0.0000000000000000     
  -5.6515348063982514E-002   8.8745102796474712E-002   0.0000000000000000     
  -5.8472569173531316E-002   9.5099869708702253E-002   0.0000000000000000     
  -6.0352862150886998E-002  0.10161344932666834        0.0000000000000000     
  -6.2156226996049536E-002  0.10828584165037300        0.0000000000000000     
  -3.9945713671382797E-002  0.10652574440237444        0.0000000000000000     
  -4.1090720405568680E-002  0.11341933999151735        0.0000000000000000     
  -4.2184794002745926E-002  0.12044740529683345        0.0000000000000000     
  -4.3227934462914556E-002  0.12760994031832273        0.0000000000000000     
  -4.4220141786074550E-002  0.13490694505598516        0.0000000000000000     
  -4.5299679410516283E-002  0.10689602876839725        0.0000000000000000     
  -4.6588920980200704E-002  0.11377243351473731        0.0000000000000000     
  -4.7821421401169774E-002  0.12078306035994958        0.0000000000000000     
  -4.8997180673423457E-002  0.12792790930403405        0.0000000000000000     
  -5.0116198796961782E-002  0.13520698034699080        0.0000000000000000     
  -5.0786086877671888E-002  0.10731280643173795        0.0000000000000000     
  -5.2220567266083838E-002  0.11417085600611988        0.0000000000000000     
  -5.3592549090208878E-002  0.12116264937638677        0.0000000000000000     
  -5.4902032350047009E-002  0.12828818654253868        0.0000000000000000     
  -5.6149017045598236E-002  0.13554746750457555        0.0000000000000000     
  -5.6404936072849653E-002  0.10777607739239654        0.0000000000000000     
  -5.7985659263218040E-002  0.11461460746566504        0.0000000000000000     
  -5.9498177069863240E-002  0.12158617234614502        0.0000000000000000     
  -6.0942489492785197E-002  0.12869077203383653        0.0000000000000000     
  -6.2318596531983940E-002  0.13592840652873950        0.0000000000000000     
  -6.2156226996049536E-002  0.10828584165037300        0.0000000000000000     
  -6.3884196971603358E-002  0.11510368789337280        0.0000000000000000     
  -6.5538305340132844E-002  0.12205362926922433        0.0000000000000000     
  -6.7118552101638029E-002  0.12913566577792759        0.0000000000000000     
  -6.8624937256118887E-002  0.13634979741948255        0.0000000000000000     
  -4.4220141786074550E-002  0.13490694505598516        0.0000000000000000     
  -4.5160438384666955E-002  0.14232661288578341        0.0000000000000000     
  -4.6047846671132750E-002  0.14985713718368002        0.0000000000000000     
  -4.6882366645471955E-002  0.15749851794967501        0.0000000000000000     
  -4.7663998307684551E-002  0.16525075518376836        0.0000000000000000     
  -5.0116198796961782E-002  0.13520698034699080        0.0000000000000000     
  -5.1177574976959753E-002  0.14260845270420597        0.0000000000000000     
  -5.2180408418592387E-002  0.15012050559106582        0.0000000000000000     
  -5.3124699121859686E-002  0.15774313900757042        0.0000000000000000     
  -5.4010447086761663E-002  0.16547635295371968        0.0000000000000000     
  -5.6149017045598236E-002  0.13554746750457555        0.0000000000000000     
  -5.7332850863394375E-002  0.14292884671643402        0.0000000000000000     
  -5.8452881489967183E-002  0.15042067863205061        0.0000000000000000     
  -5.9509108925316676E-002  0.15802296325142537        0.0000000000000000     
  -6.0501533169442859E-002  0.16573570057455828        0.0000000000000000     
  -6.2318596531983940E-002  0.13592840652873950        0.0000000000000000     
  -6.3626266043970814E-002  0.14328779492246757        0.0000000000000000     
  -6.4865265885257123E-002  0.15075765630663440        0.0000000000000000     
  -6.6035596055842902E-002  0.15833799068123994        0.0000000000000000     
  -6.7137256555728136E-002  0.16602879804628420        0.0000000000000000     
  -6.8624937256118887E-002  0.13634979741948255        0.0000000000000000     
  -7.0057820518689085E-002  0.14368529732230664        0.0000000000000000     
  -7.1417561604462235E-002  0.15113143861481712        0.0000000000000000     
  -7.2704160513438379E-002  0.15868822129701407        0.0000000000000000     
  -7.3917617245617503E-002  0.16635564536889744        0.0000000000000000     
  -4.7663998307684551E-002  0.16525075518376836        0.0000000000000000     
  -4.8391482616354148E-002  0.17310266959990689        0.0000000000000000     
  -4.9063560530064339E-002  0.18104308191203727        0.0000000000000000     
  -4.9680232048815116E-002  0.18907199212015954        0.0000000000000000     
  -5.0241497172606488E-002  0.19718940022427367        0.0000000000000000     
  -5.4010447086761663E-002  0.16547635295371968        0.0000000000000000     
  -5.4836711769690231E-002  0.17330905362702884        0.0000000000000000     
  -5.5602552627037331E-002  0.18123014722501313        0.0000000000000000     
  -5.6307969658802963E-002  0.18923963374767255        0.0000000000000000     
  -5.6952962864987126E-002  0.19733751319500700        0.0000000000000000     
  -6.0501533169442859E-002  0.16573570057455828        0.0000000000000000     
  -6.1429396899656243E-002  0.17354790090414349        0.0000000000000000     
  -6.2291942793267337E-002  0.18144857454287533        0.0000000000000000     
  -6.3089170850276141E-002  0.18943772149075366        0.0000000000000000     
  -6.3821081070682656E-002  0.19751534174777857        0.0000000000000000     
  -6.7137256555728136E-002  0.16602879804628420        0.0000000000000000     
  -6.8169538006252167E-002  0.17381921143125093        0.0000000000000000     
  -6.9131731028754348E-002  0.18169836386562388        0.0000000000000000     
  -7.0023835623234665E-002  0.18966625534940304        0.0000000000000000     
  -7.0845851789693132E-002  0.19772288588258835        0.0000000000000000     
  -7.3917617245617503E-002  0.16635564536889744        0.0000000000000000     
  -7.5057135089478019E-002  0.17412298520835107        0.0000000000000000     
  -7.6121917333498365E-002  0.18197951519325881        0.0000000000000000     
  -7.7111963977678527E-002  0.18992523532362054        0.0000000000000000     
  -7.8027275022018519E-002  0.19796014559943639        0.0000000000000000     
  -5.0241497172606488E-002  0.19718940022427367        0.0000000000000000     
  -5.0744672713934971E-002  0.20538685130604098        0.0000000000000000     
  -5.1187075485297079E-002  0.21365589044712263        0.0000000000000000     
  -5.1568705486692824E-002  0.22199651764751865        0.0000000000000000     
  -5.1889562718122187E-002  0.23040873290722907        0.0000000000000000     
  -5.6952962864987126E-002  0.19733751319500700        0.0000000000000000     
  -5.7533930487664336E-002  0.20551684299844522        0.0000000000000000     
  -5.8047270768909164E-002  0.21377068058941565        0.0000000000000000     
  -5.8492983708721608E-002  0.22209902596791836        0.0000000000000000     
  -5.8871069307101648E-002  0.23050187913395337        0.0000000000000000     
  -6.3821081070682656E-002  0.19751534174777857        0.0000000000000000     
  -6.4484305157598010E-002  0.20567524050761035        0.0000000000000000     
  -6.5075474814133311E-002  0.21391122296390938        0.0000000000000000     
  -6.5594590040288572E-002  0.22222328911667574        0.0000000000000000     
  -6.6041650836063767E-002  0.23061143896590927        0.0000000000000000     
  -7.0845851789693132E-002  0.19772288588258835        0.0000000000000000     
  -7.1595796723735991E-002  0.20586204383353646        0.0000000000000000     
  -7.2271687620969527E-002  0.21407751757060395        0.0000000000000000     
  -7.2873524481393726E-002  0.22236930709379066        0.0000000000000000     
  -7.3401307305008573E-002  0.23073741240309675        0.0000000000000000     
  -7.8027275022018519E-002  0.19796014559943639        0.0000000000000000     
  -7.8868405186078280E-002  0.20607725297622353        0.0000000000000000     
  -7.9635909189417778E-002  0.21426956440949915        0.0000000000000000     
  -8.0329787032037053E-002  0.22253707989926325        0.0000000000000000     
  -8.0950038713936023E-002  0.23087979944551590        0.0000000000000000     
  -5.1889562718122187E-002  0.23040873290722907        0.0000000000000000     
  -5.2157807298282219E-002  0.23888416450449723        0.0000000000000000     
  -5.2381599345869896E-002  0.24741444071756646        0.0000000000000000     
  -5.2560938860885240E-002  0.25599956154643677        0.0000000000000000     
  -5.2695825843328228E-002  0.26463952699110815        0.0000000000000000     
  -5.8871069307101648E-002  0.23050187913395337        0.0000000000000000     
  -5.9187723751458060E-002  0.23897845165838669        0.0000000000000000     
  -5.9449143229199614E-002  0.24752795511208439        0.0000000000000000     
  -5.9655327740326336E-002  0.25615038949504643        0.0000000000000000     
  -5.9806277284838165E-002  0.26484575480727285        0.0000000000000000     
  -6.6041650836063767E-002  0.23061143896590927        0.0000000000000000     
  -6.6419107402430538E-002  0.23908225651049361        0.0000000000000000     
  -6.6729409940360543E-002  0.24764232574931211        0.0000000000000000     
  -6.6972558449853753E-002  0.25629164668236482        0.0000000000000000     
  -6.7148552930910183E-002  0.26503021930965176        0.0000000000000000     
  -7.3401307305008573E-002  0.23073741240309675        0.0000000000000000     
  -7.3851958251199681E-002  0.23919557906081784        0.0000000000000000     
  -7.4222399479352649E-002  0.24775755262924956        0.0000000000000000     
  -7.4512630989467532E-002  0.25642333310839188        0.0000000000000000     
  -7.4722652781544260E-002  0.26519292049824478        0.0000000000000000     
  -8.0950038713936023E-002  0.23087979944551590        0.0000000000000000     
  -8.1486276297765448E-002  0.23931841930935954        0.0000000000000000     
  -8.1928111846175974E-002  0.24787363575189678        0.0000000000000000     
  -8.2275545359167632E-002  0.25654544877312763        0.0000000000000000     
  -8.2528576836740419E-002  0.26533385837305207        0.0000000000000000     
  -5.2695825843328228E-002  0.26463952699110815        0.0000000000000000     
  -5.2817096882385658E-002  0.27328515423854444        0.0000000000000000     
  -5.2955588567244291E-002  0.28188726047570939        0.0000000000000000     
  -5.3111300897904126E-002  0.29044584570260290        0.0000000000000000     
  -5.3284233874365164E-002  0.29896090991922508        0.0000000000000000     
  -5.9806277284838165E-002  0.26484575480727285        0.0000000000000000     
  -5.9938868372261832E-002  0.27356993667748830        0.0000000000000000     
  -6.0089977512123985E-002  0.28227882073441735        0.0000000000000000     
  -6.0259604704424638E-002  0.29097240697805993        0.0000000000000000     
  -6.0447749949163770E-002  0.29965069540841627        0.0000000000000000     
  -6.7148552930910183E-002  0.26503021930965176        0.0000000000000000     
  -6.7297633422583811E-002  0.27382821122373946        0.0000000000000000     
  -6.7460039963928659E-002  0.28265579001719449        0.0000000000000000     
  -6.7635772554944726E-002  0.29151295569001695        0.0000000000000000     
  -6.7824831195632027E-002  0.30039970824220663        0.0000000000000000     
  -7.4722652781544260E-002  0.26519292049824478        0.0000000000000000     
  -7.4893392033351630E-002  0.27405997787729797        0.0000000000000000     
  -7.5065775922658354E-002  0.28301816832404092        0.0000000000000000     
  -7.5239804449464445E-002  0.29206749183847358        0.0000000000000000     
  -7.5415477613769905E-002  0.30120794842059612        0.0000000000000000     
  -8.2528576836740419E-002  0.26533385837305207        0.0000000000000000     
  -8.2726144204565227E-002  0.27426523663816377        0.0000000000000000     
  -8.2907185388313001E-002  0.28336595565495643        0.0000000000000000     
  -8.3071700387983741E-002  0.29263601542343021        0.0000000000000000     
  -8.3219689203577446E-002  0.30207541594358484        0.0000000000000000     
  -4.5365639806291463E-002   5.9695724788548780E-002   0.0000000000000000     
  -4.7799236894890323E-002   6.5106686811462686E-002   0.0000000000000000     
  -5.0129695760414789E-002   7.0719244786006830E-002   0.0000000000000000     
  -5.2357016402864880E-002   7.6533398712181164E-002   0.0000000000000000     
  -5.4481198822240576E-002   8.2549148589985744E-002   0.0000000000000000     
  -4.9836412446911983E-002   6.0475997502111779E-002   0.0000000000000000     
  -5.2492733011451659E-002   6.5847952176322611E-002   0.0000000000000000     
  -5.5032924272634426E-002   7.1425154134306126E-002   0.0000000000000000     
  -5.7456986230460270E-002   7.7207603376062306E-002   0.0000000000000000     
  -5.9764918884929213E-002   8.3195299901591191E-002   0.0000000000000000     
  -5.4919959363359735E-002   6.1113988474174367E-002   0.0000000000000000     
  -5.7673176767864015E-002   6.6529513416186209E-002   0.0000000000000000     
  -6.0326956698610386E-002   7.2129724063545370E-002   0.0000000000000000     
  -6.2881299155598827E-002   7.7914620416251884E-002   0.0000000000000000     
  -6.5336204138829374E-002   8.3884202474305739E-002   0.0000000000000000     
  -6.0616280555634720E-002   6.1609697704736538E-002   0.0000000000000000     
  -6.3340568164127392E-002   6.7151370531053481E-002   0.0000000000000000     
  -6.6011793038342689E-002   7.2832954573724615E-002   0.0000000000000000     
  -6.8629955178280536E-002   7.8654449832749884E-002   0.0000000000000000     
  -7.1195054583941056E-002   8.4615856308129359E-002   0.0000000000000000     
  -6.6925376023736938E-002   6.1963125193798312E-002   0.0000000000000000     
  -6.9494907200241790E-002   6.7713523520924426E-002   0.0000000000000000     
  -7.2087433291831288E-002   7.3534845664843765E-002   0.0000000000000000     
  -7.4702954298505445E-002   7.9427091625556306E-002   0.0000000000000000     
  -7.7341470220264261E-002   8.5390261403062079E-002   0.0000000000000000     
  -5.4481198822240576E-002   8.2549148589985744E-002   0.0000000000000000     
  -5.6515348063982514E-002   8.8745102796474712E-002   0.0000000000000000     
  -5.8472569173531316E-002   9.5099869708702253E-002   0.0000000000000000     
  -6.0352862150886998E-002  0.10161344932666834        0.0000000000000000     
  -6.2156226996049536E-002  0.10828584165037300        0.0000000000000000     
  -5.9764918884929213E-002   8.3195299901591191E-002   0.0000000000000000     
  -6.1972600999829874E-002   8.9365681583517709E-002   0.0000000000000000     
  -6.4095911338950928E-002   9.5696186294466801E-002   0.0000000000000000     
  -6.6134849902292361E-002  0.10218681403443854        0.0000000000000000     
  -6.8089416689854187E-002  0.10883756480343285        0.0000000000000000     
  -6.5336204138829374E-002   8.3884202474305739E-002   0.0000000000000000     
  -6.7697453702219107E-002   9.0027053030791088E-002   0.0000000000000000     
  -6.9970829899685144E-002   9.6331754878792183E-002   0.0000000000000000     
  -7.2156332731227485E-002  0.10279830801830903        0.0000000000000000     
  -7.4253962196846171E-002  0.10942671244934157        0.0000000000000000     
  -7.1195054583941056E-002   8.4615856308129359E-002   0.0000000000000000     
  -7.3689906171150177E-002   9.0729217138294890E-002   0.0000000000000000     
  -7.6097324855733964E-002   9.7006575461678374E-002   0.0000000000000000     
  -7.8417310637692403E-002  0.10344793127827982        0.0000000000000000     
  -8.0649863517025508E-002  0.11005328458809918        0.0000000000000000     
  -7.7341470220264261E-002   8.5390261403062079E-002   0.0000000000000000     
  -7.9949958406623112E-002   9.1472173906029075E-002   0.0000000000000000     
  -8.2475396207097387E-002   9.7720648043125358E-002   0.0000000000000000     
  -8.4917783621687087E-002  0.10413568381435090        0.0000000000000000     
  -8.7277120650392198E-002  0.11071728121970570        0.0000000000000000     
  -6.2156226996049536E-002  0.10828584165037300        0.0000000000000000     
  -6.3884196971603358E-002  0.11510368789337280        0.0000000000000000     
  -6.5538305340132844E-002  0.12205362926922433        0.0000000000000000     
  -6.7118552101638029E-002  0.12913566577792759        0.0000000000000000     
  -6.8624937256118887E-002  0.13634979741948255        0.0000000000000000     
  -6.8089416689854187E-002  0.10883756480343285        0.0000000000000000     
  -6.9962194208488246E-002  0.11563387010341650        0.0000000000000000     
  -7.1755764965046473E-002  0.12256116143635620        0.0000000000000000     
  -7.3470128959528827E-002  0.12961943880225194        0.0000000000000000     
  -7.5105286191935350E-002  0.13680870220110375        0.0000000000000000     
  -7.4253962196846171E-002  0.10942671244934157        0.0000000000000000     
  -7.6265664791121249E-002  0.11620092690996944        0.0000000000000000     
  -7.8193387008632848E-002  0.12310491013827214        0.0000000000000000     
  -8.0037128849380967E-002  0.13013866213424966        0.0000000000000000     
  -8.1796890313365594E-002  0.13730218289790203        0.0000000000000000     
  -8.0649863517025508E-002  0.11005328458809918        0.0000000000000000     
  -8.2794608719502352E-002  0.11680485831303161        0.0000000000000000     
  -8.4851171470891967E-002  0.12368487537497212        0.0000000000000000     
  -8.6819551771194409E-002  0.13069333577392070        0.0000000000000000     
  -8.8699749620409621E-002  0.13783023950987736        0.0000000000000000     
  -8.7277120650392198E-002  0.11071728121970570        0.0000000000000000     
  -8.9549025993631529E-002  0.11744566431260305        0.0000000000000000     
  -9.1729118351823846E-002  0.12430105714645615        0.0000000000000000     
  -9.3817397724969165E-002  0.13128345972126507        0.0000000000000000     
  -9.5813864113067485E-002  0.13839287203702977        0.0000000000000000     
  -6.8624937256118887E-002  0.13634979741948255        0.0000000000000000     
  -7.0057820518689085E-002  0.14368529732230664        0.0000000000000000     
  -7.1417561604462235E-002  0.15113143861481712        0.0000000000000000     
  -7.2704160513438379E-002  0.15868822129701407        0.0000000000000000     
  -7.3917617245617503E-002  0.16635564536889744        0.0000000000000000     
  -7.5105286191935350E-002  0.13680870220110375        0.0000000000000000     
  -7.6662024725217146E-002  0.14411897992068701        0.0000000000000000     
  -7.8141132622325402E-002  0.15154030024877702        0.0000000000000000     
  -7.9542609883260160E-002  0.15907266318537380        0.0000000000000000     
  -8.0866456508021350E-002  0.16671606873047740        0.0000000000000000     
  -8.1796890313365594E-002  0.13730218289790203        0.0000000000000000     
  -8.3473389101223053E-002  0.14458646872234446        0.0000000000000000     
  -8.5067342913589597E-002  0.15198251590069214        0.0000000000000000     
  -8.6578751750465255E-002  0.15949032443294511        0.0000000000000000     
  -8.8007615611850026E-002  0.16710989431910339        0.0000000000000000     
  -8.8699749620409621E-002  0.13783023950987736        0.0000000000000000     
  -9.0491913646706737E-002  0.14508776372727902        0.0000000000000000     
  -9.2196192478254752E-002  0.15245808557056259        0.0000000000000000     
  -9.3812586115053706E-002  0.15994120503972806        0.0000000000000000     
  -9.5341094557103601E-002  0.16753712213477545        0.0000000000000000     
  -9.5813864113067485E-002  0.13839287203702977        0.0000000000000000     
  -9.7717598361668254E-002  0.14562286493549068        0.0000000000000000     
  -9.9527681316320921E-002  0.15296700925838830        0.0000000000000000     
 -0.10124411297702551       0.16042530500572258        0.0000000000000000     
 -0.10286689334378202       0.16799775217749358        0.0000000000000000     
  -7.3917617245617503E-002  0.16635564536889744        0.0000000000000000     
  -7.5057135089478019E-002  0.17412298520835107        0.0000000000000000     
  -7.6121917333498365E-002  0.18197951519325881        0.0000000000000000     
  -7.7111963977678527E-002  0.18992523532362054        0.0000000000000000     
  -7.8027275022018519E-002  0.19796014559943639        0.0000000000000000     
  -8.0866456508021350E-002  0.16671606873047740        0.0000000000000000     
  -8.2112148821319939E-002  0.17445972977811497        0.0000000000000000     
  -8.3279163147866916E-002  0.18229285922231370        0.0000000000000000     
  -8.4367499487662242E-002  0.19021545706307363        0.0000000000000000     
  -8.5377157840705931E-002  0.19822752330039473        0.0000000000000000     
  -8.8007615611850026E-002  0.16710989431910339        0.0000000000000000     
  -8.9354539873764072E-002  0.17482995268321355        0.0000000000000000     
  -9.0620129912227482E-002  0.18263922664932228        0.0000000000000000     
  -9.1804385727240298E-002  0.19053771621742951        0.0000000000000000     
  -9.2907307318802507E-002  0.19852542138753534        0.0000000000000000     
  -9.5341094557103601E-002  0.16753712213477545        0.0000000000000000     
  -9.6784308246810405E-002  0.17523365392364690        0.0000000000000000     
  -9.8144817626580103E-002  0.18301861747428450        0.0000000000000000     
  -9.9422622696412735E-002  0.19089201278668833        0.0000000000000000     
 -0.10061772345630825       0.19885383986085828        0.0000000000000000     
 -0.10286689334378202       0.16799775217749358        0.0000000000000000     
 -0.10440145394045892       0.17567083349941492        0.0000000000000000     
 -0.10585322629092474       0.18343103169720040        0.0000000000000000     
 -0.10722221039517950       0.19127834677084993        0.0000000000000000     
 -0.10850840625322314       0.19921277872036358        0.0000000000000000     
  -7.8027275022018519E-002  0.19796014559943639        0.0000000000000000     
  -7.8868405186078280E-002  0.20607725297622353        0.0000000000000000     
  -7.9635909189417778E-002  0.21426956440949915        0.0000000000000000     
  -8.0329787032037053E-002  0.22253707989926325        0.0000000000000000     
  -8.0950038713936023E-002  0.23087979944551590        0.0000000000000000     
  -8.5377157840705931E-002  0.19822752330039473        0.0000000000000000     
  -8.6311231570609201E-002  0.20632146960400874        0.0000000000000000     
  -8.7172814040983204E-002  0.21448970764364747        0.0000000000000000     
  -8.7961905251827982E-002  0.22273223741931095        0.0000000000000000     
  -8.8678505203143521E-002  0.23104905893099914        0.0000000000000000     
  -9.2907307318802507E-002  0.19852542138753534        0.0000000000000000     
  -9.3933376903313062E-002  0.20659529538522939        0.0000000000000000     
  -9.4887076697170891E-002  0.21474029143610138        0.0000000000000000     
  -9.5768406700375994E-002  0.22296040954015131        0.0000000000000000     
  -9.6577366912928383E-002  0.23125564969737916        0.0000000000000000     
 -0.10061772345630825       0.19885383986085828        0.0000000000000000     
 -0.10173484118418988       0.20689873031988545        0.0000000000000000     
 -0.10277869715798083       0.21502131578686079        0.0000000000000000     
 -0.10374929137768107       0.22322159626178423        0.0000000000000000     
 -0.10464662384329063       0.23149957174465588        0.0000000000000000     
 -0.10850840625322314       0.19921277872036358        0.0000000000000000     
 -0.10971562441323968       0.20723177440797694        0.0000000000000000     
 -0.11084767542341303       0.21533278069592568        0.0000000000000000     
 -0.11190455928374322       0.22351579758420984        0.0000000000000000     
 -0.11288627599423023       0.23178082507282938        0.0000000000000000     
  -8.0950038713936023E-002  0.23087979944551590        0.0000000000000000     
  -8.1486276297765448E-002  0.23931841930935954        0.0000000000000000     
  -8.1928111846175974E-002  0.24787363575189678        0.0000000000000000     
  -8.2275545359167632E-002  0.25654544877312763        0.0000000000000000     
  -8.2528576836740419E-002  0.26533385837305207        0.0000000000000000     
  -8.8678505203143521E-002  0.23104905893099914        0.0000000000000000     
  -8.9308479770806692E-002  0.23946573760488915        0.0000000000000000     
  -8.9837694830694301E-002  0.24800783886715805        0.0000000000000000     
  -9.0266150382806415E-002  0.25667536271780583        0.0000000000000000     
  -9.0593846427143007E-002  0.26546830915683256        0.0000000000000000     
  -9.6577366912928383E-002  0.23125564969737916        0.0000000000000000     
  -9.7304986899002160E-002  0.23965249429617716        0.0000000000000000     
  -9.7942296222771438E-002  0.24817742572493753        0.0000000000000000     
  -9.8489294884236175E-002  0.25683044398366034        0.0000000000000000     
  -9.8945982883396427E-002  0.26561154907234547        0.0000000000000000     
 -0.10464662384329063       0.23149957174465588        0.0000000000000000     
 -0.10547579768235188       0.23987868938322363        0.0000000000000000     
 -0.10624191602240733       0.24838239632523534        0.0000000000000000     
 -0.10694497886345693       0.25701069257069104        0.0000000000000000     
 -0.10758498620550065       0.26576357811959084        0.0000000000000000     
 -0.11288627599423023       0.23178082507282938        0.0000000000000000     
 -0.11382091212085589       0.24014432286602846        0.0000000000000000     
 -0.11473655422960201       0.24862275066805137        0.0000000000000000     
 -0.11563320232046863       0.25721610847889803        0.0000000000000000     
 -0.11651085639345571       0.26592439629856846        0.0000000000000000     
  -8.2528576836740419E-002  0.26533385837305207        0.0000000000000000     
  -8.2726144204565227E-002  0.27426523663816377        0.0000000000000000     
  -8.2907185388313001E-002  0.28336595565495643        0.0000000000000000     
  -8.3071700387983741E-002  0.29263601542343021        0.0000000000000000     
  -8.3219689203577446E-002  0.30207541594358484        0.0000000000000000     
  -9.0593846427143007E-002  0.26546830915683256        0.0000000000000000     
  -9.0851062161142485E-002  0.27444967344943738        0.0000000000000000     
  -9.1068076782243268E-002  0.28368245086081950        0.0000000000000000     
  -9.1244890290445357E-002  0.29316664139097892        0.0000000000000000     
  -9.1381502685748739E-002  0.30290224503991559        0.0000000000000000     
  -9.8945982883396427E-002  0.26561154907234547        0.0000000000000000     
  -9.9323318128001256E-002  0.27461897425421944        0.0000000000000000     
  -9.9632258525799794E-002  0.28395095279250826        0.0000000000000000     
  -9.9872804076792041E-002  0.29360748468721221        0.0000000000000000     
 -0.10004495478097794       0.30358856993833117        0.0000000000000000     
 -0.10758498620550065       0.26576357811959084        0.0000000000000000     
 -0.10814291210514153       0.27477313905250961        0.0000000000000000     
 -0.10859973061898259       0.28417146145002281        0.0000000000000000     
 -0.10895544174702373       0.29395854531213012        0.0000000000000000     
 -0.10921004548926506       0.30413439063883169        0.0000000000000000     
 -0.11651085639345571       0.26592439629856846        0.0000000000000000     
 -0.11730984409256333       0.27491216784430828        0.0000000000000000     
 -0.11797049306179162       0.28434397683336288        0.0000000000000000     
 -0.11849280330114052       0.29421982326573254        0.0000000000000000     
 -0.11887677481061008       0.30453970714141704        0.0000000000000000     
 </DataArray>
 <DataArray  type="Float64" Name="stress" NumberOfComponents="3" format="ascii">
   5218491736.2384529        1023557276.0545635       -665018673.47886419     
   5108757677.9756374        510609579.48971844       -451903439.45736074     
   5050353356.0489664        168761004.04535341       -305913696.29408473     
   5043278770.4584370       -1988450.2785151005       -227049443.98903817     
   5087533921.2040577       -1638783.4819064140       -215310682.54222292     
   5535187801.4420729        845385147.00493813       -392116458.40807438     
   5317249372.7699881        458525160.72656655       -220974814.72930565     
   5135314706.5993595        191677716.11974931       -95038975.188635245     
   4989383802.9301949        44842813.184457302       -14308939.786056083     
   4879456661.7624922        18020451.920704842        21215291.478435047     
   5555089653.2416391        578174753.93409252       -49293699.083996713     
   5291574530.5035458        336190780.84519315        61994051.444886215     
   5048737196.4322233        163132769.97888207        149995684.55582154     
   4826577651.0276766        59000721.335160255        214711200.24881288     
   4625095894.2899065        23794634.914016008        256140598.52384993     
   5278197291.6371622        221926096.84203959        363449604.49336243     
   5031733151.1763115        143606439.84557724        397003159.06523538     
   4790620825.5475502        83126165.622752666        429190282.93930423     
   4554860314.7508869        40485274.173568010        460010976.11556685     
   4324451618.7863102        15683765.498020887        489465238.59401768     
   4704510716.6286259       -223360824.27123475        846113452.32400131     
   4537725234.7882814       -119227862.27228069        784052508.13173926     
   4360965593.9453430       -48342096.948639870        742544819.96180689     
   4174231794.0998144       -10703528.300300837        721590387.81420898     
   3977523835.2516890       -6312156.3272812366        721189211.68893886     
   5087533921.2040577       -1638783.4819064140       -215310682.54222292     
   4932832387.8167419        14211792.423373699       -168855728.53295171     
   4776375567.1142969        24211410.611538649       -127092624.50072379     
   4618163459.0967255        28360071.082623720       -90021370.445534676     
   4458196063.7640200        26657773.836592436       -57641966.367382422     
   4879456661.7624922        18020451.920704842        21215291.478435047     
   4714268763.8616352        26964606.057683706        51033026.198425166     
   4547590120.4399939        30939608.458700657        79069966.293107271     
   4379420731.4975491        29945459.123725176        105326111.76248071     
   4209760597.0343232        23982158.052789211        129801462.60654613     
   4625095894.2899065        23794634.914016008        256140598.52384993     
   4457738932.8804588        28327557.584194422        269629746.04795319     
   4289155767.7445555        28773134.499509811        284249154.29848272     
   4119346398.8821955        25131365.659980059        299998823.27543008     
   3948310826.2933764        17402251.065587759        316878752.97880208     
   4324451618.7863102        15683765.498020887        489465238.59401768     
   4163242894.8732114        18300647.002872705        486934431.01562673     
   4001072509.0279956        17711988.733995676        488444939.51538873     
   3837940461.2506566        13917790.691376448        493996764.09330684     
   3673846751.5411997        6918052.8750288486        503589904.74937505     
   3977523835.2516890       -6312156.3272812366        721189211.68893886     
   3830780649.8398862       -3116125.6862788200        702947081.10144794     
   3683340344.2903037       -2243828.8378715515        691657321.94384122     
   3535202918.6029286       -3695265.7820973396        687319934.21611702     
   3386368372.7777805       -7470436.5189130306        689934917.91827321     
   4458196063.7640200        26657773.836592436       -57641966.367382422     
   4279333701.4959965        18052973.415100574       -55581039.057720579     
   4101412991.5354958        12587014.018708706       -51050132.937601015     
   3924433933.8825231        10259895.647405863       -44049248.007007092     
   3748396528.5370684        11071618.301148415       -34578384.265965693     
   4209760597.0343232        23982158.052789211        129801462.60654613     
   4038210195.1744785        16515146.403221130        128577070.13383658     
   3867532980.3565598        11958758.226727486        130244717.14036256     
   3697728952.5805483        10312993.523264647        134804403.62613276     
   3528798111.8464718        11577852.292906523        142256129.59113398     
   3948310826.2933764        17402251.065587759        316878752.97880208     
   3785278272.4667916        11434794.475472689        312289164.58051115     
   3623050440.4165182        8149743.8063957691        311013676.33023173     
   3461627330.1425548        7547099.0583512783        313052288.22796130     
   3301008941.6449013        9626860.2313454151        318405000.27370524     
   3673846751.5411997        6918052.8750288486        503589904.74937505     
   3520537933.3729362        2811917.6318757534        495555244.28229541     
   3367965371.7153831        1159970.7577519417        491256744.63200140     
   3216129066.5685291        1962212.2526252270        490694405.79849589     
   3065029017.9323792        5218642.1165059805        493868227.78177106     
   3386368372.7777805       -7470436.5189130306        689934917.91827321     
   3243989177.8929157       -9353484.1275589466        678375309.23920119     
   3102277774.2531457       -9010560.9192354679        670973922.04568541     
   2961234161.8584714       -6441666.8939192295        667730756.33772850     
   2820858340.7088952       -1646802.0516122580        668645812.11532772     
   3748396528.5370684        11071618.301148415       -34578384.265965693     
   3568472596.3568950        10693496.238743305       -31160261.133282680     
   3387591262.4192476        7124034.9847605228       -23326847.024829343     
   3205752526.7241316        363234.53920173645       -11078141.940587111     
   3022956389.2715302       -9588905.0979509354        5585854.1194139160     
   3528798111.8464718        11577852.292906523        142256129.59113398     
   3360552814.4722509        13225473.842069149        141650512.81983018     
   3191551099.1362934        12351702.185440660        145145691.01312613     
   3021792965.8385906        8956537.3229840994        152741664.17100456     
   2851278414.5791564        3039979.2547682524        164438432.29348657     
   3301008941.6449013        9626860.2313454151        318405000.27370524     
   3143543719.0446863        13030657.382528663        314010124.69345134     
   2985523062.2784548        14583007.313669205        313401548.06660736     
   2826946971.3462114        14283910.024754882        316579270.39316219     
   2667815446.2479610        12133365.515834332        323543291.67311734     
   3065029017.9323792        5218642.1165059805        493868227.78177106     
   2917445310.0741892        10109046.860096931        485918574.48758906     
   2769507151.8457179        13817950.369421363        481440724.13562143     
   2621214543.2469683        16345352.644479871        480434676.72586769     
   2472567484.2779369        17691253.685268521        482900432.25832868     
   2820858340.7088952       -1646802.0516122580        668645812.11532772     
   2682257587.5607595        4460642.2747755051        657375862.20222986     
   2543503367.8380866        10056531.352704287        649263219.22016180     
   2404595681.5408573        15140865.182109237        644307883.16912508     
   2265534528.6690898        19713643.763048768        642509854.04910970     
   3022956389.2715302       -9588905.0979509354        5585854.1194139160     
   2863101573.1455507       -12593515.616959929        4287069.3502966994     
   2704247103.4277272       -12263638.108792186        2575382.0905604330     
   2546392980.1180172       -8599272.5735640526        450792.34023842192     
   2389539203.2164741       -1600419.0111360550       -2086699.9006872678     
   2851278414.5791564        3039979.2547682524        164438432.29348657     
   2691648868.7224789        249077.19849789143        160460778.42698598     
   2532683534.9316034       -327784.63843798637        157019994.53608951     
   2374382413.2065248        1309393.7439513206        154116080.62075481     
   2216745503.5472403        5160612.3456541300        151749036.68101394     
   2667815446.2479610        12133365.515834332        323543291.67311734     
   2511124806.2782469        10370262.607594490        316494611.97653681     
   2354762244.0319958        9700752.1108844280        310932574.72170663     
   2198727759.5092006        10124834.025703788        306857179.90865368     
   2043021352.7098639        11642508.352035046        304268427.53736132     
   2472567484.2779369        17691253.685268521        482900432.25832868     
   2321529385.8128633        17770040.610352278        472388569.99891138     
   2170483230.7289009        17821972.139154077        464313122.64743829     
   2019429019.0260587        17847048.271697760        458674090.20392597     
   1868366750.7043405        17845269.007961750        455471472.66836804     
   2265534528.6690898        19713643.763048768        642509854.04910970     
   2122862607.3263173        22448411.206764340        628142652.49412835     
   1979846495.0223217        24035875.446394920        617161638.31328964     
   1836486191.7571118        24476036.481974244        609566811.50658298     
   1692781697.5306675        23768894.313443542        605358172.07401514     
   2389539203.2164741       -1600419.0111360550       -2086699.9006872678     
   2247623704.2825327        6417675.3390414715       -7710805.2973750262     
   2102425061.6201468        3491957.2610371113       -11553658.869225889     
   1953943275.2292659       -10377573.245273590       -13615260.616285972     
   1802178345.1099424       -35190916.179713845       -13895610.538498910     
   2216745503.5472403        5160612.3456541300        151749036.68101394     
   2078273399.8765996        12462158.485984206        142238184.05590436     
   1937621184.6294177        12496666.037813902        133760202.47231057     
   1794788857.8056722        5264135.0011292696        126315091.93025756     
   1649776419.4053814       -9235434.6240615845        119902852.42973186     
   2043021352.7098639        11642508.352035046        304268427.53736132     
   1905854413.4931183        17586037.039702177        292157698.52771872     
   1767610394.8517213        19939300.978525519        280331459.77631563     
   1628289296.7856934        18702300.168576300        268789711.28314793     
   1487891119.2950180        13875034.609796882        257532453.04820114     
   1868366750.7043405        17845269.007961750        455471472.66836804     
   1730366745.1320710        21789311.000117183        442047738.11809111     
   1592392692.2870710        25819862.083165109        428160113.04275841     
   1454444592.1693325        29936922.257102191        413808597.44236147     
   1316522444.7788763        34140491.521961749        398993191.31690508     
   1692781697.5306675        23768894.313443542        605358172.07401514     
   1551810394.7934601        25071980.367263198        591908302.82700360     
   1411968076.9354377        30138349.351688087        577246162.27164698     
   1273254743.9566078        38968001.266750157        561371750.40793324     
   1135670395.8569505        51560936.112398028        544285067.23586810     
   1802178345.1099424       -35190916.179713845       -13895610.538498910     
   1771323034.7771487       -16480236.337525368       -8347176.7938479390     
   1748531837.5183940        29110820.418171406       -41541861.855761610     
   1733804753.3336356        101582254.08716732       -113479665.72423096     
   1727141782.2229292        200934064.66966879       -224160588.39923677     
   1649776419.4053814       -9235434.6240615845        119902852.42973186     
   1527289960.0329425       -13968438.975154281        135470532.33793947     
   1408967417.6650410       -4821719.9777945876        124705912.75911376     
   1294808792.3016911        18204722.368067563        87608993.693269461     
   1184814083.9428756        55110888.062389612        24179775.140388016     
   1487891119.2950180        13875034.609796882        257532453.04820114     
   1309232994.6530056       -3663808.8035822511        278569150.37224787     
   1130838590.9460506       -20323582.433425128        285684367.52878809     
   952707908.17415094       -36104286.279750764        278878104.51782572     
   774840946.33732820       -51005920.342497677        258150361.33936584     
   1316522444.7788763        34140491.521961749        398993191.31690508     
   1117152138.6373599        14433654.177317142        420948677.30905676     
   914145357.36142266       -17394766.948720276        441393502.45323616     
   707502100.95105374       -61344771.856189609        460327666.74943686     
   497222369.40627193       -117416360.54505768        477751170.19765443     
   1135670395.8569505        51560936.112398028        544285067.23586810     
   951047391.98599780        40323949.967514873        562609113.14839435     
   758887716.91114068        3964726.4762666523        591833317.53247738     
   559191370.63237834       -57516734.361324012        631957680.38810062     
   351958353.14971381       -144120432.54525489        682982201.71527815     
   1727141782.2229292        200934064.66966879       -224160588.39923677     
   1456626139.8982980        184583127.97452015       -96598689.350842103     
   1153949497.0842397        61028856.314581335        60125607.204833187     
   819111853.78071666       -169728750.31019068        246012301.26782495     
   452113209.98775882       -507689691.89981198        461061392.83813316     
   1184814083.9428756        55110888.062389612        24179775.140388016     
   977708662.52153409        11846752.266821086        155578104.27512339     
   732788497.12566984       -157466530.11048922        312801867.15901828     
   450053587.75524056       -452828959.06963897        495851063.79206365     
   129503934.41033888       -874240534.61045218        704725694.17430186     
   774840946.33732820       -51005920.342497677        258150361.33936584     
   621611563.65312612       -124043509.88836455        386789086.49451262     
   424913693.50930977       -341976057.63295341        537916281.64069772     
   184747335.90589729       -704803563.57619488        711531946.77788866     
  -98887509.157116830       -1212526027.7181029        907636081.90610898     
   497222369.40627193       -117416360.54505768        477751170.19765443     
   388334843.29308456       -223087658.49108356        597034257.30731595     
   230325086.23522177       -492499726.25269443        735468850.64984131     
   23193098.232667029       -925652563.82992983        893054950.22526872     
  -233061120.71455437       -1522546171.2227483        1069792556.0335442     
   351958353.14971381       -144120432.54525489        682982201.71527815     
   277878501.44142407       -285285693.54124165        786313616.71351874     
   149022675.30337048       -609037535.96977437        905459574.18649399     
  -34609125.264432847       -1115375959.8308148        1040420074.1341923     
  -273016900.26200396       -1804300965.1243975        1191195116.5566177     
   4704510716.6286259       -223360824.27123475        846113452.32400131     
   4537725234.7882814       -119227862.27228069        784052508.13173926     
   4360965593.9453430       -48342096.948639870        742544819.96180689     
   4174231794.0998144       -10703528.300300837        721590387.81420898     
   3977523835.2516890       -6312156.3272812366        721189211.68893886     
   4171774572.8640413       -182936070.84585881        936136879.96839023     
   4044341197.4149776       -105036170.71855974        885133584.62974179     
   3910009279.2733073       -50131412.899936676        849901667.84781885     
   3768778818.4390326       -18221797.390001774        830441129.62261987     
   3620649814.9121518       -9307324.1887516975        826751969.95414472     
   3705584134.5526586       -122547605.78452444        1009735931.2566830     
   3603840358.4502797       -74979519.642247915        973378503.79997051     
   3498273655.9652815       -40154521.442034245        948010577.43437731     
   3388884027.0976706       -18072611.183873653        933632152.15989745     
   3275671471.8474383       -8733788.8677747250        930243227.97653627     
   3305939401.6944695       -42195429.087230682        1066910606.1888826     
   3216222717.8941898       -29057909.043361783        1048787265.6424252     
   3125758724.0212688       -18411422.574926257        1036871548.7214748     
   3034547420.0757236       -10255969.681922197        1031163455.4260368     
   2942588806.0575480       -4591550.3643511534        1031662985.7561044     
   2972840374.2894859        58120459.246024489        1107660904.7649810     
   2881488275.7466998        32728661.078109622        1111359870.1570992     
   2792464483.4412680        15097883.701387048        1116484581.7091160     
   2705768997.3731966        5228127.1158564091        1123035039.4210334     
   2621401817.5424824        3119391.3215231895        1131011243.2928569     
   3977523835.2516890       -6312156.3272812366        721189211.68893886     
   3830780649.8398862       -3116125.6862788200        702947081.10144794     
   3683340344.2903037       -2243828.8378715515        691657321.94384122     
   3535202918.6029286       -3695265.7820973396        687319934.21611702     
   3386368372.7777805       -7470436.5189130306        689934917.91827321     
   3620649814.9121518       -9307324.1887516975        826751969.95414472     
   3490905081.0648031       -5976177.7235198021        811592031.92607999     
   3360741126.6310129       -4042433.2130839825        802524273.86596501     
   3230157951.6107893       -3506090.6574282646        799548695.77379942     
   3099155556.0041294       -4367150.0565667152        802665297.64958668     
   3275671471.8474383       -8733788.8677747250        930243227.97653627     
   3160467499.6732974       -6004833.5456980467        918489698.65113759     
   3045122206.4640665       -3746948.3405900002        911968157.83175004     
   2929635592.2197471       -1960133.2524435520        910678605.51838088     
   2814007656.9403410       -644388.28125345707        914621041.71103024     
   2942588806.0575480       -4591550.3643511534        1031662985.7561044     
   2839467905.6653810       -3202093.1527976990        1023640081.2766089     
   2736483583.7894692       -1357374.2203893661        1019988973.8411937     
   2633635840.4298191        942606.43288779259        1020709663.4498653     
   2530924675.5864234        3697848.8070187569        1025802150.1026131     
   2621401817.5424824        3119391.3215231895        1131011243.2928569     
   2527906299.0410500        2432043.4551851749        1127043179.8025002     
   2434825258.6072130        3126289.1475054026        1126586721.8942964     
   2342158696.2409911        5202128.3985407352        1129641869.5682435     
   2249906611.9423699        8659561.2082467079        1136208622.8243320     
   3386368372.7777805       -7470436.5189130306        689934917.91827321     
   3243989177.8929157       -9353484.1275589466        678375309.23920119     
   3102277774.2531457       -9010560.9192354679        670973922.04568541     
   2961234161.8584714       -6441666.8939192295        667730756.33772850     
   2820858340.7088952       -1646802.0516122580        668645812.11532772     
   3099155556.0041294       -4367150.0565667152        802665297.64958668     
   2967973388.4053645       -5126600.6523343325        792541005.29662919     
   2837312995.5035820       -4146802.2581542730        786612297.75214458     
   2707174377.2987862       -1427754.8740233183        784879175.01612699     
   2577557533.7909727        3030541.5000447035        787341637.08857632     
   2814007656.9403410       -644388.28125345707        914621041.71103024     
   2694129268.9788456       -248216.15878593922        905761713.04473674     
   2574626639.1662207        1400483.1265908480        901135332.50981748     
   2455499767.5024714        4301709.5748770237        900741900.10627460     
   2336748653.9875937        8455463.1860795021        904581415.83411026     
   2530924675.5864234        3697848.8070187569        1025802150.1026131     
   2422456819.6133652        5281669.3530669212        1018037432.4835131     
   2314218705.2410669        7631295.2349933386        1014543026.3186989     
   2206210332.4695349        10746726.452804327        1015318931.6081760     
   2098431701.2987642        14627963.006478548        1020365148.3519322     
   2249906611.9423699        8659561.2082467079        1136208622.8243320     
   2152956040.3089166        11463055.883229256        1129368163.6129675     
   2056089193.7281189        14545634.067066789        1126835379.1787958     
   1959306072.1999667        17907295.759724021        1128610269.5218186     
   1862606675.7244704        21548040.961228371        1134692834.6420374     
   2820858340.7088952       -1646802.0516122580        668645812.11532772     
   2682257587.5607595        4460642.2747755051        657375862.20222986     
   2543503367.8380866        10056531.352704287        649263219.22016180     
   2404595681.5408573        15140865.182109237        644307883.16912508     
   2265534528.6690898        19713643.763048768        642509854.04910970     
   2577557533.7909727        3030541.5000447035        787341637.08857632     
   2447192113.4576268        7965053.5536031723        776964972.15580761     
   2316766976.9287071        12700511.621895313        770036548.36635554     
   2186282124.2042117        17236915.704936862        766556365.72020626     
   2055737555.2841339        21574265.802709103        766524424.21737790     
   2336748653.9875937        8455463.1860795021        904581415.83411026     
   2215449807.0755677        12466415.148741126        895207411.32380354     
   2094184994.3469324        16590814.389371514        889572582.16908634     
   1972954215.8016951        20828660.907996535        887676928.36997497     
   1851757471.4398484        25179954.704587221        889520449.92645597     
   2098431701.2987642        14627963.006478548        1020365148.3519322     
   1987030668.4145780        17964727.060199261        1012103179.7062116     
   1875757420.0927596        21727439.655141473        1007871320.6283766     
   1764611956.3333044        25916100.791297317        1007669571.1184211     
   1653594277.1362100        30530710.468654454        1011497931.1763531     
   1862606675.7244704        21548040.961228371        1134692834.6420374     
   1761934697.4746637        24459989.287989974        1127652277.3030429     
   1661484254.1661804        28110387.419165373        1124932763.7442124     
   1561255345.7990479        32499235.354836524        1126534293.9655521     
   1461247972.3732376        37626533.094914734        1132456867.9670620     
   2265534528.6690898        19713643.763048768        642509854.04910970     
   2122862607.3263173        22448411.206764340        628142652.49412835     
   1979846495.0223217        24035875.446394920        617161638.31328964     
   1836486191.7571118        24476036.481974244        609566811.50658298     
   1692781697.5306675        23768894.313443542        605358172.07401514     
   2055737555.2841339        21574265.802709103        766524424.21737790     
   1922056279.8396492        24535953.026114583        753905587.26316369     
   1788148137.5685012        26741417.493971944        744764078.29202724     
   1654013128.4706860        28190659.206267178        739099897.30397093     
   1519651252.5462108        28883678.163028955        736913044.29898858     
   1851757471.4398484        25179954.704587221        889520449.92645597     
   1727327243.6334729        28446682.229617357        878786855.72999442     
   1602787473.1349983        31348267.447630763        871621730.12555540     
   1478138159.9444218        33884710.358641863        868025073.11313343     
   1353379304.0617352        36056010.962628782        867996884.69272697     
   1653594277.1362100        30530710.468654454        1011497931.1763531     
   1538675498.7077844        34180598.817264080        1002786457.8946296     
   1423764501.7218077        37856425.307379961        997734593.81387186     
   1308861286.1782990        41558189.939039171        996342338.93406582     
   1193965852.0772438        45285892.712223887        998609693.25523198     
   1461247972.3732376        37626533.094914734        1132456867.9670620     
   1356101045.0625842        41737702.789057136        1125904393.7570639     
   1251079223.3289466        46265891.073246419        1123102669.3569701     
   1146182507.1723299        51211097.947505295        1124051694.7667763     
   1041410896.5927191        56573323.411795616        1128751469.9864843     
   1692781697.5306675        23768894.313443542        605358172.07401514     
   1551810394.7934601        25071980.367263198        591908302.82700360     
   1411968076.9354377        30138349.351688087        577246162.27164698     
   1273254743.9566078        38968001.266750157        561371750.40793324     
   1135670395.8569505        51560936.112398028        544285067.23586810     
   1519651252.5462108        28883678.163028955        736913044.29898858     
   1376948139.9649873        27152471.983200371        727580919.66367924     
   1234523418.9535716        26349237.702717900        718829126.20293176     
   1092377089.5119619        26473975.321594059        710657663.91674984     
   950509151.64015925        27526684.839829326        703066532.80513084     
   1353379304.0617352        36056010.962628782        867996884.69272697     
   1214066103.0162637        32827028.963075817        861790145.80817008     
   1074180700.2312212        27690707.831616402        857956340.58109808     
   933723095.70660353        20647047.568251014        856495469.01150799     
   792693289.44242024        11696048.172979504        857407531.09941316     
   1193965852.0772438        45285892.712223887        998609693.25523198     
   1063164283.9472890        42095651.306872487        994535981.26048255     
   930939920.76839042        34162759.738370538        994627805.40614200     
   797292762.54053855        21487218.006695867        998885165.69220579     
   662222809.26374209        4069026.1118563414        1007308062.1186787     
   1041410896.5927191        56573323.411795616        1128751469.9864843     
   924242682.75805545        54958339.014581561        1125818426.0206125     
   804801080.56506979        45765393.422969311        1128843520.6780639     
   683086090.01374745        28994486.636897475        1137826753.9588456     
   559097711.10410738        4645618.6564328671        1152768125.8629506     
   1135670395.8569505        51560936.112398028        544285067.23586810     
   951047391.98599780        40323949.967514873        562609113.14839435     
   758887716.91114068        3964726.4762666523        591833317.53247738     
   559191370.63237834       -57516734.361324012        631957680.38810062     
   351958353.14971381       -144120432.54525489        682982201.71527815     
   950509151.64015925        27526684.839829326        703066532.80513084     
   791465496.03235841        10723361.706128687        721097106.57658136     
   623767635.22981584       -34927312.076710790        749188482.92248547     
   447415569.23254758       -109425336.50864440        787340661.84282863     
   262409298.04054528       -212770711.58967465        835553643.33763182     
   792693289.44242024        11696048.172979504        857407531.09941316     
   656830822.39177608       -11393059.861346990        873840843.07380486     
   511196616.15556407       -67054631.847558826        899495601.72555506     
   355790670.73379552       -155288667.78563434        934371807.05465031     
   190612986.12646025       -276095167.67558938        978469459.06110549     
   662222809.26374209        4069026.1118563414        1007308062.1186787     
   547143371.06425095       -26025314.734912246        1020840322.6400623     
   421174659.68838125       -92417232.836276591        1042754673.9416854     
   284316675.13610590       -195106728.19232228        1073051116.0235701     
   136569417.40745372       -334093800.80296385        1111729648.8857107     
   559097711.10410738        4645618.6564328671        1152768125.8629506     
   462403142.04979438       -33173402.914530247        1162095545.2753305     
   353701765.82826149       -111015115.04289871        1178965699.5708778     
   232993582.43950552       -228879517.72866935        1203378588.7495823     
   100278591.88353160       -386766610.97183299        1235334212.8114436     
   351958353.14971381       -144120432.54525489        682982201.71527815     
   277878501.44142407       -285285693.54124165        786313616.71351874     
   149022675.30337048       -609037535.96977437        905459574.18649399     
  -34609125.264432847       -1115375959.8308148        1040420074.1341923     
  -273016900.26200396       -1804300965.1243975        1191195116.5566177     
   262409298.04054528       -212770711.58967465        835553643.33763182     
   223664721.01280132       -352444981.67868048        884949062.18893075     
   140690347.03215906       -639551908.27733886        945366844.26432943     
   13486176.098618448       -1074091491.3856347        1016806989.5637958     
  -157947791.78780484       -1656063731.0035954        1099269498.0873237     
   190612986.12646025       -276095167.67558938        978469459.06110549     
   173511743.06310871       -418386029.07243693        986232755.48849618     
   122726880.52372232       -672955622.05605924        1000226235.8893000     
   38258398.508305788       -1039803946.6264645        1020449900.2635279     
  -79893702.983150542       -1518931002.7836566        1046903748.6111848     
   136569417.40745372       -334093800.80296385        1111729648.8857107     
   127419567.59234363       -483108835.72249687        1090164696.6121819     
   95132275.778049946       -709248677.30597615        1070037749.0614128     
   39707541.964587688       -1012513325.5533221        1051348806.2334247     
  -38854633.848031044       -1392902780.4645784        1034097868.1281841     
   100278591.88353160       -386766610.97183299        1235334212.8114436     
   85388194.600498855       -546613401.62891400        1196744885.5599954     
   57906532.795160711       -748431074.02701318        1154801383.7806642     
   17833606.467505872       -992219628.16616762        1109503707.4734533     
  -34830584.382461846       -1277979064.0463650        1060851856.6383426     
   2972840374.2894859        58120459.246024489        1107660904.7649810     
   2881488275.7466998        32728661.078109622        1111359870.1570992     
   2792464483.4412680        15097883.701387048        1116484581.7091160     
   2705768997.3731966        5228127.1158564091        1123035039.4210334     
   2621401817.5424824        3119391.3215231895        1131011243.2928569     
   2631307981.2554908        51213534.190183759        1188528791.7018163     
   2546323918.7774744        30705916.293250918        1190043656.2748621     
   2463109438.6926370        16096906.373581171        1193904145.4445271     
   2381664541.0009856        7386504.4311941862        1200110259.2108104     
   2301989225.7025089        4574710.4660658836        1208661997.5737123     
   2275391373.7303205        39991344.786995053        1270866358.3624506     
   2199403571.4219818        25156374.392511249        1269545277.6315508     
   2124626627.6626463        14357599.161376834        1271489699.9339895     
   2051060542.4523144        7595019.0935844183        1276699625.2697659     
   1978705315.7909894        4868634.1891463995        1285175053.6388750     
   1905090551.7139783        24453891.036453366        1354673604.7468920     
   1840727233.6802225        16080035.375889421        1349864734.2271760     
   1777016050.3512943        9879962.0647561550        1349241245.1775117     
   1713957001.7271929        5853671.1030460596        1352803137.5979059     
   1651550087.8079200        4001162.4907596111        1360550411.4883516     
   1520405515.2064583        4601172.9385566115        1439950530.8551276     
   1470294905.5521944        3476899.2433920503        1431002026.0617237     
   1420277706.7585802        2663995.0837302804        1427158781.1750872     
   1370353918.8256152        2162460.4595658779        1428420796.1952267     
   1320523541.7533031        1972295.3709084392        1434788071.1221323     
   2621401817.5424824        3119391.3215231895        1131011243.2928569     
   2527906299.0410500        2432043.4551851749        1127043179.8025002     
   2434825258.6072130        3126289.1475054026        1126586721.8942964     
   2342158696.2409911        5202128.3985407352        1129641869.5682435     
   2249906611.9423699        8659561.2082467079        1136208622.8243320     
   2301989225.7025089        4574710.4660658836        1208661997.5737123     
   2218018440.6441946        3667175.6812801361        1203953693.3555813     
   2134383282.0552998        3878395.7945606709        1203111313.9542670     
   2051083749.9358268        5208370.8059160709        1206134859.3697686     
   1968119844.2857792        7657100.7153501511        1213024329.6020808     
   1978705315.7909894        4868634.1891463995        1285175053.6388750     
   1905271604.8462698        4044614.6870641708        1279634515.1617584     
   1832094668.7727871        4076511.4224328995        1278314220.7361209     
   1759174507.5705428        4964324.3952687979        1281214170.3619649     
   1686511121.2395399        6708053.6055690050        1288334364.0392909     
   1651550087.8079200        4001162.4907596111        1360550411.4883516     
   1589665791.6472716        3564360.4725228548        1354085645.2210281     
   1527959418.7596745        3720636.0311234593        1352195442.2398512     
   1466430969.1451344        4469989.1665806770        1354879802.5448220     
   1405080442.8036480        5812419.8788837194        1362138726.1359403     
   1320523541.7533031        1972295.3709084392        1434788071.1221323     
   1271201001.0471981        2226413.0376539826        1427307083.5333936     
   1221977532.0159657        2810769.6206426024        1424754978.4654646     
   1172853134.6596007        3725365.1198520660        1427131755.9183474     
   1123827808.9781108        4970199.5353115797        1434437415.8920488     
   2249906611.9423699        8659561.2082467079        1136208622.8243320     
   2152956040.3089166        11463055.883229256        1129368163.6129675     
   2056089193.7281189        14545634.067066789        1126835379.1787958     
   1959306072.1999667        17907295.759724021        1128610269.5218186     
   1862606675.7244704        21548040.961228371        1134692834.6420374     
   1968119844.2857792        7657100.7153501511        1213024329.6020808     
   1882360045.7930903        9943446.1385881901        1206415530.7659094     
   1796710587.8858852        12597593.513432503        1204226686.3189151     
   1711171470.5641510        15619542.839849234        1206457796.2611003     
   1625742693.8278971        19009294.117864847        1213108860.5924716     
   1686511121.2395399        6708053.6055690050        1288334364.0392909     
   1612262894.7790067        8573489.4444763064        1281988277.0332682     
   1538151624.4367778        10895445.677733123        1280174424.0284109     
   1464177310.2128537        13673922.305336893        1282892805.0247247     
   1390339952.1072304        16908919.327278316        1290143420.0222030     
   1405080442.8036480        5812419.8788837194        1362138726.1359403     
   1342664587.2666600        7353185.8008840084        1356086402.4150376     
   1280412303.3807993        9439190.5599772930        1354678592.3072867     
   1218323591.1460681        12070434.156167865        1357915295.8126903     
   1156398450.5624666        15246916.589456797        1365796512.9312463     
   1123827808.9781108        4970199.5353115797        1434437415.8920488     
   1073565123.2560530        6282535.2078135610        1428709906.9112236     
   1023492624.7179474        8228828.1601544023        1427739191.1555402     
   973610313.36380410        10809078.392369032        1431525268.6249952     
   923918189.19361091        14023285.904414415        1440068139.3195920     
   1862606675.7244704        21548040.961228371        1134692834.6420374     
   1761934697.4746637        24459989.287989974        1127652277.3030429     
   1661484254.1661804        28110387.419165373        1124932763.7442124     
   1561255345.7990479        32499235.354836524        1126534293.9655521     
   1461247972.3732376        37626533.094914734        1132456867.9670620     
   1625742693.8278971        19009294.117864847        1213108860.5924716     
   1536438729.0384169        21708420.323065281        1206901938.2321770     
   1447335587.1864157        25076956.319861293        1205167710.6277173     
   1358433268.2718945        29114902.108252704        1207906177.7790766     
   1269731772.2948501        33822257.688238561        1215117339.6862707     
   1390339952.1072304        16908919.327278316        1290143420.0222030     
   1312837289.2799656        19525209.961480975        1284745968.6361220     
   1235514737.3863223        22741870.374432445        1283972862.9815280     
   1158372296.4263091        26558900.566146076        1287824103.0584190     
   1081409966.3999135        30976300.536590874        1296299688.8668070     
   1156398450.5624666        15246916.589456797        1365796512.9312463     
   1091130378.1993022        17910358.203235388        1361184368.5148733     
   1026021704.7659104        21105129.582917929        1361348220.8056488     
   961072430.26228738        24831230.728495121        1366288069.8035729     
   896282554.68843508        29088661.639980733        1376003915.5086493     
   923918189.19361091        14023285.904414415        1440068139.3195920     
   871317995.79643512        16863865.048328817        1436217137.8684289     
   818856489.32518125        20166733.945313126        1437293784.1000803     
   766533669.77983773        23931892.595331997        1443298078.0145397     
   714349537.16041183        28159340.998407155        1454230019.6118112     
   1461247972.3732376        37626533.094914734        1132456867.9670620     
   1356101045.0625842        41737702.789057136        1125904393.7570639     
   1251079223.3289466        46265891.073246419        1123102669.3569701     
   1146182507.1723299        51211097.947505295        1124051694.7667763     
   1041410896.5927191        56573323.411795616        1128751469.9864843     
   1269731772.2948501        33822257.688238561        1215117339.6862707     
   1174614497.4389374        36926673.786899865        1209985474.6763651     
   1079508571.6338999        40068920.055146039        1209050304.8822377     
   984413994.87973750        43248996.492980599        1212311830.3038929     
   889330767.17645228        46466903.100389779        1219770050.9413185     
   1081409966.3999135        30976300.536590874        1296299688.8668070     
   997596473.72983372        33456201.959112287        1292455717.1098156     
   913680573.58448374        35594745.130735695        1293254385.9744880     
   829662265.96386361        37391930.051458418        1298695695.4608214     
   745541550.86797965        38847756.721305579        1308779645.5688145     
   896282554.68843508        29088661.639980733        1376003915.5086493     
   825046973.93527460        31326287.305684656        1373315121.0574119     
   753595229.18069804        32843366.300007343        1375714912.6337197     
   681927320.42471826        33639898.622987986        1383203290.2375698     
   610043247.66731930        33715884.274566740        1395780253.8689539     
   714349537.16041183        28159340.998407155        1454230019.6118112     
   656965998.05525315        30536929.826611638        1452563686.5191662     
   599252538.42254639        31814783.562984198        1456431884.8599365     
   541209158.26227880        31992902.207493067        1465834614.6341357     
   482835857.57446748        31071285.760183737        1480771875.8417516     
   1041410896.5927191        56573323.411795616        1128751469.9864843     
   924242682.75805545        54958339.014581561        1125818426.0206125     
   804801080.56506979        45765393.422969311        1128843520.6780639     
   683086090.01374745        28994486.636897475        1137826753.9588456     
   559097711.10410738        4645618.6564328671        1152768125.8629506     
   889330767.17645228        46466903.100389779        1219770050.9413185     
   787386848.84589648        44224925.476439863        1217067430.7699969     
   683188717.47998643        34468904.401306510        1220262359.2616076     
   576736373.07869720        17198839.874903083        1229354836.4161472     
   468029815.64204276       -7585268.1027086973        1244344862.2336211     
   745541550.86797965        38847756.721305579        1308779645.5688145     
   658648813.86900222        35926851.618892580        1306329820.4021606     
   569521039.15761387        25555820.808451116        1309716953.9380367     
   478158226.73380786        7734664.2899505198        1318941046.1764579     
   384560376.59759277       -17536617.936582580        1334002097.1174145     
   610043247.66731930        33715884.274566740        1395780253.8689539     
   538028577.82736492        30064117.441918254        1393605594.9170818     
   463798045.59794897        19026142.644400895        1397207304.7073488     
   387351650.97907919        601959.88203608990        1406585383.2397683     
   308689393.97076350       -25208430.845148578        1421739830.5143366     
   482835857.57446748        31071285.760183737        1480771875.8417516     
   425526140.72098017        26636722.945502982        1478894754.3147738     
   366019736.80100089        14879869.909182429        1482733411.5695486     
   304316645.81452256       -4199273.3488042653        1492287847.6060791     
   240416867.76154229       -30600706.828458801        1507558062.4243727     
   559097711.10410738        4645618.6564328671        1152768125.8629506     
   462403142.04979438       -33173402.914530247        1162095545.2753305     
   353701765.82826149       -111015115.04289871        1178965699.5708778     
   232993582.43950552       -228879517.72866935        1203378588.7495823     
   100278591.88353160       -386766610.97183299        1235334212.8114436     
   468029815.64204276       -7585268.1027086973        1244344862.2336211     
   390454799.90878671       -41850515.613790482        1242804923.6726029     
   302724809.04971838       -109965680.21089950        1247609497.2308013     
   204839843.06483006       -211930761.89408052        1258758582.9082160     
   96799901.954123378       -347745760.66332561        1276252180.7048562     
   384560376.59759277       -17536617.936582580        1334002097.1174145     
   322681420.57414407       -49275139.471137866        1323755271.2979631     
   252499321.46628845       -108690804.62038130        1318654734.8337855     
   174014079.27401465       -195783613.38435411        1318700487.7248912     
   87225693.997327060       -310553565.76303124        1323892529.9712858     
   308689393.97076350       -25208430.845148578        1421739830.5143366     
   259083004.04586789       -55447274.486573651        1404946588.1514130     
   203025303.07797718       -107190488.27131332        1392101412.3798399     
   140516291.06706104       -180438072.19947225        1383204303.1996057     
   71555968.013148293       -275190026.27095336        1378255260.6107204     
   240416867.76154229       -30600706.828458801        1507558062.4243727     
   199659550.32395664       -60366920.660106614        1486378874.2329555     
   154302753.88477793       -105464731.16372842        1467949529.8689504     
   104346478.44398111       -165894138.33940917        1452270029.3323526     
   49790724.001585782       -241655142.18709058        1439340372.6231573     
   100278591.88353160       -386766610.97183299        1235334212.8114436     
   85388194.600498855       -546613401.62891400        1196744885.5599954     
   57906532.795160711       -748431074.02701318        1154801383.7806642     
   17833606.467505872       -992219628.16616762        1109503707.4734533     
  -34830584.382461846       -1277979064.0463650        1060851856.6383426     
   96799901.954123378       -347745760.66332561        1276252180.7048562     
   79844161.125859261       -488905638.30202872        1221946444.6244149     
   51502644.464577258       -668018102.05079699        1165093792.7251287     
   11775351.970289588       -885083151.90958428        1105694225.0070155     
  -39337716.357014358       -1140100787.8784146        1043747741.4700469     
   87225693.997327060       -310553565.76303124        1323892529.9712858     
   70511063.078248441       -432334594.34706485        1255276788.5326927     
   43616145.015460461       -588049913.41012681        1184921389.9843125     
   6540939.8089589775       -777699522.95223498        1112826334.3261459     
  -40714552.541252017       -1001283422.9733696        1038991621.5581846     
   71555968.013148293       -275190026.27095336        1378255260.6107204     
   57388900.457682535       -376900269.76396585        1296735917.2848339     
   34247034.447804719       -508526508.10501856        1214284175.5582058     
   2130369.9835183024       -670068741.29409885        1130900035.4308276     
  -38961092.935183495       -861526969.33123267        1046583496.9027206     
   49790724.001585782       -241655142.18709058        1439340372.6231573     
   40477673.264154673       -322602664.55276209        1346323830.8808305     
   23395312.761613160       -429447886.13547111        1253182149.4468050     
  -1456357.5060454011       -562190806.93523288        1159915328.3210924     
  -34077337.538801044       -720831426.95200145        1066523367.5036681     
   1520405515.2064583        4601172.9385566115        1439950530.8551276     
   1470294905.5521944        3476899.2433920503        1431002026.0617237     
   1420277706.7585802        2663995.0837302804        1427158781.1750872     
   1370353918.8256152        2162460.4595658779        1428420796.1952267     
   1320523541.7533031        1972295.3709084392        1434788071.1221323     
   1135756546.7381539        2086621.3064908385        1462085282.0120711     
   1098857936.8108664        1448712.9088861942        1454213398.2543497     
   1062029385.6449702        1044333.7159168720        1451287093.1573198     
   1025270893.2404672        873483.72759157419        1453306366.7209918     
   988582459.59735775        936162.94391322136        1460271218.9453621     
   754139305.06753588        481587.71372762322        1482896257.2959471     
   729996462.73558927        193174.97418883443        1476073750.4580998     
   705900327.06577516        60451.108426392078        1474037141.0348766     
   681850898.05809772        83416.116452544928        1476786429.0262778     
   657848175.71255147        262069.99825134873        1484321614.4323051     
   375553790.19460988       -213927.83972635865        1502383456.7067435     
   363710483.32636547       -289714.56069003046        1496583082.6729717     
   351890531.02099717       -287652.73873311281        1495408924.8077552     
   340093933.27850437       -207742.37385785580        1498860983.1110885     
   328320690.09888750       -49983.466062024236        1506939257.5829744     
   2.1193729006206965        74.646126413757301        1520546880.2444670     
  -1.4168055922609035        44.304248593982898        1515741394.8989716     
  -2.4893693333800213        22.174419946750103        1515402444.4759562     
  -1.0983082804033897        8.2566732526137461        1519530028.9754183     
   2.7563624917313545        2.5509596495604918        1528124148.3973627     
   1320523541.7533031        1972295.3709084392        1434788071.1221323     
   1271201001.0471981        2226413.0376539826        1427307083.5333936     
   1221977532.0159657        2810769.6206426024        1424754978.4654646     
   1172853134.6596007        3725365.1198520660        1427131755.9183474     
   1123827808.9781108        4970199.5353115797        1434437415.8920488     
   988582459.59735775        936162.94391322136        1460271218.9453621     
   951974125.73792768        1241822.0820102096        1453268996.4271355     
   915440095.74567807        1795160.7773764729        1451106156.3152256     
   878980369.62061632        2596179.0300335884        1453782698.6096342     
   842594947.36273432        3644876.8399592638        1461298623.3103561     
   657848175.71255147        262069.99825134873        1484321614.4323051     
   633698334.08694708        542556.22383925319        1477769261.2089615     
   609598028.52084064        988162.64775502682        1475966790.2774394     
   585547259.01422906        1598889.2699874640        1478914201.6377356     
   561546025.56711435        2374736.0905405879        1486611495.2898538     
   328320690.09888750       -49983.466062024236        1506939257.5829744     
   316373626.09426105        128615.46316038072        1500807877.8788772     
   304451330.34144974        389775.23176771402        1499336880.3521032     
   292553802.84044087        733495.83971612155        1502526265.0026526     
   280681043.59124756        1159777.2870494872        1510376031.8305283     
   2.7563624917313545        2.5509596495604918        1528124148.3973627     
   1.7598730622975052      -0.20001575944956207        1522384846.4368761     
   1.2075026647071887       -1.4705947425925343        1521216426.5392170     
   1.0992584589838952       -1.2607530861787630        1524618888.7043843     
   1.4351305857981547       0.42947669230488017        1532592232.9323816     
   1123827808.9781108        4970199.5353115797        1434437415.8920488     
   1073565123.2560530        6282535.2078135610        1428709906.9112236     
   1023492624.7179474        8228828.1601544023        1427739191.1555402     
   973610313.36380410        10809078.392369032        1431525268.6249952     
   923918189.19361091        14023285.904414415        1440068139.3195920     
   842594947.36273432        3644876.8399592638        1461298623.3103561     
   804653619.30580664        4555834.9107428491        1455858145.9297655     
   766854931.55789340        5942260.6782409251        1455231468.3591406     
   729198884.11899292        7804154.1424517930        1459418590.5984867     
   691685476.98910320        10141515.303361893        1468419512.6478090     
   561546025.56711435        2374736.0905405879        1486611495.2898538     
   536088931.13198036        2933179.3466098309        1481402578.1553879     
   510726930.13091546        3808600.7162395120        1481064467.4157257     
   485460022.56392783        5001000.1994614303        1485597163.0708690     
   460288208.43100917        6510377.7962466776        1495000665.1208148     
   280681043.59124756        1159777.2870494872        1510376031.8305283     
   267871058.73457113        1414568.5153977275        1505343203.5880921     
   255108620.43702146        1827848.2741686404        1505238188.3252964     
   242393728.69860619        2399616.5633892566        1510060986.0421364     
   229726383.51932049        3129873.3830398321        1519811596.7386155     
   1.4351305857981547       0.42947669230488017        1532592232.9323816     
   2.1135760266508443        2.4171048633310623        1527680022.2278819     
   2.4762071056620201        3.3520191887749227        1527752631.0878539     
   2.5230356494519515        3.2342583968146346        1532810059.5122914     
   2.2540485046228533        2.0637779489015244        1542852307.5011985     
   923918189.19361091        14023285.904414415        1440068139.3195920     
   871317995.79643512        16863865.048328817        1436217137.8684289     
   818856489.32518125        20166733.945313126        1437293784.1000803     
   766533669.77983773        23931892.595331997        1443298078.0145397     
   714349537.16041183        28159340.998407155        1454230019.6118112     
   691685476.98910320        10141515.303361893        1468419512.6478090     
   651781039.65306842        12135661.645348638        1465055493.4747982     
   611980617.55279171        14476525.439862251        1466725123.4664521     
   572284210.68828177        17164106.686929047        1473428402.6227710     
   532691819.05952883        20198405.386524886        1485165330.9437537     
   460288208.43100917        6510377.7962466776        1495000665.1208148     
   433382388.53283978        7748949.7493098974        1492083177.9207737     
   406545912.18027663        9218666.8543945104        1494305341.3672543     
   379778779.37331945        10919529.111497745        1501667155.4602575     
   353080990.11197478        12851536.520644650        1514168620.1997731     
   229726383.51932049        3129873.3830398321        1519811596.7386155     
   216122042.43574545        3703729.3601981699        1517300191.2063651     
   202552373.20762682        4393158.1888792962        1520034437.8024883     
   189017375.83495739        5198159.8690564036        1528014336.5269890     
   175517050.31774226        6118734.4007492363        1541239887.3798594     
   2.2540485046228533        2.0637779489015244        1542852307.5011985     
   1.3617953376676097       0.47804633420299003        1540706533.3315616     
  0.63484245333172673      -0.55668295065222728        1543912412.7721500     
   7.3188113079149797E-002  -1.0404170885630919        1552469945.8229671     
 -0.32316063744400358      -0.97313398182132527        1566379132.4840209     
   714349537.16041183        28159340.998407155        1454230019.6118112     
   656965998.05525315        30536929.826611638        1452563686.5191662     
   599252538.42254639        31814783.562984198        1456431884.8599365     
   541209158.26227880        31992902.207493067        1465834614.6341357     
   482835857.57446748        31071285.760183737        1480771875.8417516     
   532691819.05952883        20198405.386524886        1485165330.9437537     
   489543377.21894556        21948360.851362914        1483891540.3885300     
   446147494.97474784        22873514.970822319        1488178131.6872444     
   402504172.32695532        22973867.744963542        1498025104.8399150     
   358613409.27554911        22249419.173727214        1513432459.8465378     
   353080990.11197478        12851536.520644650        1514168620.1997731     
   324241503.88031262        13996016.125379935        1513383598.9932384     
   295237057.36899793        14590628.131274208        1518184810.0611825     
   266067650.57803345        14635372.538334325        1528572253.4035990     
   236733283.50740924        14130249.346530877        1544545929.0204902     
   175517050.31774226        6118734.4007492363        1541239887.3798594     
   161060378.03937346        6679895.6487234160        1541039862.3332973     
   146521225.60529774        6966123.0443414226        1546451919.9817321     
   131899593.01552299        6977416.5876286328        1557476060.3251734     
   117195480.27003874        6713776.2785520367        1574112283.3636136     
 -0.32316063744400358      -0.97313398182132527        1566379132.4840209     
 -0.30387954057837469      -0.57863059581870446        1566860330.4086993     
 -0.31635317076573122      -0.28997491221392091        1572979461.4489086     
 -0.36057269807295145      -0.10713888567534981        1584736525.6046422     
 -0.43655729214758981       -3.0187802806952990E-002   1602131522.8759091     
   482835857.57446748        31071285.760183737        1480771875.8417516     
   425526140.72098017        26636722.945502982        1478894754.3147738     
   366019736.80100089        14879869.909182429        1482733411.5695486     
   304316645.81452256       -4199273.3488042653        1492287847.6060791     
   240416867.76154229       -30600706.828458801        1507558062.4243727     
   358613409.27554911        22249419.173727214        1513432459.8465378     
   316345012.71323210        19137664.395496145        1510049412.5342441     
   272429100.84874237        10534191.943350524        1512215569.4249938     
   226865673.68208688       -3560998.1826776564        1519930930.5187869     
   179654731.21325952       -23147905.982613489        1533195495.8156176     
   236733283.50740924        14130249.346530877        1544545929.0204902     
   209030279.86849442        12198524.394390747        1540297656.3146033     
   180228932.69173798        6605654.3161098212        1541432013.2330475     
   150329241.97714600       -2648360.8882888407        1547948999.7758167     
   119331207.72470959       -15563521.218834974        1559848615.9429047     
   117195480.27003874        6713776.2785520367        1574112283.3636136     
   103581942.18677138        5819302.9421972372        1569639485.6558566     
   89419232.329981625        3094257.0274360552        1570382742.9937084     
   74707350.699686974       -1461361.4656756632        1576342055.3771601     
   59446297.295883894       -7847552.5371458568        1587517422.8062308     
 -0.43655729214758981       -3.0187802806952990E-002   1602131522.8759091     
 -0.33194692416050753        3.8888489498220380E-002   1598074900.5579972     
 -0.23652348394871936        7.7340995329689452E-002   1599067758.7069688     
 -0.15027265146524574        8.5218142066776997E-002   1605110097.3228385     
  -7.3214145369026665E-002   6.2454894735739661E-002   1616201916.4055934     
   240416867.76154229       -30600706.828458801        1507558062.4243727     
   199659550.32395664       -60366920.660106614        1486378874.2329555     
   154302753.88477793       -105464731.16372842        1467949529.8689504     
   104346478.44398111       -165894138.33940917        1452270029.3323526     
   49790724.001585782       -241655142.18709058        1439340372.6231573     
   179654731.21325952       -23147905.982613489        1533195495.8156176     
   148421411.23333278       -45672165.940446392        1507552142.7703097     
   113738482.00309122       -79695123.399328768        1484813877.6633780     
   75605943.522537023       -125216778.35925250        1464980700.4948266     
   34023795.791672297       -182237130.82021275        1448052611.2646334     
   119331207.72470959       -15563521.218834974        1559848615.9429047     
   98065439.805193603       -30712760.922067404        1531082612.7535431     
   74499932.386662766       -53527798.955349982        1505376941.6135252     
   48634685.469112545       -84008635.318696156        1482731602.5228517     
   20469699.052546717       -122155270.01209855        1463146595.4815114     
   59446297.295883894       -7847552.5371458568        1587517422.8062308     
   48591636.039550304       -15488705.604926333        1556970284.1826613     
   36587105.035494514       -26962757.831780650        1529638721.7194004     
   23432704.283709988       -42269709.217730135        1505522735.4164512     
   9128433.7842040993       -61409559.762749456        1484622325.2738054     
  -7.3214145369026665E-002   6.2454894735739661E-002   1616201916.4055934     
  -6.3600864501707127E-002   1.0959045026770718E-002   1585215157.0576546     
  -5.0423950729136129E-002  -2.8658028331359935E-002   1557599217.9809940     
  -3.3667185339958015E-002  -5.6341916022771721E-002   1533354099.1756072     
  -1.3356165990035900E-002  -7.2178984401093882E-002   1512479800.6415000     
   49790724.001585782       -241655142.18709058        1439340372.6231573     
   40477673.264154673       -322602664.55276209        1346323830.8808305     
   23395312.761613160       -429447886.13547111        1253182149.4468050     
  -1456357.5060454011       -562190806.93523288        1159915328.3210924     
  -34077337.538801044       -720831426.95200145        1066523367.5036681     
   34023795.791672297       -182237130.82021275        1448052611.2646334     
   29855577.760899022       -242102801.59161162        1347550790.3161337     
   19860377.406514034       -321391746.77504951        1246266630.0042241     
   4038194.7284906507       -420103966.37061268        1144200130.3289089     
  -17610970.273155600       -538239460.37825477        1041351291.2902002     
   20469699.052546717       -122155270.01209855        1463146595.4815114     
   19568600.380699322       -161502403.19350776        1357425544.0085666     
   14782846.826714203       -213798385.98204479        1250264953.5005138     
   6112438.3905846477       -279043218.37773168        1141664823.9573536     
  -6442624.9276860654       -357236900.38054746        1031625155.3790669     
   9128433.7842040993       -61409559.762749456        1484622325.2738054     
   9616741.1235409938       -80801469.358503118        1375948091.9581459     
   8162721.0222167447       -106667803.75645937        1265177119.9356685     
   4766373.4802415594       -139008562.95658517        1152309409.2063620     
  -572301.50238813460       -177823746.95889160        1037344959.7702336     
  -1.3356165990035900E-002  -7.2178984401093882E-002   1512479800.6415000     
  -1.0581645449979526E-002  -8.6614415273722128E-002   1403118434.1648560     
  -6.9660394668719615E-003  -9.8246228002846395E-002   1291003129.3096833     
  -2.5354947079621118E-003 -0.10716053731187744        1176133886.0759900     
   2.7269395532867266E-003 -0.11330396328128306        1058510704.4637580     
   2.1193729006206965        74.646126413757301        1520546880.2444670     
  -1.4168055922609035        44.304248593982898        1515741394.8989716     
  -2.4893693333800213        22.174419946750103        1515402444.4759562     
  -1.0983082804033897        8.2566732526137461        1519530028.9754183     
   2.7563624917313545        2.5509596495604918        1528124148.3973627     
  -375553795.42523050        214046.67943800986        1502383436.4041338     
  -363710492.83040124        289782.58493898809        1496583067.3966446     
  -351890540.56277156        287684.06644061208        1495408914.4334388     
  -340093938.62233680        207751.12396138906        1498860977.5145199     
  -328320687.00910264        49983.757476687431        1506939256.6398900     
  -754139320.50071812       -481499.54651731253        1482896220.5666811     
  -729996479.99829066       -193127.86065959930        1476073722.9745774     
  -705900342.61387682       -60433.234847545624        1474037122.5485666     
  -681850908.34747529       -83415.669076770544        1476786419.2886481     
  -657848177.19908953       -262075.16335779428        1484321613.1948204     
  -1135756573.1070917       -2086564.0317392945        1462085232.7321012     
  -1098857962.9204717       -1448687.0325394869        1454213361.6327651     
  -1062029408.6426861       -1044329.7294496298        1451287068.8213320     
  -1025270910.2737284       -873492.12245088816        1453306354.2977936     
  -988582467.81359816       -936174.21154975891        1460271218.0621576     
  -1520405553.2443485       -4601146.7762228847        1439950472.9004018     
  -1470294941.5969534       -3476894.9307227135        1431001983.3712175     
  -1420277738.6492002       -2664005.4173631072        1427158753.2517390     
  -1370353944.4010942       -2162478.2361597419        1428420782.5419674     
  -1320523558.8526318       -1972313.3871023655        1434788071.2418993     
   2.7563624917313545        2.5509596495604918        1528124148.3973627     
   1.7598730622975052      -0.20001575944956207        1522384846.4368761     
   1.2075026647071887       -1.4705947425925343        1521216426.5392170     
   1.0992584589838952       -1.2607530861787630        1524618888.7043843     
   1.4351305857981547       0.42947669230488017        1532592232.9323816     
  -328320687.00910264        49983.757476687431        1506939256.6398900     
  -316373624.27000839       -128618.94742177427        1500807877.2303338     
  -304451329.01218241       -389779.92321431637        1499336880.1593049     
  -292553801.23562723       -733499.16990932822        1502526265.4268038     
  -280681040.94034255       -1159776.6875064075        1510376033.0328305     
  -657848177.19908953       -262075.16335779428        1484321613.1948204     
  -633698335.65098274       -542563.30014565587        1477769260.4232399     
  -609598029.50953650       -988169.45913457870        1475966790.2658832     
  -585547258.77475381       -1598893.6403345168        1478914202.7227552     
  -561546023.44663191       -2374735.8437394202        1486611497.7938504     
  -988582467.81359816       -936174.21154975891        1460271218.0621576     
  -951974132.38305354       -1241833.2582001090        1453268996.0155921     
  -915440100.28456032       -1795170.0783591270        1451106156.8589532     
  -878980371.51812017       -2596184.6720266342        1453782700.5922391     
  -842594946.08373499       -3644877.0392106175        1461298627.2154500     
  -1320523558.8526318       -1972313.3871023655        1434788071.2418993     
  -1271201014.4662180       -2226428.8215810061        1427307084.0073915     
  -1221977541.3372507       -2810781.7808778286        1424754979.9385111     
  -1172853139.4657292       -3725372.2649950981        1427131759.0352554     
  -1123827808.8516541       -4970200.2739334106        1434437421.2976248     
   1.4351305857981547       0.42947669230488017        1532592232.9323816     
   2.1135760266508443        2.4171048633310623        1527680022.2278819     
   2.4762071056620201        3.3520191887749227        1527752631.0878539     
   2.5230356494519515        3.2342583968146346        1532810059.5122914     
   2.2540485046228533        2.0637779489015244        1542852307.5011985     
  -280681040.94034255       -1159776.6875064075        1510376033.0328305     
  -267871054.56898153       -1414563.6400552392        1505343203.9686472     
  -255108615.39179909       -1827841.2398643196        1505238187.9361231     
  -242393723.40880108       -2399609.4869566560        1510060984.9352610     
  -229726378.61998424       -3129868.3813175410        1519811594.9660597     
  -561546023.44663191       -2374735.8437394202        1486611497.7938504     
  -536088927.19037336       -2933174.4788481593        1481402579.0118804     
  -510726925.00667024       -3808593.3558077216        1481064466.7287629     
  -485460016.89552331       -5000992.4746208191        1485597160.9444959     
  -460288202.85693353       -6510371.8352913260        1495000661.6590819     
  -842594946.08373499       -3644877.0392106175        1461298627.2154500     
  -804653615.75060892       -4555830.0993045866        1455858147.3575907     
  -766854926.36840761       -5942252.9958124459        1455231467.4657750     
  -729198877.93713558       -7804145.7287536263        1459418587.5400004     
  -691685470.45679438       -10141508.298130274        1468419507.5802674     
  -1123827808.8516541       -4970200.2739334106        1434437421.2976248     
  -1073565120.2496799       -6282530.5013999343        1428709909.0057726     
  -1023492619.4770074       -8228820.1598700881        1427739190.1471570     
  -973610306.53364182       -10809069.249363899        1431525264.7217736     
  -923918181.41957498       -14023277.769855082        1440068132.7296264     
   2.2540485046228533        2.0637779489015244        1542852307.5011985     
   1.3617953376676097       0.47804633420299003        1540706533.3315616     
  0.63484245333172673      -0.55668295065222728        1543912412.7721500     
   7.3188113079149797E-002  -1.0404170885630919        1552469945.8229671     
 -0.32316063744400358      -0.97313398182132527        1566379132.4840209     
  -229726378.61998424       -3129868.3813175410        1519811594.9660597     
  -216122039.29399619       -3703727.3753521591        1517300189.8842106     
  -202552371.53920522       -4393158.2733785957        1520034436.9157751     
  -189017375.35560894       -5198161.0753853172        1528014336.0607469     
  -175517050.74320558       -6118735.7813709527        1541239887.3191316     
  -460288202.85693353       -6510371.8352913260        1495000661.6590819     
  -433382384.73219788       -7748946.6634886861        1492083175.3057859     
  -406545909.91515005       -9218665.8506433815        1494305339.5690794     
  -379778778.40579689       -10919529.396780804        1501667154.4489620     
  -353080990.20413131       -12851537.301875472        1514168619.9454291     
  -691685470.45679438       -10141508.298130274        1468419507.5802674     
  -651781034.95280373       -12135657.386338949        1465055489.5962858     
  -611980614.49299252       -14476523.288480818        1466725120.7320657     
  -572284209.07737362       -17164106.004594594        1473428400.9876113     
  -532691818.70593470       -20198405.534644961        1485165330.3629217     
  -923918181.41957498       -14023277.769855082        1440068132.7296264     
  -871317989.95581460       -16863859.543907404        1436217132.7557046     
  -818856485.27273238       -20166730.586886615        1437293780.4047267     
  -766533667.37033677       -23931890.898822457        1443298075.6766942     
  -714349536.24861336       -28159340.479663730        1454230018.5716074     
 -0.32316063744400358      -0.97313398182132527        1566379132.4840209     
 -0.30387954057837469      -0.57863059581870446        1566860330.4086993     
 -0.31635317076573122      -0.28997491221392091        1572979461.4489086     
 -0.36057269807295145      -0.10713888567534981        1584736525.6046422     
 -0.43655729214758981       -3.0187802806952990E-002   1602131522.8759091     
  -175517050.74320558       -6118735.7813709527        1541239887.3191316     
  -161060378.52179191       -6679896.5680676550        1541039862.2567592     
  -146521226.17758164       -6966123.6121110022        1546451919.8915462     
  -131899593.71056886       -6977416.9134788588        1557476060.2234859     
  -117195481.12076397       -6713776.4722055234        1574112283.2525926     
  -353080990.20413131       -12851537.301875472        1514168619.9454291     
  -324241504.11878210       -13996016.771219730        1513383598.7429817     
  -295237057.75608796       -14590628.649411306        1518184809.8193202     
  -266067651.11604774       -14635372.936450511        1528572253.1744490     
  -236733284.19866276       -14130249.632340863        1544545928.8083580     
  -532691818.70593470       -20198405.534644961        1485165330.3629217     
  -489543377.09485525       -21948361.188100845        1483891539.8673751     
  -446147495.05187964       -22873515.401903450        1488178131.2322392     
  -402504172.57701463       -22973868.176075131        1498025104.4575193     
  -358613409.67025137       -22249419.510584816        1513432459.5432196     
  -714349536.24861336       -28159340.479663730        1454230018.5716074     
  -656965997.45000589       -30536929.818695217        1452563685.6299262     
  -599252538.06495786       -31814783.869588226        1456431884.1302972     
  -541209158.09346533       -31992902.632334918        1465834614.0727034     
  -482835857.53552687       -31071286.106928185        1480771875.4571695     
 -0.43655729214758981       -3.0187802806952990E-002   1602131522.8759091     
 -0.33194692416050753        3.8888489498220380E-002   1598074900.5579972     
 -0.23652348394871936        7.7340995329689452E-002   1599067758.7069688     
 -0.15027265146524574        8.5218142066776997E-002   1605110097.3228385     
  -7.3214145369026665E-002   6.2454894735739661E-002   1616201916.4055934     
  -117195481.12076397       -6713776.4722055234        1574112283.2525926     
  -103581942.83308050       -5819302.9750313014        1569639485.5662825     
  -89419232.791352078       -3094256.9643725194        1570382742.9166493     
  -74707350.995573834        1461361.5597822815        1576342055.3037045     
  -59446297.445756309        7847552.5974066257        1587517422.7274344     
  -236733284.19866276       -14130249.632340863        1544545928.8083580     
  -209030280.38564286       -12198524.504364751        1540297656.1440866     
  -180228933.05535483       -6605654.3188266307        1541432013.0862875     
  -150329242.20779571        2648360.9242831171        1547948999.6349564     
  -119331207.84296462        15563521.224961847        1559848615.7900929     
  -358613409.67025137       -22249419.510584816        1513432459.5432196     
  -316345012.98964751       -19137664.549155012        1510049412.2914162     
  -272429101.02854174       -10534191.986048490        1512215569.2158687     
  -226865673.78694713        3560998.1786853075        1519930930.3165796     
  -179654731.26484659        23147905.945106648        1533195495.5935528     
  -482835857.53552687       -31071286.106928185        1480771875.4571695     
  -425526140.64507490       -26636723.109335512        1478894754.0082600     
  -366019736.71090198       -14879869.966007322        1482733411.3054035     
  -304316645.73301321        4199273.3230401874        1492287847.3485947     
  -240416867.71139139        30600706.757865921        1507558062.1378329     
  -7.3214145369026665E-002   6.2454894735739661E-002   1616201916.4055934     
  -6.3600864501707127E-002   1.0959045026770718E-002   1585215157.0576546     
  -5.0423950729136129E-002  -2.8658028331359935E-002   1557599217.9809940     
  -3.3667185339958015E-002  -5.6341916022771721E-002   1533354099.1756072     
  -1.3356165990035900E-002  -7.2178984401093882E-002   1512479800.6415000     
  -59446297.445756309        7847552.5974066257        1587517422.7274344     
  -48591636.169278383        15488705.574484460        1556970284.1232543     
  -36587105.138181888        26962757.733624145        1529638721.6772420     
  -23432704.352488302        42269709.074753463        1505522735.3894179     
  -9128433.8121793605        61409559.597935334        1484622325.2597699     
  -119331207.84296462        15563521.224961847        1559848615.7900929     
  -98065439.908469856        30712760.847970679        1531082612.6392105     
  -74499932.468323886        53527798.823151968        1505376941.5334082     
  -48634685.522525966        84008635.150504068        1482731602.4726865     
  -20469699.071079835        122155269.83001982        1463146595.4570475     
  -179654731.26484659        23147905.945106648        1533195495.5935528     
  -148421411.28118622        45672165.831388600        1507552142.6055238     
  -113738482.04083708        79695123.239968002        1484813877.5494761     
  -75605943.543782473        125216778.17089888        1464980700.4254148     
  -34023795.790046044        182237130.62410119        1448052611.2333336     
  -240416867.71139139        30600706.757865921        1507558062.1378329     
  -199659550.28742003        60366920.524757966        1486378874.0222034     
  -154302753.85571152        105464730.98410565        1467949529.7254550     
  -104346478.41627206        165894138.13589135        1452270029.2475975     
  -49790723.969096020        241655141.98013082        1439340372.5886207     
  -1.3356165990035900E-002  -7.2178984401093882E-002   1512479800.6415000     
  -1.0581645449979526E-002  -8.6614415273722128E-002   1403118434.1648560     
  -6.9660394668719615E-003  -9.8246228002846395E-002   1291003129.3096833     
  -2.5354947079621118E-003 -0.10716053731187744        1176133886.0759900     
   2.7269395532867266E-003 -0.11330396328128306        1058510704.4637580     
  -9128433.8121793605        61409559.597935334        1484622325.2597699     
  -9616741.1449735872        80801469.172245502        1375948091.9484389     
  -8162721.0369565785        106667803.54925464        1265177119.9293389     
  -4766373.4881299287        139008562.72896510        1152309409.2024710     
   572301.50150632858        177823746.71137151        1037344959.7678266     
  -20469699.071079835        122155269.83001982        1463146595.4570475     
  -19568600.394420162        161502402.99655575        1357425543.9910095     
  -14782846.836963803        213798385.76575047        1250264953.4879649     
  -6112438.3987196833        279043218.13757551        1141664823.9479005     
   6442624.9203299582        357236900.11207360        1031625155.3708326     
  -34023795.790046044        182237130.62410119        1448052611.2333336     
  -29855577.758912742        242102801.38635555        1347550790.2925632     
  -19860377.406991035        321391746.55123365        1246266629.9855504     
  -4038194.7342858016        420103966.11872798        1144200130.3122909     
   17610970.259184808        538239460.08877170        1041351291.2727706     
  -49790723.969096020        241655141.98013082        1439340372.5886207     
  -40477673.238442823        322602664.34166402        1346323830.8531117     
  -23395312.747028232        429447885.90573382        1253182149.4221146     
   1456357.5051423609        562190806.67232704        1159915328.2956152     
   34077337.518087804        720831426.64149761        1066523367.4736511     
  -1520405553.2443485       -4601146.7762228847        1439950472.9004018     
  -1470294941.5969534       -3476894.9307227135        1431001983.3712175     
  -1420277738.6492002       -2664005.4173631072        1427158753.2517390     
  -1370353944.4010942       -2162478.2361597419        1428420782.5419674     
  -1320523558.8526318       -1972313.3871023655        1434788071.2418993     
  -1905090602.5016537       -24453892.885366440        1354673540.0015523     
  -1840727280.4016559       -16080049.223666549        1349864685.6656363     
  -1777016091.6493614       -9879983.3876324892        1349241212.6182811     
  -1713957036.2447627       -5853695.3772659302        1352803120.8594820     
  -1651550114.1878655       -4001185.1925650835        1360550410.3892412     
  -2275391440.9547801       -39991375.753256440        1270866290.8449948     
  -2199403631.6054616       -25156407.236341238        1269545226.2796226     
  -2124626680.2519011       -14357632.038615227        1271489664.8816562     
  -2051060586.8940949       -7595050.1600712538        1276699606.6510997     
  -1978705351.5320432       -4868661.6007075310        1285175051.5879538     
  -2631308068.6037278       -51213595.379892826        1188528725.4307325     
  -2546323995.2083707       -30705968.968752742        1190043605.2131653     
  -2463109504.4568257       -16096951.370310068        1193904110.0418625     
  -2381664596.3490901       -7386542.5845735073        1200110239.9168186     
  -2301989270.8851671       -4574742.6115406752        1208661994.8380349     
  -2972840485.4484930       -58120551.765274525        1107660843.7587643     
  -2881488371.2103767       -32728734.420881867        1111359822.4662786     
  -2792464564.2641325       -15097941.382728100        1116484548.0989013     
  -2705769064.6097503       -5228172.6507802010        1123035020.6566381     
  -2621401872.2472315       -3119428.2250460386        1131011240.1394882     
  -1320523558.8526318       -1972313.3871023655        1434788071.2418993     
  -1271201014.4662180       -2226428.8215810061        1427307084.0073915     
  -1221977541.3372507       -2810781.7808778286        1424754979.9385111     
  -1172853139.4657292       -3725372.2649950981        1427131759.0352554     
  -1123827808.8516541       -4970200.2739334106        1434437421.2976248     
  -1651550114.1878655       -4001185.1925650835        1360550410.3892412     
  -1589665812.1923518       -3564379.7226245403        1354085644.9314823     
  -1527959433.1324542       -3720650.7047349215        1352195443.4910014     
  -1466430977.0081604       -4469998.1388553381        1354879806.0677972     
  -1405080443.8194752       -5812422.0250139832        1362138732.6618724     
  -1978705351.5320432       -4868661.6007075310        1285175051.5879538     
  -1905271632.3512836       -4044637.3535199165        1279634514.2824173     
  -1832094687.7842956       -4076528.4855731726        1278314221.8458123     
  -1759174517.8310809       -4964334.9968656301        1281214174.2781382     
  -1686511122.4916360       -6708056.8873964548        1288334371.5793965     
  -2301989270.8851671       -4574742.6115406752        1208661994.8380349     
  -2218018474.9430037       -3667201.7142424583        1203953692.0601981     
  -2134383305.2927806       -3878415.1234097481        1203111315.0029471     
  -2051083761.9344900       -5208382.8390140533        1206134863.6662793     
  -1968119844.8681335       -7657104.8610750437        1213024338.0501952     
  -2621401872.2472315       -3119428.2250460386        1131011240.1394882     
  -2527906339.9675193       -2432072.8048100471        1127043178.2648282     
  -2434825285.6579084       -3126310.6182380915        1126586722.9624028     
  -2342158709.3183908       -5202141.6653182507        1129641874.2322197     
  -2249906610.9489751       -8659565.9460666180        1136208632.0742686     
  -1123827808.8516541       -4970200.2739334106        1434437421.2976248     
  -1073565120.2496799       -6282530.5013999343        1428709909.0057726     
  -1023492619.4770074       -8228820.1598700881        1427739190.1471570     
  -973610306.53364182       -10809069.249363899        1431525264.7217736     
  -923918181.41957498       -14023277.769855082        1440068132.7296264     
  -1405080443.8194752       -5812422.0250139832        1362138732.6618724     
  -1342664584.8849471       -7353182.4988065958        1356086405.2324352     
  -1280412298.1651680       -9439183.6884340048        1354678591.6054981     
  -1218323583.6601486       -12070425.593921185        1357915291.7810585     
  -1156398441.3698792       -15246908.215249121        1365796505.7591174     
  -1686511122.4916360       -6708056.8873964548        1288334371.5793965     
  -1612262892.1695096       -8573487.2909960747        1281988280.5626810     
  -1538151618.4475830       -10895439.695270360        1280174423.7177279     
  -1464177301.3258657       -13673914.100241423        1282892801.0445390     
  -1390339940.8043556       -16908910.505896449        1290143412.5431120     
  -1968119844.8681335       -7657104.8610750437        1213024338.0501952     
  -1882360042.1033661       -9943444.8779699802        1206415534.9965055     
  -1796710580.3242528       -12597588.180388451        1204226686.4838438     
  -1711171459.5307980       -15619534.768329501        1206457792.5122116     
  -1625742679.7229974       -19009284.641792655        1213108853.0816059     
  -2249906610.9489751       -8659565.9460666180        1136208632.0742686     
  -2152956034.6865211       -11463055.259738564        1129368168.5339131     
  -2056089183.7951765       -14545629.143776894        1126835379.9038479     
  -1959306058.2749407       -17907287.598177671        1128610266.1840777     
  -1862606658.1258142       -21548030.622944713        1134692827.3745995     
  -923918181.41957498       -14023277.769855082        1440068132.7296264     
  -871317989.95581460       -16863859.543907404        1436217132.7557046     
  -818856485.27273238       -20166730.586886615        1437293780.4047267     
  -766533667.37033677       -23931890.898822457        1443298075.6766942     
  -714349536.24861336       -28159340.479663730        1454230018.5716074     
  -1156398441.3698792       -15246908.215249121        1365796505.7591174     
  -1091130371.0336843       -17910351.898466289        1361184363.1419718     
  -1026021699.5656005       -21105125.142048717        1361348217.0904837     
  -961072426.96562135       -24831227.945987284        1366288067.6046541     
  -896282553.23375046       -29088660.310276598        1376003914.6844828     
  -1390339940.8043556       -16908910.505896449        1290143412.5431120     
  -1312837280.3308277       -19525202.718812168        1284745963.1807404     
  -1235514730.8128362       -22741864.783521414        1283972859.3267410     
  -1158372292.2503750       -26558896.699996293        1287824100.9811156     
  -1081409964.6434512       -30976298.468261898        1296299688.1438656     
  -1625742679.7229974       -19009284.641792655        1213108853.0816059     
  -1536438717.8472376       -21708412.004942119        1206901932.8720083     
  -1447335579.0144420       -25076949.511301637        1205167707.1135035     
  -1358433263.2246032       -29114897.160855889        1207906175.8060865     
  -1269731770.4777246       -33822254.953610539        1215117338.9497592     
  -1862606658.1258142       -21548030.622944713        1134692827.3745995     
  -1761934683.5829179       -24459979.756839991        1127652272.2157826     
  -1661484244.1704140       -28110379.325389385        1124932760.4507687     
  -1561255339.8882923       -32499229.328539848        1126534292.0795588     
  -1461247970.7365665       -37626529.766343236        1132456867.1021512     
  -714349536.24861336       -28159340.479663730        1454230018.5716074     
  -656965997.45000589       -30536929.818695217        1452563685.6299262     
  -599252538.06495786       -31814783.869588226        1456431884.1302972     
  -541209158.09346533       -31992902.632334918        1465834614.0727034     
  -482835857.53552687       -31071286.106928185        1480771875.4571695     
  -896282553.23375046       -29088660.310276598        1376003914.6844828     
  -825046972.83901012       -31326286.769198060        1373315120.3847306     
  -753595228.36308336       -32843366.290821165        1375714912.1291592     
  -681927319.80596864       -33639898.875149667        1383203289.9177673     
  -610043247.16766119       -33715884.522176296        1395780253.7505701     
  -1081409964.6434512       -30976298.468261898        1296299688.1438656     
  -997596472.36075819       -33456200.959515631        1292455716.5632367     
  -913680572.50212681       -35594744.864322811        1293254385.6289275     
  -829662265.06756604       -37391930.182695955        1298695695.3409421     
  -745541550.05707061       -38847756.914616942        1308779645.6992769     
  -1269731770.4777246       -33822254.953610539        1215117338.9497592     
  -1174614496.0152435       -36926672.389645278        1209985474.1654532     
  -1079508570.4820931       -40068919.590104580        1209050304.6296110     
  -984413993.87826252       -43248996.554966986        1212311830.3422291     
  -889330766.20375454       -46466903.284241676        1219770051.3033061     
  -1461247970.7365665       -37626529.766343236        1132456867.1021512     
  -1356101043.8024828       -41737701.059617758        1125904393.1913779     
  -1251079222.3029773       -46265890.468158484        1123102669.1311994     
  -1146182506.2380531       -51211097.991968751        1124051694.9216211     
  -1041410895.6077061       -56573323.631033242        1128751470.5626466     
  -482835857.53552687       -31071286.106928185        1480771875.4571695     
  -425526140.64507490       -26636723.109335512        1478894754.0082600     
  -366019736.71090198       -14879869.966007322        1482733411.3054035     
  -304316645.73301321        4199273.3230401874        1492287847.3485947     
  -240416867.71139139        30600706.757865921        1507558062.1378329     
  -610043247.16766119       -33715884.522176296        1395780253.7505701     
  -538028577.39028585       -30064117.572539300        1393605594.8063788     
  -463798045.24029267       -19026142.714179456        1397207304.5786798     
  -387351650.71766663       -601959.94704017043        1406585383.0674825     
  -308689393.82242090        25208430.728828326        1421739830.2727869     
  -745541550.05707061       -38847756.914616942        1308779645.6992769     
  -658648813.19148564       -35926851.752541482        1306329820.4768503     
  -569521038.62437522       -25555820.918719977        1309716953.9413717     
  -478158226.35574353       -7734664.4131611288        1318941046.0928369     
  -384560376.38559282        17536617.764128044        1334002096.9312556     
  -889330766.20375454       -46466903.284241676        1219770051.3033061     
  -787386848.04866838       -44224925.649324328        1217067431.0196893     
  -683188716.86316717       -34468904.579692900        1220262359.3934720     
  -576736372.64724052       -17198840.075307965        1229354836.4246469     
  -468029815.40089273        7585267.8638126850        1244344862.1132247     
  -1041410895.6077061       -56573323.631033242        1128751470.5626466     
  -924242681.96184707       -54958339.262929320        1125818426.4348888     
  -804801079.95666385       -45765393.697077245        1128843520.9349813     
  -683086089.59215605       -28994486.933477044        1137826754.0629220     
  -559097710.86833477       -4645618.9721652865        1152768125.8187091     
  -240416867.71139139        30600706.757865921        1507558062.1378329     
  -199659550.28742003        60366920.524757966        1486378874.0222034     
  -154302753.85571152        105464730.98410565        1467949529.7254550     
  -104346478.41627206        165894138.13589135        1452270029.2475975     
  -49790723.969096020        241655141.98013082        1439340372.5886207     
  -308689393.82242090        25208430.728828326        1421739830.2727869     
  -259083003.92486465        55447274.325540796        1404946587.9805622     
  -203025302.98002905        107190488.07985857        1392101412.2730172     
  -140516290.98791388        180438071.99176759        1383204303.1501617     
  -71555967.948534176        275190026.06122583        1378255260.6119823     
  -384560376.38559282        17536617.764128044        1334002096.9312556     
  -322681420.39788032        49275139.275665671        1323755271.1752293     
  -252499321.32335189        108690804.40991493        1318654734.7696888     
  -174014079.16200572        195783613.16688845        1318700487.7146273     
  -87225693.913852721        310553565.54655677        1323892530.0100427     
  -468029815.40089273        7585267.8638126850        1244344862.1132247     
  -390454799.70646024        41850515.375127882        1242804923.6062040     
  -302724808.88567811        109965679.97428106        1247609497.2154548     
  -204839842.93853790        211930761.66128743        1258758582.9409869     
  -96799901.865046903        347745760.43613833        1276252180.7827973     
  -559097710.86833477       -4645618.9721652865        1152768125.8187091     
  -462403141.85062444        33173402.623888224        1162095545.2734809     
  -353701765.66701913        111015114.77291946        1178965699.6103246     
  -232993582.31751576        228879517.47494680        1203378588.8292494     
  -100278591.80212858        386766610.72992027        1235334212.9302409     
  -49790723.969096020        241655141.98013082        1439340372.5886207     
  -40477673.238442823        322602664.34166402        1346323830.8531117     
  -23395312.747028232        429447885.90573382        1253182149.4221146     
   1456357.5051423609        562190806.67232704        1159915328.2956152     
   34077337.518087804        720831426.64149761        1066523367.4736511     
  -71555967.948534176        275190026.06122583        1378255260.6119823     
  -57388900.407913521        376900269.55177987        1296735917.2836180     
  -34247034.417381167        508526507.87536955        1214284175.5517087     
  -2130369.9769650400        670068741.03192103        1130900035.4162540     
   38961092.913373291        861526969.02151871        1046583496.8772941     
  -87225693.913852721        310553565.54655677        1323892530.0100427     
  -70511063.014817834        432334594.13070899        1255276788.5594776     
  -43616144.976743251        588049913.17831576        1184921389.9973192     
  -6540939.7996340990        777699522.68938315        1112826334.3235848     
   40714552.516515374        1001283422.6639102        1038991621.5382468     
  -96799901.865046903        347745760.43613833        1276252180.7827973     
  -79844161.059164762        488905638.07840365        1221946444.6806889     
  -51502644.425118685        668018101.81455135        1165093792.7589531     
  -11775351.962886393        885083151.64465857        1105694225.0175607     
   39337716.327517748        1140100787.5686529        1043747741.4565616     
  -100278591.80212858        386766610.72992027        1235334212.9302409     
  -85388194.540966272        546613401.39483523        1196744885.6472487     
  -57906532.762502193        748431073.78408957        1154801383.8365734     
  -17833606.466719806        992219627.89774096        1109503707.4982104     
   34830584.346372008        1277979063.7357514        1060851856.6321834     
  -2972840485.4484930       -58120551.765274525        1107660843.7587643     
  -2881488371.2103767       -32728734.420881867        1111359822.4662786     
  -2792464564.2641325       -15097941.382728100        1116484548.0989013     
  -2705769064.6097503       -5228172.6507802010        1123035020.6566381     
  -2621401872.2472315       -3119428.2250460386        1131011240.1394882     
  -3305939521.6357741        42195359.381562710        1066910548.6705649     
  -3216222822.3688531        29057851.127894759        1048787220.8570257     
  -3125758813.5824890        18411374.605721951        1036871517.4323895     
  -3034547495.2766757        10255929.815038919        1031163438.3966566     
  -2942588867.4514117        4591516.7558530569        1031662983.7498271     
  -3705584262.2583966        122547559.19779038        1009735874.1193449     
  -3603840470.9232759        74979477.457894087        973378459.39794993     
  -3498273753.2573824        40154483.487208366        948010546.52925360     
  -3388884109.2607355        18072577.285715818        933632135.51325071     
  -3275671538.9333243        8733758.8534324169        930243226.34994256     
  -4171774707.3163729        182936047.68341398        936136820.10511005     
  -4044341316.8736267        105036144.56911492        885133538.08906174     
  -3910009383.2888145        50131385.261732578        849901635.38950074     
  -3768778906.5619311        18221769.761252642        830441112.00642180     
  -3620649886.6929693        9307298.0676937103        826751967.93983257     
  -4704510856.8096819        223360824.83844113        846113386.62785411     
  -4537725360.2199287        119227852.46155381        784052456.93034995     
  -4360965703.6767855        48342079.929295540        742544784.01312244     
  -4174231887.1802592        10703507.241651535        721590367.87617028     
  -3977523910.7303452        6312134.3986361027        721189208.51949596     
  -2621401872.2472315       -3119428.2250460386        1131011240.1394882     
  -2527906339.9675193       -2432072.8048100471        1127043178.2648282     
  -2434825285.6579084       -3126310.6182380915        1126586722.9624028     
  -2342158709.3183908       -5202141.6653182507        1129641874.2322197     
  -2249906610.9489751       -8659565.9460666180        1136208632.0742686     
  -2942588867.4514117        4591516.7558530569        1031662983.7498271     
  -2839467951.2467189        3202065.8404071331        1023640081.3351318     
  -2736483613.3769093        1357353.8086888790        1019988976.8294933     
  -2633635853.8419890       -942619.33932530880        1020709670.2329181     
  -2530924672.6419497       -3697853.6036188602        1025802161.5454012     
  -3275671538.9333243        8733758.8534324169        930243226.34994256     
  -3160467549.2698712        6004808.4624383450        918489699.63629246     
  -3045122238.3060894        3746929.0725450516        911968162.16852570     
  -2929635606.0419784        1960120.6837470531        910678613.94664156     
  -2814007652.4775367        644383.29604184628        914621054.97063863     
  -3620649886.6929693        9307298.0676937103        826751967.93983257     
  -3490905134.0369759        5976155.0612924099        811592033.16831160     
  -3360741160.4454432        4042415.1733558178        802524278.97949815     
  -3230157965.9183674        3506078.4038944244        799548705.37338626     
  -3099155550.4557462        4367144.7529207468        802665312.34998333     
  -3977523910.7303452        6312134.3986361027        721189208.51949596     
  -3830780705.5480356        3116105.6369431019        702947081.93118989     
  -3683340379.7949681        2243812.1111164093        691657327.26241124     
  -3535202933.4711456        3695253.8211364746        687319944.51315713     
  -3386368366.5765672        7470430.7670097351        689934933.68343544     
  -2249906610.9489751       -8659565.9460666180        1136208632.0742686     
  -2152956034.6865211       -11463055.259738564        1129368168.5339131     
  -2056089183.7951765       -14545629.143776894        1126835379.9038479     
  -1959306058.2749407       -17907287.598177671        1128610266.1840777     
  -1862606658.1258142       -21548030.622944713        1134692827.3745995     
  -2530924672.6419497       -3697853.6036188602        1025802161.5454012     
  -2422456811.8921146       -5281669.5492140055        1018037439.1521837     
  -2314218692.9477806       -7631291.5131319761        1014543028.3694091     
  -2206210315.8089352       -10746719.495352983        1015318929.1970743     
  -2098431680.4755859       -14627953.495896578        1020365141.6351823     
  -2814007652.4775367        644383.29604184628        914621054.97063863     
  -2694129259.5256157        248215.03293406963        905761721.21777940     
  -2574626624.8135791       -1400480.6964451075        901135335.77550888     
  -2455499748.3414211       -4301703.8920888901        900741898.64382744     
  -2336748630.1091380       -8455454.5539876223        904581409.82273936     
  -3099155550.4557462        4367144.7529207468        802665312.34998333     
  -2967973377.5870285        5126598.4867056608        792541014.73070037     
  -2837312979.3925753        4146803.3062890768        786612302.12215197     
  -2707174355.8723888        1427759.2116441727        784879174.52434540     
  -2577557507.0264654       -3030533.7972121239        787341631.93727803     
  -3386368366.5765672        7470430.7670097351        689934933.68343544     
  -3243989166.0763412        9353480.8121174574        678375319.69094324     
  -3102277756.6847701        9010560.4950468540        670973927.40933788     
  -2961234138.4018440        6441669.8158230782        667730756.83862102     
  -2820858311.2275705        1646808.7744367123        668645807.97879171     
  -1862606658.1258142       -21548030.622944713        1134692827.3745995     
  -1761934683.5829179       -24459979.756839991        1127652272.2157826     
  -1661484244.1704140       -28110379.325389385        1124932760.4507687     
  -1561255339.8882923       -32499229.328539848        1126534292.0795588     
  -1461247970.7365665       -37626529.766343236        1132456867.1021512     
  -2098431680.4755859       -14627953.495896578        1020365141.6351823     
  -1987030652.2395649       -17964718.247282386        1012103174.8975837     
  -1875757408.7617736       -21727432.192762733        1007871317.3649279     
  -1764611950.0422010       -25916095.332306743        1007669569.0372125     
  -1653594276.0808640       -30530707.665970862        1011497929.9144353     
  -2336748630.1091380       -8455454.5539876223        904581409.82273936     
  -2215449788.7195945       -12466407.084726334        895207406.94055116     
  -2094184981.7161243       -16590807.569023132        889572579.07444286     
  -1972954209.0987144       -20828656.006861687        887676926.22441018     
  -1851757470.8673713       -25179952.398261666        889520448.39045894     
  -2577557507.0264654       -3030533.7972121239        787341631.93727803     
  -2447192093.0230169       -7965046.2691916227        776964968.34468651     
  -2316766963.0334692       -12700505.454180002        770036545.57930934     
  -2186282117.0578303       -17236911.352193832        766556363.64115059     
  -2055737555.0960937       -21574263.963216662        766524422.53020418     
  -2820858311.2275705        1646808.7744367123        668645807.97879171     
  -2682257565.1498222       -4460635.8006714582        657375859.10998678     
  -2543503352.7138128       -10056525.848249912        649263216.87953353     
  -2404595673.9195466       -15140861.368299603        644307881.28743255     
  -2265534528.7670279       -19713642.360841990        642509852.33368444     
  -1461247970.7365665       -37626529.766343236        1132456867.1021512     
  -1356101043.8024828       -41737701.059617758        1125904393.1913779     
  -1251079222.3029773       -46265890.468158484        1123102669.1311994     
  -1146182506.2380531       -51211097.991968751        1124051694.9216211     
  -1041410895.6077061       -56573323.631033242        1128751470.5626466     
  -1653594276.0808640       -30530707.665970862        1011497929.9144353     
  -1538675497.8510942       -34180597.288170397        1002786457.1045046     
  -1423764500.9525909       -37856424.681244612        997734593.51655400     
  -1308861285.3853655       -41558189.845242977        996342339.15059519     
  -1193965851.1494045       -45285892.780128419        998609694.00661826     
  -1851757470.8673713       -25179952.398261666        889520448.39045894     
  -1727327243.1379497       -28446680.888167858        878786854.80189455     
  -1602787472.6364911       -31348266.804616749        871621729.80669534     
  -1478138159.3629951       -33884710.147608995        868025073.40487599     
  -1353379303.3174548       -36056010.917129159        867996885.59642577     
  -2055737555.0960937       -21574263.963216662        766524422.53020418     
  -1922056279.6630590       -24535951.859649181        753905586.28353262     
  -1788148137.3546777       -26741416.838278174        744764078.00162077     
  -1654013128.1709490       -28190658.899067402        739099897.68446887     
  -1519651252.1118755       -28883678.042041004        736913045.33207560     
  -2265534528.7670279       -19713642.360841990        642509852.33368444     
  -2122862607.4264200       -22448410.202625751        628142651.54943657     
  -1979846495.1071482       -24035874.782211423        617161638.10133100     
  -1836486191.8092313       -24476036.099632621        609566811.98937559     
  -1692781697.5326529       -23768894.154859781        605358173.21355999     
  -1041410895.6077061       -56573323.631033242        1128751470.5626466     
  -924242681.96184707       -54958339.262929320        1125818426.4348888     
  -804801079.95666385       -45765393.697077245        1128843520.9349813     
  -683086089.59215605       -28994486.933477044        1137826754.0629220     
  -559097710.86833477       -4645618.9721652865        1152768125.8187091     
  -1193965851.1494045       -45285892.780128419        998609694.00661826     
  -1063164283.2012929       -42095651.453760505        994535981.81375659     
  -930939920.19821358       -34162759.944134831        994627805.77364492     
  -797292762.14015353       -21487218.251258314        998885165.88627255     
  -662222809.02712417       -4069026.3751352727        1007308062.1516418     
  -1353379303.3174548       -36056010.917129159        867996885.59642577     
  -1214066102.4245403       -32827029.039727151        861790146.48339152     
  -1074180699.7809968       -27690707.993562400        857956341.04800129     
  -933723095.38682461       -20647047.778634965        856495469.29025018     
  -792693289.24202001       -11696048.394933850        857407531.21013927     
  -1519651252.1118755       -28883678.042041004        736913045.33207560     
  -1376948139.6315882       -27152472.020843089        727580920.44379759     
  -1234523418.7050152       -26349237.845360458        718829126.75805712     
  -1092377089.3321586       -26473975.515603900        710657664.27485633     
  -950509151.51301813       -27526685.031558096        703066532.99418890     
  -1692781697.5326529       -23768894.154859781        605358173.21355999     
  -1551810394.8224230       -25071980.397081733        591908303.69496310     
  -1411968076.9702661       -30138349.499530077        577246162.90380549     
  -1273254743.9761686       -38968001.462192595        561371750.84008634     
  -1135670395.8401279       -51560936.285029173        544285067.50379729     
  -559097710.86833477       -4645618.9721652865        1152768125.8187091     
  -462403141.85062444        33173402.623888224        1162095545.2734809     
  -353701765.66701913        111015114.77291946        1178965699.6103246     
  -232993582.31751576        228879517.47494680        1203378588.8292494     
  -100278591.80212858        386766610.72992027        1235334212.9302409     
  -662222809.02712417       -4069026.3751352727        1007308062.1516418     
  -547143370.86495531        26025314.497009069        1020840322.7012941     
  -421174659.52833879        92417232.617300779        1042754674.0316651     
  -284316675.01728952        195106727.98571464        1073051116.1427498     
  -136569417.33179474        334093800.60227692        1111729649.0345609     
  -792693289.24202001       -11696048.394933850        857407531.21013927     
  -656830822.22498178        11393059.666421264        873840843.19797409     
  -511196616.02495593        67054631.671077937        899495601.86517382     
  -355790670.64194357        155288667.61902460        934371807.21173120     
  -190612986.07593435        276095167.51028144        978469459.23765337     
  -950509151.51301813       -27526685.031558096        703066532.99418890     
  -791465495.93070674       -10723361.867876053        721097106.76351964     
  -623767635.15685248        34927311.934272081        749188483.11085451     
  -447415569.19146407        109425336.37487820        787340662.03619254     
  -262409298.03452921        212770711.45396110        835553643.53954387     
  -1135670395.8401279       -51560936.285029173        544285067.50379729     
  -951047391.98212504       -40323950.105884790        562609113.39792800     
  -758887716.92404127       -3964726.5931264460        591833317.76870763     
  -559191370.66586876        57516734.253258616        631957680.61613238     
  -351958353.20760453        144120432.43327671        682982201.94020844     
  -100278591.80212858        386766610.72992027        1235334212.9302409     
  -85388194.540966272        546613401.39483523        1196744885.6472487     
  -57906532.762502193        748431073.78408957        1154801383.8365734     
  -17833606.466719806        992219627.89774096        1109503707.4982104     
   34830584.346372008        1277979063.7357514        1060851856.6321834     
  -136569417.33179474        334093800.60227692        1111729649.0345609     
  -127419567.53650957        483108835.52625585        1090164696.7186327     
  -95132275.745681554        709248677.10203171        1070037749.1276251     
  -39707541.959311664        1012513325.3296186        1051348806.2615433     
   38854633.822608650        1392902780.2090433        1034097868.1203667     
  -190612986.07593435        276095167.51028144        978469459.23765337     
  -173511743.02479750        418386028.90984625        986232755.61340535     
  -122726880.49989456        672955621.88863802        1000226235.9666814     
  -38258398.501202345        1039803946.4467304        1020449900.2974792     
   79893702.971257150        1518931002.5840454        1046903748.6057943     
  -262409298.03452921        212770711.45396110        835553643.53954387     
  -223664721.00583446        352444981.54561526        884949062.33157277     
  -140690347.02512431        639551908.14396560        945366844.35372710     
  -13486176.092403412        1074091491.2490239        1016806989.6060052     
   157947791.79232711        1656063730.8607807        1099269498.0884042     
  -351958353.20760453        144120432.43327671        682982201.94020844     
  -277878501.47961295        285285693.43356854        786313616.87312698     
  -149022675.32138997        609037535.86795402        905459574.28877497     
   34609125.267097354        1115375959.7365541        1040420074.1871494     
   273016900.28581059        1804300965.0392399        1191195116.5682392     
  -4704510856.8096819        223360824.83844113        846113386.62785411     
  -4537725360.2199287        119227852.46155381        784052456.93034995     
  -4360965703.6767855        48342079.929295540        742544784.01312244     
  -4174231887.1802592        10703507.241651535        721590367.87617028     
  -3977523910.7303452        6312134.3986361027        721189208.51949596     
  -5278197443.6029110       -221926094.88031340        363449541.26056701     
  -5031733286.3001785       -143606445.35546637        397003111.09685355     
  -4790620943.2056723       -83126176.524668217        429190250.41628748     
  -4554860414.3193645       -40485288.387906551        460010959.21886981     
  -4324451699.6412802       -15683780.945192099        489465237.50460404     
  -5555089816.5932827       -578174750.45820999       -49293758.786354512     
  -5291574676.5693722       -336190782.42917466        61994007.395183869     
  -5048737324.9152765       -163132775.63284087        149995655.76274493     
  -4826577761.6309910       -59000730.069224834        214711186.31632760     
  -4625095986.7165203       -23794645.738313437        256140599.05593649     
  -5535187975.7808008       -845385141.89525378       -392116513.51292050     
  -5317249531.0274973       -458525158.75955963       -220974854.17466417     
  -5135314848.8056107       -191677717.39524031       -95038999.947508201     
  -4989383929.1151361       -44842817.802301407       -14308950.831454052     
  -4879456771.9560680       -18020459.980712891        21215293.173496366     
  -5218491921.1654596       -1023557269.1914337       -665018722.91913152     
  -5108757849.6745615       -510609574.34662032       -451903473.61268163     
  -5050353514.8766708       -168761001.81185460       -305913716.71446294     
  -5043278916.7717943        1988448.4128746986       -227049452.22447708     
  -5087534055.3599272        1638776.3275742531       -215310680.14271924     
  -3977523910.7303452        6312134.3986361027        721189208.51949596     
  -3830780705.5480356        3116105.6369431019        702947081.93118989     
  -3683340379.7949681        2243812.1111164093        691657327.26241124     
  -3535202933.4711456        3695253.8211364746        687319944.51315713     
  -3386368366.5765672        7470430.7670097351        689934933.68343544     
  -4324451699.6412802       -15683780.945192099        489465237.50460404     
  -4163242954.2612457       -18300661.334647179        486934432.48210961     
  -4001072546.5693164       -17712000.684442043        488444944.52935946     
  -3837940476.5654945       -13917798.994596243        493996773.64635223     
  -3673846744.2497745       -6918056.2650914192        503589919.83308834     
  -4625095986.7165203       -23794645.738313437        256140599.05593649     
  -4457739000.7095804       -28327567.626779795        269629747.63058275     
  -4289155810.6495976       -28773142.671783686        284249158.42519164     
  -4119346416.5365844       -25131370.873344660        299998831.43975866     
  -3948310818.3705368       -17402252.231472015        316878766.67428565     
  -4879456771.9560680       -18020459.980712891        21215293.173496366     
  -4714268844.8930292       -26964613.239430904        51033027.376612924     
  -4547590172.0358133       -30939613.850912333        79069968.949910045     
  -4379420753.3844213       -29945461.815124035        105326117.89337716     
  -4209760588.9388571       -23982157.132110119        129801474.20702712     
  -5087534055.3599272        1638776.3275742531       -215310680.14271924     
  -4932832486.8116007       -14211798.172641993       -168855728.27979526     
  -4776375630.7279539       -24211414.221801758       -127092623.89648663     
  -4618163487.1089973       -28360071.819927692       -90021366.992784724     
  -4458196055.9547310       -26657770.967014074       -57641957.568689883     
  -3386368366.5765672        7470430.7670097351        689934933.68343544     
  -3243989166.0763412        9353480.8121174574        678375319.69094324     
  -3102277756.6847701        9010560.4950468540        670973927.40933788     
  -2961234138.4018440        6441669.8158230782        667730756.83862102     
  -2820858311.2275705        1646808.7744367123        668645807.97879171     
  -3673846744.2497745       -6918056.2650914192        503589919.83308834     
  -3520537920.2250261       -2811920.1347413063        495555254.18047720     
  -3367965352.4320874       -1159971.4437601566        491256749.66232491     
  -3216129040.8709416       -1962210.1920944452        490694406.27862835     
  -3065028985.5416112       -5218636.3797979355        493868224.02939832     
  -3948310818.3705368       -17402252.231472015        316878766.67428565     
  -3785278258.1824794       -11434796.224226952        312289173.38453698     
  -3623050419.3493910       -8149744.7335462570        311013680.65281981     
  -3461627301.8712578       -7547097.7593874931        313052288.47913796     
  -3301008905.7480884       -9626855.3017773628        318404996.86348826     
  -4209760588.9388571       -23982157.132110119        129801474.20702712     
  -4038210179.9487114       -16515147.456358194        128577077.30312681     
  -3867532957.4366827       -11958759.374330282        130244720.38082623     
  -3697728921.4027810       -10312992.886057854        134804403.44013599     
  -3528798071.8469868       -11577847.991482973        142256126.48105401     
  -4458196055.9547310       -26657770.967014074       -57641957.568689883     
  -4279333685.5237107       -18052973.831105947       -55581034.063761488     
  -4101412966.6939740       -12587015.366132975       -51050131.153654948     
  -3924433899.4655013       -10259895.572050333       -44049248.838367708     
  -3748396483.8383083       -11071614.448888540       -34578387.117899768     
  -2820858311.2275705        1646808.7744367123        668645807.97879171     
  -2682257565.1498222       -4460635.8006714582        657375859.10998678     
  -2543503352.7138128       -10056525.848249912        649263216.87953353     
  -2404595673.9195466       -15140861.368299603        644307881.28743255     
  -2265534528.7670279       -19713642.360841990        642509852.33368444     
  -3065028985.5416112       -5218636.3797979355        493868224.02939832     
  -2917445285.6742659       -10109041.665969253        485918571.74373198     
  -2769507135.5926037       -13817946.237751722        481440722.05272150     
  -2621214535.2966356       -16345350.095174789        480434674.95637178     
  -2472567484.7863450       -17691253.238200307        482900430.45468110     
  -3301008905.7480884       -9626855.3017773628        318404996.86348826     
  -3143543692.2159805       -13030653.336455345        314010122.32635444     
  -2985523044.6134977       -14583004.469884396        313401546.34018582     
  -2826946962.9406562       -14283908.702115893        316579268.90498739     
  -2667815447.1974373       -12133366.033087850        323543290.02074808     
  -3528798071.8469868       -11577847.991482973        142256126.48105401     
  -3360552784.7749472       -13225470.812099934        141650510.85785449     
  -3191551079.7764897       -12351700.544646263        145145689.74192947     
  -3021792956.8516159       -8956537.1891354322        152741663.13327384     
  -2851278416.0003037       -3039980.7455160618        164438431.03189638     
  -3748396483.8383083       -11071614.448888540       -34578387.117899768     
  -3568472563.3511915       -10693494.092954636       -31160262.661765151     
  -3387591241.0815830       -7124034.4620354176       -23326847.742060106     
  -3205752517.0295124       -363235.55624866486       -11078142.358765263     
  -3022956391.1949468        9588902.6245229244        5585853.4881035276     
  -2265534528.7670279       -19713642.360841990        642509852.33368444     
  -2122862607.4264200       -22448410.202625751        628142651.54943657     
  -1979846495.1071482       -24035874.782211423        617161638.10133100     
  -1836486191.8092313       -24476036.099632621        609566811.98937559     
  -1692781697.5326529       -23768894.154859781        605358173.21355999     
  -2472567484.7863450       -17691253.238200307        482900430.45468110     
  -2321529386.2542372       -17770040.008305192        472388568.94164044     
  -2170483231.1454134       -17821971.522689342        464313122.30013835     
  -2019429019.4598742       -17847047.781354070        458674090.53018177     
  -1868366751.1976182       -17845268.784299016        455471473.63175988     
  -2667815447.1974373       -12133366.033087850        323543290.02074808     
  -2511124807.0869803       -10370262.415445566        316494610.97665203     
  -2354762244.8017559       -9700751.5485570431        310932574.33949506     
  -2198727760.3417540       -10124833.432420135        306857180.10926485     
  -2043021353.7069819       -11642508.067050934        304268428.28597724     
  -2851278416.0003037       -3039980.7455160618        164438431.03189638     
  -2691648869.9246626       -249077.42406272888        160460777.65447524     
  -2532683536.0761948        327785.14013624191        157019994.21937969     
  -2374382414.4548879       -1309393.0528655052        154116080.72662669     
  -2216745505.0607700       -5160612.0031569004        151749037.17619219     
  -3022956391.1949468        9588902.6245229244        5585853.4881035276     
  -2863101574.7672782        12593514.965819955        4287068.9750968283     
  -2704247104.9687271        12263638.543391347        2575381.9398137103     
  -2546392981.7992792        8599273.3572925329        450792.38224696601     
  -2389539205.2589455        1600419.4074673653       -2086699.6975805056     
  -1692781697.5326529       -23768894.154859781        605358173.21355999     
  -1551810394.8224230       -25071980.397081733        591908303.69496310     
  -1411968076.9702661       -30138349.499530077        577246162.90380549     
  -1273254743.9761686       -38968001.462192595        561371750.84008634     
  -1135670395.8401279       -51560936.285029173        544285067.50379729     
  -1868366751.1976182       -17845268.784299016        455471473.63175988     
  -1730366745.5741701       -21789311.026621819        442047738.83741957     
  -1592392692.6468127       -25819862.255906582        428160113.55659240     
  -1454444592.4155426       -29936922.472155094        413808597.78929609     
  -1316522444.8803635       -34140491.675369561        398993191.53552639     
  -2043021353.7069819       -11642508.067050934        304268428.28597724     
  -1905854414.3529167       -17586037.064241767        292157699.07150489     
  -1767610395.5329616       -19939301.175149560        280331460.15665501     
  -1628289297.2471275       -18702300.399787128        268789711.54141998     
  -1487891119.4954085       -13875034.738139510        257532453.22579435     
  -2216745505.0607700       -5160612.0031569004        151749037.17619219     
  -2078273401.1586618       -12462158.509951472        142238184.39724559     
  -1937621185.6287239       -12496666.257293820        133760202.70399375     
  -1794788858.4709253       -5264135.2450931072        126315092.09645654     
  -1649776419.6852682        9235434.5266063213        119902852.57462110     
  -2389539205.2589455        1600419.4074673653       -2086699.6975805056     
  -2247623705.9914308       -6417675.3637946844       -7710805.1853838405     
  -2102425062.9340911       -3491957.5023061037       -11553658.801384643     
  -1953943276.0869119        10377572.991968989       -13615260.545598766     
  -1802178345.4499226        35190916.118966937       -13895610.418015800     
  -1135670395.8401279       -51560936.285029173        544285067.50379729     
  -951047391.98212504       -40323950.105884790        562609113.39792800     
  -758887716.92404127       -3964726.5931264460        591833317.76870763     
  -559191370.66586876        57516734.253258616        631957680.61613238     
  -351958353.20760453        144120432.43327671        682982201.94020844     
  -1316522444.8803635       -34140491.675369561        398993191.53552639     
  -1117152138.7310801       -14433654.274418056        420948677.50972956     
  -914145357.45496440        17394766.882641554        441393502.64170682     
  -707502101.05201113        61344771.795801491        460327666.93145025     
  -497222369.52224374        117416360.46503565        477751170.37895942     
  -1487891119.4954085       -13875034.738139510        257532453.22579435     
  -1309232994.8230588        3663808.7541766167        278569150.52794254     
  -1130838591.0971429        20323582.425045431        285684367.66898012     
  -952707908.31764996        36104286.274515152        278878104.64890307     
  -774840946.48459244        51005920.302511692        258150361.46771508     
  -1649776419.6852682        9235434.5266063213        119902852.57462110     
  -1527289960.2580752        13968438.979862452        135470532.45256862     
  -1408967417.8505914        4821720.0340819359        124705912.85053334     
  -1294808792.4628036       -18204722.310682178        87608993.768486500     
  -1184814084.0946922       -55110888.054365814        24179775.206463844     
  -1802178345.4499226        35190916.118966937       -13895610.418015800     
  -1771323035.0361431        16480236.402579546       -8347176.7164009158     
  -1748531837.7153149       -29110820.290290594       -41541861.813650422     
  -1733804753.4874291       -101582253.95964098       -113479665.70978579     
  -1727141782.3525102       -200934064.60555887       -224160588.40477848     
  -351958353.20760453        144120432.43327671        682982201.94020844     
  -277878501.47961295        285285693.43356854        786313616.87312698     
  -149022675.32138997        609037535.86795402        905459574.28877497     
   34609125.267097354        1115375959.7365541        1040420074.1871494     
   273016900.28581059        1804300965.0392399        1191195116.5682392     
  -497222369.52224374        117416360.46503565        477751170.37895942     
  -388334843.37608457        223087658.40056938        597034257.43417668     
  -230325086.28112873        492499726.16539448        735468850.72788489     
  -23193098.237391174        925652563.75955427        893054950.26009381     
   233061120.75516859        1522546171.1830275        1069792556.0308079     
  -774840946.48459244        51005920.302511692        258150361.46771508     
  -621611563.76091194        124043509.82109341        386789086.58352667     
  -424913693.56990004        341976057.56411278        537916281.69360769     
  -184747335.91151804        704803563.53167677        711531946.79796958     
   98887509.214192748        1212526027.7237151        907636081.89660883     
  -1184814084.0946922       -55110888.054365814        24179775.206463844     
  -977708662.63413620       -11846752.304963231        155578104.32118303     
  -732788497.18766761        157466530.06415832        312801867.18595034     
  -450053587.75530994        452828959.05291307        495851063.80076581     
  -129503934.33705539        874240534.66130745        704725694.16563570     
  -1727141782.3525102       -200934064.60555887       -224160588.40477848     
  -1456626139.9957027       -184583127.97741604       -96598689.352841780     
  -1153949497.1344693       -61028856.334552944        60125607.204908766     
  -819111853.76874924        169728750.32325339        246012301.26849973     
  -452113209.89861393        507689691.99583334        461061392.83790261     
 </DataArray>
 <DataArray  type="Float64" Name="VM" NumberOfComponents="1" format="ascii">
   4926017643.0989914     
   4936010200.6636753     
   4996298246.0049095     
   5059579762.1555700     
   5102001325.1289282     
   5209115130.3893366     
   5117790851.3540792     
   5044895371.4195242     
   4967176043.0177546     
   4870610054.4296179     
   5290442714.4240398     
   5132868249.5201702     
   4975966359.5814228     
   4811742308.3602448     
   4634527998.2342939     
   5208985982.2838173     
   5008912711.8609028     
   4807426006.7430382     
   4604217313.5173426     
   4399094538.4252491     
   5037939901.8609438     
   4794830953.7899437     
   4570043163.9538126     
   4362462917.6520882     
   4172071918.4508243     
   5102001325.1289282     
   4934416857.3964176     
   4769398763.5809336     
   4606688412.0816727     
   4446048243.8160763     
   4870610054.4296179     
   4701675422.3492174     
   4534268263.3305588     
   4368336030.9102840     
   4203837002.4692402     
   4634527998.2342939     
   4468116223.6206512     
   4303099508.7969856     
   4139579618.8493762     
   3977686281.6657252     
   4399094538.4252491     
   4238873871.3380280     
   4080902273.1076598     
   3925387044.0736103     
   3772610544.9250851     
   4172071918.4508243     
   4021098243.9994669     
   3874330324.7044206     
   3732018612.0889444     
   3594561835.1085005     
   4446048243.8160763     
   4271420828.8073545     
   4096088471.3902264     
   3920056593.0838966     
   3743352146.7062879     
   4203837002.4692402     
   4036126718.3754449     
   3868151306.9200072     
   3699957809.4297357     
   3531629181.6586924     
   3977686281.6657252     
   3818082246.6781573     
   3658855353.7729163     
   3500114382.7916079     
   3342023277.9188962     
   3772610544.9250851     
   3622294961.0595036     
   3473223994.6051683     
   3325586007.7419820     
   3179646569.1502085     
   3594561835.1085005     
   3454630957.9741244     
   3317043842.6259212     
   3182077564.9524426     
   3050106809.8977818     
   3743352146.7062879     
   3563546612.4559684     
   3384276055.4958448     
   3205628351.8496361     
   3027777687.6397719     
   3531629181.6586924     
   3362921324.0900211     
   3195298375.6009154     
   3028900492.6528578     
   2863957053.7517538     
   3342023277.9188962     
   3183846972.7104096     
   3027322960.2799459     
   2872650458.3804922     
   2720120894.1184692     
   3179646569.1502085     
   3031575056.2780304     
   2885731692.3223691     
   2742378641.2562256     
   2601872135.3235283     
   3050106809.8977818     
   2911870557.6292768     
   2776429339.6660662     
   2644106639.9435081     
   2515319090.1676564     
   3027777687.6397719     
   2869428665.4400935     
   2710403401.4937406     
   2550703607.5639515     
   2390342546.9935355     
   2863957053.7517538     
   2705835591.9041119     
   2547406918.0964255     
   2388689987.4400873     
   2229715409.1060047     
   2720120894.1184692     
   2565213603.1140757     
   2410849137.4969735     
   2257150527.9117150     
   2104286988.6151543     
   2601872135.3235283     
   2453164013.1203566     
   2306380890.8087125     
   2161831861.1552415     
   2019934169.4064405     
   2515319090.1676564     
   2375517683.2960753     
   2239519588.3983555     
   2107853362.7648826     
   1981215494.6036873     
   2390342546.9935355     
   2244461483.9524589     
   2100776574.5395391     
   1959294600.6818070     
   1820188110.9448965     
   2229715409.1060047     
   2086665033.1456814     
   1945248979.4961884     
   1805467599.1894000     
   1667397376.6342657     
   2104286988.6151543     
   1963451616.4777348     
   1823555962.9626427     
   1684626600.0344739     
   1546718090.6052816     
   2019934169.4064405     
   1882328068.0861228     
   1745058462.9841290     
   1608252580.3720791     
   1472085900.1957767     
   1981215494.6036873     
   1849568453.1001348     
   1718035849.0969636     
   1586976585.2474120     
   1456910516.3602219     
   1820188110.9448965     
   1779679111.5384767     
   1735651753.4409795     
   1696734211.8421826     
   1681396896.5882142     
   1667397376.6342657     
   1552159911.6407721     
   1427816785.6564465     
   1294726068.8201652     
   1158999332.0597823     
   1546718090.6052816     
   1397033840.5966136     
   1243799956.4434543     
   1084744996.9377155     
   917837893.52850008     
   1472085900.1957767     
   1328045936.8512554     
   1198478339.3015516     
   1087855064.4179592     
   1002066499.4073962     
   1456910516.3602219     
   1348092807.5937650     
   1274251753.3577809     
   1243494091.1189094     
   1262839591.9919081     
   1681396896.5882142     
   1383819335.6536455     
   1129488827.3008492     
   1010121312.5747219     
   1153005298.3775918     
   1158999332.0597823     
   1008506589.7575605     
   985240770.50561559     
   1161466498.9070423     
   1544085581.2826998     
   917837893.52850008     
   963178073.28095686     
   1144932905.8197842     
   1476456350.8340878     
   1957422846.5575707     
   1002066499.4073962     
   1164712186.7580636     
   1425406594.0835309     
   1808723520.0379167     
   2334734749.6714263     
   1262839591.9919081     
   1446632801.0223739     
   1715653229.0655527     
   2110469362.2494390     
   2663507642.3889799     
   5037939901.8609438     
   4794830953.7899437     
   4570043163.9538126     
   4362462917.6520882     
   4172071918.4508243     
   4563923040.0760202     
   4375261685.7328100     
   4201630462.9531689     
   4042474137.1539826     
   3897877208.1194987     
   4154417180.5762172     
   4013215495.2711396     
   3882804994.7072906     
   3763125634.1506681     
   3654417365.7598386     
   3805969789.4620380     
   3706515051.3787971     
   3612971640.0292616     
   3525563738.0934544     
   3444611234.5389752     
   3514130485.7395549     
   3451825731.1647425     
   3390507188.7469077     
   3330268787.2748184     
   3271259595.1562667     
   4172071918.4508243     
   4021098243.9994669     
   3874330324.7044206     
   3732018612.0889444     
   3594561835.1085005     
   3897877208.1194987     
   3766080342.7094240     
   3638724840.3085561     
   3516118920.3983159     
   3398695845.4420853     
   3654417365.7598386     
   3540965819.5701346     
   3432091340.5994840     
   3328140259.8315592     
   3229558448.4468346     
   3444611234.5389752     
   3348909901.6591311     
   3257789311.6894498     
   3171608550.4989586     
   3090799987.7460852     
   3271259595.1562667     
   3192937077.5220227     
   3119032666.0198784     
   3049888927.5995736     
   2985897126.5240293     
   3594561835.1085005     
   3454630957.9741244     
   3317043842.6259212     
   3182077564.9524426     
   3050106809.8977818     
   3398695845.4420853     
   3272380122.4575901     
   3149349889.6254840     
   3029977935.0881515     
   2914742045.1198483     
   3229558448.4468346     
   3117725797.5087190     
   3010188238.9286971     
   2907394482.6717563     
   2809895031.5214515     
   3090799987.7460852     
   2994116057.3351269     
   2902739847.6150556     
   2817159488.3730474     
   2737949763.7708597     
   2985897126.5240293     
   2904666763.1066070     
   2829678628.8060703     
   2761412411.0485048     
   2700410322.2553802     
   3050106809.8977818     
   2911870557.6292768     
   2776429339.6660662     
   2644106639.9435081     
   2515319090.1676564     
   2914742045.1198483     
   2789326866.8047667     
   2667773464.8817248     
   2550542660.4301863     
   2438206389.0240197     
   2809895031.5214515     
   2699063443.1240821     
   2593291334.9588542     
   2493150449.5112262     
   2399323339.2791357     
   2737949763.7708597     
   2643099635.6804996     
   2554524685.9934292     
   2472850386.3094430     
   2398792392.8246903     
   2700410322.2553802     
   2622348992.9707966     
   2551673239.9512138     
   2488990437.2243032     
   2434965168.3304558     
   2515319090.1676564     
   2375517683.2960753     
   2239519588.3983555     
   2107853362.7648826     
   1981215494.6036873     
   2438206389.0240197     
   2313625677.7590632     
   2194172246.2819591     
   2080560596.7086568     
   1973677679.6389306     
   2399323339.2791357     
   2291752801.7946248     
   2190625278.0478206     
   2096749124.8881874     
   2011067848.9484527     
   2398792392.8246903     
   2309294219.9162159     
   2227344335.7200670     
   2153728212.3634548     
   2089305965.3664846     
   2434965168.3304558     
   2363711837.2440352     
   2300768627.7420158     
   2246805796.9447436     
   2202512375.4468093     
   1981215494.6036873     
   1849568453.1001348     
   1718035849.0969636     
   1586976585.2474120     
   1456910516.3602219     
   1973677679.6389306     
   1856733118.9675734     
   1744236091.0409350     
   1637123073.8100224     
   1536544385.4725702     
   2011067848.9484527     
   1913955772.5906410     
   1825692574.1074033     
   1747495339.0977352     
   1680675784.5962341     
   2089305965.3664846     
   2013613964.8915799     
   1950350267.8365867     
   1900610577.9599245     
   1865440859.4773955     
   2202512375.4468093     
   2146823583.3600471     
   2106141090.9445527     
   2081247395.7197936     
   2072833214.1283865     
   1456910516.3602219     
   1348092807.5937650     
   1274251753.3577809     
   1243494091.1189094     
   1262839591.9919081     
   1536544385.4725702     
   1475800990.1214678     
   1447737080.9574542     
   1456306680.7707446     
   1504796564.7105634     
   1680675784.5962341     
   1652220718.0056067     
   1651476132.8853636     
   1680804525.3533700     
   1742812848.0722146     
   1865440859.4773955     
   1854892896.3493476     
   1867314854.4258921     
   1904912280.4478362     
   1970716952.2475116     
   2072833214.1283865     
   2069215985.6392272     
   2084844334.5814254     
   2122347611.8343904     
   2185538942.8047280     
   1262839591.9919081     
   1446632801.0223739     
   1715653229.0655527     
   2110469362.2494390     
   2663507642.3889799     
   1504796564.7105634     
   1613219578.6820056     
   1788841694.4360182     
   2066404887.2108779     
   2476106472.8681946     
   1742812848.0722146     
   1787655791.1065280     
   1884642796.2798722     
   2060677360.2581429     
   2340983500.4061608     
   1970716952.2475116     
   1968899339.6120989     
   2003621378.9458632     
   2093553743.2273793     
   2257352943.9319692     
   2185538942.8047280     
   2156234367.9361515     
   2146518109.7740264     
   2166912114.7632895     
   2228486231.7992940     
   3514130485.7395549     
   3451825731.1647425     
   3390507188.7469077     
   3330268787.2748184     
   3271259595.1562667     
   3321061276.6332245     
   3264220099.0509701     
   3209943940.4572034     
   3158414518.9339128     
   3109861067.9834757     
   3151715906.1064391     
   3101276435.4928341     
   3055126524.5900927     
   3013505431.9894090     
   2976691047.7029247     
   3014764145.4091096     
   2970747508.5313807     
   2932862529.8085604     
   2901358115.7703357     
   2876511402.4074450     
   2919765580.7753329     
   2880966422.3407192     
   2850220835.0253077     
   2827732150.6677227     
   2813722139.6058726     
   3271259595.1562667     
   3192937077.5220227     
   3119032666.0198784     
   3049888927.5995736     
   2985897126.5240293     
   3109861067.9834757     
   3043024626.1183391     
   2981569981.5399737     
   2925845650.1692643     
   2876242050.5609403     
   2976691047.7029247     
   2921431778.2220149     
   2872521658.6225076     
   2830285450.3897996     
   2795079221.3698945     
   2876511402.4074450     
   2832318431.1916270     
   2795404512.7108221     
   2766040975.0322132     
   2744518836.7352643     
   2813722139.6058726     
   2779342234.3443074     
   2753104164.0010595     
   2735204598.1826138     
   2725850344.2036552     
   2985897126.5240293     
   2904666763.1066070     
   2829678628.8060703     
   2761412411.0485048     
   2700410322.2553802     
   2876242050.5609403     
   2809088173.5912232     
   2748850512.9351816     
   2695968341.4643378     
   2650923567.6862879     
   2795079221.3698945     
   2741555079.7028522     
   2695516638.9460979     
   2657333809.0395966     
   2627400251.3074474     
   2744518836.7352643     
   2703671650.4612412     
   2670752885.3503757     
   2646045015.7248144     
   2629840048.0664811     
   2725850344.2036552     
   2696195992.0885792     
   2674789770.3216534     
   2661823403.6838136     
   2657490139.5115619     
   2700410322.2553802     
   2622348992.9707966     
   2551673239.9512138     
   2488990437.2243032     
   2434965168.3304558     
   2650923567.6862879     
   2587971876.0831356     
   2533061786.9671912     
   2486714694.7723775     
   2449479122.4077353     
   2627400251.3074474     
   2578760587.9588466     
   2538636421.7001467     
   2507436822.5226617     
   2485575912.4537053     
   2629840048.0664811     
   2594188197.2031331     
   2567356340.4762502     
   2549635555.1391716     
   2541310141.3627353     
   2657490139.5115619     
   2633048547.2107687     
   2617605633.3501716     
   2611346401.1760020     
   2614445915.9329171     
   2434965168.3304558     
   2363711837.2440352     
   2300768627.7420158     
   2246805796.9447436     
   2202512375.4468093     
   2449479122.4077353     
   2393721524.5808702     
   2347146661.6164618     
   2310295737.1914234     
   2283694566.1510811     
   2485575912.4537053     
   2444231493.7048140     
   2412690960.2776937     
   2391348257.1150966     
   2380565314.6773481     
   2541310141.3627353     
   2512731870.3165946     
   2494395400.5987730     
   2486557977.1173210     
   2489443497.7736526     
   2614445915.9329171     
   2596593709.5135503     
   2589330454.2216206     
   2592803386.1986823     
   2607134366.3310108     
   2202512375.4468093     
   2146823583.3600471     
   2106141090.9445527     
   2081247395.7197936     
   2072833214.1283865     
   2283694566.1510811     
   2242960356.8009782     
   2216191967.9404626     
   2203846952.2754335     
   2206318649.8680215     
   2380565314.6773481     
   2351794765.5969648     
   2335921281.7848110     
   2333198056.6018782     
   2343847881.1468239     
   2489443497.7736526     
   2469941883.9151192     
   2462358846.7998290     
   2466831128.1376934     
   2483493229.1409731     
   2607134366.3310108     
   2594578284.1434903     
   2593114081.8603826     
   2602820244.2610550     
   2623792586.0082474     
   2072833214.1283865     
   2069215985.6392272     
   2084844334.5814254     
   2122347611.8343904     
   2185538942.8047280     
   2206318649.8680215     
   2191857519.5581498     
   2192398794.2716489     
   2209910718.3970404     
   2247313502.1346083     
   2343847881.1468239     
   2319361025.2448015     
   2306418193.1872020     
   2306424539.6832376     
   2321468152.2561946     
   2483493229.1409731     
   2450752659.1536012     
   2426584118.2378044     
   2411932761.8730969     
   2408174409.3894162     
   2623792586.0082474     
   2585251903.9113135     
   2552612997.4125657     
   2526456854.1972427     
   2507590603.1924696     
   2185538942.8047280     
   2156234367.9361515     
   2146518109.7740264     
   2166912114.7632895     
   2228486231.7992940     
   2247313502.1346083     
   2182635886.8075271     
   2134393600.8618681     
   2112252865.5410862     
   2127147466.5637708     
   2321468152.2561946     
   2224753656.2112741     
   2141370972.1564729     
   2079685930.3202746     
   2049870759.4336004     
   2408174409.3894162     
   2282881799.1384196     
   2168097269.6555524     
   2070562440.8071861     
   1999047698.6047287     
   2507590603.1924696     
   2357229878.3216372     
   2215043203.6989107     
   2086013561.8448999     
   1977020858.6316600     
   2919765580.7753329     
   2880966422.3407192     
   2850220835.0253077     
   2827732150.6677227     
   2813722139.6058726     
   2775005857.5193305     
   2747746123.1654258     
   2728644548.8202906     
   2717827035.8346238     
   2715427550.1658044     
   2676809120.7364216     
   2658784497.8955173     
   2648888272.9174352     
   2647179300.2468729     
   2653718872.4338398     
   2629180326.5398145     
   2617570159.8749413     
   2613937988.5577583     
   2618298554.1394982     
   2630666962.3473067     
   2633664451.8737669     
   2625341107.1003404     
   2624754027.7464309     
   2631903213.8120327     
   2646788665.2971549     
   2813722139.6058726     
   2779342234.3443074     
   2753104164.0010595     
   2735204598.1826138     
   2725850344.2036552     
   2715427550.1658044     
   2690919252.5296502     
   2674606075.6745090     
   2666605265.9234481     
   2667037565.3720188     
   2653718872.4338398     
   2636785168.3705430     
   2628011082.3293047     
   2627450013.0685282     
   2635156023.5348711     
   2630666962.3473067     
   2618649357.2449546     
   2614690295.0895534     
   2618803010.8512816     
   2631000748.4605479     
   2646788665.2971549     
   2636847902.7016125     
   2634824140.0742927     
   2640717377.4151931     
   2654527614.7243204     
   2725850344.2036552     
   2696195992.0885792     
   2674789770.3216534     
   2661823403.6838136     
   2657490139.5115619     
   2667037565.3720188     
   2646203158.6508889     
   2633750334.4316864     
   2629792578.2623076     
   2634441972.3984776     
   2635156023.5348711     
   2620970869.0366735     
   2615256625.5671253     
   2618065211.2989345     
   2629447077.9695625     
   2631000748.4605479     
   2620983110.3828907     
   2619512065.2857208     
   2626600725.3797569     
   2642261694.3903646     
   2654527614.7243204     
   2646019416.2066431     
   2646145178.4411945     
   2654904901.4279633     
   2672298585.1669569     
   2657490139.5115619     
   2633048547.2107687     
   2617605633.3501716     
   2611346401.1760020     
   2614445915.9329171     
   2634441972.3984776     
   2618438236.9368148     
   2611459028.3007388     
   2613609544.3046660     
   2624987086.6496596     
   2629447077.9695625     
   2619820358.7391515     
   2619248386.6406751     
   2627777937.5939121     
   2645451482.3604832     
   2642261694.3903646     
   2636763472.1355710     
   2640392204.8495865     
   2653159528.6736870     
   2675075868.6439633     
   2672298585.1669569     
   2668581995.2835765     
   2674134741.3576164     
   2688956823.3890810     
   2713048241.3779860     
   2614445915.9329171     
   2596593709.5135503     
   2589330454.2216206     
   2592803386.1986823     
   2607134366.3310108     
   2624987086.6496596     
   2614420028.4073195     
   2614075033.0566788     
   2624028958.2833972     
   2644343605.7844176     
   2645451482.3604832     
   2640412866.4082637     
   2645321429.4032497     
   2660208937.5184255     
   2685100294.5334311     
   2675075868.6439633     
   2673821379.9284163     
   2682356600.8237100     
   2700688968.3985748     
   2728824192.4061141     
   2713048241.3779860     
   2713881700.6320252     
   2724480346.4918399     
   2744844178.9574170     
   2774973198.0287733     
   2607134366.3310108     
   2594578284.1434903     
   2593114081.8603826     
   2602820244.2610550     
   2623792586.0082474     
   2644343605.7844176     
   2633464257.8674960     
   2632840015.8353591     
   2642509921.1730680     
   2662524284.2073827     
   2685100294.5334311     
   2675601467.1613445     
   2675700567.5299473     
   2685412880.4737811     
   2704759229.2272978     
   2728824192.4061141     
   2720563297.0256248     
   2721403050.9879165     
   2731346796.8973627     
   2750399363.2605782     
   2774973198.0287733     
   2767946922.0670323     
   2769666602.8257599     
   2780132240.3049817     
   2799343834.5046754     
   2623792586.0082474     
   2585251903.9113135     
   2552612997.4125657     
   2526456854.1972427     
   2507590603.1924696     
   2662524284.2073827     
   2617065910.3070383     
   2577279362.2822037     
   2543495231.2552595     
   2516175169.6623416     
   2704759229.2272978     
   2654470543.4047947     
   2609766750.4232392     
   2570795116.7594347     
   2537761864.2798762     
   2750399363.2605782     
   2697373364.2422037     
   2649987915.5889926     
   2608279592.7797232     
   2572299629.0358205     
   2799343834.5046754     
   2745673192.9521356     
   2697840983.3726325     
   2655847205.7661586     
   2619691860.1327248     
   2507590603.1924696     
   2357229878.3216372     
   2215043203.6989107     
   2086013561.8448999     
   1977020858.6316600     
   2516175169.6623416     
   2348278654.3606582     
   2183944044.6262341     
   2026272914.9681389     
   1879832566.8689163     
   2537761864.2798762     
   2357422035.8110704     
   2176827093.0543671     
   1997449329.7430727     
   1821567882.5348866     
   2572299629.0358205     
   2384763690.8640108     
   2194159243.1551018     
   2000864710.3829775     
   1805484295.2504702     
   2619691860.1327248     
   2430272417.0100174     
   2236083012.6947846     
   2037123647.1870403     
   1833394320.4867532     
   2633664451.8737669     
   2625341107.1003404     
   2624754027.7464309     
   2631903213.8120327     
   2646788665.2971549     
   2629180300.9800639     
   2617570139.7270541     
   2613937974.1497922     
   2618298545.7914329     
   2630666960.3591504     
   2676809076.4451447     
   2658784463.3249011     
   2648888248.5803652     
   2647179286.6575699     
   2653718870.0860677     
   2775005802.0860090     
   2747746080.6159225     
   2728644519.7103934     
   2717827020.7475562     
   2715427549.6835546     
   2919765521.5781145     
   2880966378.1953297     
   2850220806.3914280     
   2827732138.0676384     
   2813722143.5930657     
   2646788665.2971549     
   2636847902.7016125     
   2634824140.0742927     
   2640717377.4151931     
   2654527614.7243204     
   2630666960.3591504     
   2618649355.6992106     
   2614690294.3307724     
   2618803011.2172132     
   2631000750.2806573     
   2653718870.0860677     
   2636785166.5763407     
   2628011081.7515593     
   2627450014.3630857     
   2635156027.3478856     
   2715427549.6835546     
   2690919252.2404442     
   2674606076.5260253     
   2666605268.8662472     
   2667037571.3565464     
   2813722143.5930657     
   2779342237.6097651     
   2753104167.7342653     
   2735204603.5968933     
   2725850352.5345263     
   2654527614.7243204     
   2646019416.2066431     
   2646145178.4411945     
   2654904901.4279633     
   2672298585.1669569     
   2631000750.2806573     
   2620983110.8604937     
   2619512064.4628711     
   2626600723.3050008     
   2642261691.1201234     
   2635156027.3478856     
   2620970870.1773419     
   2615256624.1110201     
   2618065207.3349414     
   2629447071.6030741     
   2667037571.3565464     
   2646203160.6527681     
   2633750332.5467992     
   2629792572.6069002     
   2634441963.1147861     
   2725850352.5345263     
   2696195995.1507330     
   2674789768.2155652     
   2661823396.5369649     
   2657490127.4873209     
   2672298585.1669569     
   2668581995.2835765     
   2674134741.3576164     
   2688956823.3890810     
   2713048241.3779860     
   2642261691.1201234     
   2636763469.6763568     
   2640392203.1884818     
   2653159527.7938414     
   2675075868.5242929     
   2629447071.6030741     
   2619820353.8941684     
   2619248383.2898197     
   2627777935.7029200     
   2645451481.8874860     
   2634441963.1147861     
   2618438229.7777972     
   2611459023.2250276     
   2613609541.2619729     
   2624987085.5795059     
   2657490127.4873209     
   2633048537.8058863     
   2617605626.5102825     
   2611346396.8368073     
   2614445914.0182028     
   2713048241.3779860     
   2713881700.6320252     
   2724480346.4918399     
   2744844178.9574170     
   2774973198.0287733     
   2675075868.5242929     
   2673821379.7991438     
   2682356600.6842117     
   2700688968.2485795     
   2728824192.2457957     
   2645451481.8874860     
   2640412865.9703717     
   2645321429.0029044     
   2660208937.1580243     
   2685100294.2153883     
   2624987085.5795059     
   2614420027.4685144     
   2614075032.2593951     
   2624028957.6364546     
   2644343605.2954850     
   2614445914.0182028     
   2596593707.8725309     
   2589330452.8781385     
   2592803385.1731763     
   2607134365.6407633     
   2774973198.0287733     
   2767946922.0670323     
   2769666602.8257599     
   2780132240.3049817     
   2799343834.5046754     
   2728824192.2457957     
   2720563296.8939457     
   2721403050.8703775     
   2731346796.7796922     
   2750399363.1284118     
   2685100294.2153883     
   2675601466.9022827     
   2675700567.3002672     
   2685412880.2442617     
   2704759228.9686437     
   2644343605.2954850     
   2633464257.4738655     
   2632840015.4912224     
   2642509920.8330450     
   2662524283.8258734     
   2607134365.6407633     
   2594578283.5955453     
   2593114081.3911271     
   2602820243.8070374     
   2623792585.5053887     
   2799343834.5046754     
   2745673192.9521356     
   2697840983.3726325     
   2655847205.7661586     
   2619691860.1327248     
   2750399363.1284118     
   2697373364.1415920     
   2649987915.5162520     
   2608279592.7311273     
   2572299629.0077248     
   2704759228.9686437     
   2654470543.2091422     
   2609766750.2831693     
   2570795116.6674309     
   2537761864.2286592     
   2662524283.8258734     
   2617065910.0204010     
   2577279362.0791464     
   2543495231.1244040     
   2516175169.5926924     
   2623792585.5053887     
   2585251903.5361652     
   2552612997.1497951     
   2526456854.0314641     
   2507590603.1087885     
   2619691860.1327248     
   2430272417.0100174     
   2236083012.6947846     
   2037123647.1870403     
   1833394320.4867532     
   2572299629.0077248     
   2384763690.8409719     
   2194159243.1341071     
   2000864710.3604629     
   1805484295.2220254     
   2537761864.2286592     
   2357422035.7670159     
   2176827093.0113397     
   1997449329.6935396     
   1821567882.4694147     
   2516175169.5926924     
   2348278654.2974868     
   2183944044.5603504     
   2026272914.8881254     
   1879832566.7602897     
   2507590603.1087885     
   2357229878.2412391     
   2215043203.6096821     
   2086013561.7317591     
   1977020858.4759650     
   2919765521.5781145     
   2880966378.1953297     
   2850220806.3914280     
   2827732138.0676384     
   2813722143.5930657     
   3014764089.4484401     
   2970747466.9421616     
   2932862503.4376245     
   2901358105.5919423     
   2876511409.4900141     
   3151715861.7524972     
   3101276403.4859443     
   3055126505.9967794     
   3013505428.0235991     
   2976691059.7096753     
   3321061250.7190380     
   3264220082.4161983     
   3209943934.2145109     
   3158414524.3160429     
   3109861086.3556476     
   3514130483.5654368     
   3451825734.4217210     
   3390507198.4337516     
   3330268804.4404521     
   3271259620.9457078     
   2813722143.5930657     
   2779342237.6097651     
   2753104167.7342653     
   2735204603.5968933     
   2725850352.5345263     
   2876511409.4900141     
   2832318436.9166145     
   2795404518.3822508     
   2766040982.0075731     
   2744518846.4261332     
   2976691059.7096753     
   2921431787.6256208     
   2872521666.7988253     
   2830285458.8004632     
   2795079231.5680313     
   3109861086.3556476     
   3043024640.1039076     
   2981569992.5358729     
   2925845659.6871133     
   2876242060.2400007     
   3271259620.9457078     
   3192937096.6844025     
   3119032679.9215469     
   3049888937.7421613     
   2985897134.5651741     
   2725850352.5345263     
   2696195995.1507330     
   2674789768.2155652     
   2661823396.5369649     
   2657490127.4873209     
   2744518846.4261332     
   2703671654.3320251     
   2670752883.4141073     
   2646045008.0202999     
   2629840034.6691108     
   2795079231.5680313     
   2741555083.7500129     
   2695516636.7806277     
   2657333800.6194425     
   2627400236.6224451     
   2876242060.2400007     
   2809088176.9939146     
   2748850509.9452710     
   2695968331.9751258     
   2650923551.6131444     
   2985897134.5651741     
   2904666764.9189181     
   2829678624.2437205     
   2761412399.9634519     
   2700410304.5086746     
   2657490127.4873209     
   2633048537.8058863     
   2617605626.5102825     
   2611346396.8368073     
   2614445914.0182028     
   2629840034.6691108     
   2594188187.0387816     
   2567356333.3603053     
   2549635550.8748479     
   2541310139.7385321     
   2627400236.6224451     
   2578760577.0718627     
   2538636414.2953229     
   2507436818.2669625     
   2485575910.9935160     
   2650923551.6131444     
   2587971864.3862872     
   2533061779.2001572     
   2486714690.4630041     
   2449479121.0532656     
   2700410304.5086746     
   2622348980.2520719     
   2551673231.6877337     
   2488990432.8057985     
   2434965167.1014767     
   2614445914.0182028     
   2596593707.8725309     
   2589330452.8781385     
   2592803385.1731763     
   2607134365.6407633     
   2541310139.7385321     
   2512731868.9419146     
   2494395399.5235796     
   2486557976.3869596     
   2489443497.4284825     
   2485575910.9935160     
   2444231492.4786558     
   2412690959.3666224     
   2391348256.5951133     
   2380565314.6180649     
   2449479121.0532656     
   2393721523.4397302     
   2347146660.8051572     
   2310295736.8223748     
   2283694566.3301616     
   2434965167.1014767     
   2363711836.1894279     
   2300768627.0161653     
   2246805796.7008538     
   2202512375.8333387     
   2607134365.6407633     
   2594578283.5955453     
   2593114081.3911271     
   2602820243.8070374     
   2623792585.5053887     
   2489443497.4284825     
   2469941883.6225491     
   2462358846.5087814     
   2466831127.7968779     
   2483493228.6985278     
   2380565314.6180649     
   2351794765.5201812     
   2335921281.6510930     
   2333198056.3709974     
   2343847880.7779522     
   2283694566.3301616     
   2242960356.9084978     
   2216191967.9482088     
   2203846952.1537719     
   2206318649.5865841     
   2202512375.8333387     
   2146823583.6321101     
   2106141091.0853691     
   2081247395.7105184     
   2072833213.9493711     
   2623792585.5053887     
   2585251903.5361652     
   2552612997.1497951     
   2526456854.0314641     
   2507590603.1087885     
   2483493228.6985278     
   2450752658.8334532     
   2426584118.0271306     
   2411932761.7588706     
   2408174409.3588886     
   2343847880.7779522     
   2319361024.9905076     
   2306418193.0368085     
   2306424539.6257639     
   2321468152.2807560     
   2206318649.5865841     
   2191857519.3814154     
   2192398794.1904807     
   2209910718.4021630     
   2247313502.2166204     
   2072833213.9493711     
   2069215985.5528722     
   2084844334.5794203     
   2122347611.9086459     
   2185538942.9468741     
   2507590603.1087885     
   2357229878.2412391     
   2215043203.6096821     
   2086013561.7317591     
   1977020858.4759650     
   2408174409.3588886     
   2282881799.0932899     
   2168097269.5849094     
   2070562440.6972597     
   1999047698.4386091     
   2321468152.2807560     
   2224753656.2029662     
   2141370972.1059406     
   2079685930.2156835     
   2049870759.2607479     
   2247313502.2166204     
   2182635886.8379502     
   2134393600.8333423     
   2112252865.4443059     
   2127147466.3881185     
   2185538942.9468741     
   2156234368.0075545     
   2146518109.7697098     
   2166912114.6771154     
   2228486231.6245804     
   3514130483.5654368     
   3451825734.4217210     
   3390507198.4337516     
   3330268804.4404521     
   3271259620.9457078     
   3805969814.8920493     
   3706515078.8448148     
   3612971669.8079886     
   3525563770.7147384     
   3444611270.8235135     
   4154417232.5555634     
   4013215545.2848001     
   3882805042.7396698     
   3763125680.5235362     
   3654417411.2073550     
   4563923117.3189411     
   4375261756.6304770     
   4201630527.4831963     
   4042474195.6488976     
   3897877261.4050460     
   5037940003.0611372     
   4794831044.0515614     
   4570043243.4221449     
   4362462986.8100328     
   4172071978.3370872     
   3271259620.9457078     
   3192937096.6844025     
   3119032679.9215469     
   3049888937.7421613     
   2985897134.5651741     
   3444611270.8235135     
   3348909928.7771072     
   3257789330.7741323     
   3171608562.8282766     
   3090799994.7718182     
   3654417411.2073550     
   3540965853.4094329     
   3432091363.7569499     
   3328140273.3822107     
   3229558453.6504326     
   3897877261.4050460     
   3766080382.1170788     
   3638724866.5910444     
   3516118934.4574094     
   3398695848.3695331     
   4172071978.3370872     
   4021098287.9619622     
   3874330353.3567996     
   3732018626.1926541     
   3594561835.6165047     
   2985897134.5651741     
   2904666764.9189181     
   2829678624.2437205     
   2761412399.9634519     
   2700410304.5086746     
   3090799994.7718182     
   2994116057.8181815     
   2902739841.4544463     
   2817159475.4482040     
   2737949743.9513593     
   3229558453.6504326     
   3117725795.9762611     
   3010188230.6271572     
   2907394467.5351772     
   2809895009.4573555     
   3398695848.3695331     
   3272380118.5061955     
   3149349878.8481555     
   3029977917.4970279     
   2914742020.6888380     
   3594561835.6165047     
   3454630951.4535642     
   3317043829.2265453     
   3182077544.7808132     
   3050106783.0162945     
   2700410304.5086746     
   2622348980.2520719     
   2551673231.6877337     
   2488990432.8057985     
   2434965167.1014767     
   2737949743.9513593     
   2643099621.3041997     
   2554524676.5349860     
   2472850381.1994200     
   2398792391.4379077     
   2809895009.4573555     
   2699063427.0103817     
   2593291324.3249459     
   2493150443.8413715     
   2399323337.9977417     
   2914742020.6888380     
   2789326848.8957143     
   2667773453.0831499     
   2550542654.2901516     
   2438206388.0342588     
   3050106783.0162945     
   2911870537.8802900     
   2776429326.6973586     
   2644106633.3711367     
   2515319089.5614171     
   2434965167.1014767     
   2363711836.1894279     
   2300768627.0161653     
   2246805796.7008538     
   2202512375.8333387     
   2398792391.4379077     
   2309294218.8092184     
   2227344335.0248327     
   2153728212.2164230     
   2089305965.9057848     
   2399323337.9977417     
   2291752800.8454442     
   2190625277.5320716     
   2096749124.9163063     
   2011067849.6388800     
   2438206388.0342588     
   2313625677.1277976     
   2194172246.0724778     
   2080560596.9958534     
   1973677680.5096684     
   2515319089.5614171     
   2375517683.0748429     
   2239519588.5841155     
   2107853363.3909631     
   1981215495.7157772     
   2202512375.8333387     
   2146823583.6321101     
   2106141091.0853691     
   2081247395.7105184     
   2072833213.9493711     
   2089305965.9057848     
   2013613965.2895896     
   1950350268.0861712     
   1900610578.0516789     
   1865440859.4008968     
   2011067849.6388800     
   1913955773.1094644     
   1825692574.4589760     
   1747495339.2848971     
   1680675784.6210773     
   1973677680.5096684     
   1856733119.6264496     
   1744236091.5048962     
   1637123074.0962625     
   1536544385.5987103     
   1981215495.7157772     
   1849568453.9454403     
   1718035849.7043240     
   1586976585.6478667     
   1456910516.5865180     
   2072833213.9493711     
   2069215985.5528722     
   2084844334.5794203     
   2122347611.9086459     
   2185538942.9468741     
   1865440859.4008968     
   1854892896.3518338     
   1867314854.5010419     
   1904912280.5888419     
   1970716952.4467895     
   1680675784.6210773     
   1652220718.0956488     
   1651476133.0359392     
   1680804525.5586243     
   1742812848.3248172     
   1536544385.5987103     
   1475800990.2991469     
   1447737081.1834524     
   1456306681.0396018     
   1504796565.0144081     
   1456910516.5865180     
   1348092807.8588405     
   1274251753.6601644     
   1243494091.4531126     
   1262839592.3479095     
   2185538942.9468741     
   2156234368.0075545     
   2146518109.7697098     
   2166912114.6771154     
   2228486231.6245804     
   1970716952.4467895     
   1968899339.7239568     
   2003621378.9676452     
   2093553743.1580534     
   2257352943.7731524     
   1742812848.3248172     
   1787655791.2591164     
   1884642796.3320382     
   2060677360.2142959     
   2340983500.2762709     
   1504796565.0144081     
   1613219578.8767264     
   1788841694.5230131     
   2066404887.2000773     
   2476106472.7774477     
   1262839592.3479095     
   1446632801.2621639     
   1715653229.1916897     
   2110469362.2780554     
   2663507642.3456264     
   5037940003.0611372     
   4794831044.0515614     
   4570043243.4221449     
   4362462986.8100328     
   4172071978.3370872     
   5208986120.7058935     
   5008912831.6480227     
   4807426109.0186205     
   4604217399.6102142     
   4399094609.8630533     
   5290442880.1348858     
   5132868393.0100012     
   4975966482.5505886     
   4811742412.4879656     
   4634528084.9781952     
   5209115315.8239689     
   5117791014.6450472     
   5044895514.2715654     
   4967176167.0151682     
   4870610160.6341391     
   4926017842.0258589     
   4936010381.0013638     
   4996298408.6728897     
   5059579908.2044373     
   5102001455.0528202     
   4172071978.3370872     
   4021098287.9619622     
   3874330353.3567996     
   3732018626.1926541     
   3594561835.6165047     
   4399094609.8630533     
   4238873923.0674720     
   4080902305.8270397     
   3925387058.5970988     
   3772610542.2271724     
   4634528084.9781952     
   4468116286.4177732     
   4303099548.2190952     
   4139579635.5766206     
   3977686276.5183058     
   4870610160.6341391     
   4701675499.8443518     
   4534268312.3736944     
   4368336051.8904819     
   4203836995.9157548     
   5102001455.0528202     
   4934416953.3337879     
   4769398825.2884331     
   4606688439.5100498     
   4446048237.0881462     
   3594561835.6165047     
   3454630951.4535642     
   3317043829.2265453     
   3182077544.7808132     
   3050106783.0162945     
   3772610542.2271724     
   3622294951.1341329     
   3473223977.7115912     
   3325585984.1054478     
   3179646538.9606876     
   3977686276.5183058     
   3818082233.8366356     
   3658855333.5807357     
   3500114355.5685949     
   3342023243.9599504     
   4203836995.9157548     
   4036126703.3356042     
   3868151283.7963910     
   3699957778.6105070     
   3531629143.5158963     
   4446048237.0881462     
   4271420812.4376550     
   4096088445.8174334     
   3920056558.7390308     
   3743352104.0097599     
   3050106783.0162945     
   2911870537.8802900     
   2776429326.6973586     
   2644106633.3711367     
   2515319089.5614171     
   3179646538.9606876     
   3031575033.9999404     
   2885731677.6831183     
   2742378633.9540009     
   2601872135.0100708     
   3342023243.9599504     
   3183846947.5567169     
   3027322943.7538266     
   2872650450.2817760     
   2720120894.2066035     
   3531629143.5158963     
   3362921295.7261076     
   3195298356.9410954     
   3028900483.6096377     
   2863957054.2080555     
   3743352104.0097599     
   3563546580.5621967     
   3384276034.4350853     
   3205628341.6510978     
   3027777688.3170996     
   2515319089.5614171     
   2375517683.0748429     
   2239519588.5841155     
   2107853363.3909631     
   1981215495.7157772     
   2601872135.0100708     
   2453164013.2061844     
   2306380891.2746286     
   2161831861.9913282     
   2019934170.6136906     
   2720120894.2066035     
   2565213603.6272984     
   2410849138.3717527     
   2257150529.0889730     
   2104286990.0419869     
   2863957054.2080555     
   2705835592.8503323     
   2547406919.4253736     
   2388689989.0442176     
   2229715410.8795409     
   3027777688.3170996     
   2869428666.7324123     
   2710403403.2530694     
   2550703609.6390729     
   2390342549.2338367     
   1981215495.7157772     
   1849568453.9454403     
   1718035849.7043240     
   1586976585.6478667     
   1456910516.5865180     
   2019934170.6136906     
   1882328068.9848800     
   1745058463.6116953     
   1608252580.7670133     
   1472085900.3980868     
   2104286990.0419869     
   1963451617.5395136     
   1823555963.7015193     
   1684626600.4923685     
   1546718090.8252816     
   2229715410.8795409     
   2086665034.4767697     
   1945248980.4282598     
   1805467599.7640827     
   1667397376.8944743     
   2390342549.2338367     
   2244461485.6478443     
   2100776575.7319748     
   1959294601.4102602     
   1820188111.2507925     
   1456910516.5865180     
   1348092807.8588405     
   1274251753.6601644     
   1243494091.4531126     
   1262839592.3479095     
   1472085900.3980868     
   1328045937.0806191     
   1198478339.5556581     
   1087855064.6944799     
   1002066499.7018257     
   1546718090.8252816     
   1397033840.8260591     
   1243799956.6747134     
   1084744997.1647587     
   917837893.74611080     
   1667397376.8944743     
   1552159911.8956835     
   1427816785.8917766     
   1294726069.0233119     
   1158999332.2192261     
   1820188111.2507925     
   1779679111.8293414     
   1735651753.6969566     
   1696734212.0493555     
   1681396896.7410600     
   1262839592.3479095     
   1446632801.2621639     
   1715653229.1916897     
   2110469362.2780554     
   2663507642.3456264     
   1002066499.7018257     
   1164712186.9563468     
   1425406594.1824677     
   1808723520.0543032     
   2334734749.6345558     
   917837893.74611080     
   963178073.43432629     
   1144932905.8925586     
   1476456350.8411283     
   1957422846.5328958     
   1158999332.2192261     
   1008506589.8693383     
   985240770.55769920     
   1161466498.9084663     
   1544085581.2748678     
   1681396896.7410600     
   1383819335.7489595     
   1129488827.3416986     
   1010121312.5719962     
   1153005298.3838398     
 </DataArray>
 <DataArray  type="Float64" Name="strain" NumberOfComponents="3" format="ascii">
   8.1857075890368058E-002  -9.0331707469495370E-003  -2.8817475850750784E-002
   8.2592913402145363E-002  -1.7033628731716211E-002  -1.9582482376485633E-002
   8.3328750913922667E-002  -2.2439083379488939E-002  -1.3256260172743672E-002
   8.4064588425699860E-002  -2.5249534690267438E-002  -9.8388092395249871E-003
   8.4800425937477164E-002  -2.5464982664052060E-002  -9.3301295768296599E-003
   8.8026204289009868E-002  -1.3586186557128066E-002  -1.6991713197683223E-002
   8.6328197075866975E-002  -1.8944160851740499E-002  -9.5755753049365788E-003
   8.4630189862723915E-002  -2.2481944931000974E-002  -4.1183555915075276E-003
   8.2932182649580966E-002  -2.4199538794910019E-002  -6.2005405739576358E-004
   8.1234175436438016E-002  -2.4096942443467384E-002   9.1932929739885205E-004
   8.9693953784356850E-002  -1.8139202367306650E-002  -2.1360602936398576E-003
   8.6511954937499802E-002  -2.0854692971764510E-002   2.6864088959450694E-003
   8.3329956090642643E-002  -2.2524806482513079E-002   6.4998129974189328E-003
   8.0147957243785484E-002  -2.3149542899552383E-002   9.3041520107818923E-003
   7.6965958396928352E-002  -2.2728902222882597E-002   1.1099425936033497E-002
   8.6860324376409170E-002  -2.2692218177485152E-002   1.5749482861379040E-002
   8.3144186987043969E-002  -2.2765225091788605E-002   1.7203470226160200E-002
   7.9428049597678727E-002  -2.2567668034025205E-002   1.8598245594036517E-002
   7.5711912208313609E-002  -2.2099547004194968E-002   1.9933808965007897E-002
   7.1995774818948394E-002  -2.1360862002297865E-002   2.1210160339074101E-002
   7.9525316065166607E-002  -2.7245233987663708E-002   3.6664916267373393E-002
   7.6224893224499435E-002  -2.4675757211812754E-002   3.3975608685708703E-002
   7.2924470383832235E-002  -2.2610529585537373E-002   3.2176942198344965E-002
   6.9624047543165077E-002  -2.1049551108837421E-002   3.1268916805282390E-002
   6.6323624702497891E-002  -1.9992821781713133E-002   3.1251532506520685E-002
   8.4800425937477164E-002  -2.5464982664052060E-002  -9.3301295768296599E-003
   8.2142814168162159E-002  -2.4427298732027480E-002  -7.3170815697612412E-003
   7.9485202398847266E-002  -2.3478354325379175E-002  -5.5073470616980313E-003
   7.6827590629532316E-002  -2.2618149444106568E-002  -3.9009260526398359E-003
   7.4169978860217367E-002  -2.1846684088210222E-002  -2.4978185425865718E-003
   8.1234175436438016E-002  -2.4096942443467384E-002   9.1932929739885205E-004
   7.8436323034072164E-002  -2.3121933718346782E-002   2.2114311352650906E-003
   7.5638470631706395E-002  -2.2222290461221622E-002   3.4263652060346483E-003
   7.2840618229340529E-002  -2.1398012672092327E-002   4.5641315097074975E-003
   7.0042765826974773E-002  -2.0649100350958460E-002   5.6247300462836658E-003
   7.6965958396928352E-002  -2.2728902222882597E-002   1.1099425936033497E-002
   7.4154011093420014E-002  -2.1816568704665723E-002   1.1683955662077972E-002
   7.1342063789911703E-002  -2.0966226597064277E-002   1.2317463352934252E-002
   6.8530116486403350E-002  -2.0177875900077972E-002   1.2999949008601970E-002
   6.5718169182894998E-002  -1.9451516613707087E-002   1.3731412629081424E-002
   7.1995774818948394E-002  -2.1360862002297865E-002   2.1210160339074101E-002
   6.9295878346205819E-002  -2.0511203690984844E-002   2.1100492010677159E-002
   6.6595981873463286E-002  -1.9710162732906718E-002   2.1165947379000179E-002
   6.3896085400720726E-002  -1.8957739128063672E-002   2.1406526444043297E-002
   6.1196188927978186E-002  -1.8253932876455520E-002   2.1822229205806253E-002
   6.6323624702497891E-002  -1.9992821781713133E-002   3.1251532506520685E-002
   6.3861924792429497E-002  -1.9205838677304077E-002   3.0461040181062743E-002
   6.1400224882361090E-002  -1.8454098868749380E-002   2.9971817284233121E-002
   5.8938524972292634E-002  -1.7737602356049598E-002   2.9783863816031736E-002
   5.6476825062224234E-002  -1.7056349139204119E-002   2.9897179776458505E-002
   7.4169978860217367E-002  -2.1846684088210222E-002  -2.4978185425865718E-003
   7.1231963491191097E-002  -2.1095785617228302E-002  -2.4085116925012251E-003
   6.8293948122164716E-002  -2.0297281390699001E-002  -2.2121724272960441E-003
   6.5355932753138363E-002  -1.9451171408622521E-002  -1.9088007469703072E-003
   6.2417917384112065E-002  -1.8557455670999534E-002  -1.4983966515251801E-003
   7.0042765826974773E-002  -2.0649100350958460E-002   5.6247300462836658E-003
   6.7220927520891871E-002  -1.9915798535818707E-002   5.5716730391329183E-003
   6.4399089214809024E-002  -1.9138352264670672E-002   5.6439377427490445E-003
   6.1577250908726150E-002  -1.8316761537514999E-002   5.8415241571324189E-003
   5.8755412602643331E-002  -1.7451026354350585E-002   6.1644322822824726E-003
   6.5718169182894998E-002  -1.9451516613707087E-002   1.3731412629081424E-002
   6.3030797235402503E-002  -1.8735811454409418E-002   1.3532530465155485E-002
   6.0343425287909994E-002  -1.7979423138642661E-002   1.3477259307643374E-002
   5.7656053340417492E-002  -1.7182351666406918E-002   1.3565599156544990E-002
   5.4968681392924962E-002  -1.6344597037702080E-002   1.3797550011860560E-002
   6.1196188927978186E-002  -1.8253932876455520E-002   2.1822229205806253E-002
   5.8661572634722894E-002  -1.7555824373000087E-002   2.1474060585566133E-002
   5.6126956341467624E-002  -1.6820494012614380E-002   2.1287792267386727E-002
   5.3592340048212360E-002  -1.6047941795298892E-002   2.1263424251268155E-002
   5.1057723754957124E-002  -1.5238167721053464E-002   2.1400956537210081E-002
   5.6476825062224234E-002  -1.7056349139204119E-002   2.9897179776458505E-002
   5.4113253718853060E-002  -1.6375837291590561E-002   2.9396263400365386E-002
   5.1749682375481942E-002  -1.5661564886586321E-002   2.9075536621979703E-002
   4.9386111032110783E-002  -1.4913531924191009E-002   2.8934999441301568E-002
   4.7022539688739651E-002  -1.4131738404404681E-002   2.8974651858330869E-002
   6.2417917384112065E-002  -1.8557455670999534E-002  -1.4983966515251801E-003
   5.9421075791421196E-002  -1.7664138044472089E-002  -1.3502779824422495E-003
   5.6424234198730328E-002  -1.6819222395683564E-002  -1.0108300377426049E-003
   5.3427392606039514E-002  -1.6022708724633961E-002  -4.8005281742544148E-004
   5.0430551013348590E-002  -1.5274597031323500E-002   2.4205367850793635E-004
   5.8755412602643331E-002  -1.7451026354350585E-002   6.1644322822824726E-003
   5.5943086205327175E-002  -1.6582339508326771E-002   6.1381888888593084E-003
   5.3130759808011019E-002  -1.5751893792590788E-002   6.2896466105687998E-003
   5.0318433410694918E-002  -1.4959689207143217E-002   6.6188054474101976E-003
   4.7506107013378762E-002  -1.4205725751982978E-002   7.1256653993844177E-003
   5.4968681392924962E-002  -1.6344597037702080E-002   1.3797550011860560E-002
   5.2327242030498794E-002  -1.5500540972181287E-002   1.3607105403382891E-002
   4.9685802668072571E-002  -1.4684565189497789E-002   1.3580733749552987E-002
   4.7044363305646417E-002  -1.3896669689651808E-002   1.3718435050370362E-002
   4.4402923943220179E-002  -1.3136854472642567E-002   1.4020209305835085E-002
   5.1057723754957124E-002  -1.5238167721053464E-002   2.1400956537210081E-002
   4.8573543266936005E-002  -1.4418742436035997E-002   2.1056471561128859E-002
   4.6089362778914858E-002  -1.3617236586404902E-002   2.0862431379210261E-002
   4.3605182290893739E-002  -1.2833650172160177E-002   2.0818835991454267E-002
   4.1121001802872613E-002  -1.2067983193301879E-002   2.0925685397860910E-002
   4.7022539688739651E-002  -1.4131738404404681E-002   2.8974651858330869E-002
   4.4681989914638787E-002  -1.3336943899890874E-002   2.8486287362096629E-002
   4.2341440140537923E-002  -1.2549907983312028E-002   2.8134739499540345E-002
   4.0000890366437072E-002  -1.1770630654669132E-002   2.7920008270662086E-002
   3.7660340592336250E-002  -1.0999111913961301E-002   2.7842093675461421E-002
   5.0430551013348590E-002  -1.5274597031323500E-002   2.4205367850793635E-004
   4.7781327130510642E-002  -1.4525399792677085E-002   1.8577300517952366E-004
   4.5132103247672750E-002  -1.3725629485618507E-002   1.1159989059095210E-004
   4.2482879364834775E-002  -1.2875286110149486E-002   1.9534334743664949E-005
   3.9833655481996910E-002  -1.1974369666267970E-002  -9.0423662363114943E-005
   4.7506107013378762E-002  -1.4205725751982978E-002   7.1256653993844177E-003
   4.4859569092715490E-002  -1.3454093056970762E-002   6.9533003985027264E-003
   4.2213031172052246E-002  -1.2668880751965317E-002   6.8041997632305451E-003
   3.9566493251388987E-002  -1.1850088836966768E-002   6.6783634935660419E-003
   3.6919955330725729E-002  -1.0997717311975297E-002   6.5757915895106045E-003
   4.4402923943220179E-002  -1.3136854472642567E-002   1.4020209305835085E-002
   4.1800228791599475E-002  -1.2382786321264661E-002   1.3714766518983262E-002
   3.9197533639978840E-002  -1.1612132018311905E-002   1.3473744904607288E-002
   3.6594838488358157E-002  -1.0824891563784272E-002   1.3297144462708327E-002
   3.3992143336737557E-002  -1.0021064957682069E-002   1.3184965193285658E-002
   4.1121001802872613E-002  -1.2067983193301879E-002   2.0925685397860910E-002
   3.8603306227162633E-002  -1.1311479585558448E-002   2.0470171366619494E-002
   3.6085610651452577E-002  -1.0555383284658604E-002   2.0120235314722325E-002
   3.3567915075742492E-002  -9.7996942906019985E-003   1.9875877242170124E-002
   3.1050219500032533E-002  -9.0444126033890071E-003   1.9737097148962615E-002
   3.7660340592336250E-002  -1.0999111913961301E-002   2.7842093675461421E-002
   3.5268801399404803E-002  -1.0240172849852180E-002   2.7219514941412226E-002
   3.2877262206473384E-002  -9.4986345510050252E-003   2.6743670993575885E-002
   3.0485723013541993E-002  -8.7744970174193221E-003   2.6414561831951927E-002
   2.8094183820610574E-002  -8.0677602490959455E-003   2.6232187456540657E-002
   3.9833655481996910E-002  -1.1974369666267970E-002  -9.0423662363114943E-005
   3.7428306694680336E-002  -1.1131157265761971E-002  -3.3413489621958448E-004
   3.5022957907363927E-002  -1.0453926020416782E-002  -5.0065855099978851E-004
   3.2617609120047464E-002  -9.9426759302342210E-003  -5.8999462670572544E-004
   3.0212260332730945E-002  -9.5974069952116103E-003  -6.0214312333495279E-004
   3.6919955330725729E-002  -1.0997717311975297E-002   6.5757915895106045E-003
   3.4575579205513407E-002  -1.0183664357949929E-002   6.1636546424225225E-003
   3.2231203080301224E-002  -9.4798281558501896E-003   5.7962754404667916E-003
   2.9886826955088888E-002  -8.8862087056762046E-003   5.4736539836444942E-003
   2.7542450829876663E-002  -8.4028060074279320E-003   5.1957902719550475E-003
   3.3992143336737557E-002  -1.0021064957682069E-002   1.3184965193285658E-002
   3.1676310039686795E-002  -9.2361714501372205E-003   1.2660166936201145E-002
   2.9360476742636060E-002  -8.5057302912831811E-003   1.2147696590307011E-002
   2.7044643445585340E-002  -7.8297414811188612E-003   1.1647554155603076E-002
   2.4728810148534647E-002  -7.2082050196451419E-003   1.1159739632088717E-002
   3.1050219500032533E-002  -9.0444126033890071E-003   1.9737097148962615E-002
   2.8730499197200596E-002  -8.2886785423250675E-003   1.9155401985117282E-002
   2.6410778894368693E-002  -7.5316324267159368E-003   1.8553604898519531E-002
   2.4091058591536697E-002  -6.7732742565616254E-003   1.7931705889168998E-002
   2.1771338288704797E-002  -6.0136040318616857E-003   1.7289704957065888E-002
   2.8094183820610574E-002  -8.0677602490959455E-003   2.6232187456540657E-002
   2.5738146678054685E-002  -7.3411856345129145E-003   2.5649359789170156E-002
   2.3382109535498852E-002  -6.5575345621490533E-003   2.5014000365104705E-002
   2.1026072392943046E-002  -5.7168070320038691E-003   2.4326109184343775E-002
   1.8670035250387185E-002  -4.8190030440781184E-003   2.3585686246887616E-002
   3.0212260332730945E-002  -9.5974069952116103E-003  -6.0214312333495279E-004
   2.9604451761306771E-002  -9.1312857795111668E-003  -3.6171099440007737E-004
   2.8996643189882376E-002  -8.2574788472891125E-003  -1.8001473470830032E-003
   2.8388834618458092E-002  -6.9759861985487226E-003  -4.9174521813833416E-003
   2.7781026047033808E-002  -5.2868078332868329E-003  -9.7136254973002600E-003
   2.7542450829876663E-002  -8.4028060074279320E-003   5.1957902719550475E-003
   2.5524674862091479E-002  -7.8692571164172831E-003   5.8703897346440437E-003
   2.3506898894306322E-002  -7.1251990879551141E-003   5.4039228862282629E-003
   2.1489122926521179E-002  -6.1706319220406619E-003   3.7963897267083435E-003
   1.9471346958735980E-002  -5.0055556186745509E-003   1.0477902560834806E-003
   2.4728810148534647E-002  -7.2082050196451419E-003   1.1159739632088717E-002
   2.1838868954901336E-002  -6.6072284533247316E-003   1.2071329849464074E-002
   1.8948927761267970E-002  -5.9929193286206717E-003   1.2379655926247485E-002
   1.6058986567634603E-002  -5.3652776455332674E-003   1.2084717862439115E-002
   1.3169045374001292E-002  -4.7243034040616028E-003   1.1186515658039187E-002
   2.1771338288704797E-002  -6.0136040318616857E-003   1.7289704957065888E-002
   1.8547034039736079E-002  -5.3451997902315140E-003   1.8241109350059126E-002
   1.5322729790767313E-002  -4.8606395692857851E-003   1.9127051772973566E-002
   1.2098425541798512E-002  -4.5599233690250957E-003   1.9947532225808931E-002
   8.8741212928298216E-003  -4.4430511894489877E-003   2.0702550708565026E-002
   1.8670035250387185E-002  -4.8190030440781184E-003   2.3585686246887616E-002
   1.5649170116595723E-002  -4.0831711271380744E-003   2.4379728236430420E-002
   1.2628304982804345E-002  -3.7283598099512594E-003   2.5646110426407354E-002
   9.6074398490129248E-003  -3.7545690925172917E-003   2.7384832816817695E-002
   6.5865747152215048E-003  -4.1617989748361506E-003   2.9595895407662054E-002
   2.7781026047033808E-002  -5.2868078332868329E-003  -9.7136254973002600E-003
   2.3354186691765699E-002  -4.2067452332494870E-003  -4.1859432052031575E-003
   1.8927347336497757E-002  -4.7525998801781766E-003   2.6054429788761047E-003
   1.4500507981229566E-002  -6.9243717740734290E-003   1.0660533054939081E-002
   1.0073668625961707E-002  -1.0722060914935660E-002   1.9979327022985771E-002
   1.9471346958735980E-002  -5.0055556186745509E-003   1.0477902560834806E-003
   1.6235910614024796E-002  -4.6910974414939854E-003   6.7417178519220133E-003
   1.3000474269313611E-002  -6.2883846541365029E-003   1.3554747576890791E-002
   9.7650379246022045E-003  -9.7974172566035189E-003   2.1486879430989425E-002
   6.5296015798912421E-003  -1.5218195248892563E-002   3.0538113414219747E-002
   1.3169045374001292E-002  -4.7243034040616028E-003   1.1186515658039187E-002
   1.0980410276993924E-002  -5.1754496497383728E-003   1.6760860414762213E-002
   8.7917751799865967E-003  -7.8241694280957730E-003   2.3309705537763570E-002
   6.6031400829792627E-003  -1.2670462739132735E-002   3.0833051027041841E-002
   4.4145049859719010E-003  -1.9714329582849466E-002   3.9330896882598054E-002
   8.8741212928298216E-003  -4.4430511894489877E-003   2.0702550708565026E-002
   7.5876856806734935E-003  -5.6598018579834819E-003   2.5871484483317025E-002
   6.3012500685171689E-003  -9.3599542020543491E-003   3.1870316861493123E-002
   5.0148144563607663E-003  -1.5543508221662165E-002   3.8699047843094976E-002
   3.7283788442045024E-003  -2.4210463916806368E-002   4.6357677428120247E-002
   6.5865747152215048E-003  -4.1617989748361506E-003   2.9595895407662054E-002
   6.0577368250632757E-003  -6.1441540662278138E-003   3.4073590057585812E-002
   5.5288989349050466E-003  -1.0895738976013092E-002   3.9236581548081406E-002
   5.0000610447468591E-003  -1.8416553704191416E-002   4.5084869879148337E-002
   4.4712231545885883E-003  -2.8706598250763271E-002   5.1618455050786771E-002
   7.9525316065166607E-002  -2.7245233987663708E-002   3.6664916267373393E-002
   7.6224893224499435E-002  -2.4675757211812754E-002   3.3975608685708703E-002
   7.2924470383832235E-002  -2.2610529585537373E-002   3.2176942198344965E-002
   6.9624047543165077E-002  -2.1049551108837421E-002   3.1268916805282390E-002
   6.6323624702497891E-002  -1.9992821781713133E-002   3.1251532506520685E-002
   7.0444256568629987E-002  -2.3907807378417856E-002   4.0565931465296912E-002
   6.7930867477175749E-002  -2.1972308832384213E-002   3.8355788667288809E-002
   6.5417478385721470E-002  -2.0385569944698811E-002   3.6829072273405483E-002
   6.2904089294267218E-002  -1.9147590715361859E-002   3.5985782283646864E-002
   6.0390700202812952E-002  -1.8258371144373287E-002   3.5825918698012937E-002
   6.2372473604800263E-002  -2.0570380769172031E-002   4.3755223687789599E-002
   6.0438903572382574E-002  -1.9268860452955533E-002   4.2179735164665388E-002
   5.8505333539964864E-002  -1.8160610303860313E-002   4.1080458355489687E-002
   5.6571763507547210E-002  -1.7245630321886245E-002   4.0457393260262223E-002
   5.4638193475129514E-002  -1.6523920507033441E-002   4.0310539878983240E-002
   5.5309967173677310E-002  -1.7232954159926192E-002   4.6232792934851580E-002
   5.3749001510119972E-002  -1.6565412073526978E-002   4.5447448177838426E-002
   5.2188035846562446E-002  -1.5935650663021782E-002   4.4931100444597243E-002
   5.0627070183005003E-002  -1.5343669928410655E-002   4.4683749735128266E-002
   4.9066104519447561E-002  -1.4789469869693594E-002   4.4705396049431190E-002
   4.9256737275261309E-002  -1.3895527550680353E-002   4.7998639206482507E-002
   4.7861161290387783E-002  -1.3861963694098339E-002   4.8158927706807630E-002
   4.6465585305514201E-002  -1.3710691022183225E-002   4.8380998540728359E-002
   4.5070009320640661E-002  -1.3441709534935044E-002   4.8664851708244777E-002
   4.3674433335767093E-002  -1.3055019232353693E-002   4.9010487209357134E-002
   6.6323624702497891E-002  -1.9992821781713133E-002   3.1251532506520685E-002
   6.3861924792429497E-002  -1.9205838677304077E-002   3.0461040181062743E-002
   6.1400224882361090E-002  -1.8454098868749380E-002   2.9971817284233121E-002
   5.8938524972292634E-002  -1.7737602356049598E-002   2.9783863816031736E-002
   5.6476825062224234E-002  -1.7056349139204119E-002   2.9897179776458505E-002
   6.0390700202812952E-002  -1.8258371144373287E-002   3.5825918698012937E-002
   5.8211632239697650E-002  -1.7554128367382682E-002   3.5168988050130134E-002
   5.6032564276582306E-002  -1.6871079520039800E-002   3.4776051867525151E-002
   5.3853496313466968E-002  -1.6209224602344419E-002   3.4647110150197974E-002
   5.1674428350351659E-002  -1.5568563614296760E-002   3.4782162898148755E-002
   5.4638193475129514E-002  -1.6523920507033441E-002   4.0310539878983240E-002
   5.2704482495616781E-002  -1.5902418057461454E-002   3.9801220274882629E-002
   5.0770771516104055E-002  -1.5288060171330164E-002   3.9518620172709171E-002
   4.8837060536591335E-002  -1.4680846848639462E-002   3.9462739572463171E-002
   4.6903349557078616E-002  -1.4080778089389262E-002   3.9633578474144643E-002
   4.9066104519447561E-002  -1.4789469869693594E-002   4.4705396049431190E-002
   4.7340475560187001E-002  -1.4250707747540198E-002   4.4357736855319720E-002
   4.5614846600926434E-002  -1.3705040822620501E-002   4.4199522199785062E-002
   4.3889217641665874E-002  -1.3152469094934297E-002   4.4230752082827500E-002
   4.2163588682405301E-002  -1.2592992564481806E-002   4.4451426504446570E-002
   4.3674433335767093E-002  -1.3055019232353693E-002   4.9010487209357134E-002
   4.2119611433408241E-002  -1.2598997437618831E-002   4.8838537791441677E-002
   4.0564789531049361E-002  -1.2122021473910977E-002   4.8818757948752844E-002
   3.9009967628690481E-002  -1.1624091341229277E-002   4.8951147681290552E-002
   3.7455145726331601E-002  -1.1105207039574405E-002   4.9235706989054384E-002
   5.6476825062224234E-002  -1.7056349139204119E-002   2.9897179776458505E-002
   5.4113253718853060E-002  -1.6375837291590561E-002   2.9396263400365386E-002
   5.1749682375481942E-002  -1.5661564886586321E-002   2.9075536621979703E-002
   4.9386111032110783E-002  -1.4913531924191009E-002   2.8934999441301568E-002
   4.7022539688739651E-002  -1.4131738404404681E-002   2.8974651858330869E-002
   5.1674428350351659E-002  -1.5568563614296760E-002   3.4782162898148755E-002
   4.9491856143351082E-002  -1.4925310286232396E-002   3.4343443562853931E-002
   4.7309283936350477E-002  -1.4255678348487150E-002   3.4086532902592934E-002
   4.5126711729349886E-002  -1.3559667801060986E-002   3.4011430917365505E-002
   4.2944139522349323E-002  -1.2837278643954120E-002   3.4118137607171639E-002
   4.6903349557078616E-002  -1.4080778089389262E-002   3.9633578474144643E-002
   4.4903395563774692E-002  -1.3474783280873995E-002   3.9249674231938592E-002
   4.2903441570470720E-002  -1.2849791810387923E-002   3.9049197742092090E-002
   4.0903487577166803E-002  -1.2205803677931074E-002   3.9032149004605235E-002
   3.8903533583862823E-002  -1.1542818883503309E-002   3.9198528019478110E-002
   4.2163588682405301E-002  -1.2592992564481806E-002   4.4451426504446570E-002
   4.0347871980124086E-002  -1.2024256275515711E-002   4.4114955407618901E-002
   3.8532155277842817E-002  -1.1443905272288779E-002   4.3963531140476950E-002
   3.6716438575561568E-002  -1.0851939554800939E-002   4.3997153703020958E-002
   3.4900721873280346E-002  -1.0248359123052511E-002   4.4215823095250392E-002
   3.7455145726331601E-002  -1.1105207039574405E-002   4.9235706989054384E-002
   3.5825285392399125E-002  -1.0573729270157428E-002   4.8939287089895256E-002
   3.4195425058466650E-002  -1.0038018734189483E-002   4.8829533097747818E-002
   3.2565564724534160E-002  -9.4980754316710998E-003   4.8906445012612140E-002
   3.0935704390601698E-002  -8.9538993626018804E-003   4.9170022834488292E-002
   4.7022539688739651E-002  -1.4131738404404681E-002   2.8974651858330869E-002
   4.4681989914638787E-002  -1.3336943899890874E-002   2.8486287362096629E-002
   4.2341440140537923E-002  -1.2549907983312028E-002   2.8134739499540345E-002
   4.0000890366437072E-002  -1.1770630654669132E-002   2.7920008270662086E-002
   3.7660340592336250E-002  -1.0999111913961301E-002   2.7842093675461421E-002
   4.2944139522349323E-002  -1.2837278643954120E-002   3.4118137607171639E-002
   4.0746709956525767E-002  -1.2103209674728083E-002   3.3668482126751664E-002
   3.8549280390702309E-002  -1.1372159690945280E-002   3.3368250429208740E-002
   3.6351850824878844E-002  -1.0644128692605444E-002   3.3217442514542270E-002
   3.4154421259055351E-002  -9.9191166797088504E-003   3.3216058382753044E-002
   3.8903533583862823E-002  -1.1542818883503309E-002   3.9198528019478110E-002
   3.6861831375515755E-002  -1.0869475449565486E-002   3.8792321157364820E-002
   3.4820129167168680E-002  -1.0194411398578469E-002   3.8548145227327073E-002
   3.2778426958821605E-002  -9.5176267305418661E-003   3.8466000229365582E-002
   3.0736724750474537E-002  -8.8391214454561218E-003   3.8545886163479759E-002
   3.4900721873280346E-002  -1.0248359123052511E-002   4.4215823095250392E-002
   3.3027354171608639E-002  -9.6357412244029023E-003   4.3857804453935834E-002
   3.1153986469936952E-002  -9.0166631062114401E-003   4.3674423893896322E-002
   2.9280618768265251E-002  -8.3911247684782322E-003   4.3665681415131580E-002
   2.7407251066593565E-002  -7.7591262112034765E-003   4.3831577017641968E-002
   3.0935704390601698E-002  -8.9538993626018804E-003   4.9170022834488292E-002
   2.9243278344804446E-002  -8.4020069992401525E-003   4.8864932016465190E-002
   2.7550852299007181E-002  -7.8389148138448134E-003   4.8747086428915870E-002
   2.5858426253209950E-002  -7.2646228064146313E-003   4.8816486071840595E-002
   2.4166000207412719E-002  -6.6791309769509422E-003   4.9073130945239352E-002
   3.7660340592336250E-002  -1.0999111913961301E-002   2.7842093675461421E-002
   3.5268801399404803E-002  -1.0240172849852180E-002   2.7219514941412226E-002
   3.2877262206473384E-002  -9.4986345510050252E-003   2.6743670993575885E-002
   3.0485723013541993E-002  -8.7744970174193221E-003   2.6414561831951927E-002
   2.8094183820610574E-002  -8.0677602490959455E-003   2.6232187456540657E-002
   3.4154421259055351E-002  -9.9191166797088504E-003   3.3216058382753044E-002
   3.1911591565530251E-002  -9.2013488487630024E-003   3.2669242114737096E-002
   2.9668761872005164E-002  -8.4950503962763074E-003   3.2273110059321181E-002
   2.7425932178480099E-002  -7.8002213222489770E-003   3.2027662216505409E-002
   2.5183102484955033E-002  -7.1168616266805707E-003   3.1932898586289504E-002
   3.0736724750474537E-002  -8.8391214454561218E-003   3.8545886163479759E-002
   2.8646553982743128E-002  -8.1625248476737411E-003   3.8080763748299759E-002
   2.6556383215011817E-002  -7.4914662415478117E-003   3.7770274972107401E-002
   2.4466212447280485E-002  -6.8259456270780769E-003   3.7614419834902449E-002
   2.2376041679549111E-002  -6.1659630042648628E-003   3.7613198336684833E-002
   2.7407251066593565E-002  -7.7591262112034765E-003   4.3831577017641968E-002
   2.5473688651043422E-002  -7.1237008465845214E-003   4.3454079842100618E-002
   2.3540126235493227E-002  -6.4878820868193715E-003   4.3235165731934450E-002
   2.1606563819943123E-002  -5.8516699319075098E-003   4.3174834687142852E-002
   1.9673001404392945E-002  -5.2150643818491549E-003   4.3273086707726720E-002
   2.4166000207412719E-002  -6.6791309769509422E-003   4.9073130945239352E-002
   2.2392995570431118E-002  -6.0848768454953017E-003   4.8789190396139437E-002
   2.0619990933449545E-002  -5.4842979320906260E-003   4.8667782338802035E-002
   1.8846986296467971E-002  -4.8773942367365611E-003   4.8708906773226979E-002
   1.7073981659486342E-002  -4.2641657594336690E-003   4.8912563699414324E-002
   2.8094183820610574E-002  -8.0677602490959455E-003   2.6232187456540657E-002
   2.5738146678054685E-002  -7.3411856345129145E-003   2.5649359789170156E-002
   2.3382109535498852E-002  -6.5575345621490533E-003   2.5014000365104705E-002
   2.1026072392943046E-002  -5.7168070320038691E-003   2.4326109184343775E-002
   1.8670035250387185E-002  -4.8190030440781184E-003   2.3585686246887616E-002
   2.5183102484955033E-002  -7.1168616266805707E-003   3.1932898586289504E-002
   2.2813373306167117E-002  -6.4321995001049292E-003   3.1528506518759436E-002
   2.0443644127379271E-002  -5.7334631330558938E-003   3.1149262135460376E-002
   1.8073914948591396E-002  -5.0206525255332424E-003   3.0795165436392491E-002
   1.5704185769803508E-002  -4.2937676775369749E-003   3.0466216421555670E-002
   2.2376041679549111E-002  -6.1659630042648628E-003   3.7613198336684833E-002
   2.0070299905455682E-002  -5.5232133656967219E-003   3.7344239651687372E-002
   1.7764558131362268E-002  -4.9093917039624985E-003   3.7178108091847586E-002
   1.5458816357268805E-002  -4.3244980190621680E-003   3.7114803657165345E-002
   1.3153074583175439E-002  -3.7685323109957758E-003   3.7154326347641237E-002
   1.9673001404392945E-002  -5.2150643818491549E-003   4.3273086707726720E-002
   1.7508926475920453E-002  -4.6142272312885702E-003   4.3096559187954242E-002
   1.5344851547447989E-002  -4.0853202748691100E-003   4.3100538234266156E-002
   1.3180776618975498E-002  -3.6283435125910955E-003   4.3285023846662253E-002
   1.1016701690503086E-002  -3.2432969444544379E-003   4.3650016025142742E-002
   1.7073981659486342E-002  -4.2641657594336690E-003   4.8912563699414324E-002
   1.5129253017561350E-002  -3.7052410968805849E-003   4.8785465127559879E-002
   1.3184524375636317E-002  -3.2612488457758604E-003   4.8916552562716098E-002
   1.1239795733711304E-002  -2.9321890061204461E-003   4.9305826004883313E-002
   9.2950670917862910E-003  -2.7180615779133221E-003   4.9953285454061191E-002
   1.8670035250387185E-002  -4.8190030440781184E-003   2.3585686246887616E-002
   1.5649170116595723E-002  -4.0831711271380744E-003   2.4379728236430420E-002
   1.2628304982804345E-002  -3.7283598099512594E-003   2.5646110426407354E-002
   9.6074398490129248E-003  -3.7545690925172917E-003   2.7384832816817695E-002
   6.5865747152215048E-003  -4.1617989748361506E-003   2.9595895407662054E-002
   1.5704185769803508E-002  -4.2937676775369749E-003   3.0466216421555670E-002
   1.3137474792008663E-002  -3.7786047850596471E-003   3.1247541284985192E-002
   1.0570763814213818E-002  -3.7009600440942592E-003   3.2464834259974373E-002
   8.0040528364190150E-003  -4.0608334546401448E-003   3.4118095346522576E-002
   5.4373418586241284E-003  -4.8582250166973040E-003   3.6207324544630715E-002
   1.3153074583175439E-002  -3.7685323109957758E-003   3.7154326347641237E-002
   1.1004145672503005E-002  -3.4740384429813309E-003   3.7866436533198211E-002
   8.8552167618305283E-003  -3.6735602782371340E-003   3.8978142741440722E-002
   6.7062878511580971E-003  -4.3670978167628834E-003   4.0489444972368178E-002
   4.5573589404856174E-003  -5.5546510585587905E-003   4.2400343225981241E-002
   1.1016701690503086E-002  -3.2432969444544379E-003   4.3650016025142742E-002
   9.2491827580787438E-003  -3.1694721009031257E-003   4.4236413981069367E-002
   7.4816638256544037E-003  -3.6461605123798493E-003   4.5186035870806371E-002
   5.7141448932300437E-003  -4.6733621788859012E-003   4.6498881694354705E-002
   3.9466259608057150E-003  -6.2510771004199994E-003   4.8174951451714132E-002
   9.2950670917862910E-003  -2.7180615779133221E-003   4.9953285454061191E-002
   7.8725860487358912E-003  -2.8649057588244764E-003   5.0357473628597660E-002
   6.4501050056855191E-003  -3.6187607465229532E-003   5.1088513648071376E-002
   5.0276239626351055E-003  -4.9796265410086832E-003   5.2146405512481897E-002
   3.6051429195846918E-003  -6.9475031422815414E-003   5.3531149221829222E-002
   6.5865747152215048E-003  -4.1617989748361506E-003   2.9595895407662054E-002
   6.0577368250632757E-003  -6.1441540662278138E-003   3.4073590057585812E-002
   5.5288989349050466E-003  -1.0895738976013092E-002   3.9236581548081406E-002
   5.0000610447468591E-003  -1.8416553704191416E-002   4.5084869879148337E-002
   4.4712231545885883E-003  -2.8706598250763271E-002   5.1618455050786771E-002
   5.4373418586241284E-003  -4.8582250166973040E-003   3.6207324544630715E-002
   5.4899702586067578E-003  -6.9924066330420143E-003   3.8347792694853666E-002
   5.5425986585893455E-003  -1.1362650206449776E-002   4.0965896584787609E-002
   5.5952270585718153E-003  -1.7968955736920339E-002   4.4061636214431155E-002
   5.6478554585545626E-003  -2.6811323224454231E-002   4.7635011583784026E-002
   4.5573589404856174E-003  -5.5546510585587905E-003   4.2400343225981241E-002
   4.9837925297473301E-003  -7.8406591998561592E-003   4.2736752737834838E-002
   5.4102261190090012E-003  -1.1829561436886266E-002   4.3343136888536332E-002
   5.8366597082707521E-003  -1.7521357769649269E-002   4.4219495678086210E-002
   6.2630932975324405E-003  -2.4916048198145191E-002   4.5365829106484679E-002
   3.9466259608057150E-003  -6.2510771004199994E-003   4.8174951451714132E-002
   4.5392036384848782E-003  -8.6889117666699989E-003   4.7240470186527883E-002
   5.1317813161640465E-003  -1.2296472667323186E-002   4.6368302459327888E-002
   5.7243589938430718E-003  -1.7073759802378307E-002   4.5558448270115071E-002
   6.3169366715223746E-003  -2.3020773171836151E-002   4.4810907618887980E-002
   3.6051429195846918E-003  -6.9475031422815414E-003   5.3531149221829222E-002
   4.1562035848195511E-003  -9.5371643334843936E-003   5.1858945040933135E-002
   4.7072642500544104E-003  -1.2763383897759356E-002   5.0041393297162118E-002
   5.2583249152892697E-003  -1.6626161835106991E-002   4.8078493990516308E-002
   5.8093855805241290E-003  -2.1125498145527111E-002   4.5970247120994845E-002
   4.9256737275261309E-002  -1.3895527550680353E-002   4.7998639206482507E-002
   4.7861161290387783E-002  -1.3861963694098339E-002   4.8158927706807630E-002
   4.6465585305514201E-002  -1.3710691022183225E-002   4.8380998540728359E-002
   4.5070009320640661E-002  -1.3441709534935044E-002   4.8664851708244777E-002
   4.3674433335767093E-002  -1.3055019232353693E-002   4.9010487209357134E-002
   4.3599065349973931E-002  -1.2302981003107727E-002   5.1502914307078707E-002
   4.2285202398158320E-002  -1.2219854322333190E-002   5.1568558438577355E-002
   4.0971339446342708E-002  -1.2047265420570163E-002   5.1735846302596172E-002
   3.9657476494527118E-002  -1.1785214297818355E-002   5.2004777899135116E-002
   3.8343613542711485E-002  -1.1433700954078113E-002   5.2375353228194199E-002
   3.7723232838237031E-002  -1.0710434455535017E-002   5.5070875529039526E-002
   3.6530944318403806E-002  -1.0577744950568055E-002   5.5013628697367201E-002
   3.5338655798570554E-002  -1.0383839818956950E-002   5.5097886997139550E-002
   3.4146367278737315E-002  -1.0128719060701830E-002   5.5323650428356526E-002
   3.2954078758904090E-002  -9.8123826758025057E-003   5.5690918991017913E-002
   3.1629239740050705E-002  -9.1178879079623354E-003   5.8702522872365319E-002
   3.0598387051124262E-002  -8.9356355788029543E-003   5.8494138483177624E-002
   2.9567534362197789E-002  -8.7204142173438678E-003   5.8467120624358840E-002
   2.8536681673271315E-002  -8.4722238235851958E-003   5.8621469295909258E-002
   2.7505828984344869E-002  -8.1910643975269398E-003   5.8957184497828573E-002
   2.5317086055414856E-002  -7.5253413603896813E-003   6.2397856337055524E-002
   2.4487530596319612E-002  -7.2935262070377704E-003   6.2010087796008029E-002
   2.3657975137224355E-002  -7.0569886157307304E-003   6.1843547184253778E-002
   2.2828419678129090E-002  -6.8157285864686445E-003   6.1898234501793159E-002
   2.1998864219033840E-002  -6.5697461192513740E-003   6.2174149748625729E-002
   4.3674433335767093E-002  -1.3055019232353693E-002   4.9010487209357134E-002
   4.2119611433408241E-002  -1.2598997437618831E-002   4.8838537791441677E-002
   4.0564789531049361E-002  -1.2122021473910977E-002   4.8818757948752844E-002
   3.9009967628690481E-002  -1.1624091341229277E-002   4.8951147681290552E-002
   3.7455145726331601E-002  -1.1105207039574405E-002   4.9235706989054384E-002
   3.8343613542711485E-002  -1.1433700954078113E-002   5.2375353228194199E-002
   3.6948638132330180E-002  -1.1028972608532972E-002   5.2171326712075194E-002
   3.5553662721948862E-002  -1.0607276480367155E-002   5.2134823604684910E-002
   3.4158687311567536E-002  -1.0168612569580534E-002   5.2265843906023304E-002
   3.2763711901186238E-002  -9.7129808761730607E-003   5.2564387616090169E-002
   3.2954078758904090E-002  -9.8123826758025057E-003   5.5690918991017913E-002
   3.1734303674002512E-002  -9.4589477794469468E-003   5.5450828990342864E-002
   3.0514528589100955E-002  -9.0925314868233881E-003   5.5393616231898576E-002
   2.9294753504199373E-002  -8.7131337979315694E-003   5.5519280715685147E-002
   2.8074978419297819E-002  -8.3207547127715498E-003   5.5827822441702604E-002
   2.7505828984344869E-002  -8.1910643975269398E-003   5.8957184497828573E-002
   2.6476608058425246E-002  -7.8889229503609770E-003   5.8677044626244547E-002
   2.5447387132505626E-002  -7.5777864932796493E-003   5.8595135830393552E-002
   2.4418166206586003E-002  -7.2576550262826601E-003   5.8711458110275616E-002
   2.3388945280666380E-002  -6.9285285493701776E-003   5.9026011465890746E-002
   2.1998864219033840E-002  -6.5697461192513740E-003   6.2174149748625729E-002
   2.1175551285598365E-002  -6.3188981212750905E-003   6.1849973619780396E-002
   2.0352238352162884E-002  -6.0630414997357857E-003   6.1739382400170129E-002
   1.9528925418727420E-002  -5.8021762546338028E-003   6.1842376089795051E-002
   1.8705612485291956E-002  -5.5363023859686944E-003   6.2158954688655454E-002
   3.7455145726331601E-002  -1.1105207039574405E-002   4.9235706989054384E-002
   3.5825285392399125E-002  -1.0573729270157428E-002   4.8939287089895256E-002
   3.4195425058466650E-002  -1.0038018734189483E-002   4.8829533097747818E-002
   3.2565564724534160E-002  -9.4980754316710998E-003   4.8906445012612140E-002
   3.0935704390601698E-002  -8.9538993626018804E-003   4.9170022834488292E-002
   3.2763711901186238E-002  -9.7129808761730607E-003   5.2564387616090169E-002
   3.1322950199191901E-002  -9.2460761266556502E-003   5.2278006333189408E-002
   2.9882188497197593E-002  -8.7735930475388857E-003   5.2183156407152986E-002
   2.8441426795203270E-002  -8.2955316388232669E-003   5.2279837837981014E-002
   2.7000665093208961E-002  -7.8118919005084053E-003   5.2568050625673768E-002
   2.8074978419297819E-002  -8.3207547127715498E-003   5.5827822441702604E-002
   2.6828180799094395E-002  -7.9184229831537611E-003   5.5552825338108291E-002
   2.5581383178890964E-002  -7.5091673608883372E-003   5.5474225041231139E-002
   2.4334585558687546E-002  -7.0929878459753213E-003   5.5592021551071402E-002
   2.3087787938484115E-002  -6.6698844384148470E-003   5.5906214867628798E-002
   2.3388945280666380E-002  -6.9285285493701776E-003   5.9026011465890746E-002
   2.2340977192106579E-002  -6.5907698396518999E-003   5.8763744104651627E-002
   2.1293009103546770E-002  -6.2447416742377089E-003   5.8702738999982428E-002
   2.0245041014986961E-002  -5.8904440531275431E-003   5.8842996151883244E-002
   1.9197072926427160E-002  -5.5278769763213859E-003   5.9184515560354006E-002
   1.8705612485291956E-002  -5.5363023859686944E-003   6.2158954688655454E-002
   1.7861339378228480E-002  -5.2631166961500386E-003   6.1910762632819694E-002
   1.7017066271165018E-002  -4.9803159875871639E-003   6.1868698283406742E-002
   1.6172793164101557E-002  -4.6879002602795358E-003   6.2032761640416462E-002
   1.5328520057038109E-002  -4.3858695142278137E-003   6.2402952703848991E-002
   3.0935704390601698E-002  -8.9538993626018804E-003   4.9170022834488292E-002
   2.9243278344804446E-002  -8.4020069992401525E-003   4.8864932016465190E-002
   2.7550852299007181E-002  -7.8389148138448134E-003   4.8747086428915870E-002
   2.5858426253209950E-002  -7.2646228064146313E-003   4.8816486071840595E-002
   2.4166000207412719E-002  -6.6791309769509422E-003   4.9073130945239352E-002
   2.7000665093208961E-002  -7.8118919005084053E-003   5.2568050625673768E-002
   2.5498770049024955E-002  -7.3203866398076634E-003   5.2299083990061002E-002
   2.3996875004840955E-002  -6.8187286639343897E-003   5.2223934127201083E-002
   2.2494979960656979E-002  -6.3069179728885948E-003   5.2342601037093317E-002
   2.0993084916472976E-002  -5.7849545666702751E-003   5.2655084719738399E-002
   2.3087787938484115E-002  -6.6698844384148470E-003   5.5906214867628798E-002
   2.1782995438192024E-002  -6.2387662803751465E-003   5.5672325307565287E-002
   2.0478202937899873E-002  -5.7985425140244032E-003   5.5638824062532878E-002
   1.9173410437607757E-002  -5.3492131393624454E-003   5.5805711132531494E-002
   1.7868617937315603E-002  -4.8907781563897190E-003   5.6172986517561641E-002
   1.9197072926427160E-002  -5.5278769763213859E-003   5.9184515560354006E-002
   1.8095954512305525E-002  -5.1571459209425879E-003   5.8984655968977839E-002
   1.6994836098183919E-002  -4.7783563641142536E-003   5.8991756234911444E-002
   1.5893717684062315E-002  -4.3915083058365190E-003   5.9205816358154827E-002
   1.4792599269940681E-002  -3.9966017461091630E-003   5.9626836338708140E-002
   1.5328520057038109E-002  -4.3858695142278137E-003   6.2402952703848991E-002
   1.4437647271365608E-002  -4.0755255615100294E-003   6.2236075974298588E-002
   1.3546774485693122E-002  -3.7581702142040208E-003   6.2282730644336814E-002
   1.2655901700020636E-002  -3.4338034723103220E-003   6.2542916713963392E-002
   1.1765028914348163E-002  -3.1024253358286069E-003   6.3016634183178488E-002
   2.4166000207412719E-002  -6.6791309769509422E-003   4.9073130945239352E-002
   2.2392995570431118E-002  -6.0848768454953017E-003   4.8789190396139437E-002
   2.0619990933449545E-002  -5.4842979320906260E-003   4.8667782338802035E-002
   1.8846986296467971E-002  -4.8773942367365611E-003   4.8708906773226979E-002
   1.7073981659486342E-002  -4.2641657594336690E-003   4.8912563699414324E-002
   2.0993084916472976E-002  -5.7849545666702751E-003   5.2655084719738399E-002
   1.9392274921714456E-002  -5.2576279240796886E-003   5.2432703902642486E-002
   1.7791464926955936E-002  -4.7297275239170655E-003   5.2392179878230305E-002
   1.6190654932197387E-002  -4.2012533661823434E-003   5.2533512646502023E-002
   1.4589844937438923E-002  -3.6722054508757651E-003   5.2856702207457140E-002
   1.7868617937315603E-002  -4.8907781563897190E-003   5.6172986517561641E-002
   1.6459326885701668E-002  -4.4303790026639644E-003   5.6006414408092009E-002
   1.5050035834087719E-002  -3.9751571157434912E-003   5.6041023392227815E-002
   1.3640744782473770E-002  -3.5251124956283443E-003   5.6276813469968927E-002
   1.2231453730859800E-002  -3.0802451423181387E-003   5.6713784641315296E-002
   1.4792599269940681E-002  -3.9966017461091630E-003   5.9626836338708140E-002
   1.3594151462392821E-002  -3.6031300812482958E-003   5.9510321912487847E-002
   1.2395703654844931E-002  -3.2205867075700348E-003   5.9614312880794523E-002
   1.1197255847297031E-002  -2.8489716250737918E-003   5.9938809243628030E-002
   9.9988080397491550E-003  -2.4882848337604846E-003   6.0483811000988007E-002
   1.1765028914348163E-002  -3.1024253358286069E-003   6.3016634183178488E-002
   1.0796748651787827E-002  -2.7758811598327382E-003   6.2944426415830534E-002
   9.8284683892275182E-003  -2.4660162993963286E-003   6.3112048343930582E-002
   8.8601881266671817E-003  -2.1728307545198430E-003   6.3519499967479215E-002
   7.8919078641068729E-003  -1.8963245252026084E-003   6.4166781286475905E-002
   1.7073981659486342E-002  -4.2641657594336690E-003   4.8912563699414324E-002
   1.5129253017561350E-002  -3.7052410968805849E-003   4.8785465127559879E-002
   1.3184524375636317E-002  -3.2612488457758604E-003   4.8916552562716098E-002
   1.1239795733711304E-002  -2.9321890061204461E-003   4.9305826004883313E-002
   9.2950670917862910E-003  -2.7180615779133221E-003   4.9953285454061191E-002
   1.4589844937438923E-002  -3.6722054508757651E-003   5.2856702207457140E-002
   1.2901989520049409E-002  -3.1998521529554846E-003   5.2739588666699866E-002
   1.1214134102659909E-002  -2.8414618473781572E-003   5.2878035568002996E-002
   9.5262786852704368E-003  -2.5970345341451012E-003   5.3272042911366377E-002
   7.8384232678809229E-003  -2.4665702132553591E-003   5.3921610696790245E-002
   1.2231453730859800E-002  -3.0802451423181387E-003   5.6713784641315296E-002
   1.0797845973055574E-002  -2.6944632090301346E-003   5.6607625550760293E-002
   9.3642382152513103E-003  -2.4216748489805512E-003   5.6754401337314922E-002
   7.9306304574470448E-003  -2.2618800621698638E-003   5.7154112000979841E-002
   6.4970226996427932E-003  -2.2150788485976736E-003   5.7806757541754628E-002
   9.9988080397491550E-003  -2.4882848337604846E-003   6.0483811000988007E-002
   8.8168223765798248E-003  -2.1890742651048539E-003   6.0389575779740218E-002
   7.6348367134104781E-003  -2.0018878505830631E-003   6.0545649870651780E-002
   6.4528510502411401E-003  -1.9267255901947947E-003   6.0952033273723290E-002
   5.2708653870718013E-003  -1.9635874839396272E-003   6.1608725988954588E-002
   7.8919078641068729E-003  -1.8963245252026084E-003   6.4166781286475905E-002
   6.9589187306221545E-003  -1.6836853211798508E-003   6.4085439353640195E-002
   6.0259295971374360E-003  -1.5821008521852975E-003   6.4251781168013777E-002
   5.0929404636527315E-003  -1.5915711182193509E-003   6.4665806729596764E-002
   4.1599513301679991E-003  -1.7120961192820250E-003   6.5327516038389488E-002
   9.2950670917862910E-003  -2.7180615779133221E-003   4.9953285454061191E-002
   7.8725860487358912E-003  -2.8649057588244764E-003   5.0357473628597660E-002
   6.4501050056855191E-003  -3.6187607465229532E-003   5.1088513648071376E-002
   5.0276239626351055E-003  -4.9796265410086832E-003   5.2146405512481897E-002
   3.6051429195846918E-003  -6.9475031422815414E-003   5.3531149221829222E-002
   7.8384232678809229E-003  -2.4665702132553591E-003   5.3921610696790245E-002
   6.7168325765487313E-003  -2.6497825931071084E-003   5.3854880025812790E-002
   5.5952418852164704E-003  -3.3463853820969169E-003   5.4063078213334725E-002
   4.4736511938842372E-003  -4.5563785802254925E-003   5.4546205259356023E-002
   3.3520605025520178E-003  -6.2797621874927101E-003   5.5304261163877100E-002
   6.4970226996427932E-003  -2.2150788485976736E-003   5.7806757541754628E-002
   5.6243993735914238E-003  -2.4346594273896849E-003   5.7362728422911735E-002
   4.7517760475400475E-003  -3.0740100176711305E-003   5.7141705176130708E-002
   3.8791527214886816E-003  -4.1331306194426418E-003   5.7143687801411949E-002
   3.0065293954372740E-003  -5.6120212327038232E-003   5.7368676298755722E-002
   5.2708653870718013E-003  -1.9635874839396272E-003   6.1608725988954588E-002
   4.5952864398639999E-003  -2.2195362616722336E-003   6.0881018819894564E-002
   3.9197074926561864E-003  -2.8016346532451081E-003   6.0324394536459734E-002
   3.2441285454483789E-003  -3.7098826586598431E-003   5.9938853138649578E-002
   2.5685495982405715E-003  -4.9442802779149642E-003   5.9724394626464554E-002
   4.1599513301679991E-003  -1.7120961192820250E-003   6.5327516038389488E-002
   3.6294937753664769E-003  -2.0044130959548934E-003   6.4409751216761402E-002
   3.0990362205649408E-003  -2.5292592888193632E-003   6.3611146294321186E-002
   2.5685786657633977E-003  -3.2866346978767252E-003   6.2931701271068619E-002
   2.0381211109618824E-003  -4.2765393231261051E-003   6.2371416147003478E-002
   3.6051429195846918E-003  -6.9475031422815414E-003   5.3531149221829222E-002
   4.1562035848195511E-003  -9.5371643334843936E-003   5.1858945040933135E-002
   4.7072642500544104E-003  -1.2763383897759356E-002   5.0041393297162118E-002
   5.2583249152892697E-003  -1.6626161835106991E-002   4.8078493990516308E-002
   5.8093855805241290E-003  -2.1125498145527111E-002   4.5970247120994845E-002
   3.3520605025520178E-003  -6.2797621874927101E-003   5.5304261163877100E-002
   3.7752642102744649E-003  -8.5476481106631086E-003   5.2951012600391312E-002
   4.1984679179969397E-003  -1.1391148256502837E-002   5.0487397684755575E-002
   4.6216716257194146E-003  -1.4810262625011186E-002   4.7913416416970667E-002
   5.0448753334418339E-003  -1.8804991216188505E-002   4.5229068797035366E-002
   3.0065293954372740E-003  -5.6120212327038232E-003   5.7368676298755722E-002
   3.3368573563727980E-003  -7.5581318878423231E-003   5.4395327503083346E-002
   3.6671853173083080E-003  -1.0018912615246081E-002   5.1346593565986878E-002
   3.9975132782438250E-003  -1.2994363414915378E-002   4.8222474487466326E-002
   4.3278412391793142E-003  -1.6484484286849899E-002   4.5022970267521334E-002
   2.5685495982405715E-003  -4.9442802779149642E-003   5.9724394626464554E-002
   2.8409830231145381E-003  -6.5686156650211769E-003   5.6191889749009474E-002
   3.1134164479885047E-003  -8.6466769739893326E-003   5.2618980940855584E-002
   3.3858498728624661E-003  -1.1178464204819239E-002   4.9005668202002535E-002
   3.6582832977364380E-003  -1.4163977357511293E-002   4.5351951532451223E-002
   2.0381211109618824E-003  -4.2765393231261051E-003   6.2371416147003478E-002
   2.2876412104997218E-003  -5.5790994422001416E-003   5.8340699338169322E-002
   2.5371613100375751E-003  -7.2744413327325841E-003   5.4304559809361552E-002
   2.7866814095754075E-003  -9.3625649947236544E-003   5.0262997560580669E-002
   3.0362015091133232E-003  -1.1843470428172687E-002   4.6216012591825617E-002
   2.5317086055414856E-002  -7.5253413603896813E-003   6.2397856337055524E-002
   2.4487530596319612E-002  -7.2935262070377704E-003   6.2010087796008029E-002
   2.3657975137224355E-002  -7.0569886157307304E-003   6.1843547184253778E-002
   2.2828419678129090E-002  -6.8157285864686445E-003   6.1898234501793159E-002
   2.1998864219033840E-002  -6.5697461192513740E-003   6.2174149748625729E-002
   1.8918842672436778E-002  -5.6440057119159226E-003   6.3357028887189748E-002
   1.8307055382303344E-002  -5.4701444689062295E-003   6.3015913924355155E-002
   1.7695268092169918E-002  -5.2927413662929024E-003   6.2889107370150521E-002
   1.7083480802036494E-002  -5.1117964040758093E-003   6.2976609224576319E-002
   1.6471693511903064E-002  -4.9273095822549018E-003   6.3278419487632354E-002
   1.2566580479223627E-002  -3.7626700634422194E-003   6.4258837816157710E-002
   1.2165641837388878E-002  -3.6467627307747996E-003   6.3963195853184329E-002
   1.1764703195554119E-002  -3.5284941168551021E-003   6.3874942778177984E-002
   1.1363764553719366E-002  -3.4078642216829463E-003   6.3994078591138703E-002
   1.0962825911884602E-002  -3.2848730452585684E-003   6.4320603292066555E-002
   6.2602994757754628E-003  -1.8813344149684885E-003   6.5103283123958883E-002
   6.0632899615762088E-003  -1.8233809926433281E-003   6.4851933582495441E-002
   5.8662804473769521E-003  -1.7642468674172046E-003   6.4801053408336057E-002
   5.6692709331776954E-003  -1.7039320392901527E-003   6.4950642601480507E-002
   5.4722614189784352E-003  -1.6424365082621378E-003   6.5300701161928890E-002
  -3.3790775039177490E-010   1.2335052423928516E-009   6.5890364810593571E-002
  -2.4513466950759621E-010   7.4548817119435284E-010   6.5682127112288768E-002
  -1.5236158862341753E-010   3.8202051244606849E-010   6.5667439260624766E-002
  -5.9588504269791898E-011   1.4310276227891272E-010   6.5846301255601467E-002
   3.3184576614386785E-011   2.8734181700684758E-011   6.6218713097219051E-002
   2.1998864219033840E-002  -6.5697461192513740E-003   6.2174149748625729E-002
   2.1175551285598365E-002  -6.3188981212750905E-003   6.1849973619780396E-002
   2.0352238352162884E-002  -6.0630414997357857E-003   6.1739382400170129E-002
   1.9528925418727420E-002  -5.8021762546338028E-003   6.1842376089795051E-002
   1.8705612485291956E-002  -5.5363023859686944E-003   6.2158954688655454E-002
   1.6471693511903064E-002  -4.9273095822549018E-003   6.3278419487632354E-002
   1.5860026318555411E-002  -4.7391735939894680E-003   6.2974989845175869E-002
   1.5248359125207753E-002  -4.5472811324387824E-003   6.2881266773659780E-002
   1.4636691931860105E-002  -4.3516321976025223E-003   6.2997250273084143E-002
   1.4025024738512443E-002  -4.1522267894810172E-003   6.3322940343448764E-002
   1.0962825911884602E-002  -3.2848730452585684E-003   6.4320603292066555E-002
   1.0558926120329923E-002  -3.1594490667040814E-003   6.4036667985721663E-002
   1.0155026328775235E-002  -3.0315207651416196E-003   6.3958560912022372E-002
   9.7511265372205481E-003  -2.9010881405713545E-003   6.4086282070968545E-002
   9.3472267456658695E-003  -2.7681511929932290E-003   6.4419831462560334E-002
   5.4722614189784352E-003  -1.6424365082621378E-003   6.5300701161928890E-002
   5.2722506909218831E-003  -1.5797245394186324E-003   6.5035008041418013E-002
   5.0722399628653232E-003  -1.5157603978444532E-003   6.4971264815257807E-002
   4.8722292348087675E-003  -1.4505440835402691E-003   6.5109471483448284E-002
   4.6722185067522119E-003  -1.3840755965054130E-003   6.5449628045989555E-002
   3.3184576614386785E-011   2.8734181700684758E-011   6.6218713097219051E-002
   3.0331296502206229E-011  -1.2132961302313561E-011   6.5970010012264629E-002
   2.7478018124749148E-011  -3.0547425700078179E-011   6.5919378483366070E-002
   2.4624739747292068E-011  -2.6508843731232190E-011   6.6066818510523317E-002
   2.1771459635111512E-011  -1.7708057242771247E-014   6.6412330093736538E-002
   1.8705612485291956E-002  -5.5363023859686944E-003   6.2158954688655454E-002
   1.7861339378228480E-002  -5.2631166961500386E-003   6.1910762632819694E-002
   1.7017066271165018E-002  -4.9803159875871639E-003   6.1868698283406742E-002
   1.6172793164101557E-002  -4.6879002602795358E-003   6.2032761640416462E-002
   1.5328520057038109E-002  -4.3858695142278137E-003   6.2402952703848991E-002
   1.4025024738512443E-002  -4.1522267894810172E-003   6.3322940343448764E-002
   1.3388114480543063E-002  -3.9473375146833189E-003   6.3087186323623173E-002
   1.2751204222573684E-002  -3.7352369798187846E-003   6.3060030295562758E-002
   1.2114293964604290E-002  -3.5159251848874348E-003   6.3241472259267753E-002
   1.1477383706634911E-002  -3.2894021298894849E-003   6.3631512214738395E-002
   9.3472267456658695E-003  -2.7681511929932290E-003   6.4419831462560334E-002
   8.9201496221332915E-003  -2.6315583332164050E-003   6.4194111720066810E-002
   8.4930724986007275E-003  -2.4901579720505856E-003   6.4179460254681450E-002
   8.0659953750681565E-003  -2.3439501094952818E-003   6.4375877066404325E-002
   7.6389182515355855E-003  -2.1929347455509340E-003   6.4783362155235308E-002
   4.6722185067522119E-003  -1.3840755965054130E-003   6.5449628045989555E-002
   4.4574448029991972E-003  -1.3157791517495604E-003   6.5231538822150659E-002
   4.2426710992461807E-003  -1.2450789642822965E-003   6.5226988160762847E-002
   4.0278973954931572E-003  -1.1719750341032103E-003   6.5435976061825912E-002
   3.8131236917401425E-003  -1.0964673612126052E-003   6.5858502525340007E-002
   2.1771459635111512E-011  -1.7708057242771247E-014   6.6412330093736538E-002
   2.3140742794192093E-011   2.9717200922263487E-011   6.6199467629874886E-002
   2.4510022483825722E-011   4.3485950951271946E-011   6.6202614013807004E-002
   2.5879302173459351E-011   4.1289128366317485E-011   6.6421769245532628E-002
   2.7248585332539932E-011   2.3126056625244473E-011   6.6856933325051937E-002
   1.5328520057038109E-002  -4.3858695142278137E-003   6.2402952703848991E-002
   1.4437647271365608E-002  -4.0755255615100294E-003   6.2236075974298588E-002
   1.3546774485693122E-002  -3.7581702142040208E-003   6.2282730644336814E-002
   1.2655901700020636E-002  -3.4338034723103220E-003   6.2542916713963392E-002
   1.1765028914348163E-002  -3.1024253358286069E-003   6.3016634183178488E-002
   1.1477383706634911E-002  -3.2894021298894849E-003   6.3631512214738395E-002
   1.0802339019324397E-002  -3.0566441708428649E-003   6.3485738050574586E-002
   1.0127294332013884E-002  -2.8186276637662544E-003   6.3558088683546260E-002
   9.4522496447033838E-003  -2.5753526086592579E-003   6.3848564113653417E-002
   8.7772049573928562E-003  -2.3268190055222293E-003   6.4357164340896000E-002
   7.6389182515355855E-003  -2.1929347455509340E-003   6.4783362155235308E-002
   7.1842950601341132E-003  -2.0377627801757003E-003   6.4656937709900192E-002
   6.7296718687326375E-003  -1.8790851133281411E-003   6.4753231459247690E-002
   6.2750486773311687E-003  -1.7169017450083014E-003   6.5072243403277830E-002
   5.8204254859296894E-003  -1.5512126752157962E-003   6.5613973541990167E-002
   3.8131236917401425E-003  -1.0964673612126052E-003   6.5858502525340007E-002
   3.5835153937947666E-003  -1.0188813895087578E-003   6.5749674952275822E-002
   3.3539070958493837E-003  -9.3954256289014576E-004   6.5868158971441160E-002
   3.1242987979040078E-003  -8.5845088135718013E-004   6.6213954582836188E-002
   2.8946904999586250E-003  -7.7560634490955738E-004   6.6787061786460572E-002
   2.7248585332539932E-011   2.3126056625244473E-011   6.6856933325051937E-002
   2.0306357290111876E-011   1.1584622150451196E-012   6.6763949777701004E-002
   1.3364122308789916E-011  -1.2452261444195756E-011   6.6902871220126503E-002
   6.4218873274679567E-012  -1.7706225374780615E-011   6.7273697652328573E-002
  -5.2034071496009915E-013  -1.4603096509802072E-011   6.7876429074307576E-002
   1.1765028914348163E-002  -3.1024253358286069E-003   6.3016634183178488E-002
   1.0796748651787827E-002  -2.7758811598327382E-003   6.2944426415830534E-002
   9.8284683892275182E-003  -2.4660162993963286E-003   6.3112048343930582E-002
   8.8601881266671817E-003  -2.1728307545198430E-003   6.3519499967479215E-002
   7.8919078641068729E-003  -1.8963245252026084E-003   6.4166781286475905E-002
   8.7772049573928562E-003  -2.3268190055222293E-003   6.4357164340896000E-002
   8.0493144827256113E-003  -2.0819108719053459E-003   6.4301966750169637E-002
   7.3214240080583526E-003  -1.8495122253600338E-003   6.4487719039780594E-002
   6.5935335333911042E-003  -1.6296230658853841E-003   6.4914421209729650E-002
   5.8656430587238489E-003  -1.4222433934822920E-003   6.5582073260016638E-002
   5.8204254859296894E-003  -1.5512126752157962E-003   6.5613973541990167E-002
   5.3340449840449770E-003  -1.3879405839785641E-003   6.5579955956373670E-002
   4.8476644821602612E-003  -1.2330081513237529E-003   6.5788008435984577E-002
   4.3612839802755522E-003  -1.0864153772512618E-003   6.6238130980822624E-002
   3.8749034783908329E-003  -9.4816226176153151E-004   6.6930323590887908E-002
   2.8946904999586250E-003  -7.7560634490955738E-004   6.6787061786460572E-002
   2.6509401557459405E-003  -6.9397029605147709E-004   6.6778394034442884E-002
   2.4071898115332552E-003  -6.1650407728746498E-004   6.7012916532541725E-002
   2.1634394673205734E-003  -5.4320768861713768E-004   6.7490629280757511E-002
   1.9196891231078855E-003  -4.7408113004099306E-004   6.8211532279089923E-002
  -5.2034071496009915E-013  -1.4603096509802072E-011   6.7876429074307576E-002
  -2.1715060305460554E-012  -8.1244455607532018E-012   6.7897280984376973E-002
  -3.8226782850259156E-012  -3.2511493497366928E-012   6.8162443329452704E-002
  -5.4738505395057757E-012   1.7215395775593834E-014   6.8671916109534492E-002
  -7.1250158550917320E-012   1.6796564139553993E-012   6.9425699324622725E-002
   7.8919078641068729E-003  -1.8963245252026084E-003   6.4166781286475905E-002
   6.9589187306221545E-003  -1.6836853211798508E-003   6.4085439353640195E-002
   6.0259295971374360E-003  -1.5821008521852975E-003   6.4251781168013777E-002
   5.0929404636527315E-003  -1.5915711182193509E-003   6.4665806729596764E-002
   4.1599513301679991E-003  -1.7120961192820250E-003   6.5327516038389488E-002
   5.8656430587238489E-003  -1.4222433934822920E-003   6.5582073260016638E-002
   5.1767285565763876E-003  -1.2627639903078913E-003   6.5435474543150574E-002
   4.4878140544289541E-003  -1.1865756385212034E-003   6.5529341341749731E-002
   3.7988995522815032E-003  -1.1936783381217286E-003   6.5863673655814095E-002
   3.1099850501340592E-003  -1.2840720891098556E-003   6.6438471485343431E-002
   3.8749034783908329E-003  -9.4816226176153151E-004   6.6930323590887908E-002
   3.4228453758362865E-003  -8.4184265943595959E-004   6.6746231773632814E-002
   2.9707872732817504E-003  -7.9105042485685950E-004   6.6795387240098730E-002
   2.5187291707272109E-003  -7.9578555802387735E-004   6.7077789990285394E-002
   2.0666710681726680E-003  -8.5604805893746416E-004   6.7593440024192541E-002
   1.9196891231078855E-003  -4.7408113004099306E-004   6.8211532279089923E-002
   1.6972691884018700E-003  -4.2092132856390296E-004   6.8017711045087123E-002
   1.4748492536958467E-003  -3.9552521119264050E-004   6.8049918863060693E-002
   1.2524293189898278E-003  -3.9789277792636260E-004   6.8308155733010273E-002
   1.0300093842837942E-003  -4.2802402876518375E-004   6.8792421654936667E-002
  -7.1250158550917320E-012   1.6796564139553993E-012   6.9425699324622725E-002
  -5.7268911834995606E-012   2.3078761124395442E-012   6.9249912357513210E-002
  -4.3287630424604373E-012   2.4716340085717547E-012   6.9292936210635314E-002
  -2.9306349014213140E-012   2.1716656251058453E-012   6.9554770883989675E-002
  -1.5325102298291426E-012   1.4069856391074609E-012   7.0035416377575710E-002
   4.1599513301679991E-003  -1.7120961192820250E-003   6.5327516038389488E-002
   3.6294937753664769E-003  -2.0044130959548934E-003   6.4409751216761402E-002
   3.0990362205649408E-003  -2.5292592888193632E-003   6.3611146294321186E-002
   2.5685786657633977E-003  -3.2866346978767252E-003   6.2931701271068619E-002
   2.0381211109618824E-003  -4.2765393231261051E-003   6.2371416147003478E-002
   3.1099850501340592E-003  -1.2840720891098556E-003   6.6438471485343431E-002
   2.7020510169244449E-003  -1.5033098218407703E-003   6.5327259520046754E-002
   2.2941169837148306E-003  -1.8969444666709356E-003   6.4341934698746384E-002
   1.8861829505052129E-003  -2.4649760236002266E-003   6.3482497021442486E-002
   1.4782489172956020E-003  -3.2074044926285739E-003   6.2748946488134116E-002
   2.0666710681726680E-003  -8.5604805893746416E-004   6.7593440024192541E-002
   1.7879878013635636E-003  -1.0022065477270914E-003   6.6346913219320208E-002
   1.5093045345544627E-003  -1.2646296445224803E-003   6.5233000803252755E-002
   1.2306212677453566E-003  -1.6433173493238321E-003   6.4251702775990238E-002
   9.5193800093627129E-004  -2.1382696621310426E-003   6.3403019137532157E-002
   1.0300093842837942E-003  -4.2802402876518375E-004   6.8792421654936667E-002
   8.8730412868380341E-004  -5.0110327361319040E-004   6.7468712314581986E-002
   7.4459887308381181E-004  -6.3231482237381675E-004   6.6284344607840689E-002
   6.0189361748381716E-004  -8.2165867504738546E-004   6.5239318534712890E-002
   4.5918836188381558E-004  -1.0691348316335114E-003   6.4333634095198239E-002
  -1.5325102298291426E-012   1.4069856391074609E-012   7.0035416377575710E-002
  -1.1148096334956392E-012   5.0065507295471434E-013   6.8692656805831698E-002
  -6.9710903716213579E-013  -2.2551405187698492E-013   6.7495966112509742E-002
  -2.7941017555210834E-013  -7.7069600701307195E-013   6.6445344297609649E-002
   1.3829215550487106E-013  -1.1362022434013852E-012   6.5540791361131667E-002
   2.0381211109618824E-003  -4.2765393231261051E-003   6.2371416147003478E-002
   2.2876412104997218E-003  -5.5790994422001416E-003   5.8340699338169322E-002
   2.5371613100375751E-003  -7.2744413327325841E-003   5.4304559809361552E-002
   2.7866814095754075E-003  -9.3625649947236544E-003   5.0262997560580669E-002
   3.0362015091133232E-003  -1.1843470428172687E-002   4.6216012591825617E-002
   1.4782489172956020E-003  -3.2074044926285739E-003   6.2748946488134116E-002
   1.7081069706397084E-003  -4.1843245819980224E-003   5.8393867580365799E-002
   1.9379650239838148E-003  -5.4558309999500620E-003   5.4004887300183047E-002
   2.1678230773279072E-003  -7.0219237464859974E-003   4.9582005647586053E-002
   2.3976811306720136E-003  -8.8826028216051345E-003   4.5125222622575345E-002
   9.5193800093627129E-004  -2.1382696621310426E-003   6.3403019137532157E-002
   1.1336553556458608E-003  -2.7895497217952925E-003   5.8821773573704550E-002
   1.3153727103554606E-003  -3.6372206671676510E-003   5.4178147985022268E-002
   1.4970900650650692E-003  -4.6812824982484513E-003   4.9472142371485325E-002
   1.6788074197746361E-003  -5.9217352150373603E-003   4.4703756733092903E-002
   4.5918836188381558E-004  -1.0691348316335114E-003   6.4333634095198239E-002
   5.6428636551819882E-004  -1.3947748615927569E-003   5.9624417318186324E-002
   6.6938436915257599E-004  -1.8186103343854065E-003   5.4824341863878967E-002
   7.7448237278695186E-004  -2.3406412500109608E-003   4.9933407732275684E-002
   8.7958037642132253E-004  -2.9608676084695862E-003   4.4951614923376793E-002
   1.3829215550487106E-013  -1.1362022434013852E-012   6.5540791361131667E-002
   2.5671131886895182E-013  -1.3906653606454711E-012   6.0801798813810426E-002
   3.7513048223303258E-013  -1.6026069360464135E-012   5.5943468936752949E-002
   4.9354444142668541E-013  -1.7733314816581469E-012   5.0965801729959570E-002
   6.1196880896119410E-013  -1.9020340857878182E-012   4.5868797193429511E-002
  -3.3790775039177490E-010   1.2335052423928516E-009   6.5890364810593571E-002
  -2.4513466950759621E-010   7.4548817119435284E-010   6.5682127112288768E-002
  -1.5236158862341753E-010   3.8202051244606849E-010   6.5667439260624766E-002
  -5.9588504269791898E-011   1.4310276227891272E-010   6.5846301255601467E-002
   3.3184576614386785E-011   2.8734181700684758E-011   6.6218713097219051E-002
  -6.2603001571510317E-003   1.8813364217834527E-003   6.5103282244179134E-002
  -6.0632904600980489E-003   1.8233821739009892E-003   6.4851932920521271E-002
  -5.8662807630450627E-003   1.7642474372545347E-003   6.4801052958782343E-002
  -5.6692710659920868E-003   1.7039322118443737E-003   6.4950642358962529E-002
  -5.4722613689390937E-003   1.6424364976701245E-003   6.5300701121061899E-002
  -1.2566581177279382E-002   3.7626716100616353E-003   6.4258836224556179E-002
  -1.2165642360668213E-002   3.6467636023137934E-003   6.3963194662231687E-002
  -1.1764703544057042E-002   3.5284944924885916E-003   6.3874941977104555E-002
  -1.1363764727445873E-002   3.4078642805860978E-003   6.3994078169174753E-002
  -1.0962825910834702E-002   3.2848729666061505E-003   6.4320603238442214E-002
  -1.8918843398292834E-002   5.6440067983398040E-003   6.3357026751724388E-002
  -1.8307055946845167E-002   5.4701450307267016E-003   6.3015912337419822E-002
  -1.7695268495397522E-002   5.2927415477226035E-003   6.2889106315591053E-002
  -1.7083481043949883E-002   5.1117963493277933E-003   6.2976608686237723E-002
  -1.6471693592502223E-002   4.9273094355421626E-003   6.3278419449360163E-002
  -2.5317086820191362E-002   7.5253419866180282E-003   6.2397853825684080E-002
  -2.4487531218628941E-002   7.2935264591393878E-003   6.2010085946086091E-002
  -2.3657975617066521E-002   7.0569886029566153E-003   6.1843545974242020E-002
  -2.2828420015504104E-002   6.8157284180694749E-003   6.1898233910151923E-002
  -2.1998864413941683E-002   6.5697459044781192E-003   6.2174149753815633E-002
   3.3184576614386785E-011   2.8734181700684758E-011   6.6218713097219051E-002
   3.0331296502206229E-011  -1.2132961302313561E-011   6.5970010012264629E-002
   2.7478018124749148E-011  -3.0547425700078179E-011   6.5919378483366070E-002
   2.4624739747292068E-011  -2.6508843731232190E-011   6.6066818510523317E-002
   2.1771459635111512E-011  -1.7708057242771247E-014   6.6412330093736538E-002
  -5.4722613689390937E-003   1.6424364976701245E-003   6.5300701121061899E-002
  -5.2722506430963644E-003   1.5797244722263459E-003   6.5035008013314466E-002
  -5.0722399172536351E-003   1.5157603130073402E-003   6.4971264806903212E-002
  -4.8722291914109067E-003   1.4505440200129806E-003   6.5109471501828164E-002
  -4.6722184655681766E-003   1.3840755932432725E-003   6.5449628098089324E-002
  -1.0962825910834702E-002   3.2848729666061505E-003   6.4320603238442214E-002
  -1.0558926111015651E-002   3.1594489565858197E-003   6.4036667951673731E-002
  -1.0155026311196602E-002   3.0315206565621061E-003   6.3958560911521606E-002
  -9.7511265113775572E-003   2.9010880665348605E-003   6.4086282117986060E-002
  -9.3472267115585032E-003   2.7681511865041697E-003   6.4419831571066857E-002
  -1.6471693592502223E-002   4.9273094355421626E-003   6.3278419449360163E-002
  -1.5860026373426560E-002   4.7391734409452657E-003   6.2974989827342329E-002
  -1.5248359154350877E-002   4.5472810001168165E-003   6.2881266797221308E-002
  -1.4636691935275203E-002   4.3516321130568237E-003   6.2997250358997031E-002
  -1.4025024716199529E-002   4.1522267797651641E-003   6.3322940512669498E-002
  -2.1998864413941683E-002   6.5697459044781192E-003   6.2174149753815633E-002
  -2.1175551430329061E-002   6.3188979253047395E-003   6.1849973640320299E-002
  -2.0352238446716457E-002   6.0630413436716241E-003   6.1739382464002152E-002
  -1.9528925463103843E-002   5.8021761595787279E-003   6.1842376224861065E-002
  -1.8705612479491235E-002   5.5363023730260474E-003   6.2158954922897081E-002
   2.1771459635111512E-011  -1.7708057242771247E-014   6.6412330093736538E-002
   2.3140742794192093E-011   2.9717200922263487E-011   6.6199467629874886E-002
   2.4510022483825722E-011   4.3485950951271946E-011   6.6202614013807004E-002
   2.5879302173459351E-011   4.1289128366317485E-011   6.6421769245532628E-002
   2.7248585332539932E-011   2.3126056625244473E-011   6.6856933325051937E-002
  -4.6722184655681766E-003   1.3840755932432725E-003   6.5449628098089324E-002
  -4.4574447579494164E-003   1.3157792121773204E-003   6.5231538838641384E-002
  -4.2426710503306632E-003   1.2450790562945901E-003   6.5226988143898670E-002
  -4.0278973427119013E-003   1.1719751255947278E-003   6.5435976013861308E-002
  -3.8131236350931498E-003   1.0964674200779623E-003   6.5858502448529255E-002
  -9.3472267115585032E-003   2.7681511865041697E-003   6.4419831571066857E-002
  -8.9201495807786496E-003   2.6315583946377313E-003   6.4194111757181482E-002
  -8.4930724499987995E-003   2.4901580691032224E-003   6.4179460224913054E-002
  -8.0659953192189510E-003   2.3439502099006030E-003   6.4375876974261489E-002
  -7.6389181884391026E-003   2.1929348170298124E-003   6.4783362005226885E-002
  -1.4025024716199529E-002   4.1522267797651641E-003   6.3322940512669498E-002
  -1.3388114445346960E-002   3.9473375770979688E-003   6.3087186385495597E-002
  -1.2751204174494397E-002   3.7352370819118304E-003   6.3060030256850252E-002
  -1.2114293903641826E-002   3.5159252942064513E-003   6.3241472126733353E-002
  -1.1477383632789256E-002   3.2894022139818013E-003   6.3631511995144927E-002
  -1.8705612479491235E-002   5.5363023730260474E-003   6.2158954922897081E-002
  -1.7861339351654331E-002   5.2631167595584005E-003   6.1910762723583479E-002
  -1.7017066223817441E-002   4.9803160947205355E-003   6.1868698239710140E-002
  -1.6172793095980544E-002   4.6879003785121436E-003   6.2032761471276857E-002
  -1.5328519968143640E-002   4.3858696109336237E-003   6.2402952418283808E-002
   2.7248585332539932E-011   2.3126056625244473E-011   6.6856933325051937E-002
   2.0306357290111876E-011   1.1584622150451196E-012   6.6763949777701004E-002
   1.3364122308789916E-011  -1.2452261444195756E-011   6.6902871220126503E-002
   6.4218873274679567E-012  -1.7706225374780615E-011   6.7273697652328573E-002
  -5.2034071496009915E-013  -1.4603096509802072E-011   6.7876429074307576E-002
  -3.8131236350931498E-003   1.0964674200779623E-003   6.5858502448529255E-002
  -3.5835153513565088E-003   1.0188814068807783E-003   6.5749674894982457E-002
  -3.3539070676198608E-003   9.3954255313971613E-004   6.5868158933016924E-002
  -3.1242987838832224E-003   8.5845085885495609E-004   6.6213954562632363E-002
  -2.8946905001465718E-003   7.7560632402651208E-004   6.6787061783829038E-002
  -7.6389181884391026E-003   2.1929348170298124E-003   6.4783362005226885E-002
  -7.1842950122191877E-003   2.0377628126028446E-003   6.4656937596584058E-002
  -6.7296718359992833E-003   1.8790851187316937E-003   6.4753231381326770E-002
  -6.2750486597793779E-003   1.7169017354159710E-003   6.5072243359455023E-002
  -5.8204254835594778E-003   1.5512126626560652E-003   6.5613973530968595E-002
  -1.1477383632789256E-002   3.2894022139818013E-003   6.3631511995144927E-002
  -1.0802338962281700E-002   3.0566442183250359E-003   6.3485737882505722E-002
  -1.0127294291774138E-002   2.8186276843236158E-003   6.3558088565056181E-002
  -9.4522496212665879E-003   2.5753526119769582E-003   6.3848564042796485E-002
  -8.7772049507590204E-003   2.3268190012855905E-003   6.4357164315726606E-002
  -1.5328519968143640E-002   4.3858696109336237E-003   6.2402952418283808E-002
  -1.4437647201544040E-002   4.0755256240472826E-003   6.2236075752747200E-002
  -1.3546774434944439E-002   3.7581702499155517E-003   6.2282730484204823E-002
  -1.2655901668344835E-002   3.4338034885379766E-003   6.2542916612656749E-002
  -1.1765028901745238E-002   3.1024253399153379E-003   6.3016634138102989E-002
  -5.2034071496009915E-013  -1.4603096509802072E-011   6.7876429074307576E-002
  -2.1715060305460554E-012  -8.1244455607532018E-012   6.7897280984376973E-002
  -3.8226782850259156E-012  -3.2511493497366928E-012   6.8162443329452704E-002
  -5.4738505395057757E-012   1.7215395775593834E-014   6.8671916109534492E-002
  -7.1250158550917320E-012   1.6796564139553993E-012   6.9425699324622725E-002
  -2.8946905001465718E-003   7.7560632402651208E-004   6.6787061783829038E-002
  -2.6509401591895271E-003   6.9397028314116538E-004   6.6778394031126231E-002
  -2.4071898182324719E-003   6.1650407068605806E-004   6.7012916528633670E-002
  -2.1634394772754202E-003   5.4320768666153013E-004   6.7490629276351063E-002
  -1.9196891363183720E-003   4.7408113106706118E-004   6.8211532274279008E-002
  -5.8204254835594778E-003   1.5512126626560652E-003   6.5613973530968595E-002
  -5.3340449847902698E-003   1.3879405744069151E-003   6.5579955945529206E-002
  -4.8476644860210765E-003   1.2330081446235847E-003   6.5788008425503877E-002
  -4.3612839872518763E-003   1.0864153733060634E-003   6.6238130970892789E-002
  -3.8749034884826752E-003   9.4816226045429941E-004   6.6930323581695511E-002
  -8.7772049507590204E-003   2.3268190012855905E-003   6.4357164315726606E-002
  -8.0493144789737497E-003   2.0819108656725954E-003   6.4301966727586257E-002
  -7.3214240071884764E-003   1.8495122185610072E-003   6.4487719020063700E-002
  -6.5935335354032013E-003   1.6296230599504875E-003   6.4914421193159169E-002
  -5.8656430636179323E-003   1.4222433898415099E-003   6.5582073246872846E-002
  -1.1765028901745238E-002   3.1024253399153379E-003   6.3016634138102989E-002
  -1.0796748641739955E-002   2.7758811569384423E-003   6.2944426377296803E-002
  -9.8284683817346889E-003   2.4660162924983187E-003   6.3112048312312874E-002
  -8.8601881217294145E-003   2.1728307465950780E-003   6.3519499943150481E-002
  -7.8919078617241400E-003   1.8963245192288314E-003   6.4166781269810680E-002
  -7.1250158550917320E-012   1.6796564139553993E-012   6.9425699324622725E-002
  -5.7268911834995606E-012   2.3078761124395442E-012   6.9249912357513210E-002
  -4.3287630424604373E-012   2.4716340085717547E-012   6.9292936210635314E-002
  -2.9306349014213140E-012   2.1716656251058453E-012   6.9554770883989675E-002
  -1.5325102298291426E-012   1.4069856391074609E-012   7.0035416377575710E-002
  -1.9196891363183720E-003   4.7408113106706118E-004   6.8211532274279008E-002
  -1.6972691990095184E-003   4.2092133124821407E-004   6.8017711041205575E-002
  -1.4748492617006718E-003   3.9552521455055167E-004   6.8049918859721475E-002
  -1.2524293243918088E-003   3.9789278097424052E-004   6.8308155729827194E-002
  -1.0300093870829717E-003   4.2802403051889204E-004   6.8792421651522162E-002
  -3.8749034884826752E-003   9.4816226045429941E-004   6.6930323581695511E-002
  -3.4228453839055574E-003   8.4184266018880183E-004   6.6746231766243752E-002
  -2.9707872793284474E-003   7.9105042662966363E-004   6.6795387233739123E-002
  -2.5187291747513444E-003   7.9578555977703053E-004   6.7077789984181443E-002
  -2.0666710701742197E-003   8.5604805963085395E-004   6.7593440017570700E-002
  -5.8656430636179323E-003   1.4222433898415099E-003   6.5582073246872846E-002
  -5.1767285604150158E-003   1.2627639891289871E-003   6.5435474532628032E-002
  -4.4878140572121202E-003   1.1865756387085674E-003   6.5529341332687646E-002
  -3.7988995540092123E-003   1.1936783385794909E-003   6.5863673647051785E-002
  -3.1099850508063097E-003   1.2840720887426771E-003   6.6438471475720629E-002
  -7.8919078617241400E-003   1.8963245192288314E-003   6.4166781269810680E-002
  -6.9589187285379051E-003   1.6836853180697831E-003   6.4085439340357930E-002
  -6.0259295953516631E-003   1.5821008507877210E-003   6.4251781156567489E-002
  -5.0929404621654212E-003   1.5915711173824024E-003   6.4665806718439106E-002
  -4.1599513289791862E-003   1.7120961178547223E-003   6.5327516025972754E-002
  -1.5325102298291426E-012   1.4069856391074609E-012   7.0035416377575710E-002
  -1.1148096334956392E-012   5.0065507295471434E-013   6.8692656805831698E-002
  -6.9710903716213579E-013  -2.2551405187698492E-013   6.7495966112509742E-002
  -2.7941017555210834E-013  -7.7069600701307195E-013   6.6445344297609649E-002
   1.3829215550487106E-013  -1.1362022434013852E-012   6.5540791361131667E-002
  -1.0300093870829717E-003   4.2802403051889204E-004   6.8792421651522162E-002
  -8.8730413069372863E-004   5.0110327375446628E-004   6.7468712312007684E-002
  -7.4459887430448554E-004   6.3231482125131189E-004   6.6284344606013818E-002
  -6.0189361791523899E-004   8.2165867300833251E-004   6.5239318533541438E-002
  -4.5918836152599937E-004   1.0691348290264857E-003   6.4333634094590031E-002
  -2.0666710701742197E-003   8.5604805963085395E-004   6.7593440017570700E-002
  -1.7879878027143511E-003   1.0022065470085273E-003   6.6346913214365782E-002
  -1.5093045352544913E-003   1.2646296427274856E-003   6.5233000799781019E-002
  -1.2306212677946197E-003   1.6433173467876976E-003   6.4251702773816421E-002
  -9.5193800033476286E-004   2.1382696591890626E-003   6.3403019136472061E-002
  -3.1099850508063097E-003   1.2840720887426771E-003   6.6438471475720629E-002
  -2.7020510171767136E-003   1.5033098202624079E-003   6.5327259512906036E-002
  -2.2941169835471249E-003   1.8969444642036523E-003   6.4341934693810637E-002
  -1.8861829499175358E-003   2.4649760205672274E-003   6.3482497018434642E-002
  -1.4782489162879402E-003   3.2074044893519171E-003   6.2748946486777785E-002
  -4.1599513289791862E-003   1.7120961178547223E-003   6.5327516025972754E-002
  -3.6294937740807900E-003   2.0044130935163995E-003   6.4409751207628818E-002
  -3.0990362191823870E-003   2.5292592856803187E-003   6.3611146288103049E-002
  -2.5685786642839908E-003   3.2866346943462160E-003   6.2931701267395890E-002
  -2.0381211093855878E-003   4.2765393195143275E-003   6.2371416145506897E-002
   1.3829215550487106E-013  -1.1362022434013852E-012   6.5540791361131667E-002
   2.5671131886895182E-013  -1.3906653606454711E-012   6.0801798813810426E-002
   3.7513048223303258E-013  -1.6026069360464135E-012   5.5943468936752949E-002
   4.9354444142668541E-013  -1.7733314816581469E-012   5.0965801729959570E-002
   6.1196880896119410E-013  -1.9020340857878182E-012   4.5868797193429511E-002
  -4.5918836152599937E-004   1.0691348290264857E-003   6.4333634094590031E-002
  -5.6428636494412071E-004   1.3947748585956266E-003   5.9624417317765688E-002
  -6.6938436836221603E-004   1.8186103310056934E-003   5.4824341863604686E-002
  -7.7448237178032436E-004   2.3406412462567347E-003   4.9933407732107082E-002
  -8.7958037519841881E-004   2.9608676043486604E-003   4.4951614923272487E-002
  -9.5193800033476286E-004   2.1382696591890626E-003   6.3403019136472061E-002
  -1.1336553548897815E-003   2.7895497185813634E-003   5.8821773572943742E-002
  -1.3153727094448158E-003   3.6372206636139937E-003   5.4178147984478481E-002
  -1.4970900639998722E-003   4.6812824942865233E-003   4.9472142371075695E-002
  -1.6788074185548688E-003   5.9217352105995769E-003   4.4703756732736077E-002
  -1.4782489162879402E-003   3.2074044893519171E-003   6.2748946486777785E-002
  -1.7081069695803232E-003   4.1843245785671557E-003   5.8393867579344401E-002
  -1.9379650228726858E-003   5.4558309962221829E-003   5.4004887299373847E-002
  -2.1678230761650696E-003   7.0219237423168948E-003   4.9582005646865941E-002
  -2.3976811294574452E-003   8.8826028168502713E-003   4.5125222621820060E-002
  -2.0381211093855878E-003   4.2765393195143275E-003   6.2371416145506897E-002
  -2.2876412090157006E-003   5.5790994385532811E-003   5.8340699336968171E-002
  -2.5371613086458064E-003   7.2744413288307053E-003   5.4304559808291630E-002
  -2.7866814082759296E-003   9.3625649903464059E-003   5.0262997559476663E-002
  -3.0362015079060251E-003   1.1843470423101188E-002   4.6216012590524880E-002
  -2.5317086820191362E-002   7.5253419866180282E-003   6.2397853825684080E-002
  -2.4487531218628941E-002   7.2935264591393878E-003   6.2010085946086091E-002
  -2.3657975617066521E-002   7.0569886029566153E-003   6.1843545974242020E-002
  -2.2828420015504104E-002   6.8157284180694749E-003   6.1898233910151923E-002
  -2.1998864413941683E-002   6.5697459044781192E-003   6.2174149753815633E-002
  -3.1629240577267397E-002   9.1178881310854942E-003   5.8702520066733932E-002
  -3.0598387760575933E-002   8.9356355816138378E-003   5.8494136378844236E-002
  -2.9567534943884529E-002   8.7204140684529335E-003   5.8467119213458846E-002
  -2.8536682127193048E-002   8.4722235916027157E-003   5.8621468570577553E-002
  -2.7505829310501599E-002   8.1910641510632431E-003   5.8957184450200456E-002
  -3.7723233803813386E-002   1.0710434275552960E-002   5.5070872603283111E-002
  -3.6530945157242659E-002   1.0577744704088288E-002   5.5013626472116980E-002
  -3.5338656510671945E-002   1.0383839533949252E-002   5.5097885478205100E-002
  -3.4146367864101232E-002   1.0128718765135956E-002   5.5323649621547649E-002
  -3.2954079217530512E-002   9.8123823976484226E-003   5.5690918902144670E-002
  -4.3599066499829336E-002   1.2302980420020426E-002   5.1502911435331741E-002
  -4.2285203408629082E-002   1.2219853826562641E-002   5.1568556225903825E-002
  -4.0971340317428877E-002   1.2047264999445625E-002   5.1735844768480706E-002
  -3.9657477226228630E-002   1.1785213938669225E-002   5.2004777063062141E-002
  -3.8343614135028417E-002   1.1433700644233491E-002   5.2375353109648179E-002
  -4.9256738665315186E-002   1.3895526564487892E-002   4.7998636562879782E-002
  -4.7861162514735212E-002   1.3861962949037188E-002   4.8158925640205408E-002
  -4.6465586364155237E-002   1.3710690464941860E-002   4.8380997084285726E-002
  -4.5070010213575276E-002   1.3441709112202417E-002   4.8664850895120987E-002
  -4.3674434062995302E-002   1.3055018890818726E-002   4.9010487072711162E-002
  -2.1998864413941683E-002   6.5697459044781192E-003   6.2174149753815633E-002
  -2.1175551430329061E-002   6.3188979253047395E-003   6.1849973640320299E-002
  -2.0352238446716457E-002   6.0630413436716241E-003   6.1739382464002152E-002
  -1.9528925463103843E-002   5.8021761595787279E-003   6.1842376224861065E-002
  -1.8705612479491235E-002   5.5363023730260474E-003   6.2158954922897081E-002
  -2.7505829310501599E-002   8.1910641510632431E-003   5.8957184450200456E-002
  -2.6476608304592739E-002   7.8889227322513494E-003   5.8677044613697563E-002
  -2.5447387298683892E-002   7.5777863205833546E-003   5.8595135884610058E-002
  -2.4418166292775063E-002   7.2576549160598795E-003   5.8711458262937881E-002
  -2.3388945286866185E-002   6.9285285186804768E-003   5.9026011748681134E-002
  -3.2954079217530512E-002   9.8123823976484226E-003   5.5690918902144670E-002
  -3.1734304019087126E-002   9.4589475391977512E-003   5.5450828952238088E-002
  -3.0514528820643729E-002   9.0925312974952585E-003   5.5393616279985201E-002
  -2.9294753622200354E-002   8.7131336725409774E-003   5.5519280885385991E-002
  -2.8074978423756950E-002   8.3207546643349062E-003   5.5827822768440519E-002
  -3.8343614135028417E-002   1.1433700644233491E-002   5.2375353109648179E-002
  -3.6948638573812184E-002   1.1028972346144313E-002   5.2171326655941916E-002
  -3.5553663012595965E-002   1.0607276274407076E-002   5.2134823650127712E-002
  -3.4158687451379760E-002   1.0168612429022214E-002   5.2265844092205437E-002
  -3.2763711890163520E-002   9.7129808099894188E-003   5.2564387982175123E-002
  -4.3674434062995302E-002   1.3055018890818726E-002   4.9010487072711162E-002
  -4.2119611968767942E-002   1.2598997153090763E-002   4.8838537724809228E-002
  -4.0564789874540617E-002   1.2122021251318907E-002   4.8818757995037459E-002
  -3.9009967780313251E-002   1.1624091185503314E-002   4.8951147883396190E-002
  -3.7455145686085919E-002   1.1105206955643765E-002   4.9235707389884975E-002
  -1.8705612479491235E-002   5.5363023730260474E-003   6.2158954922897081E-002
  -1.7861339351654331E-002   5.2631167595584005E-003   6.1910762723583479E-002
  -1.7017066223817441E-002   4.9803160947205355E-003   6.1868698239710140E-002
  -1.6172793095980544E-002   4.6879003785121436E-003   6.2032761471276857E-002
  -1.5328519968143640E-002   4.3858696109336237E-003   6.2402952418283808E-002
  -2.3388945286866185E-002   6.9285285186804768E-003   5.9026011748681134E-002
  -2.2340977168921750E-002   6.5907698827779582E-003   5.8763744226738857E-002
  -2.1293009050977297E-002   6.2447417626852741E-003   5.8702738969571580E-002
  -2.0245040933032872E-002   5.8904441584020570E-003   5.8842995977179201E-002
  -1.9197072815088409E-002   5.5278770699285773E-003   5.9184515249561753E-002
  -2.8074978423756950E-002   8.3207546643349062E-003   5.5827822768440519E-002
  -2.6828180766370179E-002   7.9184230059976130E-003   5.5552825491049507E-002
  -2.5581383108983363E-002   7.5091674306500752E-003   5.5474225027768213E-002
  -2.4334585451596558E-002   7.0929879382919721E-003   5.5592021378596687E-002
  -2.3087787794209776E-002   6.6698845289235031E-003   5.5906214543534852E-002
  -3.2763711890163520E-002   9.7129808099894188E-003   5.2564387982175123E-002
  -3.1322950143999585E-002   9.2460761292173302E-003   5.2278006516515242E-002
  -2.9882188397835605E-002   8.7735930986147896E-003   5.2183156414299901E-002
  -2.8441426651671653E-002   8.2955317181818318E-003   5.2279837675529170E-002
  -2.7000664905507663E-002   7.8118919879184429E-003   5.2568050300202923E-002
  -3.7455145686085919E-002   1.1105206955643765E-002   4.9235707389884975E-002
  -3.5825285301809992E-002   1.0573729252436964E-002   4.8939287303136236E-002
  -3.4195424917534058E-002   1.0038018766579601E-002   4.8829533129166741E-002
  -3.2565564533258123E-002   9.4980754980717418E-003   4.8906444867976698E-002
  -3.0935704148982182E-002   8.9538994469133271E-003   4.9170022519565981E-002
  -1.5328519968143640E-002   4.3858696109336237E-003   6.2402952418283808E-002
  -1.4437647201544040E-002   4.0755256240472826E-003   6.2236075752747200E-002
  -1.3546774434944439E-002   3.7581702499155517E-003   6.2282730484204823E-002
  -1.2655901668344835E-002   3.4338034885379766E-003   6.2542916612656749E-002
  -1.1765028901745238E-002   3.1024253399153379E-003   6.3016634138102989E-002
  -1.9197072815088409E-002   5.5278770699285773E-003   5.9184515249561753E-002
  -1.8095954424402410E-002   5.1571459901939842E-003   5.8984655736152108E-002
  -1.6994836033716432E-002   4.7783564121271910E-003   5.8991756073920959E-002
  -1.5893717643030419E-002   4.3915083357283190E-003   5.9205816262868347E-002
  -1.4792599252344458E-002   3.9966017609974758E-003   5.9626836302994257E-002
  -2.3087787794209776E-002   6.6698845289235031E-003   5.5906214543534852E-002
  -2.1782995325253067E-002   6.2387663563406026E-003   5.5672325071165416E-002
  -2.0478202856296326E-002   5.7985425743388233E-003   5.5638823904158773E-002
  -1.9173410387339603E-002   5.3492131829186041E-003   5.5805711042515013E-002
  -1.7868617918382880E-002   4.8907781820795582E-003   5.6172986486234172E-002
  -2.7000664905507663E-002   7.8118919879184429E-003   5.2568050300202923E-002
  -2.5498769904095914E-002   7.3203867224871516E-003   5.2299083757787024E-002
  -2.3996874902684189E-002   6.8187287365505146E-003   5.2223933974918479E-002
  -2.2494979901272440E-002   6.3069180301087513E-003   5.2342600951597082E-002
  -2.0993084899860688E-002   5.7849546031617793E-003   5.2655084687822901E-002
  -3.0935704148982182E-002   8.9538994469133271E-003   4.9170022519565981E-002
  -2.9243278160931099E-002   8.4020070886339226E-003   4.8864931796017252E-002
  -2.7550852172879954E-002   7.8389148987622476E-003   4.8747086286199975E-002
  -2.5858426184828840E-002   7.2646228772991310E-003   4.8816485990114220E-002
  -2.4166000196777726E-002   6.6791310242437785E-003   4.9073130907759888E-002
  -1.1765028901745238E-002   3.1024253399153379E-003   6.3016634138102989E-002
  -1.0796748641739955E-002   2.7758811569384423E-003   6.2944426377296803E-002
  -9.8284683817346889E-003   2.4660162924983187E-003   6.3112048312312874E-002
  -8.8601881217294145E-003   2.1728307465950780E-003   6.3519499943150481E-002
  -7.8919078617241400E-003   1.8963245192288314E-003   6.4166781269810680E-002
  -1.4792599252344458E-002   3.9966017609974758E-003   5.9626836302994257E-002
  -1.3594151446804179E-002   3.6031300847084169E-003   5.9510321883338324E-002
  -1.2395703641263951E-002   3.2205867036350644E-003   5.9614312858930235E-002
  -1.1197255835723730E-002   2.8489716177773489E-003   5.9938809229769921E-002
  -9.9988080301834717E-003   2.4882848271353675E-003   6.0483810995858034E-002
  -1.7868617918382880E-002   4.8907781820795582E-003   5.6172986486234172E-002
  -1.6459326867881725E-002   4.4303790124785303E-003   5.6006414384406927E-002
  -1.5050035817380500E-002   3.9751571147719211E-003   5.6041023377253529E-002
  -1.3640744766879287E-002   3.5251124889595642E-003   5.6276813464774159E-002
  -1.2231453716378092E-002   3.0802451350417370E-003   5.6713784646968662E-002
  -2.0993084899860688E-002   5.7849546031617793E-003   5.2655084687822901E-002
  -1.9392274904972497E-002   5.2576279402487963E-003   5.2432703880502973E-002
  -1.7791464910084362E-002   4.7297275259087224E-003   5.2392179867283145E-002
  -1.6190654915196206E-002   4.2012533601418628E-003   5.2533512648163264E-002
  -1.4589844920308036E-002   3.6722054429480788E-003   5.2856702223143266E-002
  -2.4166000196777726E-002   6.6791310242437785E-003   4.9073130907759888E-002
  -2.2392995558076625E-002   6.0848768680187848E-003   4.8789190371626379E-002
  -2.0619990919375497E-002   5.4842979370455791E-003   4.8667782329018638E-002
  -1.8846986280674376E-002   4.8773942313241198E-003   4.8708906779936917E-002
  -1.7073981641973268E-002   4.2641657508546427E-003   4.8912563724381353E-002
  -7.8919078617241400E-003   1.8963245192288314E-003   6.4166781269810680E-002
  -6.9589187285379051E-003   1.6836853180697831E-003   6.4085439340357930E-002
  -6.0259295953516631E-003   1.5821008507877210E-003   6.4251781156567489E-002
  -5.0929404621654212E-003   1.5915711173824024E-003   6.4665806718439106E-002
  -4.1599513289791862E-003   1.7120961178547223E-003   6.5327516025972754E-002
  -9.9988080301834717E-003   2.4882848271353675E-003   6.0483810995858034E-002
  -8.8168223686420667E-003   2.1890742607424407E-003   6.0389575774943083E-002
  -7.6348367071006479E-003   2.0018878476318058E-003   6.0545649865076129E-002
  -6.4528510455592429E-003   1.9267255878043302E-003   6.0952033266257574E-002
  -5.2708653840178241E-003   1.9635874812592435E-003   6.1608725978487433E-002
  -1.2231453716378092E-002   3.0802451350417370E-003   5.6713784646968662E-002
  -1.0797845961095388E-002   2.6944632034150706E-003   5.6607625553996843E-002
  -9.3642382058126538E-003   2.4216748444765429E-003   5.6754401337459445E-002
  -7.9306304505299199E-003   2.2618800582260325E-003   5.7154111997356268E-002
  -6.4970226952471878E-003   2.2150788446634317E-003   5.7806757533687747E-002
  -1.4589844920308036E-002   3.6722054429480788E-003   5.2856702223143266E-002
  -1.2901989505897851E-002   3.1998521460879364E-003   5.2739588677519871E-002
  -1.1214134091487655E-002   2.8414618413209539E-003   5.2878035573717119E-002
  -9.5262786770774696E-003   2.5970345286477365E-003   5.3272042911734693E-002
  -7.8384232626672757E-003   2.4665702080680085E-003   5.3921610691573071E-002
  -1.7073981641973268E-002   4.2641657508546427E-003   4.8912563724381353E-002
  -1.5129253003049473E-002   3.7052410887604137E-003   4.8785465145511853E-002
  -1.3184524364125677E-002   3.2612488381653648E-003   4.8916552573849192E-002
  -1.1239795725201882E-002   2.9321889990694960E-003   4.9305826009393289E-002
  -9.2950670862780860E-003   2.7180615714722522E-003   4.9953285452144058E-002
  -4.1599513289791862E-003   1.7120961178547223E-003   6.5327516025972754E-002
  -3.6294937740807900E-003   2.0044130935163995E-003   6.4409751207628818E-002
  -3.0990362191823870E-003   2.5292592856803187E-003   6.3611146288103049E-002
  -2.5685786642839908E-003   3.2866346943462160E-003   6.2931701267395890E-002
  -2.0381211093855878E-003   4.2765393195143275E-003   6.2371416145506897E-002
  -5.2708653840178241E-003   1.9635874812592435E-003   6.1608725978487433E-002
  -4.5952864370421148E-003   2.2195362583833367E-003   6.0881018812491028E-002
  -3.9197074900664437E-003   2.8016346495644551E-003   6.0324394531830750E-002
  -3.2441285430907362E-003   3.7098826548023628E-003   5.9938853136507014E-002
  -2.5685495961150322E-003   4.9442802740964353E-003   5.9724394626519239E-002
  -6.4970226952471878E-003   2.2150788446634317E-003   5.7806757533687747E-002
  -5.6243993696763334E-003   2.4346594232504959E-003   5.7362728417593267E-002
  -4.7517760441054390E-003   3.0740100134486747E-003   5.7141705173353180E-002
  -3.8791527185345377E-003   4.1331306152581695E-003   5.7143687800967180E-002
  -3.0065293929636625E-003   5.6120212286785431E-003   5.7368676300435184E-002
  -7.8384232626672757E-003   2.4665702080680085E-003   5.3921610691573071E-002
  -6.7168325719833104E-003   2.6497825881177661E-003   5.3854880022935508E-002
  -5.5952418812993737E-003   3.3463853773330748E-003   5.4063078212669709E-002
  -4.4736511906154023E-003   4.5563785757141463E-003   5.4546205260776096E-002
  -3.3520604999314734E-003   6.2797621832608730E-003   5.5304261167254551E-002
  -9.2950670862780860E-003   2.7180615714722522E-003   4.9953285452144058E-002
  -7.8725860439631812E-003   2.8649057529845923E-003   5.0357473628517502E-002
  -6.4501050016482486E-003   3.6187607412170864E-003   5.1088513649780731E-002
  -5.0276239593333300E-003   4.9796265361700259E-003   5.2146405515934136E-002
  -3.6051429170184113E-003   6.9475031378426477E-003   5.3531149226977104E-002
  -2.0381211093855878E-003   4.2765393195143275E-003   6.2371416145506897E-002
  -2.2876412090157006E-003   5.5790994385532811E-003   5.8340699336968171E-002
  -2.5371613086458064E-003   7.2744413288307053E-003   5.4304559808291630E-002
  -2.7866814082759296E-003   9.3625649903464059E-003   5.0262997559476663E-002
  -3.0362015079060251E-003   1.1843470423101188E-002   4.6216012590524880E-002
  -2.5685495961150322E-003   4.9442802740964353E-003   5.9724394626519239E-002
  -2.8409830212241249E-003   6.5686156612358992E-003   5.6191889748956780E-002
  -3.1134164463332004E-003   8.6466769700097312E-003   5.2618980940574045E-002
  -3.3858498714423556E-003   1.1178464200416842E-002   4.9005668201371005E-002
  -3.6582832965513720E-003   1.4163977352458446E-002   4.5351951531349410E-002
  -3.0065293929636625E-003   5.6120212286785431E-003   5.7368676300435184E-002
  -3.3368573542338423E-003   7.5581318839192391E-003   5.4395327504244029E-002
  -3.6671853155039666E-003   1.0018912611188979E-002   5.1346593566550497E-002
  -3.9975132767741508E-003   1.2994363410487889E-002   4.8222474487355338E-002
  -4.3278412380442950E-003   1.6484484281815925E-002   4.5022970266657358E-002
  -3.3520604999314734E-003   6.2797621832608730E-003   5.5304261167254551E-002
  -3.7752642080447641E-003   8.5476481066025511E-003   5.2951012602829854E-002
  -4.1984679161580687E-003   1.1391148252368116E-002   5.0487397686221305E-002
  -4.6216716242713993E-003   1.4810262620558741E-002   4.7913416417427628E-002
  -5.0448753323846362E-003   1.8804991211173294E-002   4.5229068796451000E-002
  -3.6051429170184113E-003   6.9475031378426477E-003   5.3531149226977104E-002
  -4.1562035826569477E-003   9.5371643292854191E-003   5.1858945044714111E-002
  -4.7072642482954841E-003   1.2763383893547336E-002   5.0041393299584846E-002
  -5.2583249139340343E-003   1.6626161830629281E-002   4.8078493991589116E-002
  -5.8093855795725569E-003   2.1125498140530663E-002   4.5970247120727947E-002
  -4.9256738665315186E-002   1.3895526564487892E-002   4.7998636562879782E-002
  -4.7861162514735212E-002   1.3861962949037188E-002   4.8158925640205408E-002
  -4.6465586364155237E-002   1.3710690464941860E-002   4.8380997084285726E-002
  -4.5070010213575276E-002   1.3441709112202417E-002   4.8664850895120987E-002
  -4.3674434062995302E-002   1.3055018890818726E-002   4.9010487072711162E-002
  -5.5309968824170719E-002   1.7232953597871581E-002   4.6232790442391147E-002
  -5.3749002961787029E-002   1.6565411630642513E-002   4.5447446237137784E-002
  -5.2188037099403423E-002   1.5935650311341143E-002   4.4931099088736881E-002
  -5.0627071237019788E-002   1.5343669639967361E-002   4.4683748997188452E-002
  -4.9066105374636133E-002   1.4789469616521278E-002   4.4705395962492511E-002
  -6.2372475500295566E-002   2.0570380631255158E-002   4.3755221211838280E-002
  -6.0438905236010740E-002   1.9268860312247948E-002   4.2179733240577832E-002
  -5.8505334971725748E-002   1.8160610157740384E-002   4.1080457016267655E-002
  -5.6571764707440839E-002   1.7245630167732274E-002   4.0457392538907531E-002
  -5.4638194443155902E-002   1.6523920342223830E-002   4.0310539808497511E-002
  -7.0444258693689948E-002   2.3907807664638764E-002   4.0565928871221436E-002
  -6.7930869337406025E-002   2.1972308993853384E-002   3.8355786650526011E-002
  -6.5417479981122240E-002   2.0385570004139618E-002   3.6829070866878366E-002
  -6.2904090624838455E-002   1.9147590695497201E-002   3.5985781520278280E-002
  -6.0390701268554628E-002   1.8258371067926410E-002   3.5825918610726079E-002
  -7.9525318404353562E-002   2.7245234698022425E-002   3.6664913420540346E-002
  -7.6224895265973258E-002   2.4675757675458876E-002   3.3975606466981834E-002
  -7.2924472127592899E-002   2.2610529850538852E-002   3.2176940640568641E-002
  -6.9624048989212581E-002   2.1049551223262158E-002   3.1268915941300712E-002
  -6.6323625850832263E-002   1.9992821793628990E-002   3.1251532369178159E-002
  -4.3674434062995302E-002   1.3055018890818726E-002   4.9010487072711162E-002
  -4.2119611968767942E-002   1.2598997153090763E-002   4.8838537724809228E-002
  -4.0564789874540617E-002   1.2122021251318907E-002   4.8818757995037459E-002
  -3.9009967780313251E-002   1.1624091185503314E-002   4.8951147883396190E-002
  -3.7455145686085919E-002   1.1105206955643765E-002   4.9235707389884975E-002
  -4.9066105374636133E-002   1.4789469616521278E-002   4.4705395962492511E-002
  -4.7340476183314016E-002   1.4250707520240380E-002   4.4357736857855712E-002
  -4.5614846991991934E-002   1.3705040630362694E-002   4.4199522329278040E-002
  -4.3889217800669858E-002   1.3152468946887857E-002   4.4230752376759788E-002
  -4.2163588609347734E-002   1.2592992469816100E-002   4.4451427000300719E-002
  -5.4638194443155902E-002   1.6523920342223830E-002   4.0310539808497511E-002
  -5.2704483196810051E-002   1.5902417887389997E-002   3.9801220317572675E-002
  -5.0770771950464214E-002   1.5288060009406197E-002   3.9518620360636116E-002
  -4.8837060704118376E-002   1.4680846708272343E-002   3.9462739937687799E-002
  -4.6903349457772484E-002   1.4080777983988380E-002   3.9633579048727677E-002
  -6.0390701268554628E-002   1.8258371067926410E-002   3.5825918610726079E-002
  -5.8211633009256060E-002   1.7554128254539753E-002   3.5168988103960172E-002
  -5.6032564749957499E-002   1.6871079388449815E-002   3.4776052089111588E-002
  -5.3853496490658931E-002   1.6209224469656745E-002   3.4647110566180070E-002
  -5.1674428231360370E-002   1.5568563498160742E-002   3.4782163535165944E-002
  -6.6323625850832263E-002   1.9992821793628990E-002   3.1251532369178159E-002
  -6.3861925620651974E-002   1.9205838621689231E-002   3.0461040217018232E-002
  -6.1400225390471713E-002   1.8454098767493446E-002   2.9971817514704485E-002
  -5.8938525160291438E-002   1.7737602231041334E-002   2.9783864262236809E-002
  -5.6476824930111164E-002   1.7056349012332994E-002   2.9897180459615535E-002
  -3.7455145686085919E-002   1.1105206955643765E-002   4.9235707389884975E-002
  -3.5825285301809992E-002   1.0573729252436964E-002   4.8939287303136236E-002
  -3.4195424917534058E-002   1.0038018766579601E-002   4.8829533129166741E-002
  -3.2565564533258123E-002   9.4980754980717418E-003   4.8906444867976698E-002
  -3.0935704148982182E-002   8.9538994469133271E-003   4.9170022519565981E-002
  -4.2163588609347734E-002   1.2592992469816100E-002   4.4451427000300719E-002
  -4.0347871850455845E-002   1.2024256233640340E-002   4.4114955696594627E-002
  -3.8532155091564019E-002   1.1443905272853369E-002   4.3963531229341060E-002
  -3.6716438332672158E-002   1.0851939587455461E-002   4.3997153598539888E-002
  -3.4900721573780283E-002   1.0248359177446320E-002   4.4215822804191229E-002
  -4.6903349457772484E-002   1.4080777983988380E-002   3.9633579048727677E-002
  -4.4903395400591600E-002   1.3474783214843647E-002   3.9249674586103775E-002
  -4.2903441343410759E-002   1.2849791779127144E-002   3.9049197883605384E-002
  -4.0903487286229910E-002   1.2205803676838959E-002   3.9032148941232525E-002
  -3.8903533229049034E-002   1.1542818907979230E-002   3.9198527758985371E-002
  -5.1674428231360370E-002   1.5568563498160742E-002   3.4782163535165944E-002
  -4.9491855952217341E-002   1.4925310196046905E-002   3.4343443971663681E-002
  -4.7309283673074368E-002   1.4255678285401027E-002   3.4086533091959921E-002
  -4.5126711393931367E-002   1.3559667766222680E-002   3.4011430896054969E-002
  -4.2944139114788366E-002   1.2837278638512126E-002   3.4118137383948713E-002
  -5.6476824930111164E-002   1.7056349012332994E-002   2.9897180459615535E-002
  -5.4113253505332942E-002   1.6375837177250330E-002   2.9396263853274207E-002
  -5.1749682080554735E-002   1.5661564791674631E-002   2.9075536854404643E-002
  -4.9386110655776520E-002   1.4913531855606274E-002   2.8934999463006914E-002
  -4.7022539230998361E-002   1.4131738369045133E-002   2.8974651679080976E-002
  -3.0935704148982182E-002   8.9538994469133271E-003   4.9170022519565981E-002
  -2.9243278160931099E-002   8.4020070886339226E-003   4.8864931796017252E-002
  -2.7550852172879954E-002   7.8389148987622476E-003   4.8747086286199975E-002
  -2.5858426184828840E-002   7.2646228772991310E-003   4.8816485990114220E-002
  -2.4166000196777726E-002   6.6791310242437785E-003   4.9073130907759888E-002
  -3.4900721573780283E-002   1.0248359177446320E-002   4.4215822804191229E-002
  -3.3027353946089667E-002   9.6357412904097828E-003   4.3857804245561960E-002
  -3.1153986318399080E-002   9.0166631739294900E-003   4.3674423752480207E-002
  -2.9280618690708485E-002   8.3911248280058928E-003   4.3665681324945874E-002
  -2.7407251063017876E-002   7.7591262526381377E-003   4.3831576962958863E-002
  -3.8903533229049034E-002   1.1542818907979230E-002   3.9198527758985371E-002
  -3.6861831109902939E-002   1.0869475492185865E-002   3.8792320967423882E-002
  -3.4820128990756961E-002   1.0194411449096906E-002   3.8548145093225857E-002
  -3.2778426871610936E-002   9.5176267787125454E-003   3.8466000136391107E-002
  -3.0736724752464882E-002   8.8391214810324970E-003   3.8545886096919890E-002
  -4.2944139114788366E-002   1.2837278638512126E-002   3.4118137383948713E-002
  -4.0746709652370990E-002   1.2103209693961892E-002   3.3668481961603082E-002
  -3.8549280189953586E-002   1.1372159724264346E-002   3.3368250308436737E-002
  -3.6351850727536203E-002   1.0644128729419253E-002   3.3217442424449857E-002
  -3.4154421265118813E-002   9.9191167094268562E-003   3.3216058309642180E-002
  -4.7022539230998361E-002   1.4131738369045133E-002   2.8974651679080976E-002
  -4.4681989573493675E-002   1.3336943895737918E-002   2.8486287228099427E-002
  -4.2341439915988960E-002   1.2549907999431564E-002   2.8134739398113118E-002
  -4.0000890258484273E-002   1.1770630680126071E-002   2.7920008189122075E-002
  -3.7660340600979586E-002   1.0999111937821104E-002   2.7842093601126328E-002
  -2.4166000196777726E-002   6.6791310242437785E-003   4.9073130907759888E-002
  -2.2392995558076625E-002   6.0848768680187848E-003   4.8789190371626379E-002
  -2.0619990919375497E-002   5.4842979370455791E-003   4.8667782329018638E-002
  -1.8846986280674376E-002   4.8773942313241198E-003   4.8708906779936917E-002
  -1.7073981641973268E-002   4.2641657508546427E-003   4.8912563724381353E-002
  -2.7407251063017876E-002   7.7591262526381377E-003   4.3831576962958863E-002
  -2.5473688644410721E-002   7.1237008677859648E-003   4.3454079807861867E-002
  -2.3540126225803627E-002   6.4878820934088782E-003   4.3235165719050672E-002
  -2.1606563807196544E-002   5.8516699295061113E-003   4.3174834696525791E-002
  -1.9673001388589434E-002   5.2150643760782156E-003   4.3273086740286792E-002
  -3.0736724752464882E-002   8.8391214810324970E-003   3.8545886096919890E-002
  -2.8646553981191654E-002   8.1625248675536166E-003   3.8080763708082097E-002
  -2.6556383209918436E-002   7.4914662497721773E-003   3.7770274958290134E-002
  -2.4466212438645205E-002   6.8259456276881583E-003   3.7614419847544628E-002
  -2.2376041667371935E-002   6.1659630013017885E-003   3.7613198375845119E-002
  -3.4154421265118813E-002   9.9191167094268562E-003   3.3216058309642180E-002
  -3.1911591568419405E-002   9.2013488673211435E-003   3.2669242072286414E-002
  -2.9668761871719906E-002   8.4950504061354210E-003   3.2273110046736900E-002
  -2.7425932175020481E-002   7.8002213258702886E-003   3.2027662232993651E-002
  -2.5183102478321055E-002   7.1168616265253615E-003   3.1932898631056611E-002
  -3.7660340600979586E-002   1.0999111937821104E-002   2.7842093601126328E-002
  -3.5268801406093869E-002   1.0240172867088337E-002   2.7219514900475583E-002
  -3.2877262211208083E-002   9.4986345624988866E-003   2.6743670984391010E-002
  -3.0485723016322359E-002   8.7744970240522802E-003   2.6414561852872942E-002
  -2.8094183821436580E-002   8.0677602517489344E-003   2.6232187505920934E-002
  -1.7073981641973268E-002   4.2641657508546427E-003   4.8912563724381353E-002
  -1.5129253003049473E-002   3.7052410887604137E-003   4.8785465145511853E-002
  -1.3184524364125677E-002   3.2612488381653648E-003   4.8916552573849192E-002
  -1.1239795725201882E-002   2.9321889990694960E-003   4.9305826009393289E-002
  -9.2950670862780860E-003   2.7180615714722522E-003   4.9953285452144058E-002
  -1.9673001388589434E-002   5.2150643760782156E-003   4.3273086740286792E-002
  -1.7508926462752747E-002   4.6142272251104566E-003   4.3096559211929453E-002
  -1.5344851536916219E-002   4.0853202685888212E-003   4.3100538250191278E-002
  -1.3180776611079602E-002   3.6283435065131292E-003   4.3285023855071811E-002
  -1.1016701685243060E-002   3.2432969388833666E-003   4.3650016026571148E-002
  -2.2376041667371935E-002   6.1659630013017885E-003   3.7613198375845119E-002
  -2.0070299895210371E-002   5.5232133614605827E-003   3.7344239680946967E-002
  -1.7764558123048800E-002   4.9093916990122777E-003   3.7178108112080055E-002
  -1.5458816350887236E-002   4.3244980139568734E-003   3.7114803669244176E-002
  -1.3153074578725665E-002   3.7685323062945364E-003   3.7154326352439371E-002
  -2.5183102478321055E-002   7.1168616265253615E-003   3.1932898631056611E-002
  -2.2813373300422254E-002   6.4321994978105562E-003   3.1528506552564561E-002
  -2.0443644122523450E-002   5.7334631294357341E-003   3.1149262159515807E-002
  -1.8073914944624625E-002   5.0206525214007286E-003   3.0795165451910439E-002
  -1.5704185766725845E-002   4.2937676737057895E-003   3.0466216429748186E-002
  -2.8094183821436580E-002   8.0677602517489344E-003   2.6232187505920934E-002
  -2.5738146678388307E-002   7.3411856341607518E-003   2.5649359826781737E-002
  -2.3382109535340118E-002   6.5575345598591628E-003   2.5014000392498237E-002
  -2.1026072392291845E-002   5.7168070288442993E-003   2.4326109203070406E-002
  -1.8670035249243655E-002   4.8190030411168205E-003   2.3585686258497884E-002
  -9.2950670862780860E-003   2.7180615714722522E-003   4.9953285452144058E-002
  -7.8725860439631812E-003   2.8649057529845923E-003   5.0357473628517502E-002
  -6.4501050016482486E-003   3.6187607412170864E-003   5.1088513649780731E-002
  -5.0276239593333300E-003   4.9796265361700259E-003   5.2146405515934136E-002
  -3.6051429170184113E-003   6.9475031378426477E-003   5.3531149226977104E-002
  -1.1016701685243060E-002   3.2432969388833666E-003   4.3650016026571148E-002
  -9.2491827535676335E-003   3.1694720959415945E-003   4.4236413983722744E-002
  -7.4816638218921511E-003   3.6461605079300408E-003   4.5186035874705488E-002
  -5.7141448902167311E-003   4.6733621748483584E-003   4.6498881699519157E-002
  -3.9466259585412972E-003   6.2510770966969220E-003   4.8174951458164306E-002
  -1.3153074578725665E-002   3.7685323062945364E-003   3.7154326352439371E-002
  -1.1004145668748470E-002   3.4740384388985968E-003   3.7866436538578879E-002
  -8.8552167587713226E-003   3.6735602746427454E-003   3.8978142747490868E-002
  -6.7062878487941825E-003   4.3670978135267949E-003   4.0489444979175018E-002
  -4.5573589388169800E-003   5.5546510555510298E-003   4.2400343233631649E-002
  -1.5704185766725845E-002   4.2937676737057895E-003   3.0466216429748186E-002
  -1.3137474789505731E-002   3.7786047818555990E-003   3.1247541293085851E-002
  -1.0570763812285569E-002   3.7009600413554639E-003   3.2464834268137031E-002
  -8.0040528350654588E-003   4.0608334522052904E-003   3.4118095354901679E-002
  -5.4373418578452931E-003   4.8582250144053318E-003   3.6207324553380237E-002
  -1.8670035249243655E-002   4.8190030411168205E-003   2.3585686258497884E-002
  -1.5649170115839328E-002   4.0831711248125457E-003   2.4379728247243548E-002
  -1.2628304982435057E-002   3.7283598080680991E-003   2.5646110436643998E-002
  -9.6074398490307716E-003   3.7545690908836540E-003   2.7384832826699068E-002
  -6.5865747156264587E-003   4.1617989732593008E-003   2.9595895417409035E-002
  -3.6051429170184113E-003   6.9475031378426477E-003   5.3531149226977104E-002
  -4.1562035826569477E-003   9.5371643292854191E-003   5.1858945044714111E-002
  -4.7072642482954841E-003   1.2763383893547336E-002   5.0041393299584846E-002
  -5.2583249139340343E-003   1.6626161830629281E-002   4.8078493991589116E-002
  -5.8093855795725569E-003   2.1125498140530663E-002   4.5970247120727947E-002
  -3.9466259585412972E-003   6.2510770966969220E-003   4.8174951458164306E-002
  -4.5392036365731053E-003   8.6889117631201440E-003   4.7240470191140749E-002
  -5.1317813146048510E-003   1.2296472663762270E-002   4.6368302462197086E-002
  -5.7243589926366210E-003   1.7073759798623536E-002   4.5558448271333540E-002
  -6.3169366706684049E-003   2.3020773167704345E-002   4.4810907618549223E-002
  -4.5573589388169800E-003   5.5546510555510298E-003   4.2400343233631649E-002
  -4.9837925282958558E-003   7.8406591969547579E-003   4.2736752743247564E-002
  -5.4102261177747663E-003   1.1829561433976774E-002   4.3343136891889525E-002
  -5.8366597072536906E-003   1.7521357766618183E-002   4.4219495679557429E-002
  -6.2630932967326081E-003   2.4916048194877805E-002   4.5365829106251088E-002
  -5.4373418578452931E-003   4.8582250144053318E-003   3.6207324553380237E-002
  -5.4899702578253178E-003   6.9924066307894273E-003   3.8347792701034819E-002
  -5.5425986578052332E-003   1.1362650204191714E-002   4.0965896588661510E-002
  -5.5952270577851763E-003   1.7968955734612414E-002   4.4061636216260226E-002
  -5.6478554577651177E-003   2.6811323222051375E-002   4.7635011583830850E-002
  -6.5865747156264587E-003   4.1617989732593008E-003   2.9595895417409035E-002
  -6.0577368251613917E-003   6.1441540646242077E-003   3.4073590064502168E-002
  -5.5288989346962691E-003   1.0895738974406183E-002   3.9236581552513583E-002
  -5.0000610442311466E-003   1.8416553702607079E-002   4.5084869881443140E-002
  -4.4712231537660241E-003   2.8706598249224946E-002   5.1618455051290368E-002
  -7.9525318404353562E-002   2.7245234698022425E-002   3.6664913420540346E-002
  -7.6224895265973258E-002   2.4675757675458876E-002   3.3975606466981834E-002
  -7.2924472127592899E-002   2.2610529850538852E-002   3.2176940640568641E-002
  -6.9624048989212581E-002   2.1049551223262158E-002   3.1268915941300712E-002
  -6.6323625850832263E-002   1.9992821793628990E-002   3.1251532369178159E-002
  -8.6860326918980296E-002   2.2692218970009337E-002   1.5749480121291237E-002
  -8.3144189211558986E-002   2.2765225675576456E-002   1.7203468147530321E-002
  -7.9428051504137856E-002   2.2567668440617222E-002   1.8598244184705792E-002
  -7.5711913796716546E-002   2.2099547265131712E-002   1.9933808232817693E-002
  -7.1995776089295374E-002   2.1360862149119864E-002   2.1210160291866176E-002
  -8.9693956524263665E-002   1.8139203241996249E-002  -2.1360628807420290E-003
  -8.6511957364010336E-002   2.0854693675693953E-002   2.6864069871246343E-003
  -8.3329958203757076E-002   2.2524807030695704E-002   6.4998117497189478E-003
  -8.0147959043503733E-002   2.3149543307001211E-002   9.3041514070408629E-003
  -7.6965959883250432E-002   2.2728902504610710E-002   1.1099425959090581E-002
  -8.8026207220203739E-002   1.3586187513983106E-002  -1.6991715585559890E-002
  -8.6328199723327156E-002   1.8944161675811491E-002  -9.5755770142354479E-003
  -8.4630192226450643E-002   2.2481945620774046E-002  -4.1183566643920224E-003
  -8.2932184729574088E-002   2.4199539348870654E-002  -6.2005453602967560E-004
  -8.1234177232697574E-002   2.4096942860101792E-002   9.1932937085150920E-004
  -8.1857079006800504E-002   9.0331717859700733E-003  -2.8817477993162366E-002
  -8.2592916289509599E-002   1.7033629675929141E-002  -1.9582483856549537E-002
  -8.3328753572218583E-002   2.2439084210852445E-002  -1.3256261057626728E-002
  -8.4064590854927623E-002   2.5249535390740221E-002  -9.8388095963940075E-003
  -8.4800428137636663E-002   2.5464983215592540E-002  -9.3301294728511674E-003
  -6.6323625850832263E-002   1.9992821793628990E-002   3.1251532369178159E-002
  -6.3861925620651974E-002   1.9205838621689231E-002   3.0461040217018232E-002
  -6.1400225390471713E-002   1.8454098767493446E-002   2.9971817514704485E-002
  -5.8938525160291438E-002   1.7737602231041334E-002   2.9783864262236809E-002
  -5.6476824930111164E-002   1.7056349012332994E-002   2.9897180459615535E-002
  -7.1995776089295374E-002   2.1360862149119864E-002   2.1210160291866176E-002
  -6.9295879264347535E-002   2.0511203749062110E-002   2.1100492074224750E-002
  -6.6595982439399737E-002   1.9710162721439217E-002   2.1165947596272244E-002
  -6.3896085614451925E-002   1.8957739066250867E-002   2.1406526858008597E-002
  -6.1196188789504113E-002   1.8253932783497351E-002   2.1822229859433828E-002
  -7.6965959883250432E-002   2.2728902504610710E-002   1.1099425959090581E-002
  -7.4154012173692441E-002   2.1816568876434905E-002   1.1683955730658585E-002
  -7.1342064464134380E-002   2.0966226675384926E-002   1.2317463531758305E-002
  -6.8530116754576348E-002   2.0177875901460508E-002   1.2999949362389542E-002
  -6.5718169045018260E-002   1.9451516554661485E-002   1.3731413222552377E-002
  -8.1234177232697574E-002   2.4096942860101792E-002   9.1932937085150920E-004
  -7.8436324348686665E-002   2.3121934003807965E-002   2.2114311863198934E-003
  -7.5638471464675658E-002   2.2222290629330527E-002   3.4263653211627689E-003
  -7.2840618580664748E-002   2.1398012736670042E-002   4.5641317753796770E-003
  -7.0042765696653742E-002   2.0649100325825787E-002   5.6247305489711755E-003
  -8.4800428137636663E-002   2.5464983215592540E-002  -9.3301294728511674E-003
  -8.2142815789330137E-002   2.4427299131180635E-002  -7.3170815587911275E-003
  -7.9485203441023555E-002   2.3478354583276406E-002  -5.5073470355144205E-003
  -7.6827591092716974E-002   2.2618149571879520E-002  -3.9009259030206717E-003
  -7.4169978744410447E-002   2.1846684096990088E-002  -2.4978181613098949E-003
  -5.6476824930111164E-002   1.7056349012332994E-002   2.9897180459615535E-002
  -5.4113253505332942E-002   1.6375837177250330E-002   2.9396263853274207E-002
  -5.1749682080554735E-002   1.5661564791674631E-002   2.9075536854404643E-002
  -4.9386110655776520E-002   1.4913531855606274E-002   2.8934999463006914E-002
  -4.7022539230998361E-002   1.4131738369045133E-002   2.8974651679080976E-002
  -6.1196188789504113E-002   1.8253932783497351E-002   2.1822229859433828E-002
  -5.8661572403076734E-002   1.7555824265546111E-002   2.1474061014487345E-002
  -5.6126956016649326E-002   1.6820493904764436E-002   2.1287792485367413E-002
  -5.3592339630221891E-002   1.6047941701153135E-002   2.1263424272073894E-002
  -5.1057723243794526E-002   1.5238167654711421E-002   2.1400956374607261E-002
  -6.5718169045018260E-002   1.9451516554661485E-002   1.3731413222552377E-002
  -6.3030796988586851E-002   1.8735811353841947E-002   1.3532530846663268E-002
  -6.0343424932155457E-002   1.7979423017854518E-002   1.3477259494955526E-002
  -5.7656052875724027E-002   1.7182351546699830E-002   1.3565599167429311E-002
  -5.4968680819292584E-002   1.6344596940377487E-002   1.3797549864084491E-002
  -7.0042765696653742E-002   2.0649100325825787E-002   5.6247305489711755E-003
  -6.7220927261863406E-002   1.9915798442137589E-002   5.5716733498021621E-003
  -6.4399088827073056E-002   1.9138352130944572E-002   5.6439378831691367E-003
  -6.1577250392282727E-002   1.8316761392246275E-002   5.8415241490725588E-003
  -5.8755411957492371E-002   1.7451026226043553E-002   6.1644321475123401E-003
  -7.4169978744410447E-002   2.1846684096990088E-002  -2.4978181613098949E-003
  -7.1231963222906314E-002   2.1095785530433453E-002  -2.4085114760963311E-003
  -6.8293947701402236E-002   2.0297281244034321E-002  -2.2121723499917145E-003
  -6.5355932179898102E-002   1.9451171237793337E-002  -1.9088007829959341E-003
  -6.2417916658394024E-002   1.8557455511710064E-002  -1.4983967751089899E-003
  -4.7022539230998361E-002   1.4131738369045133E-002   2.8974651679080976E-002
  -4.4681989573493675E-002   1.3336943895737918E-002   2.8486287228099427E-002
  -4.2341439915988960E-002   1.2549907999431564E-002   2.8134739398113118E-002
  -4.0000890258484273E-002   1.1770630680126071E-002   2.7920008189122075E-002
  -3.7660340600979586E-002   1.0999111937821104E-002   2.7842093601126328E-002
  -5.1057723243794526E-002   1.5238167654711421E-002   2.1400956374607261E-002
  -4.8573542886241244E-002   1.4418742400605172E-002   2.1056471442228386E-002
  -4.6089362528687970E-002   1.3617236574000491E-002   2.0862431288951266E-002
  -4.3605182171134724E-002   1.2833650174896932E-002   2.0818835914776110E-002
  -4.1121001813581415E-002   1.2067983203295052E-002   2.0925685319702847E-002
  -5.4968680819292584E-002   1.6344596940377487E-002   1.3797549864084491E-002
  -5.2327241603584068E-002   1.5500540905472315E-002   1.3607105300808692E-002
  -4.9685802387875545E-002   1.4684565148569417E-002   1.3580733674741385E-002
  -4.7044363172167022E-002   1.3896669669668016E-002   1.3718434985882787E-002
  -4.4402923956458513E-002   1.3136854468769055E-002   1.4020209234232417E-002
  -5.8755411957492371E-002   1.7451026226043553E-002   6.1644321475123401E-003
  -5.5943085725521952E-002   1.6582339410339736E-002   6.1381888038403616E-003
  -5.3130759493551595E-002   1.5751893723138344E-002   6.2896465554836099E-003
  -5.0318433261581252E-002   1.4959689164439155E-002   6.6188054024418665E-003
  -4.7506107029610820E-002   1.4205725734242919E-002   7.1256653447155094E-003
  -6.2417916658394024E-002   1.8557455511710064E-002  -1.4983967751089899E-003
  -5.9421075252055089E-002   1.7664137915206712E-002  -1.3502780486764898E-003
  -5.6424233845716210E-002   1.6819222297707326E-002  -1.0108300688226046E-003
  -5.3427392439377303E-002   1.6022708659210086E-002  -4.8005283554649475E-004
  -5.0430551033038395E-002   1.5274596999716783E-002   2.4205365115115285E-004
  -3.7660340600979586E-002   1.0999111937821104E-002   2.7842093601126328E-002
  -3.5268801406093869E-002   1.0240172867088337E-002   2.7219514900475583E-002
  -3.2877262211208083E-002   9.4986345624988866E-003   2.6743670984391010E-002
  -3.0485723016322359E-002   8.7744970240522802E-003   2.6414561852872942E-002
  -2.8094183821436580E-002   8.0677602517489344E-003   2.6232187505920934E-002
  -4.1121001813581415E-002   1.2067983203295052E-002   2.0925685319702847E-002
  -3.8603306237529098E-002   1.1311479597799434E-002   2.0470171320804420E-002
  -3.6085610661476780E-002   1.0555383297015580E-002   2.0120235299672662E-002
  -3.3567915085424463E-002   9.7996943009434692E-003   1.9875877256307878E-002
  -3.1050219509372146E-002   9.0444126095831079E-003   1.9737097190709596E-002
  -4.4402923956458513E-002   1.3136854468769055E-002   1.4020209234232417E-002
  -4.1800228806039112E-002   1.2382786328510809E-002   1.3714766475654921E-002
  -3.9197533655619815E-002   1.1612132031532829E-002   1.3473744888044786E-002
  -3.6594838505200469E-002   1.0824891577835102E-002   1.3297144471401477E-002
  -3.3992143354781110E-002   1.0021064967417392E-002   1.3184965225725681E-002
  -4.7506107029610820E-002   1.4205725734242919E-002   7.1256653447155094E-003
  -4.4859569111624059E-002   1.3454093059222266E-002   6.9533003650272610E-003
  -4.2213031193637264E-002   1.2668880766049911E-002   6.8041997495064538E-003
  -3.9566493275650469E-002   1.1850088854726680E-002   6.6783634981538234E-003
  -3.6919955357663709E-002   1.0997717325251233E-002   6.5757916109683290E-003
  -5.0430551033038395E-002   1.5274596999716783E-002   2.4205365115115285E-004
  -4.7781327154283737E-002   1.4525399789933391E-002   1.8577298892086258E-004
  -4.5132103275529079E-002   1.3725629500566827E-002   1.1159988405859411E-004
  -4.2482879396774448E-002   1.2875286131617938E-002   1.9534336564035193E-005
  -3.9833655518019762E-002   1.1974369683085850E-002  -9.0423653561821915E-005
  -2.8094183821436580E-002   8.0677602517489344E-003   2.6232187505920934E-002
  -2.5738146678388307E-002   7.3411856341607518E-003   2.5649359826781737E-002
  -2.3382109535340118E-002   6.5575345598591628E-003   2.5014000392498237E-002
  -2.1026072392291845E-002   5.7168070288442993E-003   2.4326109203070406E-002
  -1.8670035249243655E-002   4.8190030411168205E-003   2.3585686258497884E-002
  -3.1050219509372146E-002   9.0444126095831079E-003   1.9737097190709596E-002
  -2.8730499204436391E-002   8.2886785440938193E-003   1.9155402016288181E-002
  -2.6410778899500678E-002   7.5316324256356204E-003   1.8553604920785671E-002
  -2.4091058594564937E-002   6.7732742542084626E-003   1.7931705904202830E-002
  -2.1771338289629211E-002   6.0136040298123250E-003   1.7289704966539476E-002
  -3.3992143354781110E-002   1.0021064967417392E-002   1.3184965225725681E-002
  -3.1676310053894069E-002   9.2361714540272200E-003   1.2660166959765212E-002
  -2.9360476753006945E-002   8.5057302914123140E-003   1.2147696606788383E-002
  -2.7044643452119856E-002   7.8297414795725183E-003   1.1647554166794867E-002
  -2.4728810151232780E-002   7.2082050185080515E-003   1.1159739639784422E-002
  -3.6919955357663709E-002   1.0997717325251233E-002   6.5757916109683290E-003
  -3.4575579226761279E-002   1.0183664363960787E-002   6.1636546572139753E-003
  -3.2231203095858932E-002   9.4798281571887230E-003   5.7962754505063961E-003
  -2.9886826964956620E-002   8.8862087049364057E-003   5.4736539908464502E-003
  -2.7542450834054166E-002   8.4028060072031119E-003   5.1957902782335808E-003
  -3.9833655518019762E-002   1.1974369683085850E-002  -9.0423653561821915E-005
  -3.7428306723038207E-002   1.1131157273893910E-002  -3.3413489136663310E-004
  -3.5022957928056653E-002   1.0453926022965354E-002  -5.0065854806000121E-004
  -3.2617609133075043E-002   9.9426759303007095E-003  -5.8999462364261318E-004
  -3.0212260338093544E-002   9.5974069958990604E-003  -6.0214311811401799E-004
  -1.8670035249243655E-002   4.8190030411168205E-003   2.3585686258497884E-002
  -1.5649170115839328E-002   4.0831711248125457E-003   2.4379728247243548E-002
  -1.2628304982435057E-002   3.7283598080680991E-003   2.5646110436643998E-002
  -9.6074398490307716E-003   3.7545690908836540E-003   2.7384832826699068E-002
  -6.5865747156264587E-003   4.1617989732593008E-003   2.9595895417409035E-002
  -2.1771338289629211E-002   6.0136040298123250E-003   1.7289704966539476E-002
  -1.8547034040812579E-002   5.3451997890817671E-003   1.8241109358754948E-002
  -1.5322729791995948E-002   4.8606395686521808E-003   1.9127051781140630E-002
  -1.2098425543179192E-002   4.5599233685234136E-003   1.9947532233696177E-002
  -8.8741212943625747E-003   4.4430511886951463E-003   2.0702550716421575E-002
  -2.4728810151232780E-002   7.2082050185080515E-003   1.1159739639784422E-002
  -2.1838868957488530E-002   6.6072284533515713E-003   1.2071329856210844E-002
  -1.8948927763744274E-002   5.9929193292364707E-003   1.2379655932322473E-002
  -1.6058986570000076E-002   5.3652776461635028E-003   1.2084717868119134E-002
  -1.3169045376255767E-002   4.7243034041314913E-003   1.1186515663600988E-002
  -2.7542450834054166E-002   8.4028060072031119E-003   5.1957902782335808E-003
  -2.5524674865867233E-002   7.8692571176214171E-003   5.8703897396113064E-003
  -2.3506898897680269E-002   7.1251990898209897E-003   5.4039228901897780E-003
  -2.1489122929493319E-002   6.1706319238026500E-003   3.7963897299677484E-003
  -1.9471346961306375E-002   5.0055556195673645E-003   1.0477902589467666E-003
  -3.0212260338093544E-002   9.5974069958990604E-003  -6.0214311811401799E-004
  -2.9604451765948614E-002   9.1312857818903748E-003  -3.6171099104403970E-004
  -2.8996643193803795E-002   8.2574788504050645E-003  -1.8001473452581851E-003
  -2.8388834621658948E-002   6.9759862014431295E-003  -4.9174521807573840E-003
  -2.7781026049514046E-002   5.2868078350032377E-003  -9.7136254975404013E-003
  -6.5865747156264587E-003   4.1617989732593008E-003   2.9595895417409035E-002
  -6.0577368251613917E-003   6.1441540646242077E-003   3.4073590064502168E-002
  -5.5288989346962691E-003   1.0895738974406183E-002   3.9236581552513583E-002
  -5.0000610442311466E-003   1.8416553702607079E-002   4.5084869881443140E-002
  -4.4712231537660241E-003   2.8706598249224946E-002   5.1618455051290368E-002
  -8.8741212943625747E-003   4.4430511886951463E-003   2.0702550716421575E-002
  -7.5876856816042559E-003   5.6598018568899122E-003   2.5871484488814322E-002
  -6.3012500688457845E-003   9.3599542008288850E-003   3.1870316864875015E-002
  -5.0148144560876254E-003   1.5543508220512862E-002   3.8699047844604068E-002
  -3.7283788433289944E-003   2.4210463915941283E-002   4.6357677428001676E-002
  -1.3169045376255767E-002   4.7243034041314913E-003   1.1186515663600988E-002
  -1.0980410278453999E-002   5.1754496491561164E-003   1.6760860418619489E-002
  -8.7917751806522310E-003   7.8241694272513790E-003   2.3309705540056333E-002
  -6.6031400828503520E-003   1.2670462738418872E-002   3.0833051027912013E-002
  -4.4145049850486950E-003   1.9714329582657619E-002   3.9330896882186384E-002
  -1.9471346961306375E-002   5.0055556195673645E-003   1.0477902589467666E-003
  -1.6235910615710787E-002   4.6910974414212936E-003   6.7417178539179307E-003
  -1.3000474270115251E-002   6.2883846536743102E-003   1.3554747578057847E-002
  -9.7650379245197306E-003   9.7974172563251010E-003   2.1486879431366519E-002
  -6.5296015789241268E-003   1.5218195249373734E-002   3.0538113413844215E-002
  -2.7781026049514046E-002   5.2868078350032377E-003  -9.7136254975404013E-003
  -2.3354186693374634E-002   4.2067452336882472E-003  -4.1859432052898105E-003
  -1.8927347337235056E-002   4.7525998800964642E-003   2.6054429788793798E-003
  -1.4500507981095423E-002   6.9243717742313027E-003   1.0660533054968321E-002
  -1.0073668624956067E-002   1.0722060916090292E-002   1.9979327022975779E-002
 </DataArray>
 </PointData>
 </Piece>
 </UnstructuredGrid>
 </VTKFile>
