 <VTKFile type="UnstructuredGrid"  version="0.1"   >
 <UnstructuredGrid>
 <Piece  NumberOfPoints="          1600 "  NumberOfCells="         1024 ">
 <Points>
 <DataArray  type="Float64" NumberOfComponents="3"  format="ascii" >
   0.0000000000000000        0.0000000000000000        0.0000000000000000     
   3.1250000000000000E-002   0.0000000000000000        0.0000000000000000     
   6.2500000000000000E-002   0.0000000000000000        0.0000000000000000     
   9.3750000000000000E-002   0.0000000000000000        0.0000000000000000     
  0.12500000000000000        0.0000000000000000        0.0000000000000000     
   0.0000000000000000        3.1250000000000000E-002   0.0000000000000000     
   3.1250000000000000E-002   3.1250000000000000E-002   0.0000000000000000     
   6.2500000000000000E-002   3.1250000000000000E-002   0.0000000000000000     
   9.3750000000000000E-002   3.1250000000000000E-002   0.0000000000000000     
  0.12500000000000000        3.1250000000000000E-002   0.0000000000000000     
   0.0000000000000000        6.2500000000000000E-002   0.0000000000000000     
   3.1250000000000000E-002   6.2500000000000000E-002   0.0000000000000000     
   6.2500000000000000E-002   6.2500000000000000E-002   0.0000000000000000     
   9.3750000000000000E-002   6.2500000000000000E-002   0.0000000000000000     
  0.12500000000000000        6.2500000000000000E-002   0.0000000000000000     
   0.0000000000000000        9.3750000000000000E-002   0.0000000000000000     
   3.1250000000000000E-002   9.3750000000000000E-002   0.0000000000000000     
   6.2500000000000000E-002   9.3750000000000000E-002   0.0000000000000000     
   9.3750000000000000E-002   9.3750000000000000E-002   0.0000000000000000     
  0.12500000000000000        9.3750000000000000E-002   0.0000000000000000     
   0.0000000000000000       0.12500000000000000        0.0000000000000000     
   3.1250000000000000E-002  0.12500000000000000        0.0000000000000000     
   6.2500000000000000E-002  0.12500000000000000        0.0000000000000000     
   9.3750000000000000E-002  0.12500000000000000        0.0000000000000000     
  0.12500000000000000       0.12500000000000000        0.0000000000000000     
  0.12500000000000000        0.0000000000000000        0.0000000000000000     
  0.15625000000000000        0.0000000000000000        0.0000000000000000     
  0.18750000000000000        0.0000000000000000        0.0000000000000000     
  0.21875000000000000        0.0000000000000000        0.0000000000000000     
  0.25000000000000000        0.0000000000000000        0.0000000000000000     
  0.12500000000000000        3.1250000000000000E-002   0.0000000000000000     
  0.15625000000000000        3.1250000000000000E-002   0.0000000000000000     
  0.18750000000000000        3.1250000000000000E-002   0.0000000000000000     
  0.21875000000000000        3.1250000000000000E-002   0.0000000000000000     
  0.25000000000000000        3.1250000000000000E-002   0.0000000000000000     
  0.12500000000000000        6.2500000000000000E-002   0.0000000000000000     
  0.15625000000000000        6.2500000000000000E-002   0.0000000000000000     
  0.18750000000000000        6.2500000000000000E-002   0.0000000000000000     
  0.21875000000000000        6.2500000000000000E-002   0.0000000000000000     
  0.25000000000000000        6.2500000000000000E-002   0.0000000000000000     
  0.12500000000000000        9.3750000000000000E-002   0.0000000000000000     
  0.15625000000000000        9.3750000000000000E-002   0.0000000000000000     
  0.18750000000000000        9.3750000000000000E-002   0.0000000000000000     
  0.21875000000000000        9.3750000000000000E-002   0.0000000000000000     
  0.25000000000000000        9.3750000000000000E-002   0.0000000000000000     
  0.12500000000000000       0.12500000000000000        0.0000000000000000     
  0.15625000000000000       0.12500000000000000        0.0000000000000000     
  0.18750000000000000       0.12500000000000000        0.0000000000000000     
  0.21875000000000000       0.12500000000000000        0.0000000000000000     
  0.25000000000000000       0.12500000000000000        0.0000000000000000     
  0.25000000000000000        0.0000000000000000        0.0000000000000000     
  0.28125000000000000        0.0000000000000000        0.0000000000000000     
  0.31250000000000000        0.0000000000000000        0.0000000000000000     
  0.34375000000000000        0.0000000000000000        0.0000000000000000     
  0.37500000000000000        0.0000000000000000        0.0000000000000000     
  0.25000000000000000        3.1250000000000000E-002   0.0000000000000000     
  0.28125000000000000        3.1250000000000000E-002   0.0000000000000000     
  0.31250000000000000        3.1250000000000000E-002   0.0000000000000000     
  0.34375000000000000        3.1250000000000000E-002   0.0000000000000000     
  0.37500000000000000        3.1250000000000000E-002   0.0000000000000000     
  0.25000000000000000        6.2500000000000000E-002   0.0000000000000000     
  0.28125000000000000        6.2500000000000000E-002   0.0000000000000000     
  0.31250000000000000        6.2500000000000000E-002   0.0000000000000000     
  0.34375000000000000        6.2500000000000000E-002   0.0000000000000000     
  0.37500000000000000        6.2500000000000000E-002   0.0000000000000000     
  0.25000000000000000        9.3750000000000000E-002   0.0000000000000000     
  0.28125000000000000        9.3750000000000000E-002   0.0000000000000000     
  0.31250000000000000        9.3750000000000000E-002   0.0000000000000000     
  0.34375000000000000        9.3750000000000000E-002   0.0000000000000000     
  0.37500000000000000        9.3750000000000000E-002   0.0000000000000000     
  0.25000000000000000       0.12500000000000000        0.0000000000000000     
  0.28125000000000000       0.12500000000000000        0.0000000000000000     
  0.31250000000000000       0.12500000000000000        0.0000000000000000     
  0.34375000000000000       0.12500000000000000        0.0000000000000000     
  0.37500000000000000       0.12500000000000000        0.0000000000000000     
  0.37500000000000000        0.0000000000000000        0.0000000000000000     
  0.40625000000000000        0.0000000000000000        0.0000000000000000     
  0.43750000000000000        0.0000000000000000        0.0000000000000000     
  0.46875000000000000        0.0000000000000000        0.0000000000000000     
  0.50000000000000000        0.0000000000000000        0.0000000000000000     
  0.37500000000000000        3.1250000000000000E-002   0.0000000000000000     
  0.40625000000000000        3.1250000000000000E-002   0.0000000000000000     
  0.43750000000000000        3.1250000000000000E-002   0.0000000000000000     
  0.46875000000000000        3.1250000000000000E-002   0.0000000000000000     
  0.50000000000000000        3.1250000000000000E-002   0.0000000000000000     
  0.37500000000000000        6.2500000000000000E-002   0.0000000000000000     
  0.40625000000000000        6.2500000000000000E-002   0.0000000000000000     
  0.43750000000000000        6.2500000000000000E-002   0.0000000000000000     
  0.46875000000000000        6.2500000000000000E-002   0.0000000000000000     
  0.50000000000000000        6.2500000000000000E-002   0.0000000000000000     
  0.37500000000000000        9.3750000000000000E-002   0.0000000000000000     
  0.40625000000000000        9.3750000000000000E-002   0.0000000000000000     
  0.43750000000000000        9.3750000000000000E-002   0.0000000000000000     
  0.46875000000000000        9.3750000000000000E-002   0.0000000000000000     
  0.50000000000000000        9.3750000000000000E-002   0.0000000000000000     
  0.37500000000000000       0.12500000000000000        0.0000000000000000     
  0.40625000000000000       0.12500000000000000        0.0000000000000000     
  0.43750000000000000       0.12500000000000000        0.0000000000000000     
  0.46875000000000000       0.12500000000000000        0.0000000000000000     
  0.50000000000000000       0.12500000000000000        0.0000000000000000     
  0.50000000000000000        0.0000000000000000        0.0000000000000000     
  0.53125000000000000        0.0000000000000000        0.0000000000000000     
  0.56250000000000000        0.0000000000000000        0.0000000000000000     
  0.59375000000000000        0.0000000000000000        0.0000000000000000     
  0.62500000000000000        0.0000000000000000        0.0000000000000000     
  0.50000000000000000        3.1250000000000000E-002   0.0000000000000000     
  0.53125000000000000        3.1250000000000000E-002   0.0000000000000000     
  0.56250000000000000        3.1250000000000000E-002   0.0000000000000000     
  0.59375000000000000        3.1250000000000000E-002   0.0000000000000000     
  0.62500000000000000        3.1250000000000000E-002   0.0000000000000000     
  0.50000000000000000        6.2500000000000000E-002   0.0000000000000000     
  0.53125000000000000        6.2500000000000000E-002   0.0000000000000000     
  0.56250000000000000        6.2500000000000000E-002   0.0000000000000000     
  0.59375000000000000        6.2500000000000000E-002   0.0000000000000000     
  0.62500000000000000        6.2500000000000000E-002   0.0000000000000000     
  0.50000000000000000        9.3750000000000000E-002   0.0000000000000000     
  0.53125000000000000        9.3750000000000000E-002   0.0000000000000000     
  0.56250000000000000        9.3750000000000000E-002   0.0000000000000000     
  0.59375000000000000        9.3750000000000000E-002   0.0000000000000000     
  0.62500000000000000        9.3750000000000000E-002   0.0000000000000000     
  0.50000000000000000       0.12500000000000000        0.0000000000000000     
  0.53125000000000000       0.12500000000000000        0.0000000000000000     
  0.56250000000000000       0.12500000000000000        0.0000000000000000     
  0.59375000000000000       0.12500000000000000        0.0000000000000000     
  0.62500000000000000       0.12500000000000000        0.0000000000000000     
  0.62500000000000000        0.0000000000000000        0.0000000000000000     
  0.65625000000000000        0.0000000000000000        0.0000000000000000     
  0.68750000000000000        0.0000000000000000        0.0000000000000000     
  0.71875000000000000        0.0000000000000000        0.0000000000000000     
  0.75000000000000000        0.0000000000000000        0.0000000000000000     
  0.62500000000000000        3.1250000000000000E-002   0.0000000000000000     
  0.65625000000000000        3.1250000000000000E-002   0.0000000000000000     
  0.68750000000000000        3.1250000000000000E-002   0.0000000000000000     
  0.71875000000000000        3.1250000000000000E-002   0.0000000000000000     
  0.75000000000000000        3.1250000000000000E-002   0.0000000000000000     
  0.62500000000000000        6.2500000000000000E-002   0.0000000000000000     
  0.65625000000000000        6.2500000000000000E-002   0.0000000000000000     
  0.68750000000000000        6.2500000000000000E-002   0.0000000000000000     
  0.71875000000000000        6.2500000000000000E-002   0.0000000000000000     
  0.75000000000000000        6.2500000000000000E-002   0.0000000000000000     
  0.62500000000000000        9.3750000000000000E-002   0.0000000000000000     
  0.65625000000000000        9.3750000000000000E-002   0.0000000000000000     
  0.68750000000000000        9.3750000000000000E-002   0.0000000000000000     
  0.71875000000000000        9.3750000000000000E-002   0.0000000000000000     
  0.75000000000000000        9.3750000000000000E-002   0.0000000000000000     
  0.62500000000000000       0.12500000000000000        0.0000000000000000     
  0.65625000000000000       0.12500000000000000        0.0000000000000000     
  0.68750000000000000       0.12500000000000000        0.0000000000000000     
  0.71875000000000000       0.12500000000000000        0.0000000000000000     
  0.75000000000000000       0.12500000000000000        0.0000000000000000     
  0.75000000000000000        0.0000000000000000        0.0000000000000000     
  0.78125000000000000        0.0000000000000000        0.0000000000000000     
  0.81250000000000000        0.0000000000000000        0.0000000000000000     
  0.84375000000000000        0.0000000000000000        0.0000000000000000     
  0.87500000000000000        0.0000000000000000        0.0000000000000000     
  0.75000000000000000        3.1250000000000000E-002   0.0000000000000000     
  0.78125000000000000        3.1250000000000000E-002   0.0000000000000000     
  0.81250000000000000        3.1250000000000000E-002   0.0000000000000000     
  0.84375000000000000        3.1250000000000000E-002   0.0000000000000000     
  0.87500000000000000        3.1250000000000000E-002   0.0000000000000000     
  0.75000000000000000        6.2500000000000000E-002   0.0000000000000000     
  0.78125000000000000        6.2500000000000000E-002   0.0000000000000000     
  0.81250000000000000        6.2500000000000000E-002   0.0000000000000000     
  0.84375000000000000        6.2500000000000000E-002   0.0000000000000000     
  0.87500000000000000        6.2500000000000000E-002   0.0000000000000000     
  0.75000000000000000        9.3750000000000000E-002   0.0000000000000000     
  0.78125000000000000        9.3750000000000000E-002   0.0000000000000000     
  0.81250000000000000        9.3750000000000000E-002   0.0000000000000000     
  0.84375000000000000        9.3750000000000000E-002   0.0000000000000000     
  0.87500000000000000        9.3750000000000000E-002   0.0000000000000000     
  0.75000000000000000       0.12500000000000000        0.0000000000000000     
  0.78125000000000000       0.12500000000000000        0.0000000000000000     
  0.81250000000000000       0.12500000000000000        0.0000000000000000     
  0.84375000000000000       0.12500000000000000        0.0000000000000000     
  0.87500000000000000       0.12500000000000000        0.0000000000000000     
  0.87500000000000000        0.0000000000000000        0.0000000000000000     
  0.90625000000000000        0.0000000000000000        0.0000000000000000     
  0.93750000000000000        0.0000000000000000        0.0000000000000000     
  0.96875000000000000        0.0000000000000000        0.0000000000000000     
   1.0000000000000000        0.0000000000000000        0.0000000000000000     
  0.87500000000000000        3.1250000000000000E-002   0.0000000000000000     
  0.90625000000000000        3.1250000000000000E-002   0.0000000000000000     
  0.93750000000000000        3.1250000000000000E-002   0.0000000000000000     
  0.96875000000000000        3.1250000000000000E-002   0.0000000000000000     
   1.0000000000000000        3.1250000000000000E-002   0.0000000000000000     
  0.87500000000000000        6.2500000000000000E-002   0.0000000000000000     
  0.90625000000000000        6.2500000000000000E-002   0.0000000000000000     
  0.93750000000000000        6.2500000000000000E-002   0.0000000000000000     
  0.96875000000000000        6.2500000000000000E-002   0.0000000000000000     
   1.0000000000000000        6.2500000000000000E-002   0.0000000000000000     
  0.87500000000000000        9.3750000000000000E-002   0.0000000000000000     
  0.90625000000000000        9.3750000000000000E-002   0.0000000000000000     
  0.93750000000000000        9.3750000000000000E-002   0.0000000000000000     
  0.96875000000000000        9.3750000000000000E-002   0.0000000000000000     
   1.0000000000000000        9.3750000000000000E-002   0.0000000000000000     
  0.87500000000000000       0.12500000000000000        0.0000000000000000     
  0.90625000000000000       0.12500000000000000        0.0000000000000000     
  0.93750000000000000       0.12500000000000000        0.0000000000000000     
  0.96875000000000000       0.12500000000000000        0.0000000000000000     
   1.0000000000000000       0.12500000000000000        0.0000000000000000     
   0.0000000000000000       0.12500000000000000        0.0000000000000000     
   3.1250000000000000E-002  0.12500000000000000        0.0000000000000000     
   6.2500000000000000E-002  0.12500000000000000        0.0000000000000000     
   9.3750000000000000E-002  0.12500000000000000        0.0000000000000000     
  0.12500000000000000       0.12500000000000000        0.0000000000000000     
   0.0000000000000000       0.15625000000000000        0.0000000000000000     
   3.1250000000000000E-002  0.15625000000000000        0.0000000000000000     
   6.2500000000000000E-002  0.15625000000000000        0.0000000000000000     
   9.3750000000000000E-002  0.15625000000000000        0.0000000000000000     
  0.12500000000000000       0.15625000000000000        0.0000000000000000     
   0.0000000000000000       0.18750000000000000        0.0000000000000000     
   3.1250000000000000E-002  0.18750000000000000        0.0000000000000000     
   6.2500000000000000E-002  0.18750000000000000        0.0000000000000000     
   9.3750000000000000E-002  0.18750000000000000        0.0000000000000000     
  0.12500000000000000       0.18750000000000000        0.0000000000000000     
   0.0000000000000000       0.21875000000000000        0.0000000000000000     
   3.1250000000000000E-002  0.21875000000000000        0.0000000000000000     
   6.2500000000000000E-002  0.21875000000000000        0.0000000000000000     
   9.3750000000000000E-002  0.21875000000000000        0.0000000000000000     
  0.12500000000000000       0.21875000000000000        0.0000000000000000     
   0.0000000000000000       0.25000000000000000        0.0000000000000000     
   3.1250000000000000E-002  0.25000000000000000        0.0000000000000000     
   6.2500000000000000E-002  0.25000000000000000        0.0000000000000000     
   9.3750000000000000E-002  0.25000000000000000        0.0000000000000000     
  0.12500000000000000       0.25000000000000000        0.0000000000000000     
  0.12500000000000000       0.12500000000000000        0.0000000000000000     
  0.15625000000000000       0.12500000000000000        0.0000000000000000     
  0.18750000000000000       0.12500000000000000        0.0000000000000000     
  0.21875000000000000       0.12500000000000000        0.0000000000000000     
  0.25000000000000000       0.12500000000000000        0.0000000000000000     
  0.12500000000000000       0.15625000000000000        0.0000000000000000     
  0.15625000000000000       0.15625000000000000        0.0000000000000000     
  0.18750000000000000       0.15625000000000000        0.0000000000000000     
  0.21875000000000000       0.15625000000000000        0.0000000000000000     
  0.25000000000000000       0.15625000000000000        0.0000000000000000     
  0.12500000000000000       0.18750000000000000        0.0000000000000000     
  0.15625000000000000       0.18750000000000000        0.0000000000000000     
  0.18750000000000000       0.18750000000000000        0.0000000000000000     
  0.21875000000000000       0.18750000000000000        0.0000000000000000     
  0.25000000000000000       0.18750000000000000        0.0000000000000000     
  0.12500000000000000       0.21875000000000000        0.0000000000000000     
  0.15625000000000000       0.21875000000000000        0.0000000000000000     
  0.18750000000000000       0.21875000000000000        0.0000000000000000     
  0.21875000000000000       0.21875000000000000        0.0000000000000000     
  0.25000000000000000       0.21875000000000000        0.0000000000000000     
  0.12500000000000000       0.25000000000000000        0.0000000000000000     
  0.15625000000000000       0.25000000000000000        0.0000000000000000     
  0.18750000000000000       0.25000000000000000        0.0000000000000000     
  0.21875000000000000       0.25000000000000000        0.0000000000000000     
  0.25000000000000000       0.25000000000000000        0.0000000000000000     
  0.25000000000000000       0.12500000000000000        0.0000000000000000     
  0.28125000000000000       0.12500000000000000        0.0000000000000000     
  0.31250000000000000       0.12500000000000000        0.0000000000000000     
  0.34375000000000000       0.12500000000000000        0.0000000000000000     
  0.37500000000000000       0.12500000000000000        0.0000000000000000     
  0.25000000000000000       0.15625000000000000        0.0000000000000000     
  0.28125000000000000       0.15625000000000000        0.0000000000000000     
  0.31250000000000000       0.15625000000000000        0.0000000000000000     
  0.34375000000000000       0.15625000000000000        0.0000000000000000     
  0.37500000000000000       0.15625000000000000        0.0000000000000000     
  0.25000000000000000       0.18750000000000000        0.0000000000000000     
  0.28125000000000000       0.18750000000000000        0.0000000000000000     
  0.31250000000000000       0.18750000000000000        0.0000000000000000     
  0.34375000000000000       0.18750000000000000        0.0000000000000000     
  0.37500000000000000       0.18750000000000000        0.0000000000000000     
  0.25000000000000000       0.21875000000000000        0.0000000000000000     
  0.28125000000000000       0.21875000000000000        0.0000000000000000     
  0.31250000000000000       0.21875000000000000        0.0000000000000000     
  0.34375000000000000       0.21875000000000000        0.0000000000000000     
  0.37500000000000000       0.21875000000000000        0.0000000000000000     
  0.25000000000000000       0.25000000000000000        0.0000000000000000     
  0.28125000000000000       0.25000000000000000        0.0000000000000000     
  0.31250000000000000       0.25000000000000000        0.0000000000000000     
  0.34375000000000000       0.25000000000000000        0.0000000000000000     
  0.37500000000000000       0.25000000000000000        0.0000000000000000     
  0.37500000000000000       0.12500000000000000        0.0000000000000000     
  0.40625000000000000       0.12500000000000000        0.0000000000000000     
  0.43750000000000000       0.12500000000000000        0.0000000000000000     
  0.46875000000000000       0.12500000000000000        0.0000000000000000     
  0.50000000000000000       0.12500000000000000        0.0000000000000000     
  0.37500000000000000       0.15625000000000000        0.0000000000000000     
  0.40625000000000000       0.15625000000000000        0.0000000000000000     
  0.43750000000000000       0.15625000000000000        0.0000000000000000     
  0.46875000000000000       0.15625000000000000        0.0000000000000000     
  0.50000000000000000       0.15625000000000000        0.0000000000000000     
  0.37500000000000000       0.18750000000000000        0.0000000000000000     
  0.40625000000000000       0.18750000000000000        0.0000000000000000     
  0.43750000000000000       0.18750000000000000        0.0000000000000000     
  0.46875000000000000       0.18750000000000000        0.0000000000000000     
  0.50000000000000000       0.18750000000000000        0.0000000000000000     
  0.37500000000000000       0.21875000000000000        0.0000000000000000     
  0.40625000000000000       0.21875000000000000        0.0000000000000000     
  0.43750000000000000       0.21875000000000000        0.0000000000000000     
  0.46875000000000000       0.21875000000000000        0.0000000000000000     
  0.50000000000000000       0.21875000000000000        0.0000000000000000     
  0.37500000000000000       0.25000000000000000        0.0000000000000000     
  0.40625000000000000       0.25000000000000000        0.0000000000000000     
  0.43750000000000000       0.25000000000000000        0.0000000000000000     
  0.46875000000000000       0.25000000000000000        0.0000000000000000     
  0.50000000000000000       0.25000000000000000        0.0000000000000000     
  0.50000000000000000       0.12500000000000000        0.0000000000000000     
  0.53125000000000000       0.12500000000000000        0.0000000000000000     
  0.56250000000000000       0.12500000000000000        0.0000000000000000     
  0.59375000000000000       0.12500000000000000        0.0000000000000000     
  0.62500000000000000       0.12500000000000000        0.0000000000000000     
  0.50000000000000000       0.15625000000000000        0.0000000000000000     
  0.53125000000000000       0.15625000000000000        0.0000000000000000     
  0.56250000000000000       0.15625000000000000        0.0000000000000000     
  0.59375000000000000       0.15625000000000000        0.0000000000000000     
  0.62500000000000000       0.15625000000000000        0.0000000000000000     
  0.50000000000000000       0.18750000000000000        0.0000000000000000     
  0.53125000000000000       0.18750000000000000        0.0000000000000000     
  0.56250000000000000       0.18750000000000000        0.0000000000000000     
  0.59375000000000000       0.18750000000000000        0.0000000000000000     
  0.62500000000000000       0.18750000000000000        0.0000000000000000     
  0.50000000000000000       0.21875000000000000        0.0000000000000000     
  0.53125000000000000       0.21875000000000000        0.0000000000000000     
  0.56250000000000000       0.21875000000000000        0.0000000000000000     
  0.59375000000000000       0.21875000000000000        0.0000000000000000     
  0.62500000000000000       0.21875000000000000        0.0000000000000000     
  0.50000000000000000       0.25000000000000000        0.0000000000000000     
  0.53125000000000000       0.25000000000000000        0.0000000000000000     
  0.56250000000000000       0.25000000000000000        0.0000000000000000     
  0.59375000000000000       0.25000000000000000        0.0000000000000000     
  0.62500000000000000       0.25000000000000000        0.0000000000000000     
  0.62500000000000000       0.12500000000000000        0.0000000000000000     
  0.65625000000000000       0.12500000000000000        0.0000000000000000     
  0.68750000000000000       0.12500000000000000        0.0000000000000000     
  0.71875000000000000       0.12500000000000000        0.0000000000000000     
  0.75000000000000000       0.12500000000000000        0.0000000000000000     
  0.62500000000000000       0.15625000000000000        0.0000000000000000     
  0.65625000000000000       0.15625000000000000        0.0000000000000000     
  0.68750000000000000       0.15625000000000000        0.0000000000000000     
  0.71875000000000000       0.15625000000000000        0.0000000000000000     
  0.75000000000000000       0.15625000000000000        0.0000000000000000     
  0.62500000000000000       0.18750000000000000        0.0000000000000000     
  0.65625000000000000       0.18750000000000000        0.0000000000000000     
  0.68750000000000000       0.18750000000000000        0.0000000000000000     
  0.71875000000000000       0.18750000000000000        0.0000000000000000     
  0.75000000000000000       0.18750000000000000        0.0000000000000000     
  0.62500000000000000       0.21875000000000000        0.0000000000000000     
  0.65625000000000000       0.21875000000000000        0.0000000000000000     
  0.68750000000000000       0.21875000000000000        0.0000000000000000     
  0.71875000000000000       0.21875000000000000        0.0000000000000000     
  0.75000000000000000       0.21875000000000000        0.0000000000000000     
  0.62500000000000000       0.25000000000000000        0.0000000000000000     
  0.65625000000000000       0.25000000000000000        0.0000000000000000     
  0.68750000000000000       0.25000000000000000        0.0000000000000000     
  0.71875000000000000       0.25000000000000000        0.0000000000000000     
  0.75000000000000000       0.25000000000000000        0.0000000000000000     
  0.75000000000000000       0.12500000000000000        0.0000000000000000     
  0.78125000000000000       0.12500000000000000        0.0000000000000000     
  0.81250000000000000       0.12500000000000000        0.0000000000000000     
  0.84375000000000000       0.12500000000000000        0.0000000000000000     
  0.87500000000000000       0.12500000000000000        0.0000000000000000     
  0.75000000000000000       0.15625000000000000        0.0000000000000000     
  0.78125000000000000       0.15625000000000000        0.0000000000000000     
  0.81250000000000000       0.15625000000000000        0.0000000000000000     
  0.84375000000000000       0.15625000000000000        0.0000000000000000     
  0.87500000000000000       0.15625000000000000        0.0000000000000000     
  0.75000000000000000       0.18750000000000000        0.0000000000000000     
  0.78125000000000000       0.18750000000000000        0.0000000000000000     
  0.81250000000000000       0.18750000000000000        0.0000000000000000     
  0.84375000000000000       0.18750000000000000        0.0000000000000000     
  0.87500000000000000       0.18750000000000000        0.0000000000000000     
  0.75000000000000000       0.21875000000000000        0.0000000000000000     
  0.78125000000000000       0.21875000000000000        0.0000000000000000     
  0.81250000000000000       0.21875000000000000        0.0000000000000000     
  0.84375000000000000       0.21875000000000000        0.0000000000000000     
  0.87500000000000000       0.21875000000000000        0.0000000000000000     
  0.75000000000000000       0.25000000000000000        0.0000000000000000     
  0.78125000000000000       0.25000000000000000        0.0000000000000000     
  0.81250000000000000       0.25000000000000000        0.0000000000000000     
  0.84375000000000000       0.25000000000000000        0.0000000000000000     
  0.87500000000000000       0.25000000000000000        0.0000000000000000     
  0.87500000000000000       0.12500000000000000        0.0000000000000000     
  0.90625000000000000       0.12500000000000000        0.0000000000000000     
  0.93750000000000000       0.12500000000000000        0.0000000000000000     
  0.96875000000000000       0.12500000000000000        0.0000000000000000     
   1.0000000000000000       0.12500000000000000        0.0000000000000000     
  0.87500000000000000       0.15625000000000000        0.0000000000000000     
  0.90625000000000000       0.15625000000000000        0.0000000000000000     
  0.93750000000000000       0.15625000000000000        0.0000000000000000     
  0.96875000000000000       0.15625000000000000        0.0000000000000000     
   1.0000000000000000       0.15625000000000000        0.0000000000000000     
  0.87500000000000000       0.18750000000000000        0.0000000000000000     
  0.90625000000000000       0.18750000000000000        0.0000000000000000     
  0.93750000000000000       0.18750000000000000        0.0000000000000000     
  0.96875000000000000       0.18750000000000000        0.0000000000000000     
   1.0000000000000000       0.18750000000000000        0.0000000000000000     
  0.87500000000000000       0.21875000000000000        0.0000000000000000     
  0.90625000000000000       0.21875000000000000        0.0000000000000000     
  0.93750000000000000       0.21875000000000000        0.0000000000000000     
  0.96875000000000000       0.21875000000000000        0.0000000000000000     
   1.0000000000000000       0.21875000000000000        0.0000000000000000     
  0.87500000000000000       0.25000000000000000        0.0000000000000000     
  0.90625000000000000       0.25000000000000000        0.0000000000000000     
  0.93750000000000000       0.25000000000000000        0.0000000000000000     
  0.96875000000000000       0.25000000000000000        0.0000000000000000     
   1.0000000000000000       0.25000000000000000        0.0000000000000000     
   0.0000000000000000       0.25000000000000000        0.0000000000000000     
   3.1250000000000000E-002  0.25000000000000000        0.0000000000000000     
   6.2500000000000000E-002  0.25000000000000000        0.0000000000000000     
   9.3750000000000000E-002  0.25000000000000000        0.0000000000000000     
  0.12500000000000000       0.25000000000000000        0.0000000000000000     
   0.0000000000000000       0.28125000000000000        0.0000000000000000     
   3.1250000000000000E-002  0.28125000000000000        0.0000000000000000     
   6.2500000000000000E-002  0.28125000000000000        0.0000000000000000     
   9.3750000000000000E-002  0.28125000000000000        0.0000000000000000     
  0.12500000000000000       0.28125000000000000        0.0000000000000000     
   0.0000000000000000       0.31250000000000000        0.0000000000000000     
   3.1250000000000000E-002  0.31250000000000000        0.0000000000000000     
   6.2500000000000000E-002  0.31250000000000000        0.0000000000000000     
   9.3750000000000000E-002  0.31250000000000000        0.0000000000000000     
  0.12500000000000000       0.31250000000000000        0.0000000000000000     
   0.0000000000000000       0.34375000000000000        0.0000000000000000     
   3.1250000000000000E-002  0.34375000000000000        0.0000000000000000     
   6.2500000000000000E-002  0.34375000000000000        0.0000000000000000     
   9.3750000000000000E-002  0.34375000000000000        0.0000000000000000     
  0.12500000000000000       0.34375000000000000        0.0000000000000000     
   0.0000000000000000       0.37500000000000000        0.0000000000000000     
   3.1250000000000000E-002  0.37500000000000000        0.0000000000000000     
   6.2500000000000000E-002  0.37500000000000000        0.0000000000000000     
   9.3750000000000000E-002  0.37500000000000000        0.0000000000000000     
  0.12500000000000000       0.37500000000000000        0.0000000000000000     
  0.12500000000000000       0.25000000000000000        0.0000000000000000     
  0.15625000000000000       0.25000000000000000        0.0000000000000000     
  0.18750000000000000       0.25000000000000000        0.0000000000000000     
  0.21875000000000000       0.25000000000000000        0.0000000000000000     
  0.25000000000000000       0.25000000000000000        0.0000000000000000     
  0.12500000000000000       0.28125000000000000        0.0000000000000000     
  0.15625000000000000       0.28125000000000000        0.0000000000000000     
  0.18750000000000000       0.28125000000000000        0.0000000000000000     
  0.21875000000000000       0.28125000000000000        0.0000000000000000     
  0.25000000000000000       0.28125000000000000        0.0000000000000000     
  0.12500000000000000       0.31250000000000000        0.0000000000000000     
  0.15625000000000000       0.31250000000000000        0.0000000000000000     
  0.18750000000000000       0.31250000000000000        0.0000000000000000     
  0.21875000000000000       0.31250000000000000        0.0000000000000000     
  0.25000000000000000       0.31250000000000000        0.0000000000000000     
  0.12500000000000000       0.34375000000000000        0.0000000000000000     
  0.15625000000000000       0.34375000000000000        0.0000000000000000     
  0.18750000000000000       0.34375000000000000        0.0000000000000000     
  0.21875000000000000       0.34375000000000000        0.0000000000000000     
  0.25000000000000000       0.34375000000000000        0.0000000000000000     
  0.12500000000000000       0.37500000000000000        0.0000000000000000     
  0.15625000000000000       0.37500000000000000        0.0000000000000000     
  0.18750000000000000       0.37500000000000000        0.0000000000000000     
  0.21875000000000000       0.37500000000000000        0.0000000000000000     
  0.25000000000000000       0.37500000000000000        0.0000000000000000     
  0.25000000000000000       0.25000000000000000        0.0000000000000000     
  0.28125000000000000       0.25000000000000000        0.0000000000000000     
  0.31250000000000000       0.25000000000000000        0.0000000000000000     
  0.34375000000000000       0.25000000000000000        0.0000000000000000     
  0.37500000000000000       0.25000000000000000        0.0000000000000000     
  0.25000000000000000       0.28125000000000000        0.0000000000000000     
  0.28125000000000000       0.28125000000000000        0.0000000000000000     
  0.31250000000000000       0.28125000000000000        0.0000000000000000     
  0.34375000000000000       0.28125000000000000        0.0000000000000000     
  0.37500000000000000       0.28125000000000000        0.0000000000000000     
  0.25000000000000000       0.31250000000000000        0.0000000000000000     
  0.28125000000000000       0.31250000000000000        0.0000000000000000     
  0.31250000000000000       0.31250000000000000        0.0000000000000000     
  0.34375000000000000       0.31250000000000000        0.0000000000000000     
  0.37500000000000000       0.31250000000000000        0.0000000000000000     
  0.25000000000000000       0.34375000000000000        0.0000000000000000     
  0.28125000000000000       0.34375000000000000        0.0000000000000000     
  0.31250000000000000       0.34375000000000000        0.0000000000000000     
  0.34375000000000000       0.34375000000000000        0.0000000000000000     
  0.37500000000000000       0.34375000000000000        0.0000000000000000     
  0.25000000000000000       0.37500000000000000        0.0000000000000000     
  0.28125000000000000       0.37500000000000000        0.0000000000000000     
  0.31250000000000000       0.37500000000000000        0.0000000000000000     
  0.34375000000000000       0.37500000000000000        0.0000000000000000     
  0.37500000000000000       0.37500000000000000        0.0000000000000000     
  0.37500000000000000       0.25000000000000000        0.0000000000000000     
  0.40625000000000000       0.25000000000000000        0.0000000000000000     
  0.43750000000000000       0.25000000000000000        0.0000000000000000     
  0.46875000000000000       0.25000000000000000        0.0000000000000000     
  0.50000000000000000       0.25000000000000000        0.0000000000000000     
  0.37500000000000000       0.28125000000000000        0.0000000000000000     
  0.40625000000000000       0.28125000000000000        0.0000000000000000     
  0.43750000000000000       0.28125000000000000        0.0000000000000000     
  0.46875000000000000       0.28125000000000000        0.0000000000000000     
  0.50000000000000000       0.28125000000000000        0.0000000000000000     
  0.37500000000000000       0.31250000000000000        0.0000000000000000     
  0.40625000000000000       0.31250000000000000        0.0000000000000000     
  0.43750000000000000       0.31250000000000000        0.0000000000000000     
  0.46875000000000000       0.31250000000000000        0.0000000000000000     
  0.50000000000000000       0.31250000000000000        0.0000000000000000     
  0.37500000000000000       0.34375000000000000        0.0000000000000000     
  0.40625000000000000       0.34375000000000000        0.0000000000000000     
  0.43750000000000000       0.34375000000000000        0.0000000000000000     
  0.46875000000000000       0.34375000000000000        0.0000000000000000     
  0.50000000000000000       0.34375000000000000        0.0000000000000000     
  0.37500000000000000       0.37500000000000000        0.0000000000000000     
  0.40625000000000000       0.37500000000000000        0.0000000000000000     
  0.43750000000000000       0.37500000000000000        0.0000000000000000     
  0.46875000000000000       0.37500000000000000        0.0000000000000000     
  0.50000000000000000       0.37500000000000000        0.0000000000000000     
  0.50000000000000000       0.25000000000000000        0.0000000000000000     
  0.53125000000000000       0.25000000000000000        0.0000000000000000     
  0.56250000000000000       0.25000000000000000        0.0000000000000000     
  0.59375000000000000       0.25000000000000000        0.0000000000000000     
  0.62500000000000000       0.25000000000000000        0.0000000000000000     
  0.50000000000000000       0.28125000000000000        0.0000000000000000     
  0.53125000000000000       0.28125000000000000        0.0000000000000000     
  0.56250000000000000       0.28125000000000000        0.0000000000000000     
  0.59375000000000000       0.28125000000000000        0.0000000000000000     
  0.62500000000000000       0.28125000000000000        0.0000000000000000     
  0.50000000000000000       0.31250000000000000        0.0000000000000000     
  0.53125000000000000       0.31250000000000000        0.0000000000000000     
  0.56250000000000000       0.31250000000000000        0.0000000000000000     
  0.59375000000000000       0.31250000000000000        0.0000000000000000     
  0.62500000000000000       0.31250000000000000        0.0000000000000000     
  0.50000000000000000       0.34375000000000000        0.0000000000000000     
  0.53125000000000000       0.34375000000000000        0.0000000000000000     
  0.56250000000000000       0.34375000000000000        0.0000000000000000     
  0.59375000000000000       0.34375000000000000        0.0000000000000000     
  0.62500000000000000       0.34375000000000000        0.0000000000000000     
  0.50000000000000000       0.37500000000000000        0.0000000000000000     
  0.53125000000000000       0.37500000000000000        0.0000000000000000     
  0.56250000000000000       0.37500000000000000        0.0000000000000000     
  0.59375000000000000       0.37500000000000000        0.0000000000000000     
  0.62500000000000000       0.37500000000000000        0.0000000000000000     
  0.62500000000000000       0.25000000000000000        0.0000000000000000     
  0.65625000000000000       0.25000000000000000        0.0000000000000000     
  0.68750000000000000       0.25000000000000000        0.0000000000000000     
  0.71875000000000000       0.25000000000000000        0.0000000000000000     
  0.75000000000000000       0.25000000000000000        0.0000000000000000     
  0.62500000000000000       0.28125000000000000        0.0000000000000000     
  0.65625000000000000       0.28125000000000000        0.0000000000000000     
  0.68750000000000000       0.28125000000000000        0.0000000000000000     
  0.71875000000000000       0.28125000000000000        0.0000000000000000     
  0.75000000000000000       0.28125000000000000        0.0000000000000000     
  0.62500000000000000       0.31250000000000000        0.0000000000000000     
  0.65625000000000000       0.31250000000000000        0.0000000000000000     
  0.68750000000000000       0.31250000000000000        0.0000000000000000     
  0.71875000000000000       0.31250000000000000        0.0000000000000000     
  0.75000000000000000       0.31250000000000000        0.0000000000000000     
  0.62500000000000000       0.34375000000000000        0.0000000000000000     
  0.65625000000000000       0.34375000000000000        0.0000000000000000     
  0.68750000000000000       0.34375000000000000        0.0000000000000000     
  0.71875000000000000       0.34375000000000000        0.0000000000000000     
  0.75000000000000000       0.34375000000000000        0.0000000000000000     
  0.62500000000000000       0.37500000000000000        0.0000000000000000     
  0.65625000000000000       0.37500000000000000        0.0000000000000000     
  0.68750000000000000       0.37500000000000000        0.0000000000000000     
  0.71875000000000000       0.37500000000000000        0.0000000000000000     
  0.75000000000000000       0.37500000000000000        0.0000000000000000     
  0.75000000000000000       0.25000000000000000        0.0000000000000000     
  0.78125000000000000       0.25000000000000000        0.0000000000000000     
  0.81250000000000000       0.25000000000000000        0.0000000000000000     
  0.84375000000000000       0.25000000000000000        0.0000000000000000     
  0.87500000000000000       0.25000000000000000        0.0000000000000000     
  0.75000000000000000       0.28125000000000000        0.0000000000000000     
  0.78125000000000000       0.28125000000000000        0.0000000000000000     
  0.81250000000000000       0.28125000000000000        0.0000000000000000     
  0.84375000000000000       0.28125000000000000        0.0000000000000000     
  0.87500000000000000       0.28125000000000000        0.0000000000000000     
  0.75000000000000000       0.31250000000000000        0.0000000000000000     
  0.78125000000000000       0.31250000000000000        0.0000000000000000     
  0.81250000000000000       0.31250000000000000        0.0000000000000000     
  0.84375000000000000       0.31250000000000000        0.0000000000000000     
  0.87500000000000000       0.31250000000000000        0.0000000000000000     
  0.75000000000000000       0.34375000000000000        0.0000000000000000     
  0.78125000000000000       0.34375000000000000        0.0000000000000000     
  0.81250000000000000       0.34375000000000000        0.0000000000000000     
  0.84375000000000000       0.34375000000000000        0.0000000000000000     
  0.87500000000000000       0.34375000000000000        0.0000000000000000     
  0.75000000000000000       0.37500000000000000        0.0000000000000000     
  0.78125000000000000       0.37500000000000000        0.0000000000000000     
  0.81250000000000000       0.37500000000000000        0.0000000000000000     
  0.84375000000000000       0.37500000000000000        0.0000000000000000     
  0.87500000000000000       0.37500000000000000        0.0000000000000000     
  0.87500000000000000       0.25000000000000000        0.0000000000000000     
  0.90625000000000000       0.25000000000000000        0.0000000000000000     
  0.93750000000000000       0.25000000000000000        0.0000000000000000     
  0.96875000000000000       0.25000000000000000        0.0000000000000000     
   1.0000000000000000       0.25000000000000000        0.0000000000000000     
  0.87500000000000000       0.28125000000000000        0.0000000000000000     
  0.90625000000000000       0.28125000000000000        0.0000000000000000     
  0.93750000000000000       0.28125000000000000        0.0000000000000000     
  0.96875000000000000       0.28125000000000000        0.0000000000000000     
   1.0000000000000000       0.28125000000000000        0.0000000000000000     
  0.87500000000000000       0.31250000000000000        0.0000000000000000     
  0.90625000000000000       0.31250000000000000        0.0000000000000000     
  0.93750000000000000       0.31250000000000000        0.0000000000000000     
  0.96875000000000000       0.31250000000000000        0.0000000000000000     
   1.0000000000000000       0.31250000000000000        0.0000000000000000     
  0.87500000000000000       0.34375000000000000        0.0000000000000000     
  0.90625000000000000       0.34375000000000000        0.0000000000000000     
  0.93750000000000000       0.34375000000000000        0.0000000000000000     
  0.96875000000000000       0.34375000000000000        0.0000000000000000     
   1.0000000000000000       0.34375000000000000        0.0000000000000000     
  0.87500000000000000       0.37500000000000000        0.0000000000000000     
  0.90625000000000000       0.37500000000000000        0.0000000000000000     
  0.93750000000000000       0.37500000000000000        0.0000000000000000     
  0.96875000000000000       0.37500000000000000        0.0000000000000000     
   1.0000000000000000       0.37500000000000000        0.0000000000000000     
   0.0000000000000000       0.37500000000000000        0.0000000000000000     
   3.1250000000000000E-002  0.37500000000000000        0.0000000000000000     
   6.2500000000000000E-002  0.37500000000000000        0.0000000000000000     
   9.3750000000000000E-002  0.37500000000000000        0.0000000000000000     
  0.12500000000000000       0.37500000000000000        0.0000000000000000     
   0.0000000000000000       0.40625000000000000        0.0000000000000000     
   3.1250000000000000E-002  0.40625000000000000        0.0000000000000000     
   6.2500000000000000E-002  0.40625000000000000        0.0000000000000000     
   9.3750000000000000E-002  0.40625000000000000        0.0000000000000000     
  0.12500000000000000       0.40625000000000000        0.0000000000000000     
   0.0000000000000000       0.43750000000000000        0.0000000000000000     
   3.1250000000000000E-002  0.43750000000000000        0.0000000000000000     
   6.2500000000000000E-002  0.43750000000000000        0.0000000000000000     
   9.3750000000000000E-002  0.43750000000000000        0.0000000000000000     
  0.12500000000000000       0.43750000000000000        0.0000000000000000     
   0.0000000000000000       0.46875000000000000        0.0000000000000000     
   3.1250000000000000E-002  0.46875000000000000        0.0000000000000000     
   6.2500000000000000E-002  0.46875000000000000        0.0000000000000000     
   9.3750000000000000E-002  0.46875000000000000        0.0000000000000000     
  0.12500000000000000       0.46875000000000000        0.0000000000000000     
   0.0000000000000000       0.50000000000000000        0.0000000000000000     
   3.1250000000000000E-002  0.50000000000000000        0.0000000000000000     
   6.2500000000000000E-002  0.50000000000000000        0.0000000000000000     
   9.3750000000000000E-002  0.50000000000000000        0.0000000000000000     
  0.12500000000000000       0.50000000000000000        0.0000000000000000     
  0.12500000000000000       0.37500000000000000        0.0000000000000000     
  0.15625000000000000       0.37500000000000000        0.0000000000000000     
  0.18750000000000000       0.37500000000000000        0.0000000000000000     
  0.21875000000000000       0.37500000000000000        0.0000000000000000     
  0.25000000000000000       0.37500000000000000        0.0000000000000000     
  0.12500000000000000       0.40625000000000000        0.0000000000000000     
  0.15625000000000000       0.40625000000000000        0.0000000000000000     
  0.18750000000000000       0.40625000000000000        0.0000000000000000     
  0.21875000000000000       0.40625000000000000        0.0000000000000000     
  0.25000000000000000       0.40625000000000000        0.0000000000000000     
  0.12500000000000000       0.43750000000000000        0.0000000000000000     
  0.15625000000000000       0.43750000000000000        0.0000000000000000     
  0.18750000000000000       0.43750000000000000        0.0000000000000000     
  0.21875000000000000       0.43750000000000000        0.0000000000000000     
  0.25000000000000000       0.43750000000000000        0.0000000000000000     
  0.12500000000000000       0.46875000000000000        0.0000000000000000     
  0.15625000000000000       0.46875000000000000        0.0000000000000000     
  0.18750000000000000       0.46875000000000000        0.0000000000000000     
  0.21875000000000000       0.46875000000000000        0.0000000000000000     
  0.25000000000000000       0.46875000000000000        0.0000000000000000     
  0.12500000000000000       0.50000000000000000        0.0000000000000000     
  0.15625000000000000       0.50000000000000000        0.0000000000000000     
  0.18750000000000000       0.50000000000000000        0.0000000000000000     
  0.21875000000000000       0.50000000000000000        0.0000000000000000     
  0.25000000000000000       0.50000000000000000        0.0000000000000000     
  0.25000000000000000       0.37500000000000000        0.0000000000000000     
  0.28125000000000000       0.37500000000000000        0.0000000000000000     
  0.31250000000000000       0.37500000000000000        0.0000000000000000     
  0.34375000000000000       0.37500000000000000        0.0000000000000000     
  0.37500000000000000       0.37500000000000000        0.0000000000000000     
  0.25000000000000000       0.40625000000000000        0.0000000000000000     
  0.28125000000000000       0.40625000000000000        0.0000000000000000     
  0.31250000000000000       0.40625000000000000        0.0000000000000000     
  0.34375000000000000       0.40625000000000000        0.0000000000000000     
  0.37500000000000000       0.40625000000000000        0.0000000000000000     
  0.25000000000000000       0.43750000000000000        0.0000000000000000     
  0.28125000000000000       0.43750000000000000        0.0000000000000000     
  0.31250000000000000       0.43750000000000000        0.0000000000000000     
  0.34375000000000000       0.43750000000000000        0.0000000000000000     
  0.37500000000000000       0.43750000000000000        0.0000000000000000     
  0.25000000000000000       0.46875000000000000        0.0000000000000000     
  0.28125000000000000       0.46875000000000000        0.0000000000000000     
  0.31250000000000000       0.46875000000000000        0.0000000000000000     
  0.34375000000000000       0.46875000000000000        0.0000000000000000     
  0.37500000000000000       0.46875000000000000        0.0000000000000000     
  0.25000000000000000       0.50000000000000000        0.0000000000000000     
  0.28125000000000000       0.50000000000000000        0.0000000000000000     
  0.31250000000000000       0.50000000000000000        0.0000000000000000     
  0.34375000000000000       0.50000000000000000        0.0000000000000000     
  0.37500000000000000       0.50000000000000000        0.0000000000000000     
  0.37500000000000000       0.37500000000000000        0.0000000000000000     
  0.40625000000000000       0.37500000000000000        0.0000000000000000     
  0.43750000000000000       0.37500000000000000        0.0000000000000000     
  0.46875000000000000       0.37500000000000000        0.0000000000000000     
  0.50000000000000000       0.37500000000000000        0.0000000000000000     
  0.37500000000000000       0.40625000000000000        0.0000000000000000     
  0.40625000000000000       0.40625000000000000        0.0000000000000000     
  0.43750000000000000       0.40625000000000000        0.0000000000000000     
  0.46875000000000000       0.40625000000000000        0.0000000000000000     
  0.50000000000000000       0.40625000000000000        0.0000000000000000     
  0.37500000000000000       0.43750000000000000        0.0000000000000000     
  0.40625000000000000       0.43750000000000000        0.0000000000000000     
  0.43750000000000000       0.43750000000000000        0.0000000000000000     
  0.46875000000000000       0.43750000000000000        0.0000000000000000     
  0.50000000000000000       0.43750000000000000        0.0000000000000000     
  0.37500000000000000       0.46875000000000000        0.0000000000000000     
  0.40625000000000000       0.46875000000000000        0.0000000000000000     
  0.43750000000000000       0.46875000000000000        0.0000000000000000     
  0.46875000000000000       0.46875000000000000        0.0000000000000000     
  0.50000000000000000       0.46875000000000000        0.0000000000000000     
  0.37500000000000000       0.50000000000000000        0.0000000000000000     
  0.40625000000000000       0.50000000000000000        0.0000000000000000     
  0.43750000000000000       0.50000000000000000        0.0000000000000000     
  0.46875000000000000       0.50000000000000000        0.0000000000000000     
  0.50000000000000000       0.50000000000000000        0.0000000000000000     
  0.50000000000000000       0.37500000000000000        0.0000000000000000     
  0.53125000000000000       0.37500000000000000        0.0000000000000000     
  0.56250000000000000       0.37500000000000000        0.0000000000000000     
  0.59375000000000000       0.37500000000000000        0.0000000000000000     
  0.62500000000000000       0.37500000000000000        0.0000000000000000     
  0.50000000000000000       0.40625000000000000        0.0000000000000000     
  0.53125000000000000       0.40625000000000000        0.0000000000000000     
  0.56250000000000000       0.40625000000000000        0.0000000000000000     
  0.59375000000000000       0.40625000000000000        0.0000000000000000     
  0.62500000000000000       0.40625000000000000        0.0000000000000000     
  0.50000000000000000       0.43750000000000000        0.0000000000000000     
  0.53125000000000000       0.43750000000000000        0.0000000000000000     
  0.56250000000000000       0.43750000000000000        0.0000000000000000     
  0.59375000000000000       0.43750000000000000        0.0000000000000000     
  0.62500000000000000       0.43750000000000000        0.0000000000000000     
  0.50000000000000000       0.46875000000000000        0.0000000000000000     
  0.53125000000000000       0.46875000000000000        0.0000000000000000     
  0.56250000000000000       0.46875000000000000        0.0000000000000000     
  0.59375000000000000       0.46875000000000000        0.0000000000000000     
  0.62500000000000000       0.46875000000000000        0.0000000000000000     
  0.50000000000000000       0.50000000000000000        0.0000000000000000     
  0.53125000000000000       0.50000000000000000        0.0000000000000000     
  0.56250000000000000       0.50000000000000000        0.0000000000000000     
  0.59375000000000000       0.50000000000000000        0.0000000000000000     
  0.62500000000000000       0.50000000000000000        0.0000000000000000     
  0.62500000000000000       0.37500000000000000        0.0000000000000000     
  0.65625000000000000       0.37500000000000000        0.0000000000000000     
  0.68750000000000000       0.37500000000000000        0.0000000000000000     
  0.71875000000000000       0.37500000000000000        0.0000000000000000     
  0.75000000000000000       0.37500000000000000        0.0000000000000000     
  0.62500000000000000       0.40625000000000000        0.0000000000000000     
  0.65625000000000000       0.40625000000000000        0.0000000000000000     
  0.68750000000000000       0.40625000000000000        0.0000000000000000     
  0.71875000000000000       0.40625000000000000        0.0000000000000000     
  0.75000000000000000       0.40625000000000000        0.0000000000000000     
  0.62500000000000000       0.43750000000000000        0.0000000000000000     
  0.65625000000000000       0.43750000000000000        0.0000000000000000     
  0.68750000000000000       0.43750000000000000        0.0000000000000000     
  0.71875000000000000       0.43750000000000000        0.0000000000000000     
  0.75000000000000000       0.43750000000000000        0.0000000000000000     
  0.62500000000000000       0.46875000000000000        0.0000000000000000     
  0.65625000000000000       0.46875000000000000        0.0000000000000000     
  0.68750000000000000       0.46875000000000000        0.0000000000000000     
  0.71875000000000000       0.46875000000000000        0.0000000000000000     
  0.75000000000000000       0.46875000000000000        0.0000000000000000     
  0.62500000000000000       0.50000000000000000        0.0000000000000000     
  0.65625000000000000       0.50000000000000000        0.0000000000000000     
  0.68750000000000000       0.50000000000000000        0.0000000000000000     
  0.71875000000000000       0.50000000000000000        0.0000000000000000     
  0.75000000000000000       0.50000000000000000        0.0000000000000000     
  0.75000000000000000       0.37500000000000000        0.0000000000000000     
  0.78125000000000000       0.37500000000000000        0.0000000000000000     
  0.81250000000000000       0.37500000000000000        0.0000000000000000     
  0.84375000000000000       0.37500000000000000        0.0000000000000000     
  0.87500000000000000       0.37500000000000000        0.0000000000000000     
  0.75000000000000000       0.40625000000000000        0.0000000000000000     
  0.78125000000000000       0.40625000000000000        0.0000000000000000     
  0.81250000000000000       0.40625000000000000        0.0000000000000000     
  0.84375000000000000       0.40625000000000000        0.0000000000000000     
  0.87500000000000000       0.40625000000000000        0.0000000000000000     
  0.75000000000000000       0.43750000000000000        0.0000000000000000     
  0.78125000000000000       0.43750000000000000        0.0000000000000000     
  0.81250000000000000       0.43750000000000000        0.0000000000000000     
  0.84375000000000000       0.43750000000000000        0.0000000000000000     
  0.87500000000000000       0.43750000000000000        0.0000000000000000     
  0.75000000000000000       0.46875000000000000        0.0000000000000000     
  0.78125000000000000       0.46875000000000000        0.0000000000000000     
  0.81250000000000000       0.46875000000000000        0.0000000000000000     
  0.84375000000000000       0.46875000000000000        0.0000000000000000     
  0.87500000000000000       0.46875000000000000        0.0000000000000000     
  0.75000000000000000       0.50000000000000000        0.0000000000000000     
  0.78125000000000000       0.50000000000000000        0.0000000000000000     
  0.81250000000000000       0.50000000000000000        0.0000000000000000     
  0.84375000000000000       0.50000000000000000        0.0000000000000000     
  0.87500000000000000       0.50000000000000000        0.0000000000000000     
  0.87500000000000000       0.37500000000000000        0.0000000000000000     
  0.90625000000000000       0.37500000000000000        0.0000000000000000     
  0.93750000000000000       0.37500000000000000        0.0000000000000000     
  0.96875000000000000       0.37500000000000000        0.0000000000000000     
   1.0000000000000000       0.37500000000000000        0.0000000000000000     
  0.87500000000000000       0.40625000000000000        0.0000000000000000     
  0.90625000000000000       0.40625000000000000        0.0000000000000000     
  0.93750000000000000       0.40625000000000000        0.0000000000000000     
  0.96875000000000000       0.40625000000000000        0.0000000000000000     
   1.0000000000000000       0.40625000000000000        0.0000000000000000     
  0.87500000000000000       0.43750000000000000        0.0000000000000000     
  0.90625000000000000       0.43750000000000000        0.0000000000000000     
  0.93750000000000000       0.43750000000000000        0.0000000000000000     
  0.96875000000000000       0.43750000000000000        0.0000000000000000     
   1.0000000000000000       0.43750000000000000        0.0000000000000000     
  0.87500000000000000       0.46875000000000000        0.0000000000000000     
  0.90625000000000000       0.46875000000000000        0.0000000000000000     
  0.93750000000000000       0.46875000000000000        0.0000000000000000     
  0.96875000000000000       0.46875000000000000        0.0000000000000000     
   1.0000000000000000       0.46875000000000000        0.0000000000000000     
  0.87500000000000000       0.50000000000000000        0.0000000000000000     
  0.90625000000000000       0.50000000000000000        0.0000000000000000     
  0.93750000000000000       0.50000000000000000        0.0000000000000000     
  0.96875000000000000       0.50000000000000000        0.0000000000000000     
   1.0000000000000000       0.50000000000000000        0.0000000000000000     
   0.0000000000000000       0.50000000000000000        0.0000000000000000     
   3.1250000000000000E-002  0.50000000000000000        0.0000000000000000     
   6.2500000000000000E-002  0.50000000000000000        0.0000000000000000     
   9.3750000000000000E-002  0.50000000000000000        0.0000000000000000     
  0.12500000000000000       0.50000000000000000        0.0000000000000000     
   0.0000000000000000       0.53125000000000000        0.0000000000000000     
   3.1250000000000000E-002  0.53125000000000000        0.0000000000000000     
   6.2500000000000000E-002  0.53125000000000000        0.0000000000000000     
   9.3750000000000000E-002  0.53125000000000000        0.0000000000000000     
  0.12500000000000000       0.53125000000000000        0.0000000000000000     
   0.0000000000000000       0.56250000000000000        0.0000000000000000     
   3.1250000000000000E-002  0.56250000000000000        0.0000000000000000     
   6.2500000000000000E-002  0.56250000000000000        0.0000000000000000     
   9.3750000000000000E-002  0.56250000000000000        0.0000000000000000     
  0.12500000000000000       0.56250000000000000        0.0000000000000000     
   0.0000000000000000       0.59375000000000000        0.0000000000000000     
   3.1250000000000000E-002  0.59375000000000000        0.0000000000000000     
   6.2500000000000000E-002  0.59375000000000000        0.0000000000000000     
   9.3750000000000000E-002  0.59375000000000000        0.0000000000000000     
  0.12500000000000000       0.59375000000000000        0.0000000000000000     
   0.0000000000000000       0.62500000000000000        0.0000000000000000     
   3.1250000000000000E-002  0.62500000000000000        0.0000000000000000     
   6.2500000000000000E-002  0.62500000000000000        0.0000000000000000     
   9.3750000000000000E-002  0.62500000000000000        0.0000000000000000     
  0.12500000000000000       0.62500000000000000        0.0000000000000000     
  0.12500000000000000       0.50000000000000000        0.0000000000000000     
  0.15625000000000000       0.50000000000000000        0.0000000000000000     
  0.18750000000000000       0.50000000000000000        0.0000000000000000     
  0.21875000000000000       0.50000000000000000        0.0000000000000000     
  0.25000000000000000       0.50000000000000000        0.0000000000000000     
  0.12500000000000000       0.53125000000000000        0.0000000000000000     
  0.15625000000000000       0.53125000000000000        0.0000000000000000     
  0.18750000000000000       0.53125000000000000        0.0000000000000000     
  0.21875000000000000       0.53125000000000000        0.0000000000000000     
  0.25000000000000000       0.53125000000000000        0.0000000000000000     
  0.12500000000000000       0.56250000000000000        0.0000000000000000     
  0.15625000000000000       0.56250000000000000        0.0000000000000000     
  0.18750000000000000       0.56250000000000000        0.0000000000000000     
  0.21875000000000000       0.56250000000000000        0.0000000000000000     
  0.25000000000000000       0.56250000000000000        0.0000000000000000     
  0.12500000000000000       0.59375000000000000        0.0000000000000000     
  0.15625000000000000       0.59375000000000000        0.0000000000000000     
  0.18750000000000000       0.59375000000000000        0.0000000000000000     
  0.21875000000000000       0.59375000000000000        0.0000000000000000     
  0.25000000000000000       0.59375000000000000        0.0000000000000000     
  0.12500000000000000       0.62500000000000000        0.0000000000000000     
  0.15625000000000000       0.62500000000000000        0.0000000000000000     
  0.18750000000000000       0.62500000000000000        0.0000000000000000     
  0.21875000000000000       0.62500000000000000        0.0000000000000000     
  0.25000000000000000       0.62500000000000000        0.0000000000000000     
  0.25000000000000000       0.50000000000000000        0.0000000000000000     
  0.28125000000000000       0.50000000000000000        0.0000000000000000     
  0.31250000000000000       0.50000000000000000        0.0000000000000000     
  0.34375000000000000       0.50000000000000000        0.0000000000000000     
  0.37500000000000000       0.50000000000000000        0.0000000000000000     
  0.25000000000000000       0.53125000000000000        0.0000000000000000     
  0.28125000000000000       0.53125000000000000        0.0000000000000000     
  0.31250000000000000       0.53125000000000000        0.0000000000000000     
  0.34375000000000000       0.53125000000000000        0.0000000000000000     
  0.37500000000000000       0.53125000000000000        0.0000000000000000     
  0.25000000000000000       0.56250000000000000        0.0000000000000000     
  0.28125000000000000       0.56250000000000000        0.0000000000000000     
  0.31250000000000000       0.56250000000000000        0.0000000000000000     
  0.34375000000000000       0.56250000000000000        0.0000000000000000     
  0.37500000000000000       0.56250000000000000        0.0000000000000000     
  0.25000000000000000       0.59375000000000000        0.0000000000000000     
  0.28125000000000000       0.59375000000000000        0.0000000000000000     
  0.31250000000000000       0.59375000000000000        0.0000000000000000     
  0.34375000000000000       0.59375000000000000        0.0000000000000000     
  0.37500000000000000       0.59375000000000000        0.0000000000000000     
  0.25000000000000000       0.62500000000000000        0.0000000000000000     
  0.28125000000000000       0.62500000000000000        0.0000000000000000     
  0.31250000000000000       0.62500000000000000        0.0000000000000000     
  0.34375000000000000       0.62500000000000000        0.0000000000000000     
  0.37500000000000000       0.62500000000000000        0.0000000000000000     
  0.37500000000000000       0.50000000000000000        0.0000000000000000     
  0.40625000000000000       0.50000000000000000        0.0000000000000000     
  0.43750000000000000       0.50000000000000000        0.0000000000000000     
  0.46875000000000000       0.50000000000000000        0.0000000000000000     
  0.50000000000000000       0.50000000000000000        0.0000000000000000     
  0.37500000000000000       0.53125000000000000        0.0000000000000000     
  0.40625000000000000       0.53125000000000000        0.0000000000000000     
  0.43750000000000000       0.53125000000000000        0.0000000000000000     
  0.46875000000000000       0.53125000000000000        0.0000000000000000     
  0.50000000000000000       0.53125000000000000        0.0000000000000000     
  0.37500000000000000       0.56250000000000000        0.0000000000000000     
  0.40625000000000000       0.56250000000000000        0.0000000000000000     
  0.43750000000000000       0.56250000000000000        0.0000000000000000     
  0.46875000000000000       0.56250000000000000        0.0000000000000000     
  0.50000000000000000       0.56250000000000000        0.0000000000000000     
  0.37500000000000000       0.59375000000000000        0.0000000000000000     
  0.40625000000000000       0.59375000000000000        0.0000000000000000     
  0.43750000000000000       0.59375000000000000        0.0000000000000000     
  0.46875000000000000       0.59375000000000000        0.0000000000000000     
  0.50000000000000000       0.59375000000000000        0.0000000000000000     
  0.37500000000000000       0.62500000000000000        0.0000000000000000     
  0.40625000000000000       0.62500000000000000        0.0000000000000000     
  0.43750000000000000       0.62500000000000000        0.0000000000000000     
  0.46875000000000000       0.62500000000000000        0.0000000000000000     
  0.50000000000000000       0.62500000000000000        0.0000000000000000     
  0.50000000000000000       0.50000000000000000        0.0000000000000000     
  0.53125000000000000       0.50000000000000000        0.0000000000000000     
  0.56250000000000000       0.50000000000000000        0.0000000000000000     
  0.59375000000000000       0.50000000000000000        0.0000000000000000     
  0.62500000000000000       0.50000000000000000        0.0000000000000000     
  0.50000000000000000       0.53125000000000000        0.0000000000000000     
  0.53125000000000000       0.53125000000000000        0.0000000000000000     
  0.56250000000000000       0.53125000000000000        0.0000000000000000     
  0.59375000000000000       0.53125000000000000        0.0000000000000000     
  0.62500000000000000       0.53125000000000000        0.0000000000000000     
  0.50000000000000000       0.56250000000000000        0.0000000000000000     
  0.53125000000000000       0.56250000000000000        0.0000000000000000     
  0.56250000000000000       0.56250000000000000        0.0000000000000000     
  0.59375000000000000       0.56250000000000000        0.0000000000000000     
  0.62500000000000000       0.56250000000000000        0.0000000000000000     
  0.50000000000000000       0.59375000000000000        0.0000000000000000     
  0.53125000000000000       0.59375000000000000        0.0000000000000000     
  0.56250000000000000       0.59375000000000000        0.0000000000000000     
  0.59375000000000000       0.59375000000000000        0.0000000000000000     
  0.62500000000000000       0.59375000000000000        0.0000000000000000     
  0.50000000000000000       0.62500000000000000        0.0000000000000000     
  0.53125000000000000       0.62500000000000000        0.0000000000000000     
  0.56250000000000000       0.62500000000000000        0.0000000000000000     
  0.59375000000000000       0.62500000000000000        0.0000000000000000     
  0.62500000000000000       0.62500000000000000        0.0000000000000000     
  0.62500000000000000       0.50000000000000000        0.0000000000000000     
  0.65625000000000000       0.50000000000000000        0.0000000000000000     
  0.68750000000000000       0.50000000000000000        0.0000000000000000     
  0.71875000000000000       0.50000000000000000        0.0000000000000000     
  0.75000000000000000       0.50000000000000000        0.0000000000000000     
  0.62500000000000000       0.53125000000000000        0.0000000000000000     
  0.65625000000000000       0.53125000000000000        0.0000000000000000     
  0.68750000000000000       0.53125000000000000        0.0000000000000000     
  0.71875000000000000       0.53125000000000000        0.0000000000000000     
  0.75000000000000000       0.53125000000000000        0.0000000000000000     
  0.62500000000000000       0.56250000000000000        0.0000000000000000     
  0.65625000000000000       0.56250000000000000        0.0000000000000000     
  0.68750000000000000       0.56250000000000000        0.0000000000000000     
  0.71875000000000000       0.56250000000000000        0.0000000000000000     
  0.75000000000000000       0.56250000000000000        0.0000000000000000     
  0.62500000000000000       0.59375000000000000        0.0000000000000000     
  0.65625000000000000       0.59375000000000000        0.0000000000000000     
  0.68750000000000000       0.59375000000000000        0.0000000000000000     
  0.71875000000000000       0.59375000000000000        0.0000000000000000     
  0.75000000000000000       0.59375000000000000        0.0000000000000000     
  0.62500000000000000       0.62500000000000000        0.0000000000000000     
  0.65625000000000000       0.62500000000000000        0.0000000000000000     
  0.68750000000000000       0.62500000000000000        0.0000000000000000     
  0.71875000000000000       0.62500000000000000        0.0000000000000000     
  0.75000000000000000       0.62500000000000000        0.0000000000000000     
  0.75000000000000000       0.50000000000000000        0.0000000000000000     
  0.78125000000000000       0.50000000000000000        0.0000000000000000     
  0.81250000000000000       0.50000000000000000        0.0000000000000000     
  0.84375000000000000       0.50000000000000000        0.0000000000000000     
  0.87500000000000000       0.50000000000000000        0.0000000000000000     
  0.75000000000000000       0.53125000000000000        0.0000000000000000     
  0.78125000000000000       0.53125000000000000        0.0000000000000000     
  0.81250000000000000       0.53125000000000000        0.0000000000000000     
  0.84375000000000000       0.53125000000000000        0.0000000000000000     
  0.87500000000000000       0.53125000000000000        0.0000000000000000     
  0.75000000000000000       0.56250000000000000        0.0000000000000000     
  0.78125000000000000       0.56250000000000000        0.0000000000000000     
  0.81250000000000000       0.56250000000000000        0.0000000000000000     
  0.84375000000000000       0.56250000000000000        0.0000000000000000     
  0.87500000000000000       0.56250000000000000        0.0000000000000000     
  0.75000000000000000       0.59375000000000000        0.0000000000000000     
  0.78125000000000000       0.59375000000000000        0.0000000000000000     
  0.81250000000000000       0.59375000000000000        0.0000000000000000     
  0.84375000000000000       0.59375000000000000        0.0000000000000000     
  0.87500000000000000       0.59375000000000000        0.0000000000000000     
  0.75000000000000000       0.62500000000000000        0.0000000000000000     
  0.78125000000000000       0.62500000000000000        0.0000000000000000     
  0.81250000000000000       0.62500000000000000        0.0000000000000000     
  0.84375000000000000       0.62500000000000000        0.0000000000000000     
  0.87500000000000000       0.62500000000000000        0.0000000000000000     
  0.87500000000000000       0.50000000000000000        0.0000000000000000     
  0.90625000000000000       0.50000000000000000        0.0000000000000000     
  0.93750000000000000       0.50000000000000000        0.0000000000000000     
  0.96875000000000000       0.50000000000000000        0.0000000000000000     
   1.0000000000000000       0.50000000000000000        0.0000000000000000     
  0.87500000000000000       0.53125000000000000        0.0000000000000000     
  0.90625000000000000       0.53125000000000000        0.0000000000000000     
  0.93750000000000000       0.53125000000000000        0.0000000000000000     
  0.96875000000000000       0.53125000000000000        0.0000000000000000     
   1.0000000000000000       0.53125000000000000        0.0000000000000000     
  0.87500000000000000       0.56250000000000000        0.0000000000000000     
  0.90625000000000000       0.56250000000000000        0.0000000000000000     
  0.93750000000000000       0.56250000000000000        0.0000000000000000     
  0.96875000000000000       0.56250000000000000        0.0000000000000000     
   1.0000000000000000       0.56250000000000000        0.0000000000000000     
  0.87500000000000000       0.59375000000000000        0.0000000000000000     
  0.90625000000000000       0.59375000000000000        0.0000000000000000     
  0.93750000000000000       0.59375000000000000        0.0000000000000000     
  0.96875000000000000       0.59375000000000000        0.0000000000000000     
   1.0000000000000000       0.59375000000000000        0.0000000000000000     
  0.87500000000000000       0.62500000000000000        0.0000000000000000     
  0.90625000000000000       0.62500000000000000        0.0000000000000000     
  0.93750000000000000       0.62500000000000000        0.0000000000000000     
  0.96875000000000000       0.62500000000000000        0.0000000000000000     
   1.0000000000000000       0.62500000000000000        0.0000000000000000     
   0.0000000000000000       0.62500000000000000        0.0000000000000000     
   3.1250000000000000E-002  0.62500000000000000        0.0000000000000000     
   6.2500000000000000E-002  0.62500000000000000        0.0000000000000000     
   9.3750000000000000E-002  0.62500000000000000        0.0000000000000000     
  0.12500000000000000       0.62500000000000000        0.0000000000000000     
   0.0000000000000000       0.65625000000000000        0.0000000000000000     
   3.1250000000000000E-002  0.65625000000000000        0.0000000000000000     
   6.2500000000000000E-002  0.65625000000000000        0.0000000000000000     
   9.3750000000000000E-002  0.65625000000000000        0.0000000000000000     
  0.12500000000000000       0.65625000000000000        0.0000000000000000     
   0.0000000000000000       0.68750000000000000        0.0000000000000000     
   3.1250000000000000E-002  0.68750000000000000        0.0000000000000000     
   6.2500000000000000E-002  0.68750000000000000        0.0000000000000000     
   9.3750000000000000E-002  0.68750000000000000        0.0000000000000000     
  0.12500000000000000       0.68750000000000000        0.0000000000000000     
   0.0000000000000000       0.71875000000000000        0.0000000000000000     
   3.1250000000000000E-002  0.71875000000000000        0.0000000000000000     
   6.2500000000000000E-002  0.71875000000000000        0.0000000000000000     
   9.3750000000000000E-002  0.71875000000000000        0.0000000000000000     
  0.12500000000000000       0.71875000000000000        0.0000000000000000     
   0.0000000000000000       0.75000000000000000        0.0000000000000000     
   3.1250000000000000E-002  0.75000000000000000        0.0000000000000000     
   6.2500000000000000E-002  0.75000000000000000        0.0000000000000000     
   9.3750000000000000E-002  0.75000000000000000        0.0000000000000000     
  0.12500000000000000       0.75000000000000000        0.0000000000000000     
  0.12500000000000000       0.62500000000000000        0.0000000000000000     
  0.15625000000000000       0.62500000000000000        0.0000000000000000     
  0.18750000000000000       0.62500000000000000        0.0000000000000000     
  0.21875000000000000       0.62500000000000000        0.0000000000000000     
  0.25000000000000000       0.62500000000000000        0.0000000000000000     
  0.12500000000000000       0.65625000000000000        0.0000000000000000     
  0.15625000000000000       0.65625000000000000        0.0000000000000000     
  0.18750000000000000       0.65625000000000000        0.0000000000000000     
  0.21875000000000000       0.65625000000000000        0.0000000000000000     
  0.25000000000000000       0.65625000000000000        0.0000000000000000     
  0.12500000000000000       0.68750000000000000        0.0000000000000000     
  0.15625000000000000       0.68750000000000000        0.0000000000000000     
  0.18750000000000000       0.68750000000000000        0.0000000000000000     
  0.21875000000000000       0.68750000000000000        0.0000000000000000     
  0.25000000000000000       0.68750000000000000        0.0000000000000000     
  0.12500000000000000       0.71875000000000000        0.0000000000000000     
  0.15625000000000000       0.71875000000000000        0.0000000000000000     
  0.18750000000000000       0.71875000000000000        0.0000000000000000     
  0.21875000000000000       0.71875000000000000        0.0000000000000000     
  0.25000000000000000       0.71875000000000000        0.0000000000000000     
  0.12500000000000000       0.75000000000000000        0.0000000000000000     
  0.15625000000000000       0.75000000000000000        0.0000000000000000     
  0.18750000000000000       0.75000000000000000        0.0000000000000000     
  0.21875000000000000       0.75000000000000000        0.0000000000000000     
  0.25000000000000000       0.75000000000000000        0.0000000000000000     
  0.25000000000000000       0.62500000000000000        0.0000000000000000     
  0.28125000000000000       0.62500000000000000        0.0000000000000000     
  0.31250000000000000       0.62500000000000000        0.0000000000000000     
  0.34375000000000000       0.62500000000000000        0.0000000000000000     
  0.37500000000000000       0.62500000000000000        0.0000000000000000     
  0.25000000000000000       0.65625000000000000        0.0000000000000000     
  0.28125000000000000       0.65625000000000000        0.0000000000000000     
  0.31250000000000000       0.65625000000000000        0.0000000000000000     
  0.34375000000000000       0.65625000000000000        0.0000000000000000     
  0.37500000000000000       0.65625000000000000        0.0000000000000000     
  0.25000000000000000       0.68750000000000000        0.0000000000000000     
  0.28125000000000000       0.68750000000000000        0.0000000000000000     
  0.31250000000000000       0.68750000000000000        0.0000000000000000     
  0.34375000000000000       0.68750000000000000        0.0000000000000000     
  0.37500000000000000       0.68750000000000000        0.0000000000000000     
  0.25000000000000000       0.71875000000000000        0.0000000000000000     
  0.28125000000000000       0.71875000000000000        0.0000000000000000     
  0.31250000000000000       0.71875000000000000        0.0000000000000000     
  0.34375000000000000       0.71875000000000000        0.0000000000000000     
  0.37500000000000000       0.71875000000000000        0.0000000000000000     
  0.25000000000000000       0.75000000000000000        0.0000000000000000     
  0.28125000000000000       0.75000000000000000        0.0000000000000000     
  0.31250000000000000       0.75000000000000000        0.0000000000000000     
  0.34375000000000000       0.75000000000000000        0.0000000000000000     
  0.37500000000000000       0.75000000000000000        0.0000000000000000     
  0.37500000000000000       0.62500000000000000        0.0000000000000000     
  0.40625000000000000       0.62500000000000000        0.0000000000000000     
  0.43750000000000000       0.62500000000000000        0.0000000000000000     
  0.46875000000000000       0.62500000000000000        0.0000000000000000     
  0.50000000000000000       0.62500000000000000        0.0000000000000000     
  0.37500000000000000       0.65625000000000000        0.0000000000000000     
  0.40625000000000000       0.65625000000000000        0.0000000000000000     
  0.43750000000000000       0.65625000000000000        0.0000000000000000     
  0.46875000000000000       0.65625000000000000        0.0000000000000000     
  0.50000000000000000       0.65625000000000000        0.0000000000000000     
  0.37500000000000000       0.68750000000000000        0.0000000000000000     
  0.40625000000000000       0.68750000000000000        0.0000000000000000     
  0.43750000000000000       0.68750000000000000        0.0000000000000000     
  0.46875000000000000       0.68750000000000000        0.0000000000000000     
  0.50000000000000000       0.68750000000000000        0.0000000000000000     
  0.37500000000000000       0.71875000000000000        0.0000000000000000     
  0.40625000000000000       0.71875000000000000        0.0000000000000000     
  0.43750000000000000       0.71875000000000000        0.0000000000000000     
  0.46875000000000000       0.71875000000000000        0.0000000000000000     
  0.50000000000000000       0.71875000000000000        0.0000000000000000     
  0.37500000000000000       0.75000000000000000        0.0000000000000000     
  0.40625000000000000       0.75000000000000000        0.0000000000000000     
  0.43750000000000000       0.75000000000000000        0.0000000000000000     
  0.46875000000000000       0.75000000000000000        0.0000000000000000     
  0.50000000000000000       0.75000000000000000        0.0000000000000000     
  0.50000000000000000       0.62500000000000000        0.0000000000000000     
  0.53125000000000000       0.62500000000000000        0.0000000000000000     
  0.56250000000000000       0.62500000000000000        0.0000000000000000     
  0.59375000000000000       0.62500000000000000        0.0000000000000000     
  0.62500000000000000       0.62500000000000000        0.0000000000000000     
  0.50000000000000000       0.65625000000000000        0.0000000000000000     
  0.53125000000000000       0.65625000000000000        0.0000000000000000     
  0.56250000000000000       0.65625000000000000        0.0000000000000000     
  0.59375000000000000       0.65625000000000000        0.0000000000000000     
  0.62500000000000000       0.65625000000000000        0.0000000000000000     
  0.50000000000000000       0.68750000000000000        0.0000000000000000     
  0.53125000000000000       0.68750000000000000        0.0000000000000000     
  0.56250000000000000       0.68750000000000000        0.0000000000000000     
  0.59375000000000000       0.68750000000000000        0.0000000000000000     
  0.62500000000000000       0.68750000000000000        0.0000000000000000     
  0.50000000000000000       0.71875000000000000        0.0000000000000000     
  0.53125000000000000       0.71875000000000000        0.0000000000000000     
  0.56250000000000000       0.71875000000000000        0.0000000000000000     
  0.59375000000000000       0.71875000000000000        0.0000000000000000     
  0.62500000000000000       0.71875000000000000        0.0000000000000000     
  0.50000000000000000       0.75000000000000000        0.0000000000000000     
  0.53125000000000000       0.75000000000000000        0.0000000000000000     
  0.56250000000000000       0.75000000000000000        0.0000000000000000     
  0.59375000000000000       0.75000000000000000        0.0000000000000000     
  0.62500000000000000       0.75000000000000000        0.0000000000000000     
  0.62500000000000000       0.62500000000000000        0.0000000000000000     
  0.65625000000000000       0.62500000000000000        0.0000000000000000     
  0.68750000000000000       0.62500000000000000        0.0000000000000000     
  0.71875000000000000       0.62500000000000000        0.0000000000000000     
  0.75000000000000000       0.62500000000000000        0.0000000000000000     
  0.62500000000000000       0.65625000000000000        0.0000000000000000     
  0.65625000000000000       0.65625000000000000        0.0000000000000000     
  0.68750000000000000       0.65625000000000000        0.0000000000000000     
  0.71875000000000000       0.65625000000000000        0.0000000000000000     
  0.75000000000000000       0.65625000000000000        0.0000000000000000     
  0.62500000000000000       0.68750000000000000        0.0000000000000000     
  0.65625000000000000       0.68750000000000000        0.0000000000000000     
  0.68750000000000000       0.68750000000000000        0.0000000000000000     
  0.71875000000000000       0.68750000000000000        0.0000000000000000     
  0.75000000000000000       0.68750000000000000        0.0000000000000000     
  0.62500000000000000       0.71875000000000000        0.0000000000000000     
  0.65625000000000000       0.71875000000000000        0.0000000000000000     
  0.68750000000000000       0.71875000000000000        0.0000000000000000     
  0.71875000000000000       0.71875000000000000        0.0000000000000000     
  0.75000000000000000       0.71875000000000000        0.0000000000000000     
  0.62500000000000000       0.75000000000000000        0.0000000000000000     
  0.65625000000000000       0.75000000000000000        0.0000000000000000     
  0.68750000000000000       0.75000000000000000        0.0000000000000000     
  0.71875000000000000       0.75000000000000000        0.0000000000000000     
  0.75000000000000000       0.75000000000000000        0.0000000000000000     
  0.75000000000000000       0.62500000000000000        0.0000000000000000     
  0.78125000000000000       0.62500000000000000        0.0000000000000000     
  0.81250000000000000       0.62500000000000000        0.0000000000000000     
  0.84375000000000000       0.62500000000000000        0.0000000000000000     
  0.87500000000000000       0.62500000000000000        0.0000000000000000     
  0.75000000000000000       0.65625000000000000        0.0000000000000000     
  0.78125000000000000       0.65625000000000000        0.0000000000000000     
  0.81250000000000000       0.65625000000000000        0.0000000000000000     
  0.84375000000000000       0.65625000000000000        0.0000000000000000     
  0.87500000000000000       0.65625000000000000        0.0000000000000000     
  0.75000000000000000       0.68750000000000000        0.0000000000000000     
  0.78125000000000000       0.68750000000000000        0.0000000000000000     
  0.81250000000000000       0.68750000000000000        0.0000000000000000     
  0.84375000000000000       0.68750000000000000        0.0000000000000000     
  0.87500000000000000       0.68750000000000000        0.0000000000000000     
  0.75000000000000000       0.71875000000000000        0.0000000000000000     
  0.78125000000000000       0.71875000000000000        0.0000000000000000     
  0.81250000000000000       0.71875000000000000        0.0000000000000000     
  0.84375000000000000       0.71875000000000000        0.0000000000000000     
  0.87500000000000000       0.71875000000000000        0.0000000000000000     
  0.75000000000000000       0.75000000000000000        0.0000000000000000     
  0.78125000000000000       0.75000000000000000        0.0000000000000000     
  0.81250000000000000       0.75000000000000000        0.0000000000000000     
  0.84375000000000000       0.75000000000000000        0.0000000000000000     
  0.87500000000000000       0.75000000000000000        0.0000000000000000     
  0.87500000000000000       0.62500000000000000        0.0000000000000000     
  0.90625000000000000       0.62500000000000000        0.0000000000000000     
  0.93750000000000000       0.62500000000000000        0.0000000000000000     
  0.96875000000000000       0.62500000000000000        0.0000000000000000     
   1.0000000000000000       0.62500000000000000        0.0000000000000000     
  0.87500000000000000       0.65625000000000000        0.0000000000000000     
  0.90625000000000000       0.65625000000000000        0.0000000000000000     
  0.93750000000000000       0.65625000000000000        0.0000000000000000     
  0.96875000000000000       0.65625000000000000        0.0000000000000000     
   1.0000000000000000       0.65625000000000000        0.0000000000000000     
  0.87500000000000000       0.68750000000000000        0.0000000000000000     
  0.90625000000000000       0.68750000000000000        0.0000000000000000     
  0.93750000000000000       0.68750000000000000        0.0000000000000000     
  0.96875000000000000       0.68750000000000000        0.0000000000000000     
   1.0000000000000000       0.68750000000000000        0.0000000000000000     
  0.87500000000000000       0.71875000000000000        0.0000000000000000     
  0.90625000000000000       0.71875000000000000        0.0000000000000000     
  0.93750000000000000       0.71875000000000000        0.0000000000000000     
  0.96875000000000000       0.71875000000000000        0.0000000000000000     
   1.0000000000000000       0.71875000000000000        0.0000000000000000     
  0.87500000000000000       0.75000000000000000        0.0000000000000000     
  0.90625000000000000       0.75000000000000000        0.0000000000000000     
  0.93750000000000000       0.75000000000000000        0.0000000000000000     
  0.96875000000000000       0.75000000000000000        0.0000000000000000     
   1.0000000000000000       0.75000000000000000        0.0000000000000000     
   0.0000000000000000       0.75000000000000000        0.0000000000000000     
   3.1250000000000000E-002  0.75000000000000000        0.0000000000000000     
   6.2500000000000000E-002  0.75000000000000000        0.0000000000000000     
   9.3750000000000000E-002  0.75000000000000000        0.0000000000000000     
  0.12500000000000000       0.75000000000000000        0.0000000000000000     
   0.0000000000000000       0.78125000000000000        0.0000000000000000     
   3.1250000000000000E-002  0.78125000000000000        0.0000000000000000     
   6.2500000000000000E-002  0.78125000000000000        0.0000000000000000     
   9.3750000000000000E-002  0.78125000000000000        0.0000000000000000     
  0.12500000000000000       0.78125000000000000        0.0000000000000000     
   0.0000000000000000       0.81250000000000000        0.0000000000000000     
   3.1250000000000000E-002  0.81250000000000000        0.0000000000000000     
   6.2500000000000000E-002  0.81250000000000000        0.0000000000000000     
   9.3750000000000000E-002  0.81250000000000000        0.0000000000000000     
  0.12500000000000000       0.81250000000000000        0.0000000000000000     
   0.0000000000000000       0.84375000000000000        0.0000000000000000     
   3.1250000000000000E-002  0.84375000000000000        0.0000000000000000     
   6.2500000000000000E-002  0.84375000000000000        0.0000000000000000     
   9.3750000000000000E-002  0.84375000000000000        0.0000000000000000     
  0.12500000000000000       0.84375000000000000        0.0000000000000000     
   0.0000000000000000       0.87500000000000000        0.0000000000000000     
   3.1250000000000000E-002  0.87500000000000000        0.0000000000000000     
   6.2500000000000000E-002  0.87500000000000000        0.0000000000000000     
   9.3750000000000000E-002  0.87500000000000000        0.0000000000000000     
  0.12500000000000000       0.87500000000000000        0.0000000000000000     
  0.12500000000000000       0.75000000000000000        0.0000000000000000     
  0.15625000000000000       0.75000000000000000        0.0000000000000000     
  0.18750000000000000       0.75000000000000000        0.0000000000000000     
  0.21875000000000000       0.75000000000000000        0.0000000000000000     
  0.25000000000000000       0.75000000000000000        0.0000000000000000     
  0.12500000000000000       0.78125000000000000        0.0000000000000000     
  0.15625000000000000       0.78125000000000000        0.0000000000000000     
  0.18750000000000000       0.78125000000000000        0.0000000000000000     
  0.21875000000000000       0.78125000000000000        0.0000000000000000     
  0.25000000000000000       0.78125000000000000        0.0000000000000000     
  0.12500000000000000       0.81250000000000000        0.0000000000000000     
  0.15625000000000000       0.81250000000000000        0.0000000000000000     
  0.18750000000000000       0.81250000000000000        0.0000000000000000     
  0.21875000000000000       0.81250000000000000        0.0000000000000000     
  0.25000000000000000       0.81250000000000000        0.0000000000000000     
  0.12500000000000000       0.84375000000000000        0.0000000000000000     
  0.15625000000000000       0.84375000000000000        0.0000000000000000     
  0.18750000000000000       0.84375000000000000        0.0000000000000000     
  0.21875000000000000       0.84375000000000000        0.0000000000000000     
  0.25000000000000000       0.84375000000000000        0.0000000000000000     
  0.12500000000000000       0.87500000000000000        0.0000000000000000     
  0.15625000000000000       0.87500000000000000        0.0000000000000000     
  0.18750000000000000       0.87500000000000000        0.0000000000000000     
  0.21875000000000000       0.87500000000000000        0.0000000000000000     
  0.25000000000000000       0.87500000000000000        0.0000000000000000     
  0.25000000000000000       0.75000000000000000        0.0000000000000000     
  0.28125000000000000       0.75000000000000000        0.0000000000000000     
  0.31250000000000000       0.75000000000000000        0.0000000000000000     
  0.34375000000000000       0.75000000000000000        0.0000000000000000     
  0.37500000000000000       0.75000000000000000        0.0000000000000000     
  0.25000000000000000       0.78125000000000000        0.0000000000000000     
  0.28125000000000000       0.78125000000000000        0.0000000000000000     
  0.31250000000000000       0.78125000000000000        0.0000000000000000     
  0.34375000000000000       0.78125000000000000        0.0000000000000000     
  0.37500000000000000       0.78125000000000000        0.0000000000000000     
  0.25000000000000000       0.81250000000000000        0.0000000000000000     
  0.28125000000000000       0.81250000000000000        0.0000000000000000     
  0.31250000000000000       0.81250000000000000        0.0000000000000000     
  0.34375000000000000       0.81250000000000000        0.0000000000000000     
  0.37500000000000000       0.81250000000000000        0.0000000000000000     
  0.25000000000000000       0.84375000000000000        0.0000000000000000     
  0.28125000000000000       0.84375000000000000        0.0000000000000000     
  0.31250000000000000       0.84375000000000000        0.0000000000000000     
  0.34375000000000000       0.84375000000000000        0.0000000000000000     
  0.37500000000000000       0.84375000000000000        0.0000000000000000     
  0.25000000000000000       0.87500000000000000        0.0000000000000000     
  0.28125000000000000       0.87500000000000000        0.0000000000000000     
  0.31250000000000000       0.87500000000000000        0.0000000000000000     
  0.34375000000000000       0.87500000000000000        0.0000000000000000     
  0.37500000000000000       0.87500000000000000        0.0000000000000000     
  0.37500000000000000       0.75000000000000000        0.0000000000000000     
  0.40625000000000000       0.75000000000000000        0.0000000000000000     
  0.43750000000000000       0.75000000000000000        0.0000000000000000     
  0.46875000000000000       0.75000000000000000        0.0000000000000000     
  0.50000000000000000       0.75000000000000000        0.0000000000000000     
  0.37500000000000000       0.78125000000000000        0.0000000000000000     
  0.40625000000000000       0.78125000000000000        0.0000000000000000     
  0.43750000000000000       0.78125000000000000        0.0000000000000000     
  0.46875000000000000       0.78125000000000000        0.0000000000000000     
  0.50000000000000000       0.78125000000000000        0.0000000000000000     
  0.37500000000000000       0.81250000000000000        0.0000000000000000     
  0.40625000000000000       0.81250000000000000        0.0000000000000000     
  0.43750000000000000       0.81250000000000000        0.0000000000000000     
  0.46875000000000000       0.81250000000000000        0.0000000000000000     
  0.50000000000000000       0.81250000000000000        0.0000000000000000     
  0.37500000000000000       0.84375000000000000        0.0000000000000000     
  0.40625000000000000       0.84375000000000000        0.0000000000000000     
  0.43750000000000000       0.84375000000000000        0.0000000000000000     
  0.46875000000000000       0.84375000000000000        0.0000000000000000     
  0.50000000000000000       0.84375000000000000        0.0000000000000000     
  0.37500000000000000       0.87500000000000000        0.0000000000000000     
  0.40625000000000000       0.87500000000000000        0.0000000000000000     
  0.43750000000000000       0.87500000000000000        0.0000000000000000     
  0.46875000000000000       0.87500000000000000        0.0000000000000000     
  0.50000000000000000       0.87500000000000000        0.0000000000000000     
  0.50000000000000000       0.75000000000000000        0.0000000000000000     
  0.53125000000000000       0.75000000000000000        0.0000000000000000     
  0.56250000000000000       0.75000000000000000        0.0000000000000000     
  0.59375000000000000       0.75000000000000000        0.0000000000000000     
  0.62500000000000000       0.75000000000000000        0.0000000000000000     
  0.50000000000000000       0.78125000000000000        0.0000000000000000     
  0.53125000000000000       0.78125000000000000        0.0000000000000000     
  0.56250000000000000       0.78125000000000000        0.0000000000000000     
  0.59375000000000000       0.78125000000000000        0.0000000000000000     
  0.62500000000000000       0.78125000000000000        0.0000000000000000     
  0.50000000000000000       0.81250000000000000        0.0000000000000000     
  0.53125000000000000       0.81250000000000000        0.0000000000000000     
  0.56250000000000000       0.81250000000000000        0.0000000000000000     
  0.59375000000000000       0.81250000000000000        0.0000000000000000     
  0.62500000000000000       0.81250000000000000        0.0000000000000000     
  0.50000000000000000       0.84375000000000000        0.0000000000000000     
  0.53125000000000000       0.84375000000000000        0.0000000000000000     
  0.56250000000000000       0.84375000000000000        0.0000000000000000     
  0.59375000000000000       0.84375000000000000        0.0000000000000000     
  0.62500000000000000       0.84375000000000000        0.0000000000000000     
  0.50000000000000000       0.87500000000000000        0.0000000000000000     
  0.53125000000000000       0.87500000000000000        0.0000000000000000     
  0.56250000000000000       0.87500000000000000        0.0000000000000000     
  0.59375000000000000       0.87500000000000000        0.0000000000000000     
  0.62500000000000000       0.87500000000000000        0.0000000000000000     
  0.62500000000000000       0.75000000000000000        0.0000000000000000     
  0.65625000000000000       0.75000000000000000        0.0000000000000000     
  0.68750000000000000       0.75000000000000000        0.0000000000000000     
  0.71875000000000000       0.75000000000000000        0.0000000000000000     
  0.75000000000000000       0.75000000000000000        0.0000000000000000     
  0.62500000000000000       0.78125000000000000        0.0000000000000000     
  0.65625000000000000       0.78125000000000000        0.0000000000000000     
  0.68750000000000000       0.78125000000000000        0.0000000000000000     
  0.71875000000000000       0.78125000000000000        0.0000000000000000     
  0.75000000000000000       0.78125000000000000        0.0000000000000000     
  0.62500000000000000       0.81250000000000000        0.0000000000000000     
  0.65625000000000000       0.81250000000000000        0.0000000000000000     
  0.68750000000000000       0.81250000000000000        0.0000000000000000     
  0.71875000000000000       0.81250000000000000        0.0000000000000000     
  0.75000000000000000       0.81250000000000000        0.0000000000000000     
  0.62500000000000000       0.84375000000000000        0.0000000000000000     
  0.65625000000000000       0.84375000000000000        0.0000000000000000     
  0.68750000000000000       0.84375000000000000        0.0000000000000000     
  0.71875000000000000       0.84375000000000000        0.0000000000000000     
  0.75000000000000000       0.84375000000000000        0.0000000000000000     
  0.62500000000000000       0.87500000000000000        0.0000000000000000     
  0.65625000000000000       0.87500000000000000        0.0000000000000000     
  0.68750000000000000       0.87500000000000000        0.0000000000000000     
  0.71875000000000000       0.87500000000000000        0.0000000000000000     
  0.75000000000000000       0.87500000000000000        0.0000000000000000     
  0.75000000000000000       0.75000000000000000        0.0000000000000000     
  0.78125000000000000       0.75000000000000000        0.0000000000000000     
  0.81250000000000000       0.75000000000000000        0.0000000000000000     
  0.84375000000000000       0.75000000000000000        0.0000000000000000     
  0.87500000000000000       0.75000000000000000        0.0000000000000000     
  0.75000000000000000       0.78125000000000000        0.0000000000000000     
  0.78125000000000000       0.78125000000000000        0.0000000000000000     
  0.81250000000000000       0.78125000000000000        0.0000000000000000     
  0.84375000000000000       0.78125000000000000        0.0000000000000000     
  0.87500000000000000       0.78125000000000000        0.0000000000000000     
  0.75000000000000000       0.81250000000000000        0.0000000000000000     
  0.78125000000000000       0.81250000000000000        0.0000000000000000     
  0.81250000000000000       0.81250000000000000        0.0000000000000000     
  0.84375000000000000       0.81250000000000000        0.0000000000000000     
  0.87500000000000000       0.81250000000000000        0.0000000000000000     
  0.75000000000000000       0.84375000000000000        0.0000000000000000     
  0.78125000000000000       0.84375000000000000        0.0000000000000000     
  0.81250000000000000       0.84375000000000000        0.0000000000000000     
  0.84375000000000000       0.84375000000000000        0.0000000000000000     
  0.87500000000000000       0.84375000000000000        0.0000000000000000     
  0.75000000000000000       0.87500000000000000        0.0000000000000000     
  0.78125000000000000       0.87500000000000000        0.0000000000000000     
  0.81250000000000000       0.87500000000000000        0.0000000000000000     
  0.84375000000000000       0.87500000000000000        0.0000000000000000     
  0.87500000000000000       0.87500000000000000        0.0000000000000000     
  0.87500000000000000       0.75000000000000000        0.0000000000000000     
  0.90625000000000000       0.75000000000000000        0.0000000000000000     
  0.93750000000000000       0.75000000000000000        0.0000000000000000     
  0.96875000000000000       0.75000000000000000        0.0000000000000000     
   1.0000000000000000       0.75000000000000000        0.0000000000000000     
  0.87500000000000000       0.78125000000000000        0.0000000000000000     
  0.90625000000000000       0.78125000000000000        0.0000000000000000     
  0.93750000000000000       0.78125000000000000        0.0000000000000000     
  0.96875000000000000       0.78125000000000000        0.0000000000000000     
   1.0000000000000000       0.78125000000000000        0.0000000000000000     
  0.87500000000000000       0.81250000000000000        0.0000000000000000     
  0.90625000000000000       0.81250000000000000        0.0000000000000000     
  0.93750000000000000       0.81250000000000000        0.0000000000000000     
  0.96875000000000000       0.81250000000000000        0.0000000000000000     
   1.0000000000000000       0.81250000000000000        0.0000000000000000     
  0.87500000000000000       0.84375000000000000        0.0000000000000000     
  0.90625000000000000       0.84375000000000000        0.0000000000000000     
  0.93750000000000000       0.84375000000000000        0.0000000000000000     
  0.96875000000000000       0.84375000000000000        0.0000000000000000     
   1.0000000000000000       0.84375000000000000        0.0000000000000000     
  0.87500000000000000       0.87500000000000000        0.0000000000000000     
  0.90625000000000000       0.87500000000000000        0.0000000000000000     
  0.93750000000000000       0.87500000000000000        0.0000000000000000     
  0.96875000000000000       0.87500000000000000        0.0000000000000000     
   1.0000000000000000       0.87500000000000000        0.0000000000000000     
   0.0000000000000000       0.87500000000000000        0.0000000000000000     
   3.1250000000000000E-002  0.87500000000000000        0.0000000000000000     
   6.2500000000000000E-002  0.87500000000000000        0.0000000000000000     
   9.3750000000000000E-002  0.87500000000000000        0.0000000000000000     
  0.12500000000000000       0.87500000000000000        0.0000000000000000     
   0.0000000000000000       0.90625000000000000        0.0000000000000000     
   3.1250000000000000E-002  0.90625000000000000        0.0000000000000000     
   6.2500000000000000E-002  0.90625000000000000        0.0000000000000000     
   9.3750000000000000E-002  0.90625000000000000        0.0000000000000000     
  0.12500000000000000       0.90625000000000000        0.0000000000000000     
   0.0000000000000000       0.93750000000000000        0.0000000000000000     
   3.1250000000000000E-002  0.93750000000000000        0.0000000000000000     
   6.2500000000000000E-002  0.93750000000000000        0.0000000000000000     
   9.3750000000000000E-002  0.93750000000000000        0.0000000000000000     
  0.12500000000000000       0.93750000000000000        0.0000000000000000     
   0.0000000000000000       0.96875000000000000        0.0000000000000000     
   3.1250000000000000E-002  0.96875000000000000        0.0000000000000000     
   6.2500000000000000E-002  0.96875000000000000        0.0000000000000000     
   9.3750000000000000E-002  0.96875000000000000        0.0000000000000000     
  0.12500000000000000       0.96875000000000000        0.0000000000000000     
   0.0000000000000000        1.0000000000000000        0.0000000000000000     
   3.1250000000000000E-002   1.0000000000000000        0.0000000000000000     
   6.2500000000000000E-002   1.0000000000000000        0.0000000000000000     
   9.3750000000000000E-002   1.0000000000000000        0.0000000000000000     
  0.12500000000000000        1.0000000000000000        0.0000000000000000     
  0.12500000000000000       0.87500000000000000        0.0000000000000000     
  0.15625000000000000       0.87500000000000000        0.0000000000000000     
  0.18750000000000000       0.87500000000000000        0.0000000000000000     
  0.21875000000000000       0.87500000000000000        0.0000000000000000     
  0.25000000000000000       0.87500000000000000        0.0000000000000000     
  0.12500000000000000       0.90625000000000000        0.0000000000000000     
  0.15625000000000000       0.90625000000000000        0.0000000000000000     
  0.18750000000000000       0.90625000000000000        0.0000000000000000     
  0.21875000000000000       0.90625000000000000        0.0000000000000000     
  0.25000000000000000       0.90625000000000000        0.0000000000000000     
  0.12500000000000000       0.93750000000000000        0.0000000000000000     
  0.15625000000000000       0.93750000000000000        0.0000000000000000     
  0.18750000000000000       0.93750000000000000        0.0000000000000000     
  0.21875000000000000       0.93750000000000000        0.0000000000000000     
  0.25000000000000000       0.93750000000000000        0.0000000000000000     
  0.12500000000000000       0.96875000000000000        0.0000000000000000     
  0.15625000000000000       0.96875000000000000        0.0000000000000000     
  0.18750000000000000       0.96875000000000000        0.0000000000000000     
  0.21875000000000000       0.96875000000000000        0.0000000000000000     
  0.25000000000000000       0.96875000000000000        0.0000000000000000     
  0.12500000000000000        1.0000000000000000        0.0000000000000000     
  0.15625000000000000        1.0000000000000000        0.0000000000000000     
  0.18750000000000000        1.0000000000000000        0.0000000000000000     
  0.21875000000000000        1.0000000000000000        0.0000000000000000     
  0.25000000000000000        1.0000000000000000        0.0000000000000000     
  0.25000000000000000       0.87500000000000000        0.0000000000000000     
  0.28125000000000000       0.87500000000000000        0.0000000000000000     
  0.31250000000000000       0.87500000000000000        0.0000000000000000     
  0.34375000000000000       0.87500000000000000        0.0000000000000000     
  0.37500000000000000       0.87500000000000000        0.0000000000000000     
  0.25000000000000000       0.90625000000000000        0.0000000000000000     
  0.28125000000000000       0.90625000000000000        0.0000000000000000     
  0.31250000000000000       0.90625000000000000        0.0000000000000000     
  0.34375000000000000       0.90625000000000000        0.0000000000000000     
  0.37500000000000000       0.90625000000000000        0.0000000000000000     
  0.25000000000000000       0.93750000000000000        0.0000000000000000     
  0.28125000000000000       0.93750000000000000        0.0000000000000000     
  0.31250000000000000       0.93750000000000000        0.0000000000000000     
  0.34375000000000000       0.93750000000000000        0.0000000000000000     
  0.37500000000000000       0.93750000000000000        0.0000000000000000     
  0.25000000000000000       0.96875000000000000        0.0000000000000000     
  0.28125000000000000       0.96875000000000000        0.0000000000000000     
  0.31250000000000000       0.96875000000000000        0.0000000000000000     
  0.34375000000000000       0.96875000000000000        0.0000000000000000     
  0.37500000000000000       0.96875000000000000        0.0000000000000000     
  0.25000000000000000        1.0000000000000000        0.0000000000000000     
  0.28125000000000000        1.0000000000000000        0.0000000000000000     
  0.31250000000000000        1.0000000000000000        0.0000000000000000     
  0.34375000000000000        1.0000000000000000        0.0000000000000000     
  0.37500000000000000        1.0000000000000000        0.0000000000000000     
  0.37500000000000000       0.87500000000000000        0.0000000000000000     
  0.40625000000000000       0.87500000000000000        0.0000000000000000     
  0.43750000000000000       0.87500000000000000        0.0000000000000000     
  0.46875000000000000       0.87500000000000000        0.0000000000000000     
  0.50000000000000000       0.87500000000000000        0.0000000000000000     
  0.37500000000000000       0.90625000000000000        0.0000000000000000     
  0.40625000000000000       0.90625000000000000        0.0000000000000000     
  0.43750000000000000       0.90625000000000000        0.0000000000000000     
  0.46875000000000000       0.90625000000000000        0.0000000000000000     
  0.50000000000000000       0.90625000000000000        0.0000000000000000     
  0.37500000000000000       0.93750000000000000        0.0000000000000000     
  0.40625000000000000       0.93750000000000000        0.0000000000000000     
  0.43750000000000000       0.93750000000000000        0.0000000000000000     
  0.46875000000000000       0.93750000000000000        0.0000000000000000     
  0.50000000000000000       0.93750000000000000        0.0000000000000000     
  0.37500000000000000       0.96875000000000000        0.0000000000000000     
  0.40625000000000000       0.96875000000000000        0.0000000000000000     
  0.43750000000000000       0.96875000000000000        0.0000000000000000     
  0.46875000000000000       0.96875000000000000        0.0000000000000000     
  0.50000000000000000       0.96875000000000000        0.0000000000000000     
  0.37500000000000000        1.0000000000000000        0.0000000000000000     
  0.40625000000000000        1.0000000000000000        0.0000000000000000     
  0.43750000000000000        1.0000000000000000        0.0000000000000000     
  0.46875000000000000        1.0000000000000000        0.0000000000000000     
  0.50000000000000000        1.0000000000000000        0.0000000000000000     
  0.50000000000000000       0.87500000000000000        0.0000000000000000     
  0.53125000000000000       0.87500000000000000        0.0000000000000000     
  0.56250000000000000       0.87500000000000000        0.0000000000000000     
  0.59375000000000000       0.87500000000000000        0.0000000000000000     
  0.62500000000000000       0.87500000000000000        0.0000000000000000     
  0.50000000000000000       0.90625000000000000        0.0000000000000000     
  0.53125000000000000       0.90625000000000000        0.0000000000000000     
  0.56250000000000000       0.90625000000000000        0.0000000000000000     
  0.59375000000000000       0.90625000000000000        0.0000000000000000     
  0.62500000000000000       0.90625000000000000        0.0000000000000000     
  0.50000000000000000       0.93750000000000000        0.0000000000000000     
  0.53125000000000000       0.93750000000000000        0.0000000000000000     
  0.56250000000000000       0.93750000000000000        0.0000000000000000     
  0.59375000000000000       0.93750000000000000        0.0000000000000000     
  0.62500000000000000       0.93750000000000000        0.0000000000000000     
  0.50000000000000000       0.96875000000000000        0.0000000000000000     
  0.53125000000000000       0.96875000000000000        0.0000000000000000     
  0.56250000000000000       0.96875000000000000        0.0000000000000000     
  0.59375000000000000       0.96875000000000000        0.0000000000000000     
  0.62500000000000000       0.96875000000000000        0.0000000000000000     
  0.50000000000000000        1.0000000000000000        0.0000000000000000     
  0.53125000000000000        1.0000000000000000        0.0000000000000000     
  0.56250000000000000        1.0000000000000000        0.0000000000000000     
  0.59375000000000000        1.0000000000000000        0.0000000000000000     
  0.62500000000000000        1.0000000000000000        0.0000000000000000     
  0.62500000000000000       0.87500000000000000        0.0000000000000000     
  0.65625000000000000       0.87500000000000000        0.0000000000000000     
  0.68750000000000000       0.87500000000000000        0.0000000000000000     
  0.71875000000000000       0.87500000000000000        0.0000000000000000     
  0.75000000000000000       0.87500000000000000        0.0000000000000000     
  0.62500000000000000       0.90625000000000000        0.0000000000000000     
  0.65625000000000000       0.90625000000000000        0.0000000000000000     
  0.68750000000000000       0.90625000000000000        0.0000000000000000     
  0.71875000000000000       0.90625000000000000        0.0000000000000000     
  0.75000000000000000       0.90625000000000000        0.0000000000000000     
  0.62500000000000000       0.93750000000000000        0.0000000000000000     
  0.65625000000000000       0.93750000000000000        0.0000000000000000     
  0.68750000000000000       0.93750000000000000        0.0000000000000000     
  0.71875000000000000       0.93750000000000000        0.0000000000000000     
  0.75000000000000000       0.93750000000000000        0.0000000000000000     
  0.62500000000000000       0.96875000000000000        0.0000000000000000     
  0.65625000000000000       0.96875000000000000        0.0000000000000000     
  0.68750000000000000       0.96875000000000000        0.0000000000000000     
  0.71875000000000000       0.96875000000000000        0.0000000000000000     
  0.75000000000000000       0.96875000000000000        0.0000000000000000     
  0.62500000000000000        1.0000000000000000        0.0000000000000000     
  0.65625000000000000        1.0000000000000000        0.0000000000000000     
  0.68750000000000000        1.0000000000000000        0.0000000000000000     
  0.71875000000000000        1.0000000000000000        0.0000000000000000     
  0.75000000000000000        1.0000000000000000        0.0000000000000000     
  0.75000000000000000       0.87500000000000000        0.0000000000000000     
  0.78125000000000000       0.87500000000000000        0.0000000000000000     
  0.81250000000000000       0.87500000000000000        0.0000000000000000     
  0.84375000000000000       0.87500000000000000        0.0000000000000000     
  0.87500000000000000       0.87500000000000000        0.0000000000000000     
  0.75000000000000000       0.90625000000000000        0.0000000000000000     
  0.78125000000000000       0.90625000000000000        0.0000000000000000     
  0.81250000000000000       0.90625000000000000        0.0000000000000000     
  0.84375000000000000       0.90625000000000000        0.0000000000000000     
  0.87500000000000000       0.90625000000000000        0.0000000000000000     
  0.75000000000000000       0.93750000000000000        0.0000000000000000     
  0.78125000000000000       0.93750000000000000        0.0000000000000000     
  0.81250000000000000       0.93750000000000000        0.0000000000000000     
  0.84375000000000000       0.93750000000000000        0.0000000000000000     
  0.87500000000000000       0.93750000000000000        0.0000000000000000     
  0.75000000000000000       0.96875000000000000        0.0000000000000000     
  0.78125000000000000       0.96875000000000000        0.0000000000000000     
  0.81250000000000000       0.96875000000000000        0.0000000000000000     
  0.84375000000000000       0.96875000000000000        0.0000000000000000     
  0.87500000000000000       0.96875000000000000        0.0000000000000000     
  0.75000000000000000        1.0000000000000000        0.0000000000000000     
  0.78125000000000000        1.0000000000000000        0.0000000000000000     
  0.81250000000000000        1.0000000000000000        0.0000000000000000     
  0.84375000000000000        1.0000000000000000        0.0000000000000000     
  0.87500000000000000        1.0000000000000000        0.0000000000000000     
  0.87500000000000000       0.87500000000000000        0.0000000000000000     
  0.90625000000000000       0.87500000000000000        0.0000000000000000     
  0.93750000000000000       0.87500000000000000        0.0000000000000000     
  0.96875000000000000       0.87500000000000000        0.0000000000000000     
   1.0000000000000000       0.87500000000000000        0.0000000000000000     
  0.87500000000000000       0.90625000000000000        0.0000000000000000     
  0.90625000000000000       0.90625000000000000        0.0000000000000000     
  0.93750000000000000       0.90625000000000000        0.0000000000000000     
  0.96875000000000000       0.90625000000000000        0.0000000000000000     
   1.0000000000000000       0.90625000000000000        0.0000000000000000     
  0.87500000000000000       0.93750000000000000        0.0000000000000000     
  0.90625000000000000       0.93750000000000000        0.0000000000000000     
  0.93750000000000000       0.93750000000000000        0.0000000000000000     
  0.96875000000000000       0.93750000000000000        0.0000000000000000     
   1.0000000000000000       0.93750000000000000        0.0000000000000000     
  0.87500000000000000       0.96875000000000000        0.0000000000000000     
  0.90625000000000000       0.96875000000000000        0.0000000000000000     
  0.93750000000000000       0.96875000000000000        0.0000000000000000     
  0.96875000000000000       0.96875000000000000        0.0000000000000000     
   1.0000000000000000       0.96875000000000000        0.0000000000000000     
  0.87500000000000000        1.0000000000000000        0.0000000000000000     
  0.90625000000000000        1.0000000000000000        0.0000000000000000     
  0.93750000000000000        1.0000000000000000        0.0000000000000000     
  0.96875000000000000        1.0000000000000000        0.0000000000000000     
   1.0000000000000000        1.0000000000000000        0.0000000000000000     
 </DataArray>
 </Points>
 <Cells>
 <DataArray  type="Int32"  Name="connectivity"  format="ascii">
           0           1           6           5
           1           2           7           6
           2           3           8           7
           3           4           9           8
           5           6          11          10
           6           7          12          11
           7           8          13          12
           8           9          14          13
          10          11          16          15
          11          12          17          16
          12          13          18          17
          13          14          19          18
          15          16          21          20
          16          17          22          21
          17          18          23          22
          18          19          24          23
          25          26          31          30
          26          27          32          31
          27          28          33          32
          28          29          34          33
          30          31          36          35
          31          32          37          36
          32          33          38          37
          33          34          39          38
          35          36          41          40
          36          37          42          41
          37          38          43          42
          38          39          44          43
          40          41          46          45
          41          42          47          46
          42          43          48          47
          43          44          49          48
          50          51          56          55
          51          52          57          56
          52          53          58          57
          53          54          59          58
          55          56          61          60
          56          57          62          61
          57          58          63          62
          58          59          64          63
          60          61          66          65
          61          62          67          66
          62          63          68          67
          63          64          69          68
          65          66          71          70
          66          67          72          71
          67          68          73          72
          68          69          74          73
          75          76          81          80
          76          77          82          81
          77          78          83          82
          78          79          84          83
          80          81          86          85
          81          82          87          86
          82          83          88          87
          83          84          89          88
          85          86          91          90
          86          87          92          91
          87          88          93          92
          88          89          94          93
          90          91          96          95
          91          92          97          96
          92          93          98          97
          93          94          99          98
         100         101         106         105
         101         102         107         106
         102         103         108         107
         103         104         109         108
         105         106         111         110
         106         107         112         111
         107         108         113         112
         108         109         114         113
         110         111         116         115
         111         112         117         116
         112         113         118         117
         113         114         119         118
         115         116         121         120
         116         117         122         121
         117         118         123         122
         118         119         124         123
         125         126         131         130
         126         127         132         131
         127         128         133         132
         128         129         134         133
         130         131         136         135
         131         132         137         136
         132         133         138         137
         133         134         139         138
         135         136         141         140
         136         137         142         141
         137         138         143         142
         138         139         144         143
         140         141         146         145
         141         142         147         146
         142         143         148         147
         143         144         149         148
         150         151         156         155
         151         152         157         156
         152         153         158         157
         153         154         159         158
         155         156         161         160
         156         157         162         161
         157         158         163         162
         158         159         164         163
         160         161         166         165
         161         162         167         166
         162         163         168         167
         163         164         169         168
         165         166         171         170
         166         167         172         171
         167         168         173         172
         168         169         174         173
         175         176         181         180
         176         177         182         181
         177         178         183         182
         178         179         184         183
         180         181         186         185
         181         182         187         186
         182         183         188         187
         183         184         189         188
         185         186         191         190
         186         187         192         191
         187         188         193         192
         188         189         194         193
         190         191         196         195
         191         192         197         196
         192         193         198         197
         193         194         199         198
         200         201         206         205
         201         202         207         206
         202         203         208         207
         203         204         209         208
         205         206         211         210
         206         207         212         211
         207         208         213         212
         208         209         214         213
         210         211         216         215
         211         212         217         216
         212         213         218         217
         213         214         219         218
         215         216         221         220
         216         217         222         221
         217         218         223         222
         218         219         224         223
         225         226         231         230
         226         227         232         231
         227         228         233         232
         228         229         234         233
         230         231         236         235
         231         232         237         236
         232         233         238         237
         233         234         239         238
         235         236         241         240
         236         237         242         241
         237         238         243         242
         238         239         244         243
         240         241         246         245
         241         242         247         246
         242         243         248         247
         243         244         249         248
         250         251         256         255
         251         252         257         256
         252         253         258         257
         253         254         259         258
         255         256         261         260
         256         257         262         261
         257         258         263         262
         258         259         264         263
         260         261         266         265
         261         262         267         266
         262         263         268         267
         263         264         269         268
         265         266         271         270
         266         267         272         271
         267         268         273         272
         268         269         274         273
         275         276         281         280
         276         277         282         281
         277         278         283         282
         278         279         284         283
         280         281         286         285
         281         282         287         286
         282         283         288         287
         283         284         289         288
         285         286         291         290
         286         287         292         291
         287         288         293         292
         288         289         294         293
         290         291         296         295
         291         292         297         296
         292         293         298         297
         293         294         299         298
         300         301         306         305
         301         302         307         306
         302         303         308         307
         303         304         309         308
         305         306         311         310
         306         307         312         311
         307         308         313         312
         308         309         314         313
         310         311         316         315
         311         312         317         316
         312         313         318         317
         313         314         319         318
         315         316         321         320
         316         317         322         321
         317         318         323         322
         318         319         324         323
         325         326         331         330
         326         327         332         331
         327         328         333         332
         328         329         334         333
         330         331         336         335
         331         332         337         336
         332         333         338         337
         333         334         339         338
         335         336         341         340
         336         337         342         341
         337         338         343         342
         338         339         344         343
         340         341         346         345
         341         342         347         346
         342         343         348         347
         343         344         349         348
         350         351         356         355
         351         352         357         356
         352         353         358         357
         353         354         359         358
         355         356         361         360
         356         357         362         361
         357         358         363         362
         358         359         364         363
         360         361         366         365
         361         362         367         366
         362         363         368         367
         363         364         369         368
         365         366         371         370
         366         367         372         371
         367         368         373         372
         368         369         374         373
         375         376         381         380
         376         377         382         381
         377         378         383         382
         378         379         384         383
         380         381         386         385
         381         382         387         386
         382         383         388         387
         383         384         389         388
         385         386         391         390
         386         387         392         391
         387         388         393         392
         388         389         394         393
         390         391         396         395
         391         392         397         396
         392         393         398         397
         393         394         399         398
         400         401         406         405
         401         402         407         406
         402         403         408         407
         403         404         409         408
         405         406         411         410
         406         407         412         411
         407         408         413         412
         408         409         414         413
         410         411         416         415
         411         412         417         416
         412         413         418         417
         413         414         419         418
         415         416         421         420
         416         417         422         421
         417         418         423         422
         418         419         424         423
         425         426         431         430
         426         427         432         431
         427         428         433         432
         428         429         434         433
         430         431         436         435
         431         432         437         436
         432         433         438         437
         433         434         439         438
         435         436         441         440
         436         437         442         441
         437         438         443         442
         438         439         444         443
         440         441         446         445
         441         442         447         446
         442         443         448         447
         443         444         449         448
         450         451         456         455
         451         452         457         456
         452         453         458         457
         453         454         459         458
         455         456         461         460
         456         457         462         461
         457         458         463         462
         458         459         464         463
         460         461         466         465
         461         462         467         466
         462         463         468         467
         463         464         469         468
         465         466         471         470
         466         467         472         471
         467         468         473         472
         468         469         474         473
         475         476         481         480
         476         477         482         481
         477         478         483         482
         478         479         484         483
         480         481         486         485
         481         482         487         486
         482         483         488         487
         483         484         489         488
         485         486         491         490
         486         487         492         491
         487         488         493         492
         488         489         494         493
         490         491         496         495
         491         492         497         496
         492         493         498         497
         493         494         499         498
         500         501         506         505
         501         502         507         506
         502         503         508         507
         503         504         509         508
         505         506         511         510
         506         507         512         511
         507         508         513         512
         508         509         514         513
         510         511         516         515
         511         512         517         516
         512         513         518         517
         513         514         519         518
         515         516         521         520
         516         517         522         521
         517         518         523         522
         518         519         524         523
         525         526         531         530
         526         527         532         531
         527         528         533         532
         528         529         534         533
         530         531         536         535
         531         532         537         536
         532         533         538         537
         533         534         539         538
         535         536         541         540
         536         537         542         541
         537         538         543         542
         538         539         544         543
         540         541         546         545
         541         542         547         546
         542         543         548         547
         543         544         549         548
         550         551         556         555
         551         552         557         556
         552         553         558         557
         553         554         559         558
         555         556         561         560
         556         557         562         561
         557         558         563         562
         558         559         564         563
         560         561         566         565
         561         562         567         566
         562         563         568         567
         563         564         569         568
         565         566         571         570
         566         567         572         571
         567         568         573         572
         568         569         574         573
         575         576         581         580
         576         577         582         581
         577         578         583         582
         578         579         584         583
         580         581         586         585
         581         582         587         586
         582         583         588         587
         583         584         589         588
         585         586         591         590
         586         587         592         591
         587         588         593         592
         588         589         594         593
         590         591         596         595
         591         592         597         596
         592         593         598         597
         593         594         599         598
         600         601         606         605
         601         602         607         606
         602         603         608         607
         603         604         609         608
         605         606         611         610
         606         607         612         611
         607         608         613         612
         608         609         614         613
         610         611         616         615
         611         612         617         616
         612         613         618         617
         613         614         619         618
         615         616         621         620
         616         617         622         621
         617         618         623         622
         618         619         624         623
         625         626         631         630
         626         627         632         631
         627         628         633         632
         628         629         634         633
         630         631         636         635
         631         632         637         636
         632         633         638         637
         633         634         639         638
         635         636         641         640
         636         637         642         641
         637         638         643         642
         638         639         644         643
         640         641         646         645
         641         642         647         646
         642         643         648         647
         643         644         649         648
         650         651         656         655
         651         652         657         656
         652         653         658         657
         653         654         659         658
         655         656         661         660
         656         657         662         661
         657         658         663         662
         658         659         664         663
         660         661         666         665
         661         662         667         666
         662         663         668         667
         663         664         669         668
         665         666         671         670
         666         667         672         671
         667         668         673         672
         668         669         674         673
         675         676         681         680
         676         677         682         681
         677         678         683         682
         678         679         684         683
         680         681         686         685
         681         682         687         686
         682         683         688         687
         683         684         689         688
         685         686         691         690
         686         687         692         691
         687         688         693         692
         688         689         694         693
         690         691         696         695
         691         692         697         696
         692         693         698         697
         693         694         699         698
         700         701         706         705
         701         702         707         706
         702         703         708         707
         703         704         709         708
         705         706         711         710
         706         707         712         711
         707         708         713         712
         708         709         714         713
         710         711         716         715
         711         712         717         716
         712         713         718         717
         713         714         719         718
         715         716         721         720
         716         717         722         721
         717         718         723         722
         718         719         724         723
         725         726         731         730
         726         727         732         731
         727         728         733         732
         728         729         734         733
         730         731         736         735
         731         732         737         736
         732         733         738         737
         733         734         739         738
         735         736         741         740
         736         737         742         741
         737         738         743         742
         738         739         744         743
         740         741         746         745
         741         742         747         746
         742         743         748         747
         743         744         749         748
         750         751         756         755
         751         752         757         756
         752         753         758         757
         753         754         759         758
         755         756         761         760
         756         757         762         761
         757         758         763         762
         758         759         764         763
         760         761         766         765
         761         762         767         766
         762         763         768         767
         763         764         769         768
         765         766         771         770
         766         767         772         771
         767         768         773         772
         768         769         774         773
         775         776         781         780
         776         777         782         781
         777         778         783         782
         778         779         784         783
         780         781         786         785
         781         782         787         786
         782         783         788         787
         783         784         789         788
         785         786         791         790
         786         787         792         791
         787         788         793         792
         788         789         794         793
         790         791         796         795
         791         792         797         796
         792         793         798         797
         793         794         799         798
         800         801         806         805
         801         802         807         806
         802         803         808         807
         803         804         809         808
         805         806         811         810
         806         807         812         811
         807         808         813         812
         808         809         814         813
         810         811         816         815
         811         812         817         816
         812         813         818         817
         813         814         819         818
         815         816         821         820
         816         817         822         821
         817         818         823         822
         818         819         824         823
         825         826         831         830
         826         827         832         831
         827         828         833         832
         828         829         834         833
         830         831         836         835
         831         832         837         836
         832         833         838         837
         833         834         839         838
         835         836         841         840
         836         837         842         841
         837         838         843         842
         838         839         844         843
         840         841         846         845
         841         842         847         846
         842         843         848         847
         843         844         849         848
         850         851         856         855
         851         852         857         856
         852         853         858         857
         853         854         859         858
         855         856         861         860
         856         857         862         861
         857         858         863         862
         858         859         864         863
         860         861         866         865
         861         862         867         866
         862         863         868         867
         863         864         869         868
         865         866         871         870
         866         867         872         871
         867         868         873         872
         868         869         874         873
         875         876         881         880
         876         877         882         881
         877         878         883         882
         878         879         884         883
         880         881         886         885
         881         882         887         886
         882         883         888         887
         883         884         889         888
         885         886         891         890
         886         887         892         891
         887         888         893         892
         888         889         894         893
         890         891         896         895
         891         892         897         896
         892         893         898         897
         893         894         899         898
         900         901         906         905
         901         902         907         906
         902         903         908         907
         903         904         909         908
         905         906         911         910
         906         907         912         911
         907         908         913         912
         908         909         914         913
         910         911         916         915
         911         912         917         916
         912         913         918         917
         913         914         919         918
         915         916         921         920
         916         917         922         921
         917         918         923         922
         918         919         924         923
         925         926         931         930
         926         927         932         931
         927         928         933         932
         928         929         934         933
         930         931         936         935
         931         932         937         936
         932         933         938         937
         933         934         939         938
         935         936         941         940
         936         937         942         941
         937         938         943         942
         938         939         944         943
         940         941         946         945
         941         942         947         946
         942         943         948         947
         943         944         949         948
         950         951         956         955
         951         952         957         956
         952         953         958         957
         953         954         959         958
         955         956         961         960
         956         957         962         961
         957         958         963         962
         958         959         964         963
         960         961         966         965
         961         962         967         966
         962         963         968         967
         963         964         969         968
         965         966         971         970
         966         967         972         971
         967         968         973         972
         968         969         974         973
         975         976         981         980
         976         977         982         981
         977         978         983         982
         978         979         984         983
         980         981         986         985
         981         982         987         986
         982         983         988         987
         983         984         989         988
         985         986         991         990
         986         987         992         991
         987         988         993         992
         988         989         994         993
         990         991         996         995
         991         992         997         996
         992         993         998         997
         993         994         999         998
        1000        1001        1006        1005
        1001        1002        1007        1006
        1002        1003        1008        1007
        1003        1004        1009        1008
        1005        1006        1011        1010
        1006        1007        1012        1011
        1007        1008        1013        1012
        1008        1009        1014        1013
        1010        1011        1016        1015
        1011        1012        1017        1016
        1012        1013        1018        1017
        1013        1014        1019        1018
        1015        1016        1021        1020
        1016        1017        1022        1021
        1017        1018        1023        1022
        1018        1019        1024        1023
        1025        1026        1031        1030
        1026        1027        1032        1031
        1027        1028        1033        1032
        1028        1029        1034        1033
        1030        1031        1036        1035
        1031        1032        1037        1036
        1032        1033        1038        1037
        1033        1034        1039        1038
        1035        1036        1041        1040
        1036        1037        1042        1041
        1037        1038        1043        1042
        1038        1039        1044        1043
        1040        1041        1046        1045
        1041        1042        1047        1046
        1042        1043        1048        1047
        1043        1044        1049        1048
        1050        1051        1056        1055
        1051        1052        1057        1056
        1052        1053        1058        1057
        1053        1054        1059        1058
        1055        1056        1061        1060
        1056        1057        1062        1061
        1057        1058        1063        1062
        1058        1059        1064        1063
        1060        1061        1066        1065
        1061        1062        1067        1066
        1062        1063        1068        1067
        1063        1064        1069        1068
        1065        1066        1071        1070
        1066        1067        1072        1071
        1067        1068        1073        1072
        1068        1069        1074        1073
        1075        1076        1081        1080
        1076        1077        1082        1081
        1077        1078        1083        1082
        1078        1079        1084        1083
        1080        1081        1086        1085
        1081        1082        1087        1086
        1082        1083        1088        1087
        1083        1084        1089        1088
        1085        1086        1091        1090
        1086        1087        1092        1091
        1087        1088        1093        1092
        1088        1089        1094        1093
        1090        1091        1096        1095
        1091        1092        1097        1096
        1092        1093        1098        1097
        1093        1094        1099        1098
        1100        1101        1106        1105
        1101        1102        1107        1106
        1102        1103        1108        1107
        1103        1104        1109        1108
        1105        1106        1111        1110
        1106        1107        1112        1111
        1107        1108        1113        1112
        1108        1109        1114        1113
        1110        1111        1116        1115
        1111        1112        1117        1116
        1112        1113        1118        1117
        1113        1114        1119        1118
        1115        1116        1121        1120
        1116        1117        1122        1121
        1117        1118        1123        1122
        1118        1119        1124        1123
        1125        1126        1131        1130
        1126        1127        1132        1131
        1127        1128        1133        1132
        1128        1129        1134        1133
        1130        1131        1136        1135
        1131        1132        1137        1136
        1132        1133        1138        1137
        1133        1134        1139        1138
        1135        1136        1141        1140
        1136        1137        1142        1141
        1137        1138        1143        1142
        1138        1139        1144        1143
        1140        1141        1146        1145
        1141        1142        1147        1146
        1142        1143        1148        1147
        1143        1144        1149        1148
        1150        1151        1156        1155
        1151        1152        1157        1156
        1152        1153        1158        1157
        1153        1154        1159        1158
        1155        1156        1161        1160
        1156        1157        1162        1161
        1157        1158        1163        1162
        1158        1159        1164        1163
        1160        1161        1166        1165
        1161        1162        1167        1166
        1162        1163        1168        1167
        1163        1164        1169        1168
        1165        1166        1171        1170
        1166        1167        1172        1171
        1167        1168        1173        1172
        1168        1169        1174        1173
        1175        1176        1181        1180
        1176        1177        1182        1181
        1177        1178        1183        1182
        1178        1179        1184        1183
        1180        1181        1186        1185
        1181        1182        1187        1186
        1182        1183        1188        1187
        1183        1184        1189        1188
        1185        1186        1191        1190
        1186        1187        1192        1191
        1187        1188        1193        1192
        1188        1189        1194        1193
        1190        1191        1196        1195
        1191        1192        1197        1196
        1192        1193        1198        1197
        1193        1194        1199        1198
        1200        1201        1206        1205
        1201        1202        1207        1206
        1202        1203        1208        1207
        1203        1204        1209        1208
        1205        1206        1211        1210
        1206        1207        1212        1211
        1207        1208        1213        1212
        1208        1209        1214        1213
        1210        1211        1216        1215
        1211        1212        1217        1216
        1212        1213        1218        1217
        1213        1214        1219        1218
        1215        1216        1221        1220
        1216        1217        1222        1221
        1217        1218        1223        1222
        1218        1219        1224        1223
        1225        1226        1231        1230
        1226        1227        1232        1231
        1227        1228        1233        1232
        1228        1229        1234        1233
        1230        1231        1236        1235
        1231        1232        1237        1236
        1232        1233        1238        1237
        1233        1234        1239        1238
        1235        1236        1241        1240
        1236        1237        1242        1241
        1237        1238        1243        1242
        1238        1239        1244        1243
        1240        1241        1246        1245
        1241        1242        1247        1246
        1242        1243        1248        1247
        1243        1244        1249        1248
        1250        1251        1256        1255
        1251        1252        1257        1256
        1252        1253        1258        1257
        1253        1254        1259        1258
        1255        1256        1261        1260
        1256        1257        1262        1261
        1257        1258        1263        1262
        1258        1259        1264        1263
        1260        1261        1266        1265
        1261        1262        1267        1266
        1262        1263        1268        1267
        1263        1264        1269        1268
        1265        1266        1271        1270
        1266        1267        1272        1271
        1267        1268        1273        1272
        1268        1269        1274        1273
        1275        1276        1281        1280
        1276        1277        1282        1281
        1277        1278        1283        1282
        1278        1279        1284        1283
        1280        1281        1286        1285
        1281        1282        1287        1286
        1282        1283        1288        1287
        1283        1284        1289        1288
        1285        1286        1291        1290
        1286        1287        1292        1291
        1287        1288        1293        1292
        1288        1289        1294        1293
        1290        1291        1296        1295
        1291        1292        1297        1296
        1292        1293        1298        1297
        1293        1294        1299        1298
        1300        1301        1306        1305
        1301        1302        1307        1306
        1302        1303        1308        1307
        1303        1304        1309        1308
        1305        1306        1311        1310
        1306        1307        1312        1311
        1307        1308        1313        1312
        1308        1309        1314        1313
        1310        1311        1316        1315
        1311        1312        1317        1316
        1312        1313        1318        1317
        1313        1314        1319        1318
        1315        1316        1321        1320
        1316        1317        1322        1321
        1317        1318        1323        1322
        1318        1319        1324        1323
        1325        1326        1331        1330
        1326        1327        1332        1331
        1327        1328        1333        1332
        1328        1329        1334        1333
        1330        1331        1336        1335
        1331        1332        1337        1336
        1332        1333        1338        1337
        1333        1334        1339        1338
        1335        1336        1341        1340
        1336        1337        1342        1341
        1337        1338        1343        1342
        1338        1339        1344        1343
        1340        1341        1346        1345
        1341        1342        1347        1346
        1342        1343        1348        1347
        1343        1344        1349        1348
        1350        1351        1356        1355
        1351        1352        1357        1356
        1352        1353        1358        1357
        1353        1354        1359        1358
        1355        1356        1361        1360
        1356        1357        1362        1361
        1357        1358        1363        1362
        1358        1359        1364        1363
        1360        1361        1366        1365
        1361        1362        1367        1366
        1362        1363        1368        1367
        1363        1364        1369        1368
        1365        1366        1371        1370
        1366        1367        1372        1371
        1367        1368        1373        1372
        1368        1369        1374        1373
        1375        1376        1381        1380
        1376        1377        1382        1381
        1377        1378        1383        1382
        1378        1379        1384        1383
        1380        1381        1386        1385
        1381        1382        1387        1386
        1382        1383        1388        1387
        1383        1384        1389        1388
        1385        1386        1391        1390
        1386        1387        1392        1391
        1387        1388        1393        1392
        1388        1389        1394        1393
        1390        1391        1396        1395
        1391        1392        1397        1396
        1392        1393        1398        1397
        1393        1394        1399        1398
        1400        1401        1406        1405
        1401        1402        1407        1406
        1402        1403        1408        1407
        1403        1404        1409        1408
        1405        1406        1411        1410
        1406        1407        1412        1411
        1407        1408        1413        1412
        1408        1409        1414        1413
        1410        1411        1416        1415
        1411        1412        1417        1416
        1412        1413        1418        1417
        1413        1414        1419        1418
        1415        1416        1421        1420
        1416        1417        1422        1421
        1417        1418        1423        1422
        1418        1419        1424        1423
        1425        1426        1431        1430
        1426        1427        1432        1431
        1427        1428        1433        1432
        1428        1429        1434        1433
        1430        1431        1436        1435
        1431        1432        1437        1436
        1432        1433        1438        1437
        1433        1434        1439        1438
        1435        1436        1441        1440
        1436        1437        1442        1441
        1437        1438        1443        1442
        1438        1439        1444        1443
        1440        1441        1446        1445
        1441        1442        1447        1446
        1442        1443        1448        1447
        1443        1444        1449        1448
        1450        1451        1456        1455
        1451        1452        1457        1456
        1452        1453        1458        1457
        1453        1454        1459        1458
        1455        1456        1461        1460
        1456        1457        1462        1461
        1457        1458        1463        1462
        1458        1459        1464        1463
        1460        1461        1466        1465
        1461        1462        1467        1466
        1462        1463        1468        1467
        1463        1464        1469        1468
        1465        1466        1471        1470
        1466        1467        1472        1471
        1467        1468        1473        1472
        1468        1469        1474        1473
        1475        1476        1481        1480
        1476        1477        1482        1481
        1477        1478        1483        1482
        1478        1479        1484        1483
        1480        1481        1486        1485
        1481        1482        1487        1486
        1482        1483        1488        1487
        1483        1484        1489        1488
        1485        1486        1491        1490
        1486        1487        1492        1491
        1487        1488        1493        1492
        1488        1489        1494        1493
        1490        1491        1496        1495
        1491        1492        1497        1496
        1492        1493        1498        1497
        1493        1494        1499        1498
        1500        1501        1506        1505
        1501        1502        1507        1506
        1502        1503        1508        1507
        1503        1504        1509        1508
        1505        1506        1511        1510
        1506        1507        1512        1511
        1507        1508        1513        1512
        1508        1509        1514        1513
        1510        1511        1516        1515
        1511        1512        1517        1516
        1512        1513        1518        1517
        1513        1514        1519        1518
        1515        1516        1521        1520
        1516        1517        1522        1521
        1517        1518        1523        1522
        1518        1519        1524        1523
        1525        1526        1531        1530
        1526        1527        1532        1531
        1527        1528        1533        1532
        1528        1529        1534        1533
        1530        1531        1536        1535
        1531        1532        1537        1536
        1532        1533        1538        1537
        1533        1534        1539        1538
        1535        1536        1541        1540
        1536        1537        1542        1541
        1537        1538        1543        1542
        1538        1539        1544        1543
        1540        1541        1546        1545
        1541        1542        1547        1546
        1542        1543        1548        1547
        1543        1544        1549        1548
        1550        1551        1556        1555
        1551        1552        1557        1556
        1552        1553        1558        1557
        1553        1554        1559        1558
        1555        1556        1561        1560
        1556        1557        1562        1561
        1557        1558        1563        1562
        1558        1559        1564        1563
        1560        1561        1566        1565
        1561        1562        1567        1566
        1562        1563        1568        1567
        1563        1564        1569        1568
        1565        1566        1571        1570
        1566        1567        1572        1571
        1567        1568        1573        1572
        1568        1569        1574        1573
        1575        1576        1581        1580
        1576        1577        1582        1581
        1577        1578        1583        1582
        1578        1579        1584        1583
        1580        1581        1586        1585
        1581        1582        1587        1586
        1582        1583        1588        1587
        1583        1584        1589        1588
        1585        1586        1591        1590
        1586        1587        1592        1591
        1587        1588        1593        1592
        1588        1589        1594        1593
        1590        1591        1596        1595
        1591        1592        1597        1596
        1592        1593        1598        1597
        1593        1594        1599        1598
 </DataArray>
 <DataArray  type="Int32"  Name="offsets"  format="ascii"> 
           4
           8
          12
          16
          20
          24
          28
          32
          36
          40
          44
          48
          52
          56
          60
          64
          68
          72
          76
          80
          84
          88
          92
          96
         100
         104
         108
         112
         116
         120
         124
         128
         132
         136
         140
         144
         148
         152
         156
         160
         164
         168
         172
         176
         180
         184
         188
         192
         196
         200
         204
         208
         212
         216
         220
         224
         228
         232
         236
         240
         244
         248
         252
         256
         260
         264
         268
         272
         276
         280
         284
         288
         292
         296
         300
         304
         308
         312
         316
         320
         324
         328
         332
         336
         340
         344
         348
         352
         356
         360
         364
         368
         372
         376
         380
         384
         388
         392
         396
         400
         404
         408
         412
         416
         420
         424
         428
         432
         436
         440
         444
         448
         452
         456
         460
         464
         468
         472
         476
         480
         484
         488
         492
         496
         500
         504
         508
         512
         516
         520
         524
         528
         532
         536
         540
         544
         548
         552
         556
         560
         564
         568
         572
         576
         580
         584
         588
         592
         596
         600
         604
         608
         612
         616
         620
         624
         628
         632
         636
         640
         644
         648
         652
         656
         660
         664
         668
         672
         676
         680
         684
         688
         692
         696
         700
         704
         708
         712
         716
         720
         724
         728
         732
         736
         740
         744
         748
         752
         756
         760
         764
         768
         772
         776
         780
         784
         788
         792
         796
         800
         804
         808
         812
         816
         820
         824
         828
         832
         836
         840
         844
         848
         852
         856
         860
         864
         868
         872
         876
         880
         884
         888
         892
         896
         900
         904
         908
         912
         916
         920
         924
         928
         932
         936
         940
         944
         948
         952
         956
         960
         964
         968
         972
         976
         980
         984
         988
         992
         996
        1000
        1004
        1008
        1012
        1016
        1020
        1024
        1028
        1032
        1036
        1040
        1044
        1048
        1052
        1056
        1060
        1064
        1068
        1072
        1076
        1080
        1084
        1088
        1092
        1096
        1100
        1104
        1108
        1112
        1116
        1120
        1124
        1128
        1132
        1136
        1140
        1144
        1148
        1152
        1156
        1160
        1164
        1168
        1172
        1176
        1180
        1184
        1188
        1192
        1196
        1200
        1204
        1208
        1212
        1216
        1220
        1224
        1228
        1232
        1236
        1240
        1244
        1248
        1252
        1256
        1260
        1264
        1268
        1272
        1276
        1280
        1284
        1288
        1292
        1296
        1300
        1304
        1308
        1312
        1316
        1320
        1324
        1328
        1332
        1336
        1340
        1344
        1348
        1352
        1356
        1360
        1364
        1368
        1372
        1376
        1380
        1384
        1388
        1392
        1396
        1400
        1404
        1408
        1412
        1416
        1420
        1424
        1428
        1432
        1436
        1440
        1444
        1448
        1452
        1456
        1460
        1464
        1468
        1472
        1476
        1480
        1484
        1488
        1492
        1496
        1500
        1504
        1508
        1512
        1516
        1520
        1524
        1528
        1532
        1536
        1540
        1544
        1548
        1552
        1556
        1560
        1564
        1568
        1572
        1576
        1580
        1584
        1588
        1592
        1596
        1600
        1604
        1608
        1612
        1616
        1620
        1624
        1628
        1632
        1636
        1640
        1644
        1648
        1652
        1656
        1660
        1664
        1668
        1672
        1676
        1680
        1684
        1688
        1692
        1696
        1700
        1704
        1708
        1712
        1716
        1720
        1724
        1728
        1732
        1736
        1740
        1744
        1748
        1752
        1756
        1760
        1764
        1768
        1772
        1776
        1780
        1784
        1788
        1792
        1796
        1800
        1804
        1808
        1812
        1816
        1820
        1824
        1828
        1832
        1836
        1840
        1844
        1848
        1852
        1856
        1860
        1864
        1868
        1872
        1876
        1880
        1884
        1888
        1892
        1896
        1900
        1904
        1908
        1912
        1916
        1920
        1924
        1928
        1932
        1936
        1940
        1944
        1948
        1952
        1956
        1960
        1964
        1968
        1972
        1976
        1980
        1984
        1988
        1992
        1996
        2000
        2004
        2008
        2012
        2016
        2020
        2024
        2028
        2032
        2036
        2040
        2044
        2048
        2052
        2056
        2060
        2064
        2068
        2072
        2076
        2080
        2084
        2088
        2092
        2096
        2100
        2104
        2108
        2112
        2116
        2120
        2124
        2128
        2132
        2136
        2140
        2144
        2148
        2152
        2156
        2160
        2164
        2168
        2172
        2176
        2180
        2184
        2188
        2192
        2196
        2200
        2204
        2208
        2212
        2216
        2220
        2224
        2228
        2232
        2236
        2240
        2244
        2248
        2252
        2256
        2260
        2264
        2268
        2272
        2276
        2280
        2284
        2288
        2292
        2296
        2300
        2304
        2308
        2312
        2316
        2320
        2324
        2328
        2332
        2336
        2340
        2344
        2348
        2352
        2356
        2360
        2364
        2368
        2372
        2376
        2380
        2384
        2388
        2392
        2396
        2400
        2404
        2408
        2412
        2416
        2420
        2424
        2428
        2432
        2436
        2440
        2444
        2448
        2452
        2456
        2460
        2464
        2468
        2472
        2476
        2480
        2484
        2488
        2492
        2496
        2500
        2504
        2508
        2512
        2516
        2520
        2524
        2528
        2532
        2536
        2540
        2544
        2548
        2552
        2556
        2560
        2564
        2568
        2572
        2576
        2580
        2584
        2588
        2592
        2596
        2600
        2604
        2608
        2612
        2616
        2620
        2624
        2628
        2632
        2636
        2640
        2644
        2648
        2652
        2656
        2660
        2664
        2668
        2672
        2676
        2680
        2684
        2688
        2692
        2696
        2700
        2704
        2708
        2712
        2716
        2720
        2724
        2728
        2732
        2736
        2740
        2744
        2748
        2752
        2756
        2760
        2764
        2768
        2772
        2776
        2780
        2784
        2788
        2792
        2796
        2800
        2804
        2808
        2812
        2816
        2820
        2824
        2828
        2832
        2836
        2840
        2844
        2848
        2852
        2856
        2860
        2864
        2868
        2872
        2876
        2880
        2884
        2888
        2892
        2896
        2900
        2904
        2908
        2912
        2916
        2920
        2924
        2928
        2932
        2936
        2940
        2944
        2948
        2952
        2956
        2960
        2964
        2968
        2972
        2976
        2980
        2984
        2988
        2992
        2996
        3000
        3004
        3008
        3012
        3016
        3020
        3024
        3028
        3032
        3036
        3040
        3044
        3048
        3052
        3056
        3060
        3064
        3068
        3072
        3076
        3080
        3084
        3088
        3092
        3096
        3100
        3104
        3108
        3112
        3116
        3120
        3124
        3128
        3132
        3136
        3140
        3144
        3148
        3152
        3156
        3160
        3164
        3168
        3172
        3176
        3180
        3184
        3188
        3192
        3196
        3200
        3204
        3208
        3212
        3216
        3220
        3224
        3228
        3232
        3236
        3240
        3244
        3248
        3252
        3256
        3260
        3264
        3268
        3272
        3276
        3280
        3284
        3288
        3292
        3296
        3300
        3304
        3308
        3312
        3316
        3320
        3324
        3328
        3332
        3336
        3340
        3344
        3348
        3352
        3356
        3360
        3364
        3368
        3372
        3376
        3380
        3384
        3388
        3392
        3396
        3400
        3404
        3408
        3412
        3416
        3420
        3424
        3428
        3432
        3436
        3440
        3444
        3448
        3452
        3456
        3460
        3464
        3468
        3472
        3476
        3480
        3484
        3488
        3492
        3496
        3500
        3504
        3508
        3512
        3516
        3520
        3524
        3528
        3532
        3536
        3540
        3544
        3548
        3552
        3556
        3560
        3564
        3568
        3572
        3576
        3580
        3584
        3588
        3592
        3596
        3600
        3604
        3608
        3612
        3616
        3620
        3624
        3628
        3632
        3636
        3640
        3644
        3648
        3652
        3656
        3660
        3664
        3668
        3672
        3676
        3680
        3684
        3688
        3692
        3696
        3700
        3704
        3708
        3712
        3716
        3720
        3724
        3728
        3732
        3736
        3740
        3744
        3748
        3752
        3756
        3760
        3764
        3768
        3772
        3776
        3780
        3784
        3788
        3792
        3796
        3800
        3804
        3808
        3812
        3816
        3820
        3824
        3828
        3832
        3836
        3840
        3844
        3848
        3852
        3856
        3860
        3864
        3868
        3872
        3876
        3880
        3884
        3888
        3892
        3896
        3900
        3904
        3908
        3912
        3916
        3920
        3924
        3928
        3932
        3936
        3940
        3944
        3948
        3952
        3956
        3960
        3964
        3968
        3972
        3976
        3980
        3984
        3988
        3992
        3996
        4000
        4004
        4008
        4012
        4016
        4020
        4024
        4028
        4032
        4036
        4040
        4044
        4048
        4052
        4056
        4060
        4064
        4068
        4072
        4076
        4080
        4084
        4088
        4092
        4096
 </DataArray>
 <DataArray  type="UInt8"  Name="types"  format="ascii">
 9
 9
 9
 9
 9
 9
 9
 9
 9
 9
 9
 9
 9
 9
 9
 9
 9
 9
 9
 9
 9
 9
 9
 9
 9
 9
 9
 9
 9
 9
 9
 9
 9
 9
 9
 9
 9
 9
 9
 9
 9
 9
 9
 9
 9
 9
 9
 9
 9
 9
 9
 9
 9
 9
 9
 9
 9
 9
 9
 9
 9
 9
 9
 9
 9
 9
 9
 9
 9
 9
 9
 9
 9
 9
 9
 9
 9
 9
 9
 9
 9
 9
 9
 9
 9
 9
 9
 9
 9
 9
 9
 9
 9
 9
 9
 9
 9
 9
 9
 9
 9
 9
 9
 9
 9
 9
 9
 9
 9
 9
 9
 9
 9
 9
 9
 9
 9
 9
 9
 9
 9
 9
 9
 9
 9
 9
 9
 9
 9
 9
 9
 9
 9
 9
 9
 9
 9
 9
 9
 9
 9
 9
 9
 9
 9
 9
 9
 9
 9
 9
 9
 9
 9
 9
 9
 9
 9
 9
 9
 9
 9
 9
 9
 9
 9
 9
 9
 9
 9
 9
 9
 9
 9
 9
 9
 9
 9
 9
 9
 9
 9
 9
 9
 9
 9
 9
 9
 9
 9
 9
 9
 9
 9
 9
 9
 9
 9
 9
 9
 9
 9
 9
 9
 9
 9
 9
 9
 9
 9
 9
 9
 9
 9
 9
 9
 9
 9
 9
 9
 9
 9
 9
 9
 9
 9
 9
 9
 9
 9
 9
 9
 9
 9
 9
 9
 9
 9
 9
 9
 9
 9
 9
 9
 9
 9
 9
 9
 9
 9
 9
 9
 9
 9
 9
 9
 9
 9
 9
 9
 9
 9
 9
 9
 9
 9
 9
 9
 9
 9
 9
 9
 9
 9
 9
 9
 9
 9
 9
 9
 9
 9
 9
 9
 9
 9
 9
 9
 9
 9
 9
 9
 9
 9
 9
 9
 9
 9
 9
 9
 9
 9
 9
 9
 9
 9
 9
 9
 9
 9
 9
 9
 9
 9
 9
 9
 9
 9
 9
 9
 9
 9
 9
 9
 9
 9
 9
 9
 9
 9
 9
 9
 9
 9
 9
 9
 9
 9
 9
 9
 9
 9
 9
 9
 9
 9
 9
 9
 9
 9
 9
 9
 9
 9
 9
 9
 9
 9
 9
 9
 9
 9
 9
 9
 9
 9
 9
 9
 9
 9
 9
 9
 9
 9
 9
 9
 9
 9
 9
 9
 9
 9
 9
 9
 9
 9
 9
 9
 9
 9
 9
 9
 9
 9
 9
 9
 9
 9
 9
 9
 9
 9
 9
 9
 9
 9
 9
 9
 9
 9
 9
 9
 9
 9
 9
 9
 9
 9
 9
 9
 9
 9
 9
 9
 9
 9
 9
 9
 9
 9
 9
 9
 9
 9
 9
 9
 9
 9
 9
 9
 9
 9
 9
 9
 9
 9
 9
 9
 9
 9
 9
 9
 9
 9
 9
 9
 9
 9
 9
 9
 9
 9
 9
 9
 9
 9
 9
 9
 9
 9
 9
 9
 9
 9
 9
 9
 9
 9
 9
 9
 9
 9
 9
 9
 9
 9
 9
 9
 9
 9
 9
 9
 9
 9
 9
 9
 9
 9
 9
 9
 9
 9
 9
 9
 9
 9
 9
 9
 9
 9
 9
 9
 9
 9
 9
 9
 9
 9
 9
 9
 9
 9
 9
 9
 9
 9
 9
 9
 9
 9
 9
 9
 9
 9
 9
 9
 9
 9
 9
 9
 9
 9
 9
 9
 9
 9
 9
 9
 9
 9
 9
 9
 9
 9
 9
 9
 9
 9
 9
 9
 9
 9
 9
 9
 9
 9
 9
 9
 9
 9
 9
 9
 9
 9
 9
 9
 9
 9
 9
 9
 9
 9
 9
 9
 9
 9
 9
 9
 9
 9
 9
 9
 9
 9
 9
 9
 9
 9
 9
 9
 9
 9
 9
 9
 9
 9
 9
 9
 9
 9
 9
 9
 9
 9
 9
 9
 9
 9
 9
 9
 9
 9
 9
 9
 9
 9
 9
 9
 9
 9
 9
 9
 9
 9
 9
 9
 9
 9
 9
 9
 9
 9
 9
 9
 9
 9
 9
 9
 9
 9
 9
 9
 9
 9
 9
 9
 9
 9
 9
 9
 9
 9
 9
 9
 9
 9
 9
 9
 9
 9
 9
 9
 9
 9
 9
 9
 9
 9
 9
 9
 9
 9
 9
 9
 9
 9
 9
 9
 9
 9
 9
 9
 9
 9
 9
 9
 9
 9
 9
 9
 9
 9
 9
 9
 9
 9
 9
 9
 9
 9
 9
 9
 9
 9
 9
 9
 9
 9
 9
 9
 9
 9
 9
 9
 9
 9
 9
 9
 9
 9
 9
 9
 9
 9
 9
 9
 9
 9
 9
 9
 9
 9
 9
 9
 9
 9
 9
 9
 9
 9
 9
 9
 9
 9
 9
 9
 9
 9
 9
 9
 9
 9
 9
 9
 9
 9
 9
 9
 9
 9
 9
 9
 9
 9
 9
 9
 9
 9
 9
 9
 9
 9
 9
 9
 9
 9
 9
 9
 9
 9
 9
 9
 9
 9
 9
 9
 9
 9
 9
 9
 9
 9
 9
 9
 9
 9
 9
 9
 9
 9
 9
 9
 9
 9
 9
 9
 9
 9
 9
 9
 9
 9
 9
 9
 9
 9
 9
 9
 9
 9
 9
 9
 9
 9
 9
 9
 9
 9
 9
 9
 9
 9
 9
 9
 9
 9
 9
 9
 9
 9
 9
 9
 9
 9
 9
 9
 9
 9
 9
 9
 9
 9
 9
 9
 9
 9
 9
 9
 9
 9
 9
 9
 9
 9
 9
 9
 9
 9
 9
 9
 9
 9
 9
 9
 9
 9
 9
 9
 9
 9
 9
 9
 9
 9
 9
 9
 9
 9
 9
 9
 9
 9
 9
 9
 9
 9
 9
 9
 9
 9
 9
 9
 9
 9
 9
 9
 9
 9
 9
 9
 9
 9
 9
 9
 9
 9
 9
 9
 9
 9
 9
 9
 9
 9
 9
 9
 9
 9
 9
 9
 9
 9
 9
 9
 9
 9
 9
 9
 9
 9
 9
 9
 9
 9
 9
 9
 9
 9
 9
 9
 9
 9
 9
 9
 9
 9
 9
 9
 9
 9
 9
 9
 9
 9
 9
 9
 9
 9
 9
 9
 9
 9
 9
 9
 9
 9
 9
 9
 9
 9
 9
 9
 9
 9
 9
 9
 9
 9
 9
 9
 9
 9
 9
 9
 9
 9
 9
 9
 9
 9
 9
 9
 9
 9
 9
 9
 9
 9
 9
 9
 9
 9
 9
 9
 9
 </DataArray>
 </Cells> 
 <PointData>
 <DataArray  type="Float64" Name="disp" NumberOfComponents="3" format="ascii">
   0.0000000000000000        0.0000000000000000        0.0000000000000000     
   6.0956738459651064E-003   3.7906409102549158E-003   0.0000000000000000     
   1.1665576647718367E-002   7.3240122630107846E-003   0.0000000000000000     
   1.6709708405259781E-002   1.0600114058267607E-002   0.0000000000000000     
   2.1228069118589349E-002   1.3618946296025381E-002   0.0000000000000000     
   0.0000000000000000        0.0000000000000000        0.0000000000000000     
   4.8911437130528725E-003   3.0222014253419162E-003   0.0000000000000000     
   9.5735284570081305E-003   6.0605619961380305E-003   0.0000000000000000     
   1.4047154231865776E-002   9.1150817123883433E-003   0.0000000000000000     
   1.8312021037625810E-002   1.2185760574092857E-002   0.0000000000000000     
   0.0000000000000000        0.0000000000000000        0.0000000000000000     
   3.9537140606240098E-003   2.4250731085323591E-003   0.0000000000000000     
   7.9106976289834950E-003   5.0628404267531769E-003   0.0000000000000000     
   1.1870950705078452E-002   7.9133019546624526E-003   0.0000000000000000     
   1.5834473288908881E-002   1.0976457692260185E-002   0.0000000000000000     
   0.0000000000000000        0.0000000000000000        0.0000000000000000     
   3.2833848886785200E-003   1.9992559598262455E-003   0.0000000000000000     
   6.6770841636444537E-003   4.3308475548562222E-003   0.0000000000000000     
   1.0181097824897801E-002   6.9947747850899302E-003   0.0000000000000000     
   1.3795425872438562E-002   9.9910376505273710E-003   0.0000000000000000     
   0.0000000000000000        0.0000000000000000        0.0000000000000000     
   2.8801561972164021E-003   1.7447499792235745E-003   0.0000000000000000     
   5.8726880609910118E-003   3.8645833804471673E-003   0.0000000000000000     
   8.9775955913238281E-003   6.3595002036707787E-003   0.0000000000000000     
   1.2194878788214854E-002   9.2295004488944093E-003   0.0000000000000000     
   2.1228069118589349E-002   1.3618946296025381E-002   0.0000000000000000     
   2.5433291696534042E-002   1.6611572574734976E-002   0.0000000000000000     
   2.9538009047920845E-002   1.9809056492847261E-002   0.0000000000000000     
   3.3542221172749756E-002   2.3211398050362233E-002   0.0000000000000000     
   3.7445928071020762E-002   2.6818597247279891E-002   0.0000000000000000     
   1.8312021037625810E-002   1.2185760574092857E-002   0.0000000000000000     
   2.2406453308242397E-002   1.5341130087476125E-002   0.0000000000000000     
   2.6368775477669696E-002   1.8649721758762706E-002   0.0000000000000000     
   3.0198987545907718E-002   2.2111535587952598E-002   0.0000000000000000     
   3.3897089512956460E-002   2.5726571575045806E-002   0.0000000000000000     
   1.5834473288908881E-002   1.0976457692260185E-002   0.0000000000000000     
   1.9729791896596304E-002   1.4211097133243419E-002   0.0000000000000000     
   2.3485433044262233E-002   1.7576009771309197E-002   0.0000000000000000     
   2.7101396731906674E-002   2.1071195606457514E-002   0.0000000000000000     
   3.0577682959529628E-002   2.4696654638688371E-002   0.0000000000000000     
   1.3795425872438562E-002   9.9910376505273710E-003   0.0000000000000000     
   1.7403307461595768E-002   1.3221473712036864E-002   0.0000000000000000     
   2.0887981747698452E-002   1.6587920530486727E-002   0.0000000000000000     
   2.4249448730746616E-002   2.0090378105876966E-002   0.0000000000000000     
   2.7487708410740254E-002   2.3728846438207579E-002   0.0000000000000000     
   1.2194878788214854E-002   9.2295004488944093E-003   0.0000000000000000     
   1.5427000003240793E-002   1.2372259823856452E-002   0.0000000000000000     
   1.8576421587978353E-002   1.5685454036295305E-002   0.0000000000000000     
   2.1643143542427544E-002   1.9169083086210965E-002   0.0000000000000000     
   2.4627165866588356E-002   2.2823146973603436E-002   0.0000000000000000     
   3.7445928071020762E-002   2.6818597247279891E-002   0.0000000000000000     
   4.1253912840031964E-002   3.0624488808134717E-002   0.0000000000000000     
   4.4970958577081437E-002   3.4622907457461209E-002   0.0000000000000000     
   4.8597065282169186E-002   3.8813853195259353E-002   0.0000000000000000     
   5.2132232955295205E-002   4.3197326021529155E-002   0.0000000000000000     
   3.3897089512956460E-002   2.5726571575045806E-002   0.0000000000000000     
   3.7486001809118888E-002   2.9522882859632886E-002   0.0000000000000000     
   4.0988644864697964E-002   3.3528522581304385E-002   0.0000000000000000     
   4.4405018679693681E-002   3.7743490740060316E-002   0.0000000000000000     
   4.7735123254106060E-002   4.2167787335900667E-002   0.0000000000000000     
   3.0577682959529628E-002   2.4696654638688371E-002   0.0000000000000000     
   3.3943086137652324E-002   2.8496766987920544E-002   0.0000000000000000     
   3.7226400676795987E-002   3.2515912774072793E-002   0.0000000000000000     
   4.0427626576960654E-002   3.6754091997145119E-002   0.0000000000000000     
   4.3546763838146277E-002   4.1211304657137522E-002   0.0000000000000000     
   2.7487708410740254E-002   2.3728846438207579E-002   0.0000000000000000     
   3.0625165825632270E-002   2.7546141192997694E-002   0.0000000000000000     
   3.3684226013375548E-002   3.1585078035766427E-002   0.0000000000000000     
   3.6664888973970078E-002   3.5845656966513782E-002   0.0000000000000000     
   3.9567154707415855E-002   4.0327877985239756E-002   0.0000000000000000     
   2.4627165866588356E-002   2.2823146973603436E-002   0.0000000000000000     
   2.7532240873058729E-002   2.6671005474864336E-002   0.0000000000000000     
   3.0362120874436599E-002   3.0736018366385287E-002   0.0000000000000000     
   3.3116805870721959E-002   3.5018185648166285E-002   0.0000000000000000     
   3.5796295861914823E-002   3.9517507320207333E-002   0.0000000000000000     
   5.2132232955295205E-002   4.3197326021529155E-002   0.0000000000000000     
   5.5573746379176531E-002   4.7782694445136283E-002   0.0000000000000000     
   5.8918890336530201E-002   5.2579326974946397E-002   0.0000000000000000     
   6.2167664827356223E-002   5.7587223610959498E-002   0.0000000000000000     
   6.5320069851654589E-002   6.2806384353175607E-002   0.0000000000000000     
   4.7735123254106060E-002   4.2167787335900667E-002   0.0000000000000000     
   5.0975446725803904E-002   4.6797900459326809E-002   0.0000000000000000     
   5.4122477232656070E-002   5.1630318200840151E-002   0.0000000000000000     
   5.7176214774662532E-002   5.6665040560440666E-002   0.0000000000000000     
   6.0136659351823302E-002   6.1902067538128359E-002   0.0000000000000000     
   4.3546763838146277E-002   4.1211304657137522E-002   0.0000000000000000     
   4.6580551111755034E-002   4.5876338825291463E-002   0.0000000000000000     
   4.9525727049189061E-002   5.0737982572848388E-002   0.0000000000000000     
   5.2382291650448352E-002   5.5796235899808290E-002   0.0000000000000000     
   5.5150244915532921E-002   6.1051098806171183E-002   0.0000000000000000     
   3.9567154707415855E-002   4.0327877985239756E-002   0.0000000000000000     
   4.2389059537029899E-002   4.5018009543030237E-002   0.0000000000000000     
   4.5128639786129188E-002   4.9902320090971120E-002   0.0000000000000000     
   4.7785895454713706E-002   5.4980809629062419E-002   0.0000000000000000     
   5.0360826542783461E-002   6.0253478157304100E-002   0.0000000000000000     
   3.5796295861914823E-002   3.9517507320207333E-002   0.0000000000000000     
   3.8400972001628529E-002   4.4222912612543130E-002   0.0000000000000000     
   4.0931215443476457E-002   4.9123330755208347E-002   0.0000000000000000     
   4.3387026187458579E-002   5.4218761748203004E-002   0.0000000000000000     
   4.5768404233574922E-002   5.9509205591527073E-002   0.0000000000000000     
   6.5320069851654589E-002   6.2806384353175607E-002   0.0000000000000000     
   6.8375428499753380E-002   6.8212992136038653E-002   0.0000000000000000     
   7.1333063861980656E-002   7.3783229893992622E-002   0.0000000000000000     
   7.4192975938336431E-002   7.9517097627037514E-002   0.0000000000000000     
   7.6955164728820691E-002   8.5414595335173316E-002   0.0000000000000000     
   6.0136659351823302E-002   6.1902067538128359E-002   0.0000000000000000     
   6.3006598690517668E-002   6.7326157541188841E-002   0.0000000000000000     
   6.5788820517124938E-002   7.2922068976907742E-002   0.0000000000000000     
   6.8483324831645126E-002   7.8689801845285040E-002   0.0000000000000000     
   7.1090111634078190E-002   8.4629356146320750E-002   0.0000000000000000     
   5.5150244915532921E-002   6.1051098806171183E-002   0.0000000000000000     
   5.7833921339156102E-002   6.6493270709351904E-002   0.0000000000000000     
   6.0437655416031230E-002   7.2113451026765266E-002   0.0000000000000000     
   6.2961447146158325E-002   7.7911639758411311E-002   0.0000000000000000     
   6.5405296529537360E-002   8.3887836904290011E-002   0.0000000000000000     
   5.0360826542783461E-002   6.0253478157304100E-002   0.0000000000000000     
   5.2857396445668663E-002   6.5714331640527826E-002   0.0000000000000000     
   5.5279568558699518E-002   7.1357376043565221E-002   0.0000000000000000     
   5.7627342881876015E-002   7.7182611366416340E-002   0.0000000000000000     
   5.9900719415198193E-002   8.3190037609081127E-002   0.0000000000000000     
   4.5768404233574922E-002   5.9509205591527073E-002   0.0000000000000000     
   4.8077024010055355E-002   6.4989340334716608E-002   0.0000000000000000     
   5.0314559945129796E-002   7.0653844027307622E-002   0.0000000000000000     
   5.2481012038798243E-002   7.6502716669300114E-002   0.0000000000000000     
   5.4576380291060676E-002   8.2535958260694070E-002   0.0000000000000000     
   7.6955164728820691E-002   8.5414595335173316E-002   0.0000000000000000     
   7.9599499096055737E-002   9.1471314397058856E-002   0.0000000000000000     
   8.2105847902663828E-002   9.7682846191352909E-002   0.0000000000000000     
   8.4474211148644979E-002  0.10404919071805549        0.0000000000000000     
   8.6704588833999188E-002  0.11057034797716661        0.0000000000000000     
   7.1090111634078190E-002   8.4629356146320750E-002   0.0000000000000000     
   7.3579177113197183E-002   9.0727403703248180E-002   0.0000000000000000     
   7.5920517457775089E-002   9.6970616339300597E-002   0.0000000000000000     
   7.8114132667811906E-002  0.10335899405447807        0.0000000000000000     
   8.0160022743307635E-002  0.10989253684878056        0.0000000000000000     
   6.5405296529537360E-002   8.3887836904290011E-002   0.0000000000000000     
   6.7734637253645591E-002   9.0021833313514960E-002   0.0000000000000000     
   6.9914903005960177E-002   9.6293419835199720E-002   0.0000000000000000     
   7.1946093786481174E-002  0.10270259646934431        0.0000000000000000     
   7.3828209595208513E-002  0.10924936321594872        0.0000000000000000     
   5.9900719415198193E-002   8.3190037609081127E-002   0.0000000000000000     
   6.2065879517400918E-002   8.9354603227859208E-002   0.0000000000000000     
   6.4089004547219108E-002   9.5651256679050264E-002   0.0000000000000000     
   6.5970094504652743E-002  0.10207999796265421        0.0000000000000000     
   6.7709149389701850E-002  0.10864082707867112        0.0000000000000000     
   5.4576380291060676E-002   8.2535958260694070E-002   0.0000000000000000     
   5.6572903904463200E-002   8.8725713446280940E-002   0.0000000000000000     
   5.8442822081551861E-002   9.5044126870852175E-002   0.0000000000000000     
   6.0186134822326667E-002  0.10149119853440777        0.0000000000000000     
   6.1802842126787619E-002  0.10806692843694772        0.0000000000000000     
   8.6704588833999188E-002  0.11057034797716661        0.0000000000000000     
   8.8937991340218611E-002  0.11730828227216289        0.0000000000000000     
   9.1315429048795416E-002  0.12432495790652100        0.0000000000000000     
   9.3836901959729602E-002  0.13162037488024089        0.0000000000000000     
   9.6502410073021155E-002  0.13919453319332262        0.0000000000000000     
   8.0160022743307635E-002  0.10989253684878056        0.0000000000000000     
   8.2206926690226320E-002  0.11663031173129024        0.0000000000000000     
   8.4403583514532018E-002  0.12363138571108931        0.0000000000000000     
   8.6749993216224730E-002  0.13089575878817775        0.0000000000000000     
   8.9246155795304455E-002  0.13842343096255560        0.0000000000000000     
   7.3828209595208513E-002  0.10924936321594872        0.0000000000000000     
   7.5708985066709270E-002  0.11599081231223264        0.0000000000000000     
   7.7736154835550422E-002  0.12298403599541577        0.0000000000000000     
   7.9909718901731944E-002  0.13022903426549812        0.0000000000000000     
   8.2229677265253862E-002  0.13772580712247967        0.0000000000000000     
   6.7709149389701850E-002  0.10864082707867112        0.0000000000000000     
   6.9444166469667445E-002  0.11538978401499010        0.0000000000000000     
   7.1313143011850585E-002  0.12238290875950039        0.0000000000000000     
   7.3316079016251257E-002  0.12962020131220195        0.0000000000000000     
   7.5452974482869459E-002  0.13710166167309479        0.0000000000000000     
   6.1802842126787619E-002  0.10806692843694772        0.0000000000000000     
   6.3412470899100862E-002  0.11482722683956263        0.0000000000000000     
   6.5134548043432536E-002  0.12182800400334315        0.0000000000000000     
   6.6969073559782655E-002  0.12906925992828924        0.0000000000000000     
   6.8916047448151191E-002  0.13655099461440093        0.0000000000000000     
   9.6502410073021155E-002  0.13919453319332262        0.0000000000000000     
   9.8977604959349125E-002  0.14678006743124708        0.0000000000000000     
  0.10092813818939247       0.15410961217949518        0.0000000000000000     
  0.10235400976315123       0.16118316743806699        0.0000000000000000     
  0.10325521968062540       0.16800073320696240        0.0000000000000000     
   8.9246155795304455E-002  0.13842343096255560        0.0000000000000000     
   9.1593631297932451E-002  0.14602537918951702        0.0000000000000000     
   9.3493979770270005E-002  0.15351258042435614        0.0000000000000000     
   9.4947201212317131E-002  0.16088503466707293        0.0000000000000000     
   9.5953295624073814E-002  0.16814274191766743        0.0000000000000000     
   8.2229677265253862E-002  0.13772580712247967        0.0000000000000000     
   8.4431187334224805E-002  0.14533679321892065        0.0000000000000000     
   8.6249406516753349E-002  0.15292443120738122        0.0000000000000000     
   8.7684334812839493E-002  0.16048872108786139        0.0000000000000000     
   8.8735972222483264E-002  0.16802966286036114        0.0000000000000000     
   7.5452974482869459E-002  0.13710166167309479        0.0000000000000000     
   7.7490273068226201E-002  0.14471430951945791        0.0000000000000000     
   7.9194418428842478E-002  0.15234516452857044        0.0000000000000000     
   8.0565410564718318E-002  0.15999422670043231        0.0000000000000000     
   8.1603249475853706E-002  0.16766149603504352        0.0000000000000000     
   6.8916047448151191E-002  0.13655099461440093        0.0000000000000000     
   7.0770888499936624E-002  0.14415792809112893        0.0000000000000000     
   7.2329015506537433E-002  0.15177478038792383        0.0000000000000000     
   7.3590428467953620E-002  0.15940155150478574        0.0000000000000000     
   7.4555127384185182E-002  0.16703824144171464        0.0000000000000000     
   0.0000000000000000        0.0000000000000000        0.0000000000000000     
   2.8801561972164021E-003   1.7447499792235745E-003   0.0000000000000000     
   5.8726880609910118E-003   3.8645833804471673E-003   0.0000000000000000     
   8.9775955913238281E-003   6.3595002036707787E-003   0.0000000000000000     
   1.2194878788214854E-002   9.2295004488944093E-003   0.0000000000000000     
   0.0000000000000000        0.0000000000000000        0.0000000000000000     
   2.6102789644126705E-003   1.5888727337390806E-003   0.0000000000000000     
   5.2896352247527945E-003   3.5567035357580074E-003   0.0000000000000000     
   8.0380687810203705E-003   5.9034924060567800E-003   0.0000000000000000     
   1.0855579633215401E-002   8.6292393446353970E-003   0.0000000000000000     
   0.0000000000000000        0.0000000000000000        0.0000000000000000     
   2.3400041684423409E-003   1.4589417903874986E-003   0.0000000000000000     
   4.7200515586594298E-003   3.2998636530207370E-003   0.0000000000000000     
   7.1401421706512661E-003   5.5227655878997157E-003   0.0000000000000000     
   9.6002760044178511E-003   8.1276475950244325E-003   0.0000000000000000     
   0.0000000000000000        0.0000000000000000        0.0000000000000000     
   2.0693318093054141E-003   1.3549571491688281E-003   0.0000000000000000     
   4.1639370627109202E-003   3.0940637322353563E-003   0.0000000000000000     
   6.2838157602165181E-003   5.2173197491995850E-003   0.0000000000000000     
   8.4289679018222062E-003   7.7247252000615142E-003   0.0000000000000000     
   0.0000000000000000        0.0000000000000000        0.0000000000000000     
   1.7982618870018886E-003   1.2769188100830689E-003   0.0000000000000000     
   3.6212917369072622E-003   2.9393037734018659E-003   0.0000000000000000     
   5.4690895497161215E-003   4.9871548899563896E-003   0.0000000000000000     
   7.3416553254284653E-003   7.4204721597466421E-003   0.0000000000000000     
   1.2194878788214854E-002   9.2295004488944093E-003   0.0000000000000000     
   1.5427000003240793E-002   1.2372259823856452E-002   0.0000000000000000     
   1.8576421587978353E-002   1.5685454036295305E-002   0.0000000000000000     
   2.1643143542427544E-002   1.9169083086210965E-002   0.0000000000000000     
   2.4627165866588356E-002   2.2823146973603436E-002   0.0000000000000000     
   1.0855579633215401E-002   8.6292393446353970E-003   0.0000000000000000     
   1.3688848900047781E-002   1.1651411969000184E-002   0.0000000000000000     
   1.6484557700227415E-002   1.4887477896657458E-002   0.0000000000000000     
   1.9242706033754303E-002   1.8337437127607225E-002   0.0000000000000000     
   2.1963293900628442E-002   2.2001289661849482E-002   0.0000000000000000     
   9.6002760044178511E-003   8.1276475950244325E-003   0.0000000000000000     
   1.2076833530533144E-002   1.1046886647766053E-002   0.0000000000000000     
   1.4546195219571102E-002   1.4212859719495730E-002   0.0000000000000000     
   1.7008361071531735E-002   1.7625566810213471E-002   0.0000000000000000     
   1.9463331086415039E-002   2.1285007919919271E-002   0.0000000000000000     
   8.4289679018222062E-003   7.7247252000615142E-003   0.0000000000000000     
   1.0590953894696878E-002   1.0558683860154055E-002   0.0000000000000000     
   1.2761334146009422E-002   1.3661599504810117E-002   0.0000000000000000     
   1.4940108655759845E-002   1.7033472134029698E-002   0.0000000000000000     
   1.7127277423948140E-002   2.0674301747812807E-002   0.0000000000000000     
   7.3416553254284653E-003   7.4204721597466421E-003   0.0000000000000000     
   9.2312099925389874E-003   1.0186803606164195E-002   0.0000000000000000     
   1.1129974479542374E-002   1.3233697252600618E-002   0.0000000000000000     
   1.3037948786438628E-002   1.6561153099055915E-002   0.0000000000000000     
   1.4955132913227750E-002   2.0169171145530088E-002   0.0000000000000000     
   2.4627165866588356E-002   2.2823146973603436E-002   0.0000000000000000     
   2.7532240873058729E-002   2.6671005474864336E-002   0.0000000000000000     
   3.0362120874436599E-002   3.0736018366385287E-002   0.0000000000000000     
   3.3116805870721959E-002   3.5018185648166285E-002   0.0000000000000000     
   3.5796295861914823E-002   3.9517507320207333E-002   0.0000000000000000     
   2.1963293900628442E-002   2.2001289661849482E-002   0.0000000000000000     
   2.4629680739142505E-002   2.5877863727506799E-002   0.0000000000000000     
   2.7225225987589172E-002   2.9965987552701752E-002   0.0000000000000000     
   2.9749929645968429E-002   3.4265661137434338E-002   0.0000000000000000     
   3.2203791714280283E-002   3.8776884481704556E-002   0.0000000000000000     
   1.9463331086415039E-002   2.1285007919919271E-002   0.0000000000000000     
   2.1882854883094414E-002   2.5173219844911422E-002   0.0000000000000000     
   2.4238682080443264E-002   2.9272239381488204E-002   0.0000000000000000     
   2.6530812678461586E-002   3.3582066529649623E-002   0.0000000000000000     
   2.8759246677149394E-002   3.8102701289395670E-002   0.0000000000000000     
   1.7127277423948140E-002   2.0674301747812807E-002   0.0000000000000000     
   1.9291763304914437E-002   2.4557073827078203E-002   0.0000000000000000     
   2.1402489152998871E-002   2.8654773852744644E-002   0.0000000000000000     
   2.3459454968201444E-002   3.2967401824812136E-002   0.0000000000000000     
   2.5462660750522153E-002   3.7494957743280689E-002   0.0000000000000000     
   1.4955132913227750E-002   2.0169171145530088E-002   0.0000000000000000     
   1.6856406004602593E-002   2.4029425674007131E-002   0.0000000000000000     
   1.8716647205256010E-002   2.8113590966471064E-002   0.0000000000000000     
   2.0535856515187995E-002   3.2421667022921888E-002   0.0000000000000000     
   2.2314033934398556E-002   3.6953653843359593E-002   0.0000000000000000     
   3.5796295861914823E-002   3.9517507320207333E-002   0.0000000000000000     
   3.8400972001628529E-002   4.4222912612543130E-002   0.0000000000000000     
   4.0931215443476457E-002   4.9123330755208347E-002   0.0000000000000000     
   4.3387026187458579E-002   5.4218761748203004E-002   0.0000000000000000     
   4.5768404233574922E-002   5.9509205591527073E-002   0.0000000000000000     
   3.2203791714280283E-002   3.8776884481704556E-002   0.0000000000000000     
   3.4589134766212240E-002   4.3492602496752783E-002   0.0000000000000000     
   3.6908281375451775E-002   4.8405760093819389E-002   0.0000000000000000     
   3.9161231541998930E-002   5.3516357272904359E-002   0.0000000000000000     
   4.1347985265853662E-002   5.8824394034007722E-002   0.0000000000000000     
   2.8759246677149394E-002   3.8102701289395670E-002   0.0000000000000000     
   3.0926394091442343E-002   4.2828633658581826E-002   0.0000000000000000     
   3.3034664936276097E-002   4.7754353635063522E-002   0.0000000000000000     
   3.5084059211650663E-002   5.2879861218840800E-002   0.0000000000000000     
   3.7074576917566049E-002   5.8205156409913632E-002   0.0000000000000000     
   2.5462660750522153E-002   3.7494957743280689E-002   0.0000000000000000     
   2.7412749977318854E-002   4.2231006098030245E-002   0.0000000000000000     
   2.9310366125949408E-002   4.7169111378940788E-002   0.0000000000000000     
   3.1155509196413817E-002   5.2309273586012298E-002   0.0000000000000000     
   3.2948179188712089E-002   5.7651492719244794E-002   0.0000000000000000     
   2.2314033934398556E-002   3.6953653843359593E-002   0.0000000000000000     
   2.4048202423841768E-002   4.1699719815098062E-002   0.0000000000000000     
   2.5735384944471713E-002   4.6650033325451153E-002   0.0000000000000000     
   2.7375581496288381E-002   5.1804594374418866E-002   0.0000000000000000     
   2.8968792079291782E-002   5.7163402962001210E-002   0.0000000000000000     
   4.5768404233574922E-002   5.9509205591527073E-002   0.0000000000000000     
   4.8077024010055355E-002   6.4989340334716608E-002   0.0000000000000000     
   5.0314559945129796E-002   7.0653844027307622E-002   0.0000000000000000     
   5.2481012038798243E-002   7.6502716669300114E-002   0.0000000000000000     
   5.4576380291060676E-002   8.2535958260694070E-002   0.0000000000000000     
   4.1347985265853662E-002   5.8824394034007722E-002   0.0000000000000000     
   4.3467584329477629E-002   6.4323784519984439E-002   0.0000000000000000     
   4.5519070515332473E-002   7.0008442873689472E-002   0.0000000000000000     
   4.7502443823418200E-002   7.5878369095122841E-002   0.0000000000000000     
   4.9417704253734804E-002   8.1933563184284533E-002   0.0000000000000000     
   3.7074576917566049E-002   5.8205156409913632E-002   0.0000000000000000     
   3.9003857701096913E-002   6.3723151924397509E-002   0.0000000000000000     
   4.0869541209317961E-002   6.9426760478407901E-002   0.0000000000000000     
   4.2671627442229153E-002   7.5315982071944801E-002   0.0000000000000000     
   4.4410116399830529E-002   8.1390816705008209E-002   0.0000000000000000     
   3.2948179188712089E-002   5.7651492719244794E-002   0.0000000000000000     
   3.4685844124913219E-002   6.3187442547955788E-002   0.0000000000000000     
   3.6365972027086226E-002   6.8908796841462852E-002   0.0000000000000000     
   3.7988562895231122E-002   7.4815555599765937E-002   0.0000000000000000     
   3.9553616729347860E-002   8.0907718822865085E-002   0.0000000000000000     
   2.8968792079291782E-002   5.7163402962001210E-002   0.0000000000000000     
   3.0513543600926549E-002   6.2716656390659320E-002   0.0000000000000000     
   3.2008362968637301E-002   6.8454551962854382E-002   0.0000000000000000     
   3.3453250182424059E-002   7.4377089678586306E-002   0.0000000000000000     
   3.4848205242286802E-002   8.0484269537855174E-002   0.0000000000000000     
   5.4576380291060676E-002   8.2535958260694070E-002   0.0000000000000000     
   5.6572903904463200E-002   8.8725713446280940E-002   0.0000000000000000     
   5.8442822081551861E-002   9.5044126870852175E-002   0.0000000000000000     
   6.0186134822326667E-002  0.10149119853440777        0.0000000000000000     
   6.1802842126787619E-002  0.10806692843694772        0.0000000000000000     
   4.9417704253734804E-002   8.1933563184284533E-002   0.0000000000000000     
   5.1244495973711265E-002   8.8144669665585568E-002   0.0000000000000000     
   5.2962463150776580E-002   9.4482333063436966E-002   0.0000000000000000     
   5.4571605784930748E-002  0.10094655337783877        0.0000000000000000     
   5.6071923876173775E-002  0.10753733060879089        0.0000000000000000     
   4.4410116399830529E-002   8.1390816705008209E-002   0.0000000000000000     
   4.6069441284023981E-002   8.7620977582578516E-002   0.0000000000000000     
   4.7634035296711404E-002   9.3976177909636083E-002   0.0000000000000000     
   4.9103898437892840E-002  0.10045641768618091        0.0000000000000000     
   5.0479030707568262E-002  0.10706169691221300        0.0000000000000000     
   3.9553616729347860E-002   8.0907718822865085E-002   0.0000000000000000     
   4.1047739835401324E-002   8.7154637197259743E-002   0.0000000000000000     
   4.2457538519356353E-002   9.3525661409449470E-002   0.0000000000000000     
   4.3783012781212924E-002  0.10002079145943420        0.0000000000000000     
   4.5024162620971052E-002  0.10664002734721398        0.0000000000000000     
   3.4848205242286802E-002   8.0484269537855174E-002   0.0000000000000000     
   3.6179391627843324E-002   8.6745648509629347E-002   0.0000000000000000     
   3.7432972818711392E-002   9.3130783562877184E-002   0.0000000000000000     
   3.8608948814891020E-002   9.9639674697598699E-002   0.0000000000000000     
   3.9707319616382186E-002  0.10627232191379389        0.0000000000000000     
   6.1802842126787619E-002  0.10806692843694772        0.0000000000000000     
   6.3412470899100862E-002  0.11482722683956263        0.0000000000000000     
   6.5134548043432536E-002  0.12182800400334315        0.0000000000000000     
   6.6969073559782655E-002  0.12906925992828924        0.0000000000000000     
   6.8916047448151191E-002  0.13655099461440093        0.0000000000000000     
   5.6071923876173775E-002  0.10753733060879089        0.0000000000000000     
   5.7562802277991203E-002  0.11431188628069522        0.0000000000000000     
   5.9143625843868550E-002  0.12132744191795351        0.0000000000000000     
   6.0814394573805865E-002  0.12858399752056579        0.0000000000000000     
   6.2575108467803092E-002  0.13608155308853204        0.0000000000000000     
   5.0479030707568262E-002  0.10706169691221300        0.0000000000000000     
   5.1844064529320118E-002  0.11385250783313285        0.0000000000000000     
   5.3283632326730897E-002  0.12088934269434094        0.0000000000000000     
   5.4797734099800599E-002  0.12817220149583733        0.0000000000000000     
   5.6386369848529204E-002  0.13570108423762195        0.0000000000000000     
   4.5024162620971052E-002  0.10664002734721398        0.0000000000000000     
   4.6256257653087648E-002  0.11344909149687549        0.0000000000000000     
   4.7554567492019577E-002  0.12051370633250547        0.0000000000000000     
   4.8919092137766879E-002  0.12783387185410386        0.0000000000000000     
   5.0349831590329519E-002  0.13540958806167075        0.0000000000000000     
   3.9707319616382186E-002  0.10627232191379389        0.0000000000000000     
   4.0799381649293753E-002  0.11310163727192320        0.0000000000000000     
   4.1956431339734590E-002  0.12020053283244704        0.0000000000000000     
   4.3178468687704682E-002  0.12756900859536541        0.0000000000000000     
   4.4465493693204045E-002  0.13520706456067835        0.0000000000000000     
   6.8916047448151191E-002  0.13655099461440093        0.0000000000000000     
   7.0770888499936624E-002  0.14415792809112893        0.0000000000000000     
   7.2329015506537433E-002  0.15177478038792383        0.0000000000000000     
   7.3590428467953620E-002  0.15940155150478574        0.0000000000000000     
   7.4555127384185182E-002  0.16703824144171464        0.0000000000000000     
   6.2575108467803092E-002  0.13608155308853204        0.0000000000000000     
   6.4245984811400800E-002  0.14368947474171423        0.0000000000000000     
   6.5647240890139472E-002  0.15127712859997444        0.0000000000000000     
   6.6778876704019163E-002  0.15884451466331259        0.0000000000000000     
   6.7640892253039819E-002  0.16639163293172876        0.0000000000000000     
   5.6386369848529204E-002  0.13570108423762195        0.0000000000000000     
   5.7888513184663426E-002  0.14333077527899468        0.0000000000000000     
   5.9143137719949924E-002  0.15091605897925528        0.0000000000000000     
   6.0150243454388741E-002  0.15845693533840377        0.0000000000000000     
   6.0909830387979827E-002  0.16595340435644015        0.0000000000000000     
   5.0349831590329519E-002  0.13540958806167075        0.0000000000000000     
   5.1698473619724496E-002  0.14308182970297015        0.0000000000000000     
   5.2816705995968771E-002  0.15069157152576640        0.0000000000000000     
   5.3704528719062332E-002  0.15823881353005928        0.0000000000000000     
   5.4361941789005191E-002  0.16572355571584887        0.0000000000000000     
   4.4465493693204045E-002  0.13520706456067835        0.0000000000000000     
   4.5675866116584023E-002  0.14294263801364079        0.0000000000000000     
   4.6667945718195998E-002  0.15060366623950772        0.0000000000000000     
   4.7441732498039964E-002  0.15819014923827907        0.0000000000000000     
   4.7997226456115906E-002  0.16570208700995492        0.0000000000000000     
   0.0000000000000000        0.0000000000000000        0.0000000000000000     
   1.7982618870018886E-003   1.2769188100830689E-003   0.0000000000000000     
   3.6212917369072622E-003   2.9393037734018659E-003   0.0000000000000000     
   5.4690895497161215E-003   4.9871548899563896E-003   0.0000000000000000     
   7.3416553254284653E-003   7.4204721597466421E-003   0.0000000000000000     
   0.0000000000000000        0.0000000000000000        0.0000000000000000     
   1.5350286794804883E-003   1.2176879836729598E-003   0.0000000000000000     
   3.0994193042146985E-003   2.8210540109729733E-003   0.0000000000000000     
   4.6931718742026316E-003   4.8100980819000393E-003   0.0000000000000000     
   6.3162863894442867E-003   7.1848201964541608E-003   0.0000000000000000     
   0.0000000000000000        0.0000000000000000        0.0000000000000000     
   1.2878664646899355E-003   1.1701258804812380E-003   0.0000000000000000     
   2.6056234875994678E-003   2.7247846794013876E-003   0.0000000000000000     
   3.9532710687285979E-003   4.6639763967604476E-003   0.0000000000000000     
   5.3308092080773251E-003   6.9877010325584193E-003   0.0000000000000000     
   0.0000000000000000        0.0000000000000000        0.0000000000000000     
   1.0567752426302310E-003   1.1342325005079051E-003   0.0000000000000000     
   2.1399042870615718E-003   2.6504957786871093E-003   0.0000000000000000     
   3.2493871332940211E-003   4.5487898345376136E-003   0.0000000000000000     
   4.3852237813275805E-003   6.8291146680594158E-003   0.0000000000000000     
   0.0000000000000000        0.0000000000000000        0.0000000000000000     
   8.4175501330137456E-004   1.1100078437529597E-003   0.0000000000000000     
   1.7022617026010082E-003   2.5981873088301386E-003   0.0000000000000000     
   2.5815200678989013E-003   4.4645383952315355E-003   0.0000000000000000     
   3.4795301091950534E-003   6.7090611029571529E-003   0.0000000000000000     
   7.3416553254284653E-003   7.4204721597466421E-003   0.0000000000000000     
   9.2312099925389874E-003   1.0186803606164195E-002   0.0000000000000000     
   1.1129974479542374E-002   1.3233697252600618E-002   0.0000000000000000     
   1.3037948786438628E-002   1.6561153099055915E-002   0.0000000000000000     
   1.4955132913227750E-002   2.0169171145530088E-002   0.0000000000000000     
   6.3162863894442867E-003   7.1848201964541608E-003   0.0000000000000000     
   7.9560065756072527E-003   9.8957392625787736E-003   0.0000000000000000     
   9.5995761583591143E-003   1.2893374188217312E-002   0.0000000000000000     
   1.1246995137699875E-002   1.6177724973369778E-002   0.0000000000000000     
   1.2898263513629533E-002   1.9748791618036173E-002   0.0000000000000000     
   5.3308092080773251E-003   6.9877010325584193E-003   0.0000000000000000     
   6.7237483954494569E-003   9.6499842061800976E-003   0.0000000000000000     
   8.1175991206488083E-003   1.2604851537010279E-002   0.0000000000000000     
   9.5123613836753749E-003   1.5852303025048961E-002   0.0000000000000000     
   1.0908035184529159E-002   1.9392338670296144E-002   0.0000000000000000     
   4.3852237813275805E-003   6.8291146680594158E-003   0.0000000000000000     
   5.5344354520656062E-003   9.4495384369681669E-003   0.0000000000000000     
   6.6840433664114522E-003   1.2368129298979515E-002   0.0000000000000000     
   7.8340475243651262E-003   1.5584887254093457E-002   0.0000000000000000     
   8.9844479259266197E-003   1.9099812302309994E-002   0.0000000000000000     
   3.4795301091950534E-003   6.7090611029571529E-003   0.0000000000000000     
   4.3880677454556935E-003   9.2944019549429813E-003   0.0000000000000000     
   5.2989088956470528E-003   1.2183207474125020E-002   0.0000000000000000     
   6.2120535597691281E-003   1.5375477660503267E-002   0.0000000000000000     
   7.1275017378219212E-003   1.8871212514077720E-002   0.0000000000000000     
   1.4955132913227750E-002   2.0169171145530088E-002   0.0000000000000000     
   1.6856406004602593E-002   2.4029425674007131E-002   0.0000000000000000     
   1.8716647205256010E-002   2.8113590966471064E-002   0.0000000000000000     
   2.0535856515187995E-002   3.2421667022921888E-002   0.0000000000000000     
   2.2314033934398556E-002   3.6953653843359593E-002   0.0000000000000000     
   1.2898263513629533E-002   1.9748791618036173E-002   0.0000000000000000     
   1.4537178521973070E-002   2.3580320878255644E-002   0.0000000000000000     
   1.6147537398555470E-002   2.7646059510067347E-002   0.0000000000000000     
   1.7729340143376716E-002   3.1946007513471271E-002   0.0000000000000000     
   1.9282586756436831E-002   3.6480164888467427E-002   0.0000000000000000     
   1.0908035184529159E-002   1.9392338670296144E-002   0.0000000000000000     
   1.2294476396840079E-002   2.3199804932381159E-002   0.0000000000000000     
   1.3661540894238057E-002   2.7249548270933344E-002   0.0000000000000000     
   1.5009228676723094E-002   3.1541568685952683E-002   0.0000000000000000     
   1.6337539744295186E-002   3.6075866177439186E-002   0.0000000000000000     
   8.9844479259266197E-003   1.9099812302309994E-002   0.0000000000000000     
   1.0128299629203613E-002   2.2887877836383675E-002   0.0000000000000000     
   1.1258657692303780E-002   2.6924057249069048E-002   0.0000000000000000     
   1.2375522115227116E-002   3.1208350540366112E-002   0.0000000000000000     
   1.3478892897973625E-002   3.5740757710274872E-002   0.0000000000000000     
   7.1275017378219212E-003   1.8871212514077720E-002   0.0000000000000000     
   8.0386482190636759E-003   2.2644539590263191E-002   0.0000000000000000     
   8.9388877927526322E-003   2.6669586444474473E-002   0.0000000000000000     
   9.8282204588887884E-003   3.0946353076711574E-002   0.0000000000000000     
   1.0706646217472152E-002   3.5474839486974490E-002   0.0000000000000000     
   2.2314033934398556E-002   3.6953653843359593E-002   0.0000000000000000     
   2.4048202423841768E-002   4.1699719815098062E-002   0.0000000000000000     
   2.5735384944471713E-002   4.6650033325451153E-002   0.0000000000000000     
   2.7375581496288381E-002   5.1804594374418866E-002   0.0000000000000000     
   2.8968792079291782E-002   5.7163402962001210E-002   0.0000000000000000     
   1.9282586756436831E-002   3.6480164888467427E-002   0.0000000000000000     
   2.0800714193528583E-002   4.1234584887570314E-002   0.0000000000000000     
   2.2277159410444770E-002   4.6195320763294426E-002   0.0000000000000000     
   2.3711922407185393E-002   5.1362372515639763E-002   0.0000000000000000     
   2.5105003183750446E-002   5.6735740144606341E-002   0.0000000000000000     
   1.6337539744295186E-002   3.6075866177439186E-002   0.0000000000000000     
   1.7638248048896788E-002   4.0835411393232025E-002   0.0000000000000000     
   1.8903127542470359E-002   4.5803174981170383E-002   0.0000000000000000     
   2.0132178225015895E-002   5.0979156941254260E-002   0.0000000000000000     
   2.1325400096533397E-002   5.6363357273483641E-002   0.0000000000000000     
   1.3478892897973625E-002   3.5740757710274872E-002   0.0000000000000000     
   1.4560803989946386E-002   4.0502199332083218E-002   0.0000000000000000     
   1.5613289340548476E-002   4.5473595979079039E-002   0.0000000000000000     
   1.6636348949779896E-002   5.0654947651262341E-002   0.0000000000000000     
   1.7629982817640645E-002   5.6046254348633126E-002   0.0000000000000000     
   1.0706646217472152E-002   3.5474839486974490E-002   0.0000000000000000     
   1.1568382016677373E-002   4.0234948704123877E-002   0.0000000000000000     
   1.2407644804679119E-002   4.5206583757020385E-002   0.0000000000000000     
   1.3224434581477391E-002   5.0389744645664016E-002   0.0000000000000000     
   1.4018751347072183E-002   5.5784431370054767E-002   0.0000000000000000     
   2.8968792079291782E-002   5.7163402962001210E-002   0.0000000000000000     
   3.0513543600926549E-002   6.2716656390659320E-002   0.0000000000000000     
   3.2008362968637301E-002   6.8454551962854382E-002   0.0000000000000000     
   3.3453250182424059E-002   7.4377089678586306E-002   0.0000000000000000     
   3.4848205242286802E-002   8.0484269537855174E-002   0.0000000000000000     
   2.5105003183750446E-002   5.6735740144606341E-002   0.0000000000000000     
   2.6456201825190880E-002   6.2304232319664178E-002   0.0000000000000000     
   2.7765318416557657E-002   6.8056657710283297E-002   0.0000000000000000     
   2.9032352957850772E-002   7.3993016316463725E-002   0.0000000000000000     
   3.0257305449070227E-002   8.0113308138205441E-002   0.0000000000000000     
   2.1325400096533397E-002   5.6363357273483641E-002   0.0000000000000000     
   2.2483064493760235E-002   6.1943609202126458E-002   0.0000000000000000     
   2.3605442753433781E-002   6.7707745951450571E-002   0.0000000000000000     
   2.4692534875554041E-002   7.3655767521456042E-002   0.0000000000000000     
   2.5744340860121003E-002   7.9787673912142809E-002   0.0000000000000000     
   1.7629982817640645E-002   5.6046254348633126E-002   0.0000000000000000     
   1.8594131606634610E-002   6.1634787038046146E-002   0.0000000000000000     
   1.9528735979265677E-002   6.7407816686356203E-002   0.0000000000000000     
   2.0433795935533856E-002   7.3365343293563243E-002   0.0000000000000000     
   2.1309311475439133E-002   7.9507366859667319E-002   0.0000000000000000     
   1.4018751347072183E-002   5.5784431370054767E-002   0.0000000000000000     
   1.4789403163814000E-002   6.1377765827423263E-002   0.0000000000000000     
   1.5535198094053343E-002   6.7156869915000139E-002   0.0000000000000000     
   1.6256136137790214E-002   7.3121743632785355E-002   0.0000000000000000     
   1.6952217295024608E-002   7.9272386980778931E-002   0.0000000000000000     
   3.4848205242286802E-002   8.0484269537855174E-002   0.0000000000000000     
   3.6179391627843324E-002   8.6745648509629347E-002   0.0000000000000000     
   3.7432972818711392E-002   9.3130783562877184E-002   0.0000000000000000     
   3.8608948814891020E-002   9.9639674697598699E-002   0.0000000000000000     
   3.9707319616382186E-002  0.10627232191379389        0.0000000000000000     
   3.0257305449070227E-002   8.0113308138205441E-002   0.0000000000000000     
   3.1425552667842652E-002   8.6387364885124454E-002   0.0000000000000000     
   3.2522471391794656E-002   9.2785018266836827E-002   0.0000000000000000     
   3.3548061620926245E-002   9.9306268283342533E-002   0.0000000000000000     
   3.4502323355237424E-002  0.10595111493464161        0.0000000000000000     
   2.5744340860121003E-002   7.9787673912142809E-002   0.0000000000000000     
   2.6747378961891964E-002   8.6073139689182343E-002   0.0000000000000000     
   2.7688167435624217E-002   9.2481839418246045E-002   0.0000000000000000     
   2.8566706281317751E-002   9.9013773099333915E-002   0.0000000000000000     
   2.9382995498972567E-002  0.10566894073244598        0.0000000000000000     
   2.1309311475439133E-002   7.9507366859667319E-002   0.0000000000000000     
   2.2144870509991286E-002   8.5802972921802972E-002   0.0000000000000000     
   2.2930060950200087E-002   9.2221247017104824E-002   0.0000000000000000     
   2.3664882796065524E-002   9.8762189145572860E-002   0.0000000000000000     
   2.4349336047587614E-002  0.10542579930720708        0.0000000000000000     
   1.6952217295024608E-002   7.9272386980778931E-002   0.0000000000000000     
   1.7618027312140603E-002   8.5576864582986384E-002   0.0000000000000000     
   1.8248151935522258E-002   9.2003241063413191E-002   0.0000000000000000     
   1.8842591165169575E-002   9.8551516422059338E-002   0.0000000000000000     
   1.9401345001082555E-002  0.10522169065892487        0.0000000000000000     
   3.9707319616382186E-002  0.10627232191379389        0.0000000000000000     
   4.0799381649293753E-002  0.11310163727192320        0.0000000000000000     
   4.1956431339734590E-002  0.12020053283244704        0.0000000000000000     
   4.3178468687704682E-002  0.12756900859536541        0.0000000000000000     
   4.4465493693204045E-002  0.13520706456067835        0.0000000000000000     
   3.4502323355237424E-002  0.10595111493464161        0.0000000000000000     
   3.5453029389378346E-002  0.11279958683691287        0.0000000000000000     
   3.6467952517999148E-002  0.11993171260633528        0.0000000000000000     
   3.7547092741099852E-002  0.12734749224290881        0.0000000000000000     
   3.8690450058680444E-002  0.13504692574663346        0.0000000000000000     
   2.9382995498972567E-002  0.10566894073244598        0.0000000000000000     
   3.0196793744781281E-002  0.11253238187048152        0.0000000000000000     
   3.1067859674936485E-002  0.11968913606633985        0.0000000000000000     
   3.1996193289438181E-002  0.12713920332002093        0.0000000000000000     
   3.2981794588286387E-002  0.13488258363152478        0.0000000000000000     
   2.4349336047587614E-002  0.10542579930720708        0.0000000000000000     
   2.5030674715502563E-002  0.11230002237262912        0.0000000000000000     
   2.5756152810546586E-002  0.11947280321246066        0.0000000000000000     
   2.6525770332719693E-002  0.12694414182670172        0.0000000000000000     
   2.7339527282021867E-002  0.13471403821535222        0.0000000000000000     
   1.9401345001082555E-002  0.10522169065892487        0.0000000000000000     
   1.9954672301542187E-002  0.11210250834335568        0.0000000000000000     
   2.0532831924829454E-002  0.11928271404469780        0.0000000000000000     
   2.1135823870944360E-002  0.12676230776295122        0.0000000000000000     
   2.1763648139886894E-002  0.13454128949811592        0.0000000000000000     
   4.4465493693204045E-002  0.13520706456067835        0.0000000000000000     
   4.5675866116584023E-002  0.14294263801364079        0.0000000000000000     
   4.6667945718195998E-002  0.15060366623950772        0.0000000000000000     
   4.7441732498039964E-002  0.15819014923827907        0.0000000000000000     
   4.7997226456115906E-002  0.16570208700995492        0.0000000000000000     
   3.8690450058680444E-002  0.13504692574663346        0.0000000000000000     
   3.9764367561928977E-002  0.14284652516263366        0.0000000000000000     
   4.0635188342033515E-002  0.15056280253603380        0.0000000000000000     
   4.1302912398994064E-002  0.15819575786683390        0.0000000000000000     
   4.1767539732810610E-002  0.16574539115503401        0.0000000000000000     
   3.2981794588286387E-002  0.13488258363152478        0.0000000000000000     
   3.3907654842446310E-002  0.14272681610157600        0.0000000000000000     
   3.4656765322883205E-002  0.15047943983089923        0.0000000000000000     
   3.5229126029597074E-002  0.15814045481949454        0.0000000000000000     
   3.5624736962587902E-002  0.16570986106736182        0.0000000000000000     
   2.7339527282021867E-002  0.13471403821535222        0.0000000000000000     
   2.8105727958136026E-002  0.14258351083046783        0.0000000000000000     
   2.8732676660745075E-002  0.15035357812410408        0.0000000000000000     
   2.9220373389849005E-002  0.15802424009626087        0.0000000000000000     
   2.9568818145447821E-002  0.16559549674693838        0.0000000000000000     
   2.1763648139886894E-002  0.13454128949811592        0.0000000000000000     
   2.2358586908998127E-002  0.14241660934930914        0.0000000000000000     
   2.2862922355619115E-002  0.15018521741564819        0.0000000000000000     
   2.3276654479749848E-002  0.15784711369713303        0.0000000000000000     
   2.3599783281390337E-002  0.16540229819376373        0.0000000000000000     
   0.0000000000000000        0.0000000000000000        0.0000000000000000     
   8.4175501330137456E-004   1.1100078437529597E-003   0.0000000000000000     
   1.7022617026010082E-003   2.5981873088301386E-003   0.0000000000000000     
   2.5815200678989013E-003   4.4645383952315355E-003   0.0000000000000000     
   3.4795301091950534E-003   6.7090611029571529E-003   0.0000000000000000     
   0.0000000000000000        0.0000000000000000        0.0000000000000000     
   6.3391031921038719E-004   1.0939270319227771E-003   0.0000000000000000     
   1.2781735645703953E-003   2.5620456852823827E-003   0.0000000000000000     
   1.9327897360800245E-003   4.4043559600788155E-003   0.0000000000000000     
   2.5977588337392750E-003   6.6208578563120776E-003   0.0000000000000000     
   0.0000000000000000        0.0000000000000000        0.0000000000000000     
   4.2434570286429001E-004   1.0824651867237323E-003   0.0000000000000000     
   8.5311770332234928E-004   2.5362573234957502E-003   0.0000000000000000     
   1.2863160013741779E-003   4.3613764103160538E-003   0.0000000000000000     
   1.7239405970197758E-003   6.5578224471846431E-003   0.0000000000000000     
   0.0000000000000000        0.0000000000000000        0.0000000000000000     
   2.1306116426308313E-004   1.0756223081558251E-003   0.0000000000000000     
   4.2709411885687024E-004   2.5208222234702417E-003   0.0000000000000000     
   6.4209886378136156E-004   4.3355997459432506E-003   0.0000000000000000     
   8.5807539903655665E-004   6.5199548755748519E-003   0.0000000000000000     
   0.0000000000000000        0.0000000000000000        0.0000000000000000     
   5.6703406766631407E-008   1.0733983962190553E-003   0.0000000000000000     
   1.0281117395833294E-007   2.5157403852058566E-003   0.0000000000000000     
   1.3832330157502329E-007   4.3270259669604041E-003   0.0000000000000000     
   1.6323978961689219E-007   6.5072551414826979E-003   0.0000000000000000     
   3.4795301091950534E-003   6.7090611029571529E-003   0.0000000000000000     
   4.3880677454556935E-003   9.2944019549429813E-003   0.0000000000000000     
   5.2989088956470528E-003   1.2183207474125020E-002   0.0000000000000000     
   6.2120535597691281E-003   1.5375477660503267E-002   0.0000000000000000     
   7.1275017378219212E-003   1.8871212514077720E-002   0.0000000000000000     
   2.5977588337392750E-003   6.6208578563120776E-003   0.0000000000000000     
   3.2701548900538218E-003   9.1784529575635754E-003   0.0000000000000000     
   3.9470519375293415E-003   1.2044042847414714E-002   0.0000000000000000     
   4.6284499761658346E-003   1.5217627525865498E-002   0.0000000000000000     
   5.3143490059632996E-003   1.8699206992915923E-002   0.0000000000000000     
   1.7239405970197758E-003   6.5578224471846431E-003   0.0000000000000000     
   2.1662065002940891E-003   9.0955696422889767E-003   0.0000000000000000     
   2.6133287212320618E-003   1.1944592203816514E-002   0.0000000000000000     
   3.0653072598336951E-003   1.5104890131767253E-002   0.0000000000000000     
   3.5221421160989883E-003   1.8576463426141197E-002   0.0000000000000000     
   8.5807539903655665E-004   6.5199548755748519E-003   0.0000000000000000     
   1.0762225761764940E-003   9.0457520091191922E-003   0.0000000000000000     
   1.2977392467552124E-003   1.1884855543330419E-002   0.0000000000000000     
   1.5226254107727109E-003   1.5037265478208533E-002   0.0000000000000000     
   1.7508810682289903E-003   1.8502981813753535E-002   0.0000000000000000     
   1.6323978961689219E-007   6.5072551414826979E-003   0.0000000000000000     
   2.0311770103816345E-007   9.0290000580542130E-003   0.0000000000000000     
   2.8351409879291180E-007   1.1864832865956423E-002   0.0000000000000000     
   4.0442898288166917E-007   1.5014753565189337E-002   0.0000000000000000     
   5.6586235330368002E-007   1.8478762155752941E-002   0.0000000000000000     
   7.1275017378219212E-003   1.8871212514077720E-002   0.0000000000000000     
   8.0386482190636759E-003   2.2644539590263191E-002   0.0000000000000000     
   8.9388877927526322E-003   2.6669586444474473E-002   0.0000000000000000     
   9.8282204588887884E-003   3.0946353076711574E-002   0.0000000000000000     
   1.0706646217472152E-002   3.5474839486974490E-002   0.0000000000000000     
   5.3143490059632996E-003   1.8699206992915923E-002   0.0000000000000000     
   5.9977282334814164E-003   2.2461715329569375E-002   0.0000000000000000     
   6.6715668652798654E-003   2.6478086616829211E-002   0.0000000000000000     
   7.3358649013586475E-003   3.0748320854695456E-002   0.0000000000000000     
   7.9906223417177628E-003   3.5272418043168087E-002   0.0000000000000000     
   3.5221421160989883E-003   1.8576463426141197E-002   0.0000000000000000     
   3.9777457395179855E-003   2.2331330189851884E-002   0.0000000000000000     
   4.4260305795807298E-003   2.6341508525812872E-002   0.0000000000000000     
   4.8669966362872227E-003   3.0606998434024146E-002   0.0000000000000000     
   5.3006439096374607E-003   3.5127799914485731E-002   0.0000000000000000     
   1.7508810682289903E-003   1.8502981813753535E-002   0.0000000000000000     
   1.9787007371733834E-003   2.2253384171110734E-002   0.0000000000000000     
   2.2022789356552245E-003   2.6259852171425443E-002   0.0000000000000000     
   2.4216156636745123E-003   3.0522385814697670E-002   0.0000000000000000     
   2.6367109212312493E-003   3.5040985100927402E-002   0.0000000000000000     
   5.6586235330368002E-007   1.8478762155752941E-002   0.0000000000000000     
   5.9322644760948298E-007   2.2227877273345915E-002   0.0000000000000000     
   3.1193350334782774E-007   2.6233117553666935E-002   0.0000000000000000     
  -2.7801647947980847E-007   3.0494482996715994E-002   0.0000000000000000     
  -1.1766235008757973E-006   3.5011973602493106E-002   0.0000000000000000     
   1.0706646217472152E-002   3.5474839486974490E-002   0.0000000000000000     
   1.1568382016677373E-002   4.0234948704123877E-002   0.0000000000000000     
   1.2407644804679119E-002   4.5206583757020385E-002   0.0000000000000000     
   1.3224434581477391E-002   5.0389744645664016E-002   0.0000000000000000     
   1.4018751347072183E-002   5.5784431370054767E-002   0.0000000000000000     
   7.9906223417177628E-003   3.5272418043168087E-002   0.0000000000000000     
   8.6328050875761377E-003   4.0029897111445452E-002   0.0000000000000000     
   9.2593790401527022E-003   4.5000276988725885E-002   0.0000000000000000     
   9.8703441994474599E-003   5.0183557675009351E-002   0.0000000000000000     
   1.0465700565460406E-002   5.5579739170295898E-002   0.0000000000000000     
   5.3006439096374607E-003   3.5127799914485731E-002   0.0000000000000000     
   5.7258961611290609E-003   3.9883282156139399E-002   0.0000000000000000     
   6.1416771522596354E-003   4.4852814347926963E-002   0.0000000000000000     
   6.5479868830291823E-003   5.0036396489848443E-002   0.0000000000000000     
   6.9448253534377035E-003   5.5434028581903813E-002   0.0000000000000000     
   2.6367109212312493E-003   3.5040985100927402E-002   0.0000000000000000     
   2.8476552373361457E-003   3.9795103838205705E-002   0.0000000000000000     
   3.0545391409999164E-003   4.4764195834623668E-002   0.0000000000000000     
   3.2573626322225614E-003   4.9948261090181266E-002   0.0000000000000000     
   3.4561257110040803E-003   5.5347299604878511E-002   0.0000000000000000     
  -1.1766235008757973E-006   3.5011973602493106E-002   0.0000000000000000     
  -1.9176838026093053E-006   3.9765362157644382E-002   0.0000000000000000     
  -2.0349936264531850E-006   4.4734421448815960E-002   0.0000000000000000     
  -1.5285529724058645E-006   4.9919151476007825E-002   0.0000000000000000     
  -3.9836184046924093E-007   5.5319552239219999E-002   0.0000000000000000     
   1.4018751347072183E-002   5.5784431370054767E-002   0.0000000000000000     
   1.4789403163814000E-002   6.1377765827423263E-002   0.0000000000000000     
   1.5535198094053343E-002   6.7156869915000139E-002   0.0000000000000000     
   1.6256136137790214E-002   7.3121743632785355E-002   0.0000000000000000     
   1.6952217295024608E-002   7.9272386980778931E-002   0.0000000000000000     
   1.0465700565460406E-002   5.5579739170295898E-002   0.0000000000000000     
   1.1043041389022469E-002   6.1175888170102707E-002   0.0000000000000000     
   1.1599959920964577E-002   6.6959071369946985E-002   0.0000000000000000     
   1.2136456161286729E-002   7.2929288769828737E-002   0.0000000000000000     
   1.2652530109988926E-002   7.9086540369747951E-002   0.0000000000000000     
   6.9448253534377035E-003   5.5434028581903813E-002   0.0000000000000000     
   7.3292085059840787E-003   6.1032496665929352E-002   0.0000000000000000     
   7.6981522831671787E-003   6.6818586783761333E-002   0.0000000000000000     
   8.0516566849870089E-003   7.2792298935399749E-002   0.0000000000000000     
   8.3897217114435648E-003   7.8953633120844621E-002   0.0000000000000000     
   3.4561257110040803E-003   5.5347299604878511E-002   0.0000000000000000     
   3.6479045146988239E-003   6.0947591314903224E-002   0.0000000000000000     
   3.8297751806611472E-003   6.6735416156443197E-002   0.0000000000000000     
   4.0017377088910474E-003   7.2710774129498432E-002   0.0000000000000000     
   4.1637920993885255E-003   7.8873665234068940E-002   0.0000000000000000     
  -3.9836184046924093E-007   5.5319552239219999E-002   0.0000000000000000     
  -8.7058483329012330E-007   6.0921172117024303E-002   0.0000000000000000     
  -5.1713865535175972E-006   6.6709559487992565E-002   0.0000000000000000     
  -1.3300767001150931E-005   7.2684714352124757E-002   0.0000000000000000     
  -2.5258726176191236E-005   7.8846636709420895E-002   0.0000000000000000     
   1.6952217295024608E-002   7.9272386980778931E-002   0.0000000000000000     
   1.7618027312140603E-002   8.5576864582986384E-002   0.0000000000000000     
   1.8248151935522258E-002   9.2003241063413191E-002   0.0000000000000000     
   1.8842591165169575E-002   9.8551516422059338E-002   0.0000000000000000     
   1.9401345001082555E-002  0.10522169065892487        0.0000000000000000     
   1.2652530109988926E-002   7.9086540369747951E-002   0.0000000000000000     
   1.3148064391308991E-002   8.5397946594212557E-002   0.0000000000000000     
   1.3622941629484745E-002   9.1830627867730455E-002   0.0000000000000000     
   1.4077161824516189E-002   9.8384584190301660E-002   0.0000000000000000     
   1.4510724976403322E-002  0.10505981556192615        0.0000000000000000     
   8.3897217114435648E-003   7.8953633120844621E-002   0.0000000000000000     
   8.7161967704655237E-003   8.5269350876961497E-002   0.0000000000000000     
   9.0349312699815540E-003   9.1706213740615994E-002   0.0000000000000000     
   9.3459252099916609E-003   9.8264221711808097E-002   0.0000000000000000     
   9.6491785904958358E-003  0.10494337479053781        0.0000000000000000     
   4.1637920993885255E-003   7.8873665234068940E-002   0.0000000000000000     
   4.3224244496101998E-003   8.5191077431233206E-002   0.0000000000000000     
   4.4841208570126851E-003   9.1629998682069794E-002   0.0000000000000000     
   4.6488813215959848E-003   9.8190428986578648E-002   0.0000000000000000     
   4.8167058433600972E-003  0.10487236834475983        0.0000000000000000     
  -2.5258726176191236E-005   7.8846636709420895E-002   0.0000000000000000     
  -3.3252571256980629E-005   8.5163126257027683E-002   0.0000000000000000     
  -2.9489609421861935E-005   9.1601982692091855E-002   0.0000000000000000     
  -1.3969840670833214E-005   9.8163206014613341E-002   0.0000000000000000     
   1.3306734996103298E-005  0.10484679622459220        0.0000000000000000     
   1.9401345001082555E-002  0.10522169065892487        0.0000000000000000     
   1.9954672301542187E-002  0.11210250834335568        0.0000000000000000     
   2.0532831924829454E-002  0.11928271404469780        0.0000000000000000     
   2.1135823870944360E-002  0.12676230776295122        0.0000000000000000     
   2.1763648139886894E-002  0.13454128949811592        0.0000000000000000     
   1.4510724976403322E-002  0.10505981556192615        0.0000000000000000     
   1.4936576492792586E-002  0.11194465506729896        0.0000000000000000     
   1.5367661781330422E-002  0.11912743579111508        0.0000000000000000     
   1.5803980842016823E-002  0.12660815773337453        0.0000000000000000     
   1.6245533674851799E-002  0.13438682089407730        0.0000000000000000     
   9.6491785904958358E-003  0.10494337479053781        0.0000000000000000     
   9.9441772791461890E-003  0.11183127782909671        0.0000000000000000     
   1.0230407143594819E-002  0.11901553567977638        0.0000000000000000     
   1.0507868183841721E-002  0.12649614834257680        0.0000000000000000     
   1.0776560399886902E-002  0.13427311581749801        0.0000000000000000     
   4.8167058433600972E-003  0.10487236834475983        0.0000000000000000     
   4.9774746606029933E-003  0.11176237662874895        0.0000000000000000     
   5.1210680116226441E-003  0.11894701371068168        0.0000000000000000     
   5.2474858964190515E-003  0.12642627959055802        0.0000000000000000     
   5.3567283149922153E-003  0.13420017426837799        0.0000000000000000     
   1.3306734996103298E-005  0.10484679622459220        0.0000000000000000     
   3.6468637162997931E-005  0.11173795146625567        0.0000000000000000     
   3.9644385413900910E-005  0.11892186988383099        0.0000000000000000     
   2.2833979748811123E-005  0.12639855147731821        0.0000000000000000     
  -1.3962579832268746E-005  0.13416799624671732        0.0000000000000000     
   2.1763648139886894E-002  0.13454128949811592        0.0000000000000000     
   2.2358586908998127E-002  0.14241660934930914        0.0000000000000000     
   2.2862922355619115E-002  0.15018521741564819        0.0000000000000000     
   2.3276654479749848E-002  0.15784711369713303        0.0000000000000000     
   2.3599783281390337E-002  0.16540229819376373        0.0000000000000000     
   1.6245533674851799E-002  0.13438682089407730        0.0000000000000000     
   1.6668531969398145E-002  0.14225871499940437        0.0000000000000000     
   1.7049187415218679E-002  0.15001912977553672        0.0000000000000000     
   1.7387500012313397E-002  0.15766806522247434        0.0000000000000000     
   1.7683469760682299E-002  0.16520552134021721        0.0000000000000000     
   1.0776560399886902E-002  0.13427311581749801        0.0000000000000000     
   1.1037863413701618E-002  0.14214243112205796        0.0000000000000000     
   1.1293156847257129E-002  0.14990008727377466        0.0000000000000000     
   1.1542440700553439E-002  0.15754608427264805        0.0000000000000000     
   1.1785714973590541E-002  0.16508042211867827        0.0000000000000000     
   5.3567283149922153E-003  0.13420017426837799        0.0000000000000000     
   5.4665812419085486E-003  0.14206775771726990        0.0000000000000000     
   5.5948306517344670E-003  0.14982808991036198        0.0000000000000000     
   5.7414765444699697E-003  0.15748117084765431        0.0000000000000000     
   5.9065189201150600E-003  0.16502700052914687        0.0000000000000000     
  -1.3962579832268746E-005  0.13416799624671732        0.0000000000000000     
  -4.5314545981067723E-005  0.14203469478504019        0.0000000000000000     
  -4.5791171349313423E-005  0.14980313768529877        0.0000000000000000     
  -1.5392455937004735E-005  0.15747332494749308        0.0000000000000000     
   4.5881600255857392E-005  0.16504525657162308        0.0000000000000000     
   0.0000000000000000        0.0000000000000000        0.0000000000000000     
   5.6703406766631407E-008   1.0733983962190553E-003   0.0000000000000000     
   1.0281117395833294E-007   2.5157403852058566E-003   0.0000000000000000     
   1.3832330157502329E-007   4.3270259669604041E-003   0.0000000000000000     
   1.6323978961689219E-007   6.5072551414826979E-003   0.0000000000000000     
   0.0000000000000000        0.0000000000000000        0.0000000000000000     
  -2.1294753101915389E-004   1.0757513953252556E-003   0.0000000000000000     
  -4.2688630405218666E-004   2.5209638622288432E-003   0.0000000000000000     
  -6.4181631909909819E-004   4.3356374007107639E-003   0.0000000000000000     
  -8.5773757615988891E-004   6.5197720107710170E-003   0.0000000000000000     
   0.0000000000000000        0.0000000000000000        0.0000000000000000     
  -4.2423139032917280E-004   1.0826392498862580E-003   0.0000000000000000     
  -8.5290331114736473E-004   2.5364447080654501E-003   0.0000000000000000     
  -1.2860157624545755E-003   4.3614163745375762E-003   0.0000000000000000     
  -1.7235687442508057E-003   6.5575542493026377E-003   0.0000000000000000     
   0.0000000000000000        0.0000000000000000        0.0000000000000000     
  -6.3379487452329018E-004   1.0940619599020629E-003   0.0000000000000000     
  -1.2779482101115758E-003   2.5621829227156774E-003   0.0000000000000000     
  -1.9324600067648571E-003   4.4043628884408419E-003   0.0000000000000000     
  -2.5973302644831339E-003   6.6206018570775585E-003   0.0000000000000000     
   0.0000000000000000        0.0000000000000000        0.0000000000000000     
  -8.4163798360150591E-004   1.1100195253726699E-003   0.0000000000000000     
  -1.7020210009448201E-003   2.5981785061795237E-003   0.0000000000000000     
  -2.5811490520299429E-003   4.4644769424205619E-003   0.0000000000000000     
  -3.4790221368568735E-003   6.7089148340957827E-003   0.0000000000000000     
   1.6323978961689219E-007   6.5072551414826979E-003   0.0000000000000000     
   2.0311770103816345E-007   9.0290000580542130E-003   0.0000000000000000     
   2.8351409879291180E-007   1.1864832865956423E-002   0.0000000000000000     
   4.0442898288166917E-007   1.5014753565189337E-002   0.0000000000000000     
   5.6586235330368002E-007   1.8478762155752941E-002   0.0000000000000000     
  -8.5773757615988891E-004   6.5197720107710170E-003   0.0000000000000000     
  -1.0758014831528529E-003   9.0454113346515441E-003   0.0000000000000000     
  -1.2971594479962863E-003   1.1884599014594295E-002   0.0000000000000000     
  -1.5218114706901889E-003   1.5037335050599263E-002   0.0000000000000000     
  -1.7497575512345595E-003   1.8503619442666455E-002   0.0000000000000000     
  -1.7235687442508057E-003   6.5575542493026377E-003   0.0000000000000000     
  -2.1657408344057535E-003   9.0950833844686864E-003   0.0000000000000000     
  -2.6127106107891162E-003   1.1944228832143786E-002   0.0000000000000000     
  -3.0644780734008954E-003   1.5104990592327925E-002   0.0000000000000000     
  -3.5210432222410903E-003   1.8577368665021111E-002   0.0000000000000000     
  -2.5973302644831339E-003   6.6206018570775585E-003   0.0000000000000000     
  -3.2696149360576616E-003   9.1780162075056383E-003   0.0000000000000000     
  -3.9463699742796959E-003   1.2043722318604890E-002   0.0000000000000000     
  -4.6275953791492372E-003   1.5217720190375313E-002   0.0000000000000000     
  -5.3132911506662854E-003   1.8700009822816908E-002   0.0000000000000000     
  -3.4790221368568735E-003   6.7089148340957827E-003   0.0000000000000000     
  -4.3874237881085798E-003   9.2942098037623981E-003   0.0000000000000000     
  -5.2981375384680267E-003   1.2183079473977615E-002   0.0000000000000000     
  -6.2111633879352174E-003   1.5375523844741437E-002   0.0000000000000000     
  -7.1265013365101482E-003   1.8871542916053859E-002   0.0000000000000000     
   5.6586235330368002E-007   1.8478762155752941E-002   0.0000000000000000     
   5.9322644760948298E-007   2.2227877273345915E-002   0.0000000000000000     
   3.1193350334782774E-007   2.6233117553666935E-002   0.0000000000000000     
  -2.7801647947980847E-007   3.0494482996715994E-002   0.0000000000000000     
  -1.1766235008757973E-006   3.5011973602493106E-002   0.0000000000000000     
  -1.7497575512345595E-003   1.8503619442666455E-002   0.0000000000000000     
  -1.9775139852204870E-003   2.2254495039702990E-002   0.0000000000000000     
  -2.2015970682390572E-003   2.6261004690615989E-002   0.0000000000000000     
  -2.4220068002902689E-003   3.0523148395405465E-002   0.0000000000000000     
  -2.6387431813741247E-003   3.5040926154071408E-002   0.0000000000000000     
  -3.5210432222410903E-003   1.8577368665021111E-002   0.0000000000000000     
  -3.9765580903920556E-003   2.2332923013327500E-002   0.0000000000000000     
  -4.4251747109361481E-003   2.6343213600351259E-002   0.0000000000000000     
  -4.8668930838733672E-003   3.0608240426092378E-002   0.0000000000000000     
  -5.3017132092037129E-003   3.5128003490550869E-002   0.0000000000000000     
  -5.3132911506662854E-003   1.8700009822816908E-002   0.0000000000000000     
  -5.9965390890670970E-003   2.2463161194219462E-002   0.0000000000000000     
  -6.6704209945879249E-003   2.6479744282872735E-002   0.0000000000000000     
  -7.3349368672287725E-003   3.0749759088776744E-002   0.0000000000000000     
  -7.9900867069896374E-003   3.5273205611931466E-002   0.0000000000000000     
  -7.1265013365101482E-003   1.8871542916053859E-002   0.0000000000000000     
  -8.0374569812456092E-003   2.2645209582378860E-002   0.0000000000000000     
  -8.9373359191943884E-003   2.6670596738180428E-002   0.0000000000000000     
  -9.8261381503564858E-003   3.0947704383458549E-002   0.0000000000000000     
  -1.0703863674731902E-002   3.5476532518213234E-002   0.0000000000000000     
  -1.1766235008757973E-006   3.5011973602493106E-002   0.0000000000000000     
  -1.9176838026093053E-006   3.9765362157644382E-002   0.0000000000000000     
  -2.0349936264531850E-006   4.4734421448815960E-002   0.0000000000000000     
  -1.5285529724058645E-006   4.9919151476007825E-002   0.0000000000000000     
  -3.9836184046924093E-007   5.5319552239219999E-002   0.0000000000000000     
  -2.6387431813741247E-003   3.5040926154071408E-002   0.0000000000000000     
  -2.8510359217005224E-003   3.9794426206158633E-002   0.0000000000000000     
  -3.0581147314793604E-003   4.4763736791211969E-002   0.0000000000000000     
  -3.2599796107106362E-003   4.9948857909231412E-002   0.0000000000000000     
  -3.4566305593943525E-003   5.5349789560216953E-002   0.0000000000000000     
  -5.3017132092037129E-003   3.5128003490550869E-002   0.0000000000000000     
  -5.7279127957709118E-003   3.9882665075451684E-002   0.0000000000000000     
  -6.1437695524186892E-003   4.4852387462519822E-002   0.0000000000000000     
  -6.5492834791470479E-003   5.0037170651755260E-002   0.0000000000000000     
  -6.9444545759559835E-003   5.5437014643158006E-002   0.0000000000000000     
  -7.9900867069896374E-003   3.5273205611931466E-002   0.0000000000000000     
  -8.6325483060137789E-003   4.0030078765523523E-002   0.0000000000000000     
  -9.2589994564444434E-003   4.5000373462739496E-002   0.0000000000000000     
  -9.8694401582816380E-003   5.0184089703579370E-002   0.0000000000000000     
  -1.0463870411525361E-002   5.5581227488043172E-002   0.0000000000000000     
  -1.0703863674731902E-002   3.5476532518213234E-002   0.0000000000000000     
  -1.1564942452429118E-002   4.0236667276374156E-002   0.0000000000000000     
  -1.2403804443556621E-002   4.5207694791871013E-002   0.0000000000000000     
  -1.3220449648114412E-002   5.0389615064703769E-002   0.0000000000000000     
  -1.4014878066102486E-002   5.5782428094872459E-002   0.0000000000000000     
  -3.9836184046924093E-007   5.5319552239219999E-002   0.0000000000000000     
  -8.7058483329012330E-007   6.0921172117024303E-002   0.0000000000000000     
  -5.1713865535175972E-006   6.6709559487992565E-002   0.0000000000000000     
  -1.3300767001150931E-005   7.2684714352124757E-002   0.0000000000000000     
  -2.5258726176191236E-005   7.8846636709420895E-002   0.0000000000000000     
  -3.4566305593943525E-003   5.5349789560216953E-002   0.0000000000000000     
  -3.6492429338542340E-003   6.0951579165142405E-002   0.0000000000000000     
  -3.8389920904140012E-003   6.6739274144981542E-002   0.0000000000000000     
  -4.0258780290736559E-003   7.2712874499734403E-002   0.0000000000000000     
  -4.2099007498331981E-003   7.8872380229400962E-002   0.0000000000000000     
  -6.9444545759559835E-003   5.5437014643158006E-002   0.0000000000000000     
  -7.3293386736059734E-003   6.1037152552107281E-002   0.0000000000000000     
  -7.7039916028574899E-003   6.6822817493982292E-002   0.0000000000000000     
  -8.0684133637105339E-003   7.2794009468783033E-002   0.0000000000000000     
  -8.4226039561651062E-003   7.8950728476509524E-002   0.0000000000000000     
  -1.0463870411525361E-002   5.5581227488043172E-002   0.0000000000000000     
  -1.1041157804088509E-002   6.1177892277918963E-002   0.0000000000000000     
  -1.1600169923883987E-002   6.6960189534994802E-002   0.0000000000000000     
  -1.2140906770911786E-002   7.2928119259270702E-002   0.0000000000000000     
  -1.2663368345171910E-002   7.9081681450746621E-002   0.0000000000000000     
  -1.4014878066102486E-002   5.5782428094872459E-002   0.0000000000000000     
  -1.4784700325301844E-002   6.1373798342577439E-002   0.0000000000000000     
  -1.5527527053493487E-002   6.7151390268019057E-002   0.0000000000000000     
  -1.6243358250677416E-002   7.3115203871197326E-002   0.0000000000000000     
  -1.6932193916853622E-002   7.9265239152112241E-002   0.0000000000000000     
  -2.5258726176191236E-005   7.8846636709420895E-002   0.0000000000000000     
  -3.3252571256980629E-005   8.5163126257027683E-002   0.0000000000000000     
  -2.9489609421861935E-005   9.1601982692091855E-002   0.0000000000000000     
  -1.3969840670833214E-005   9.8163206014613341E-002   0.0000000000000000     
   1.3306734996103298E-005  0.10484679622459220        0.0000000000000000     
  -4.2099007498331981E-003   7.8872380229400962E-002   0.0000000000000000     
  -4.3831576585429280E-003   8.5186387224432003E-002   0.0000000000000000     
  -4.5377461610531461E-003   9.1623491375278351E-002   0.0000000000000000     
  -4.6736662573638541E-003   9.8183692681939994E-002   0.0000000000000000     
  -4.7909179474750494E-003  0.10486699114441692        0.0000000000000000     
  -8.4226039561651062E-003   7.8950728476509524E-002   0.0000000000000000     
  -8.7596141786545519E-003   8.5261750203533188E-002   0.0000000000000000     
  -9.0724948296122283E-003   9.1695850336225515E-002   0.0000000000000000     
  -9.3612459090381319E-003   9.8253028874586465E-002   0.0000000000000000     
  -9.6258674169322645E-003  0.10493328581861605        0.0000000000000000     
  -1.2663368345171910E-002   7.9081681450746621E-002   0.0000000000000000     
  -1.3162622131591854E-002   8.5389215194331278E-002   0.0000000000000000     
  -1.3633735615099110E-002   9.1819059574933318E-002   0.0000000000000000     
  -1.4076708795693671E-002   9.8371214592552755E-002   0.0000000000000000     
  -1.4491541673375543E-002  0.10504568024718959        0.0000000000000000     
  -1.6932193916853622E-002   7.9265239152112241E-002   0.0000000000000000     
  -1.7592181517354834E-002   8.5568782196826246E-002   0.0000000000000000     
  -1.8221468517513786E-002   9.1993119091401787E-002   0.0000000000000000     
  -1.8820054917330471E-002   9.8538249835838865E-002   0.0000000000000000     
  -1.9387940716804886E-002  0.10520417443013749        0.0000000000000000     
   1.3306734996103298E-005  0.10484679622459220        0.0000000000000000     
   3.6468637162997931E-005  0.11173795146625567        0.0000000000000000     
   3.9644385413900910E-005  0.11892186988383099        0.0000000000000000     
   2.2833979748811123E-005  0.12639855147731821        0.0000000000000000     
  -1.3962579832268746E-005  0.13416799624671732        0.0000000000000000     
  -4.7909179474750494E-003  0.10486699114441692        0.0000000000000000     
  -4.9087499229272516E-003  0.11175751076034364        0.0000000000000000     
  -5.0464108752609795E-003  0.11893937552735452        0.0000000000000000     
  -5.2039008044762339E-003  0.12641258544544964        0.0000000000000000     
  -5.3812197105730097E-003  0.13417714051462895        0.0000000000000000     
  -9.6258674169322645E-003  0.10493328581861605        0.0000000000000000     
  -9.8880901514212145E-003  0.11182056292973962        0.0000000000000000     
  -1.0169644910631563E-002  0.11899880196938248        0.0000000000000000     
  -1.0470531694563318E-002  0.12646800293754457        0.0000000000000000     
  -1.0790750503216474E-002  0.13422816583422600        0.0000000000000000     
  -1.4491541673375543E-002  0.10504568024718959        0.0000000000000000     
  -1.4901552048318884E-002  0.11192710797444365        0.0000000000000000     
  -1.5330057720697850E-002  0.11910014920991480        0.0000000000000000     
  -1.5777058690512442E-002  0.12656480395360306        0.0000000000000000     
  -1.6242554957762657E-002  0.13432107220550840        0.0000000000000000     
  -1.9387940716804886E-002  0.10520417443013749        0.0000000000000000     
  -1.9949135613620269E-002  0.11207714589445569        0.0000000000000000     
  -2.0527649305459843E-002  0.11924341724895156        0.0000000000000000     
  -2.1123481792323606E-002  0.12670298849362505        0.0000000000000000     
  -2.1736633074211562E-002  0.13445585962847620        0.0000000000000000     
  -1.3962579832268746E-005  0.13416799624671732        0.0000000000000000     
  -4.5314545981067723E-005  0.14203469478504019        0.0000000000000000     
  -4.5791171349313423E-005  0.14980313768529877        0.0000000000000000     
  -1.5392455937004735E-005  0.15747332494749308        0.0000000000000000     
   4.5881600255857392E-005  0.16504525657162308        0.0000000000000000     
  -5.3812197105730097E-003  0.13417714051462895        0.0000000000000000     
  -5.5490768099111651E-003  0.14204258065599970        0.0000000000000000     
  -5.6781813188505441E-003  0.14981844579066911        0.0000000000000000     
  -5.7685332373911529E-003  0.15750473591863717        0.0000000000000000     
  -5.8201325655329855E-003  0.16510145103990392        0.0000000000000000     
  -1.0790750503216474E-002  0.13422816583422600        0.0000000000000000     
  -1.1095958409825675E-002  0.14209075366077931        0.0000000000000000     
  -1.1351812487625561E-002  0.14986722941855712        0.0000000000000000     
  -1.1558312736616132E-002  0.15755759310755957        0.0000000000000000     
  -1.1715459156797392E-002  0.16516184472778656        0.0000000000000000     
  -1.6242554957762657E-002  0.13432107220550840        0.0000000000000000     
  -1.6685959345724602E-002  0.14217921379937898        0.0000000000000000     
  -1.7066684677674367E-002  0.14994948856896290        0.0000000000000000     
  -1.7384730953611951E-002  0.15763189651426027        0.0000000000000000     
  -1.7640098173537358E-002  0.16522643763527087        0.0000000000000000     
  -2.1736633074211562E-002  0.13445585962847620        0.0000000000000000     
  -2.2319079617607943E-002  0.14230796107179874        0.0000000000000000     
  -2.2822797888996951E-002  0.15006522324188640        0.0000000000000000     
  -2.3247787888378606E-002  0.15772764613873913        0.0000000000000000     
  -2.3594049615752892E-002  0.16529522976235697        0.0000000000000000     
   0.0000000000000000        0.0000000000000000        0.0000000000000000     
  -8.4163798360150591E-004   1.1100195253726699E-003   0.0000000000000000     
  -1.7020210009448201E-003   2.5981785061795237E-003   0.0000000000000000     
  -2.5811490520299429E-003   4.4644769424205619E-003   0.0000000000000000     
  -3.4790221368568735E-003   6.7089148340957827E-003   0.0000000000000000     
   0.0000000000000000        0.0000000000000000        0.0000000000000000     
  -1.0566649649716919E-003   1.1341080897504371E-003   0.0000000000000000     
  -2.1396633213092565E-003   2.6503237292795885E-003   0.0000000000000000     
  -3.2489950690126933E-003   4.5486469185874543E-003   0.0000000000000000     
  -4.3846602080820033E-003   6.8290776576740361E-003   0.0000000000000000     
   0.0000000000000000        0.0000000000000000        0.0000000000000000     
  -1.2877800660417191E-003   1.1699237964877217E-003   0.0000000000000000     
  -2.6054168088670421E-003   2.7245108628384698E-003   0.0000000000000000     
  -3.9529102284759695E-003   4.6637611990522458E-003   0.0000000000000000     
  -5.3302603248685000E-003   6.9876748051290469E-003   0.0000000000000000     
   0.0000000000000000        0.0000000000000000        0.0000000000000000     
  -1.5349832868115883E-003   1.2174666455845239E-003   0.0000000000000000     
  -3.0992814636181792E-003   2.8207399068561679E-003   0.0000000000000000     
  -4.6928945304197701E-003   4.8098197838149313E-003   0.0000000000000000     
  -6.3158224872163649E-003   7.1847062764608142E-003   0.0000000000000000     
   0.0000000000000000        0.0000000000000000        0.0000000000000000     
  -1.7982746272812993E-003   1.2767366370408438E-003   0.0000000000000000     
  -3.6212572855626652E-003   2.9390108613326815E-003   0.0000000000000000     
  -5.4689479748440979E-003   4.9868226728755141E-003   0.0000000000000000     
  -7.3413466951255980E-003   7.4201720716693407E-003   0.0000000000000000     
  -3.4790221368568735E-003   6.7089148340957827E-003   0.0000000000000000     
  -4.3874237881085798E-003   9.2942098037623981E-003   0.0000000000000000     
  -5.2981375384680267E-003   1.2183079473977615E-002   0.0000000000000000     
  -6.2111633879352174E-003   1.5375523844741437E-002   0.0000000000000000     
  -7.1265013365101482E-003   1.8871542916053859E-002   0.0000000000000000     
  -4.3846602080820033E-003   6.8290776576740361E-003   0.0000000000000000     
  -5.5337137952479812E-003   9.4496003879582027E-003   0.0000000000000000     
  -6.6832108872414211E-003   1.2368199550858827E-002   0.0000000000000000     
  -7.8331514840623215E-003   1.5584875146375909E-002   0.0000000000000000     
  -8.9835355857106874E-003   1.9099627174509446E-002   0.0000000000000000     
  -5.3302603248685000E-003   6.9876748051290469E-003   0.0000000000000000     
  -6.7230313621653385E-003   9.6501241748122926E-003   0.0000000000000000     
  -8.1167876044871846E-003   1.2604981801845399E-002   0.0000000000000000     
  -9.5115290518340417E-003   1.5852247686228362E-002   0.0000000000000000     
  -1.0907255704205905E-002   1.9391921827961182E-002   0.0000000000000000     
  -6.3158224872163649E-003   7.1847062764608142E-003   0.0000000000000000     
  -7.9553764888606517E-003   9.8957811643246643E-003   0.0000000000000000     
  -9.5988676902053222E-003   1.2893426226937321E-002   0.0000000000000000     
  -1.1246296091250373E-002   1.6177641464298786E-002   0.0000000000000000     
  -1.2897661691995809E-002   1.9748426876409063E-002   0.0000000000000000     
  -7.3413466951255980E-003   7.4201720716693407E-003   0.0000000000000000     
  -9.2307491753339209E-003   1.0186571356495318E-002   0.0000000000000000     
  -1.1129451144395829E-002   1.3233532826134603E-002   0.0000000000000000     
  -1.3037452602311319E-002   1.6561056480587193E-002   0.0000000000000000     
  -1.4954753549080392E-002   2.0169142319853089E-002   0.0000000000000000     
  -7.1265013365101482E-003   1.8871542916053859E-002   0.0000000000000000     
  -8.0374569812456092E-003   2.2645209582378860E-002   0.0000000000000000     
  -8.9373359191943884E-003   2.6670596738180428E-002   0.0000000000000000     
  -9.8261381503564858E-003   3.0947704383458549E-002   0.0000000000000000     
  -1.0703863674731902E-002   3.5476532518213234E-002   0.0000000000000000     
  -8.9835355857106874E-003   1.9099627174509446E-002   0.0000000000000000     
  -1.0127156087361323E-002   2.2887689010597255E-002   0.0000000000000000     
  -1.1256805884189045E-002   2.6924294029977137E-002   0.0000000000000000     
  -1.2372484976193851E-002   3.1209442232649091E-002   0.0000000000000000     
  -1.3474193363375743E-002   3.5743133618613122E-002   0.0000000000000000     
  -1.0907255704205905E-002   1.9391921827961182E-002   0.0000000000000000     
  -1.2293480727847965E-002   2.3199220311666182E-002   0.0000000000000000     
  -1.3659717289005401E-002   2.7249359221965669E-002   0.0000000000000000     
  -1.5005965387678214E-002   3.1542338558859642E-002   0.0000000000000000     
  -1.6332225023866404E-002   3.6078158322348099E-002   0.0000000000000000     
  -1.2897661691995809E-002   1.9748426876409063E-002   0.0000000000000000     
  -1.4536430902705531E-002   2.3579803485585644E-002   0.0000000000000000     
  -1.6146070133643449E-002   2.7645792314146028E-002   0.0000000000000000     
  -1.7726579384809572E-002   3.1946393362090202E-002   0.0000000000000000     
  -1.9277958656203884E-002   3.6481606629418177E-002   0.0000000000000000     
  -1.4954753549080392E-002   2.0169142319853089E-002   0.0000000000000000     
  -1.6856006611934024E-002   2.4029438532355642E-002   0.0000000000000000     
  -1.8715864418103204E-002   2.8113593306518206E-002   0.0000000000000000     
  -2.0534326967587922E-002   3.2421606642340769E-002   0.0000000000000000     
  -2.2311394260388182E-002   3.6953478539823337E-002   0.0000000000000000     
  -1.0703863674731902E-002   3.5476532518213234E-002   0.0000000000000000     
  -1.1564942452429118E-002   4.0236667276374156E-002   0.0000000000000000     
  -1.2403804443556621E-002   4.5207694791871013E-002   0.0000000000000000     
  -1.3220449648114412E-002   5.0389615064703769E-002   0.0000000000000000     
  -1.4014878066102486E-002   5.5782428094872459E-002   0.0000000000000000     
  -1.3474193363375743E-002   3.5743133618613122E-002   0.0000000000000000     
  -1.4554624619894855E-002   4.0505244663213813E-002   0.0000000000000000     
  -1.5606472319911321E-002   4.5475651841795764E-002   0.0000000000000000     
  -1.6629736463425145E-002   5.0654355154358961E-002   0.0000000000000000     
  -1.7624417050436325E-002   5.6041354600903412E-002   0.0000000000000000     
  -1.6332225023866404E-002   3.6078158322348099E-002   0.0000000000000000     
  -1.7631124193288904E-002   4.0838624981252722E-002   0.0000000000000000     
  -1.8895290891664644E-002   4.5805545004395168E-002   0.0000000000000000     
  -2.0124725118993620E-002   5.0978918391775457E-002   0.0000000000000000     
  -2.1319426875275844E-002   5.6358745143393570E-002   0.0000000000000000     
  -1.9277958656203884E-002   3.6481606629418177E-002   0.0000000000000000     
  -2.0794441172611266E-002   4.1236808230490876E-002   0.0000000000000000     
  -2.2270260158816585E-002   4.6197374279669239E-002   0.0000000000000000     
  -2.3705415614819845E-002   5.1363304776953250E-002   0.0000000000000000     
  -2.5099907540621049E-002   5.6734599722342946E-002   0.0000000000000000     
  -2.2311394260388182E-002   3.6953478539823337E-002   0.0000000000000000     
  -2.4044575557861939E-002   4.1699794410928283E-002   0.0000000000000000     
  -2.5731380121367147E-002   4.6651139667617955E-002   0.0000000000000000     
  -2.7371807950903812E-002   5.1807514309892375E-002   0.0000000000000000     
  -2.8965859046471931E-002   5.7168918337751527E-002   0.0000000000000000     
  -1.4014878066102486E-002   5.5782428094872459E-002   0.0000000000000000     
  -1.4784700325301844E-002   6.1373798342577439E-002   0.0000000000000000     
  -1.5527527053493487E-002   6.7151390268019057E-002   0.0000000000000000     
  -1.6243358250677416E-002   7.3115203871197326E-002   0.0000000000000000     
  -1.6932193916853622E-002   7.9265239152112241E-002   0.0000000000000000     
  -1.7624417050436325E-002   5.6041354600903412E-002   0.0000000000000000     
  -1.8587121383752882E-002   6.1625857563393345E-002   0.0000000000000000     
  -1.9514456766182846E-002   6.7397071423793031E-002   0.0000000000000000     
  -2.0406423197726207E-002   7.3354996182102408E-002   0.0000000000000000     
  -2.1263020678382979E-002   7.9499631838321552E-002   0.0000000000000000     
  -2.1319426875275844E-002   5.6358745143393570E-002   0.0000000000000000     
  -2.2475576125948533E-002   6.1935056757677347E-002   0.0000000000000000     
  -2.3589352836448901E-002   6.7697884733054631E-002   0.0000000000000000     
  -2.4660757006776966E-002   7.3647229069525422E-002   0.0000000000000000     
  -2.5689788636932727E-002   7.9783089767089727E-002   0.0000000000000000     
  -2.5099907540621049E-002   5.6734599722342946E-002   0.0000000000000000     
  -2.6450064551888787E-002   6.2301395925429437E-002   0.0000000000000000     
  -2.7752215264291669E-002   6.8053830195803897E-002   0.0000000000000000     
  -2.9006359677829694E-002   7.3991902533466353E-002   0.0000000000000000     
  -3.0212497792502860E-002   8.0115612938416750E-002   0.0000000000000000     
  -2.8965859046471931E-002   5.7168918337751527E-002   0.0000000000000000     
  -3.0510586661573656E-002   6.2724875066649602E-002   0.0000000000000000     
  -3.2003044049711139E-002   6.8464907812040829E-002   0.0000000000000000     
  -3.3443231210884390E-002   7.4389016573925160E-002   0.0000000000000000     
  -3.4831148145093402E-002   8.0497201352302622E-002   0.0000000000000000     
  -1.6932193916853622E-002   7.9265239152112241E-002   0.0000000000000000     
  -1.7592181517354834E-002   8.5568782196826246E-002   0.0000000000000000     
  -1.8221468517513786E-002   9.1993119091401787E-002   0.0000000000000000     
  -1.8820054917330471E-002   9.8538249835838865E-002   0.0000000000000000     
  -1.9387940716804886E-002  0.10520417443013749        0.0000000000000000     
  -2.1263020678382979E-002   7.9499631838321552E-002   0.0000000000000000     
  -2.2084699770105295E-002   8.5797423978695483E-002   0.0000000000000000     
  -2.2871911034845333E-002   9.2214818189469361E-002   0.0000000000000000     
  -2.3624654472603084E-002   9.8751814470643171E-002   0.0000000000000000     
  -2.4342930083378549E-002  0.10540841282221690        0.0000000000000000     
  -2.5689788636932727E-002   7.9783089767089727E-002   0.0000000000000000     
  -2.6676584324005045E-002   8.6072113307616438E-002   0.0000000000000000     
  -2.7621280665082834E-002   9.2480946172974546E-002   0.0000000000000000     
  -2.8523877660166078E-002   9.9009588363164022E-002   0.0000000000000000     
  -2.9384375309254786E-002  0.10565803987818491        0.0000000000000000     
  -3.0212497792502860E-002   8.0115612938416750E-002   0.0000000000000000     
  -3.1367835179054088E-002   8.6392850183589068E-002   0.0000000000000000     
  -3.2469577408226279E-002   9.2791503041917314E-002   0.0000000000000000     
  -3.3517724480019460E-002   9.9311571513401461E-002   0.0000000000000000     
  -3.4512276394433598E-002  0.10595305559804154        0.0000000000000000     
  -3.4831148145093402E-002   8.0497201352302622E-002   0.0000000000000000     
  -3.6158452335252403E-002   8.6759634606613387E-002   0.0000000000000000     
  -3.7416801264275684E-002   9.3146488796297680E-002   0.0000000000000000     
  -3.8606194932163204E-002   9.9657763921355461E-002   0.0000000000000000     
  -3.9726633338914991E-002  0.10629345998178677        0.0000000000000000     
  -1.9387940716804886E-002  0.10520417443013749        0.0000000000000000     
  -1.9949135613620269E-002  0.11207714589445569        0.0000000000000000     
  -2.0527649305459843E-002  0.11924341724895156        0.0000000000000000     
  -2.1123481792323606E-002  0.12670298849362505        0.0000000000000000     
  -2.1736633074211562E-002  0.13445585962847620        0.0000000000000000     
  -2.4342930083378549E-002  0.10540841282221690        0.0000000000000000     
  -2.5053150385969839E-002  0.11227172145069240        0.0000000000000000     
  -2.5781727899175058E-002  0.11942884856257158        0.0000000000000000     
  -2.6528662622994227E-002  0.12687979415785441        0.0000000000000000     
  -2.7293954557427336E-002  0.13462455823654093        0.0000000000000000     
  -2.9384375309254786E-002  0.10565803987818491        0.0000000000000000     
  -3.0235905904012067E-002  0.11251187940407038        0.0000000000000000     
  -3.1111601736101051E-002  0.11965668562685375        0.0000000000000000     
  -3.2011462805521730E-002  0.12709245854653495        0.0000000000000000     
  -3.2935489112274112E-002  0.13481919816311402        0.0000000000000000     
  -3.4512276394433598E-002  0.10595305559804154        0.0000000000000000     
  -3.5497402167746960E-002  0.11279761975458967        0.0000000000000000     
  -3.6517270816237797E-002  0.11992692844179803        0.0000000000000000     
  -3.7571882339906111E-002  0.12734098165966665        0.0000000000000000     
  -3.8661236738751881E-002  0.13503977940819550        0.0000000000000000     
  -3.9726633338914991E-002  0.10629345998178677        0.0000000000000000     
  -4.0837639177174527E-002  0.11312894250225021        0.0000000000000000     
  -4.1998735139585318E-002  0.12023957700740445        0.0000000000000000     
  -4.3209921226147363E-002  0.12762536349724954        0.0000000000000000     
  -4.4471197436860670E-002  0.13528630197178537        0.0000000000000000     
  -2.1736633074211562E-002  0.13445585962847620        0.0000000000000000     
  -2.2319079617607943E-002  0.14230796107179874        0.0000000000000000     
  -2.2822797888996951E-002  0.15006522324188640        0.0000000000000000     
  -2.3247787888378606E-002  0.15772764613873913        0.0000000000000000     
  -2.3594049615752892E-002  0.16529522976235697        0.0000000000000000     
  -2.7293954557427336E-002  0.13462455823654093        0.0000000000000000     
  -2.8018918804067219E-002  0.14246557362378814        0.0000000000000000     
  -2.8644870464506731E-002  0.15020527314475318        0.0000000000000000     
  -2.9171809538745860E-002  0.15784365679943602        0.0000000000000000     
  -2.9599736026784614E-002  0.16538072458783659        0.0000000000000000     
  -3.2935489112274112E-002  0.13481919816311402        0.0000000000000000     
  -3.3809076483693960E-002  0.14264062960109675        0.0000000000000000     
  -3.4557620747117095E-002  0.15036047798498892        0.0000000000000000     
  -3.5181121902543480E-002  0.15797874331479053        0.0000000000000000     
  -3.5679579949973152E-002  0.16549542559050159        0.0000000000000000     
  -3.8661236738751881E-002  0.13503977940819550        0.0000000000000000     
  -3.9689552656488186E-002  0.14283312900372452        0.0000000000000000     
  -4.0561048736828045E-002  0.15053083776259357        0.0000000000000000     
  -4.1275724979771500E-002  0.15813290568480270        0.0000000000000000     
  -4.1833581385318515E-002  0.16563933277035189        0.0000000000000000     
  -4.4471197436860670E-002  0.13528630197178537        0.0000000000000000     
  -4.5660347322449855E-002  0.14304307183167148        0.0000000000000000     
  -4.6655154433639594E-002  0.15071635247756718        0.0000000000000000     
  -4.7455618770429871E-002  0.15830614390947256        0.0000000000000000     
  -4.8061740332820693E-002  0.16581244612738755        0.0000000000000000     
   0.0000000000000000        0.0000000000000000        0.0000000000000000     
  -1.7982746272812993E-003   1.2767366370408438E-003   0.0000000000000000     
  -3.6212572855626652E-003   2.9390108613326815E-003   0.0000000000000000     
  -5.4689479748440979E-003   4.9868226728755141E-003   0.0000000000000000     
  -7.3413466951255980E-003   7.4201720716693407E-003   0.0000000000000000     
   0.0000000000000000        0.0000000000000000        0.0000000000000000     
  -2.0693966983354015E-003   1.3548331183951766E-003   0.0000000000000000     
  -4.1640054807465477E-003   3.0938171971150456E-003   0.0000000000000000     
  -6.2838263472334410E-003   5.2169522361596079E-003   0.0000000000000000     
  -8.4288592977960763E-003   7.7242382355288651E-003   0.0000000000000000     
   0.0000000000000000        0.0000000000000000        0.0000000000000000     
  -2.3400921108584446E-003   1.4588554371860183E-003   0.0000000000000000     
  -4.7201872552158726E-003   3.2996523850502952E-003   0.0000000000000000     
  -7.1402854330722852E-003   5.5223908435928304E-003   0.0000000000000000     
  -9.6003866444276820E-003   8.1270708128136273E-003   0.0000000000000000     
   0.0000000000000000        0.0000000000000000        0.0000000000000000     
  -2.6103608648504291E-003   1.5888035934133681E-003   0.0000000000000000     
  -5.2898026089706410E-003   3.5565164251384288E-003   0.0000000000000000     
  -8.0383252323606349E-003   5.9031384951751826E-003   0.0000000000000000     
  -1.0855928735020413E-002   8.6286698035236281E-003   0.0000000000000000     
   0.0000000000000000        0.0000000000000000        0.0000000000000000     
  -2.8802029603113540E-003   1.7446775870772271E-003   0.0000000000000000     
  -5.8728515420108495E-003   3.8644093173794470E-003   0.0000000000000000     
  -8.9779457450984892E-003   6.3591951909066609E-003   0.0000000000000000     
  -1.2195485569574269E-002   9.2290352076588675E-003   0.0000000000000000     
  -7.3413466951255980E-003   7.4201720716693407E-003   0.0000000000000000     
  -9.2307491753339209E-003   1.0186571356495318E-002   0.0000000000000000     
  -1.1129451144395829E-002   1.3233532826134603E-002   0.0000000000000000     
  -1.3037452602311319E-002   1.6561056480587193E-002   0.0000000000000000     
  -1.4954753549080392E-002   2.0169142319853089E-002   0.0000000000000000     
  -8.4288592977960763E-003   7.7242382355288651E-003   0.0000000000000000     
  -1.0590731492217162E-002   1.0558160072187276E-002   0.0000000000000000     
  -1.2761070090279394E-002   1.3661202623099295E-002   0.0000000000000000     
  -1.4939875091982786E-002   1.7033365888264932E-002   0.0000000000000000     
  -1.7127146497327321E-002   2.0674649867684178E-002   0.0000000000000000     
  -9.6003866444276820E-003   8.1270708128136273E-003   0.0000000000000000     
  -1.2076905510142382E-002   1.1046212632263547E-002   0.0000000000000000     
  -1.4546256651076716E-002   1.4212336641493458E-002   0.0000000000000000     
  -1.7008440067230676E-002   1.7625442840503359E-002   0.0000000000000000     
  -1.9463455758604260E-002   2.1285531229293251E-002   0.0000000000000000     
  -1.0855928735020413E-002   8.6286698035236281E-003   0.0000000000000000     
  -1.3689271229109588E-002   1.1650729036724138E-002   0.0000000000000000     
  -1.6485010826787778E-002   1.4886934881317090E-002   0.0000000000000000     
  -1.9243147528054987E-002   1.8337287337302475E-002   0.0000000000000000     
  -2.1963681332911208E-002   2.2001786404680305E-002   0.0000000000000000     
  -1.2195485569574269E-002   9.2290352076588675E-003   0.0000000000000000     
  -1.5427828649118774E-002   1.2371709285569051E-002   0.0000000000000000     
  -1.8577332617412592E-002   1.5684997342570190E-002   0.0000000000000000     
  -2.1643997474455723E-002   1.9168899378662292E-002   0.0000000000000000     
  -2.4627823220248167E-002   2.2823415393845348E-002   0.0000000000000000     
  -1.4954753549080392E-002   2.0169142319853089E-002   0.0000000000000000     
  -1.6856006611934024E-002   2.4029438532355642E-002   0.0000000000000000     
  -1.8715864418103204E-002   2.8113593306518206E-002   0.0000000000000000     
  -2.0534326967587922E-002   3.2421606642340769E-002   0.0000000000000000     
  -2.2311394260388182E-002   3.6953478539823337E-002   0.0000000000000000     
  -1.7127146497327321E-002   2.0674649867684178E-002   0.0000000000000000     
  -1.9291726373853471E-002   2.4557700133402943E-002   0.0000000000000000     
  -2.1402456789101684E-002   2.8655162257467108E-002   0.0000000000000000     
  -2.3459337743071958E-002   3.2967036239876686E-002   0.0000000000000000     
  -2.5462369235764313E-002   3.7493322080631664E-002   0.0000000000000000     
  -1.9463455758604260E-002   2.1285531229293251E-002   0.0000000000000000     
  -2.1883108706783883E-002   2.5174162970154290E-002   0.0000000000000000     
  -2.4239203893355918E-002   2.9272899225377635E-002   0.0000000000000000     
  -2.6531741318320392E-002   3.3581739994963285E-002   0.0000000000000000     
  -2.8760720981677285E-002   3.8100685278911237E-002   0.0000000000000000     
  -2.1963681332911208E-002   2.2001786404680305E-002   0.0000000000000000     
  -2.4630153610725250E-002   2.5878827042609708E-002   0.0000000000000000     
  -2.7226105730865913E-002   2.9966804210249789E-002   0.0000000000000000     
  -2.9751537693333194E-002   3.4265717907600579E-002   0.0000000000000000     
  -3.2206449498127107E-002   3.8775568134662042E-002   0.0000000000000000     
  -2.4627823220248167E-002   2.2823415393845348E-002   0.0000000000000000     
  -2.7532861085677592E-002   2.6671692350769168E-002   0.0000000000000000     
  -3.0363162301631663E-002   3.0736877212083569E-002   0.0000000000000000     
  -3.3118726868110390E-002   3.5018969977788542E-002   0.0000000000000000     
  -3.5799554785113763E-002   3.9517970647884093E-002   0.0000000000000000     
  -2.2311394260388182E-002   3.6953478539823337E-002   0.0000000000000000     
  -2.4044575557861939E-002   4.1699794410928283E-002   0.0000000000000000     
  -2.5731380121367147E-002   4.6651139667617955E-002   0.0000000000000000     
  -2.7371807950903812E-002   5.1807514309892375E-002   0.0000000000000000     
  -2.8965859046471931E-002   5.7168918337751527E-002   0.0000000000000000     
  -2.5462369235764313E-002   3.7493322080631664E-002   0.0000000000000000     
  -2.7412298343227323E-002   4.2229062184316046E-002   0.0000000000000000     
  -2.9309872141509596E-002   4.7169298955513785E-002   0.0000000000000000     
  -3.1155090630611126E-002   5.2314032394224892E-002   0.0000000000000000     
  -3.2947953810531928E-002   5.7663262500449376E-002   0.0000000000000000     
  -2.8760720981677285E-002   3.8100685278911237E-002   0.0000000000000000     
  -3.0928380522893817E-002   4.2826090212405271E-002   0.0000000000000000     
  -3.3036957581437189E-002   4.7754309930629166E-002   0.0000000000000000     
  -3.5086452157307407E-002   5.2885344433582920E-002   0.0000000000000000     
  -3.7076864250504465E-002   5.8219193721266535E-002   0.0000000000000000     
  -3.2206449498127107E-002   3.8775568134662042E-002   0.0000000000000000     
  -3.4592822096861424E-002   4.3490878495195971E-002   0.0000000000000000     
  -3.6912636441149935E-002   4.8406172592964106E-002   0.0000000000000000     
  -3.9165892530992640E-002   5.3521450427966459E-002   0.0000000000000000     
  -4.1352590366389538E-002   5.8836712000203011E-002   0.0000000000000000     
  -3.5799554785113763E-002   3.9517970647884093E-002   0.0000000000000000     
  -3.8405623065130130E-002   4.4223427032688140E-002   0.0000000000000000     
  -4.0936908720647813E-002   4.9124886942518604E-002   0.0000000000000000     
  -4.3393411751666819E-002   5.4222350377375494E-002   0.0000000000000000     
  -4.5775132158187147E-002   5.9515817337258803E-002   0.0000000000000000     
  -2.8965859046471931E-002   5.7168918337751527E-002   0.0000000000000000     
  -3.0510586661573656E-002   6.2724875066649602E-002   0.0000000000000000     
  -3.2003044049711139E-002   6.8464907812040829E-002   0.0000000000000000     
  -3.3443231210884390E-002   7.4389016573925160E-002   0.0000000000000000     
  -3.4831148145093402E-002   8.0497201352302622E-002   0.0000000000000000     
  -3.2947953810531928E-002   5.7663262500449376E-002   0.0000000000000000     
  -3.4686603708797954E-002   6.3206028226160074E-002   0.0000000000000000     
  -3.6369182352935167E-002   6.8931368523329886E-002   0.0000000000000000     
  -3.7995689742943574E-002   7.4839283391958777E-002   0.0000000000000000     
  -3.9566125878823161E-002   8.0929772832046748E-002   0.0000000000000000     
  -3.7076864250504465E-002   5.8219193721266535E-002   0.0000000000000000     
  -3.9007576947356487E-002   6.3745389448783080E-002   0.0000000000000000     
  -4.0877973334191589E-002   6.9453463271235569E-002   0.0000000000000000     
  -4.2688053411009765E-002   7.5343415188624058E-002   0.0000000000000000     
  -4.4437817177811034E-002   8.1415245200948505E-002   0.0000000000000000     
  -4.1352590366389538E-002   5.8836712000203011E-002   0.0000000000000000     
  -4.3473506377249241E-002   6.4342958734518563E-002   0.0000000000000000     
  -4.5529416993480391E-002   7.0031192055757890E-002   0.0000000000000000     
  -4.7520322215082955E-002   7.5901411963921014E-002   0.0000000000000000     
  -4.9446222042056967E-002   8.1953618459007893E-002   0.0000000000000000     
  -4.5775132158187147E-002   5.9515817337258803E-002   0.0000000000000000     
  -4.8084391998476257E-002   6.4998736083366579E-002   0.0000000000000000     
  -5.0323513330801602E-002   7.0664554876896851E-002   0.0000000000000000     
  -5.2492496155163181E-002   7.6513273717849620E-002   0.0000000000000000     
  -5.4591340471560994E-002   8.2544892606224912E-002   0.0000000000000000     
  -3.4831148145093402E-002   8.0497201352302622E-002   0.0000000000000000     
  -3.6158452335252403E-002   8.6759634606613387E-002   0.0000000000000000     
  -3.7416801264275684E-002   9.3146488796297680E-002   0.0000000000000000     
  -3.8606194932163204E-002   9.9657763921355461E-002   0.0000000000000000     
  -3.9726633338914991E-002  0.10629345998178677        0.0000000000000000     
  -3.9566125878823161E-002   8.0929772832046748E-002   0.0000000000000000     
  -4.1065704603015715E-002   8.7175362901388651E-002   0.0000000000000000     
  -4.2479639757962984E-002   9.3548579657779338E-002   0.0000000000000000     
  -4.3807931343664945E-002  0.10004942310121878        0.0000000000000000     
  -4.5050579360121620E-002  0.10667789323170700        0.0000000000000000     
  -4.4437817177811034E-002   8.1415245200948505E-002   0.0000000000000000     
  -4.6106860792759705E-002   8.7642931392614101E-002   0.0000000000000000     
  -4.7674780414020117E-002   9.4000451848025982E-002   0.0000000000000000     
  -4.9141576041592278E-002  0.10048780656718416        0.0000000000000000     
  -5.0507247675476173E-002  0.10710499555008862        0.0000000000000000     
  -4.9446222042056967E-002   8.1953618459007893E-002   0.0000000000000000     
  -5.1281920904484364E-002   8.8162340080289711E-002   0.0000000000000000     
  -5.3002223232447104E-002   9.4502105367037625E-002   0.0000000000000000     
  -5.4607129025945195E-002  0.10097291431925159        0.0000000000000000     
  -5.6096638284978635E-002  0.10757476693693166        0.0000000000000000     
  -5.4591340471560994E-002   8.2544892606224912E-002   0.0000000000000000     
  -5.6590884938189701E-002   8.8733588964415508E-002   0.0000000000000000     
  -5.8461968213243933E-002   9.5053540214814256E-002   0.0000000000000000     
  -6.0204590296723703E-002  0.10150474635742110        0.0000000000000000     
  -6.1818751188628993E-002  0.10808720739223608        0.0000000000000000     
  -3.9726633338914991E-002  0.10629345998178677        0.0000000000000000     
  -4.0837639177174527E-002  0.11312894250225021        0.0000000000000000     
  -4.1998735139585318E-002  0.12023957700740445        0.0000000000000000     
  -4.3209921226147363E-002  0.12762536349724954        0.0000000000000000     
  -4.4471197436860670E-002  0.13528630197178537        0.0000000000000000     
  -4.5050579360121620E-002  0.10667789323170700        0.0000000000000000     
  -4.6284178060295632E-002  0.11350248653859836        0.0000000000000000     
  -4.7585321697149595E-002  0.12059169951124719        0.0000000000000000     
  -4.8954010270683510E-002  0.12794553214965354        0.0000000000000000     
  -5.0390243780897376E-002  0.13556398445381737        0.0000000000000000     
  -5.0507247675476173E-002  0.10710499555008862        0.0000000000000000     
  -5.1864579945111171E-002  0.11391489075518040        0.0000000000000000     
  -5.3306357479936638E-002  0.12098036414090044        0.0000000000000000     
  -5.4832580279952553E-002  0.12830141570724873        0.0000000000000000     
  -5.6443248345158945E-002  0.13587804545422530        0.0000000000000000     
  -5.6096638284978635E-002  0.10757476693693166        0.0000000000000000     
  -5.7578844831621130E-002  0.11436615515199634        0.0000000000000000     
  -5.9161842487946419E-002  0.12140557089636413        0.0000000000000000     
  -6.0845631253954487E-002  0.12869301417003509        0.0000000000000000     
  -6.2630211129645355E-002  0.13622848497300913        0.0000000000000000     
  -6.1818751188628993E-002  0.10808720739223608        0.0000000000000000     
  -6.3426972719825517E-002  0.11485627972904616        0.0000000000000000     
  -6.5151776721178972E-002  0.12186731977763833        0.0000000000000000     
  -6.6993163192689331E-002  0.12912032753801259        0.0000000000000000     
  -6.8951132134356635E-002  0.13661530301016886        0.0000000000000000     
  -4.4471197436860670E-002  0.13528630197178537        0.0000000000000000     
  -4.5660347322449855E-002  0.14304307183167148        0.0000000000000000     
  -4.6655154433639594E-002  0.15071635247756718        0.0000000000000000     
  -4.7455618770429871E-002  0.15830614390947256        0.0000000000000000     
  -4.8061740332820693E-002  0.16581244612738755        0.0000000000000000     
  -5.0390243780897376E-002  0.13556398445381737        0.0000000000000000     
  -5.1744275777603238E-002  0.14328112856795502        0.0000000000000000     
  -5.2866359810613175E-002  0.15093103663628271        0.0000000000000000     
  -5.3756495879927160E-002  0.15851370865880046        0.0000000000000000     
  -5.4414683985545206E-002  0.16602914463550827        0.0000000000000000     
  -5.6443248345158945E-002  0.13587804545422530        0.0000000000000000     
  -5.7964153317972569E-002  0.14355796969559262        0.0000000000000000     
  -5.9221086840810212E-002  0.15118890474511318        0.0000000000000000     
  -6.0214048913671880E-002  0.15877085060278689        0.0000000000000000     
  -6.0943039536557567E-002  0.16630380726861380        0.0000000000000000     
  -6.2630211129645355E-002  0.13622848497300913        0.0000000000000000     
  -6.4319979943557828E-002  0.14387359521458429        0.0000000000000000     
  -6.5719335524230718E-002  0.15148995680405855        0.0000000000000000     
  -6.6828277871664052E-002  0.15907756974143181        0.0000000000000000     
  -6.7646806985857774E-002  0.16663643402670414        0.0000000000000000     
  -6.8951132134356635E-002  0.13661530301016886        0.0000000000000000     
  -7.0811755654359029E-002  0.14422800512493000        0.0000000000000000     
  -7.2361105860874700E-002  0.15183419281311880        0.0000000000000000     
  -7.3599182753903633E-002  0.15943386607473523        0.0000000000000000     
  -7.4525986333445843E-002  0.16702702490977928        0.0000000000000000     
   0.0000000000000000        0.0000000000000000        0.0000000000000000     
  -2.8802029603113540E-003   1.7446775870772271E-003   0.0000000000000000     
  -5.8728515420108495E-003   3.8644093173794470E-003   0.0000000000000000     
  -8.9779457450984892E-003   6.3591951909066609E-003   0.0000000000000000     
  -1.2195485569574269E-002   9.2290352076588675E-003   0.0000000000000000     
   0.0000000000000000        0.0000000000000000        0.0000000000000000     
  -3.2834114202322830E-003   1.9991778069818724E-003   0.0000000000000000     
  -6.6772553162886290E-003   4.3306910228964081E-003   0.0000000000000000     
  -1.0181531688169040E-002   6.9945396477436080E-003   0.0000000000000000     
  -1.3796240535873514E-002   9.9907236815234730E-003   0.0000000000000000     
   0.0000000000000000        0.0000000000000000        0.0000000000000000     
  -3.9537792676042766E-003   2.4250046419315792E-003   0.0000000000000000     
  -7.9109351937561041E-003   5.0627215028123682E-003   0.0000000000000000     
  -1.1871467778455479E-002   7.9131505826423639E-003   0.0000000000000000     
  -1.5835377021702408E-002   1.0976291881421570E-002   0.0000000000000000     
   0.0000000000000000        0.0000000000000000        0.0000000000000000     
  -4.8913065024273374E-003   3.0221580919263507E-003   0.0000000000000000     
  -9.5738911744132748E-003   6.0605007571273278E-003   0.0000000000000000     
  -1.4047754015957816E-002   9.1150279956029277E-003   0.0000000000000000     
  -1.8312895027060964E-002   1.2185739807353156E-002   0.0000000000000000     
   0.0000000000000000        0.0000000000000000        0.0000000000000000     
  -6.0959931247014619E-003   3.7906381569661847E-003   0.0000000000000000     
  -1.1666123258260143E-002   7.3240287858412851E-003   0.0000000000000000     
  -1.6710390400676040E-002   1.0600171886625303E-002   0.0000000000000000     
  -2.1228794551949159E-002   1.3619067459318235E-002   0.0000000000000000     
  -1.2195485569574269E-002   9.2290352076588675E-003   0.0000000000000000     
  -1.5427828649118774E-002   1.2371709285569051E-002   0.0000000000000000     
  -1.8577332617412592E-002   1.5684997342570190E-002   0.0000000000000000     
  -2.1643997474455723E-002   1.9168899378662292E-002   0.0000000000000000     
  -2.4627823220248167E-002   2.2823415393845348E-002   0.0000000000000000     
  -1.3796240535873514E-002   9.9907236815234730E-003   0.0000000000000000     
  -1.7404463230848818E-002   1.3221118854374195E-002   0.0000000000000000     
  -2.0889281144541725E-002   1.6587600896433970E-002   0.0000000000000000     
  -2.4250694276952232E-002   2.0090169807702795E-002   0.0000000000000000     
  -2.7488702628080341E-002   2.3728825588180680E-002   0.0000000000000000     
  -1.5835377021702408E-002   1.0976291881421570E-002   0.0000000000000000     
  -1.9731060434978596E-002   1.4210923218715492E-002   0.0000000000000000     
  -2.3486915529765742E-002   1.7575822414089635E-002   0.0000000000000000     
  -2.7102942306063867E-002   2.1070989467544012E-002   0.0000000000000000     
  -3.0579140763872942E-002   2.4696424379078610E-002   0.0000000000000000     
  -1.8312895027060964E-002   1.2185739807353156E-002   0.0000000000000000     
  -2.2407620261508103E-002   1.5341122378592937E-002   0.0000000000000000     
  -2.6370235773084654E-002   1.8649661895537198E-002   0.0000000000000000     
  -3.0200741561790607E-002   2.2111358358185933E-002   0.0000000000000000     
  -3.3899137627625968E-002   2.5726211766539147E-002   0.0000000000000000     
  -2.1228794551949159E-002   1.3619067459318235E-002   0.0000000000000000     
  -2.5434142710437348E-002   1.6611716334006533E-002   0.0000000000000000     
  -2.9539241874498450E-002   1.9809119340776640E-002   0.0000000000000000     
  -3.3544092044132480E-002   2.3211276479628555E-002   0.0000000000000000     
  -3.7448693219339420E-002   2.6818187750562283E-002   0.0000000000000000     
  -2.4627823220248167E-002   2.2823415393845348E-002   0.0000000000000000     
  -2.7532861085677592E-002   2.6671692350769168E-002   0.0000000000000000     
  -3.0363162301631663E-002   3.0736877212083569E-002   0.0000000000000000     
  -3.3118726868110390E-002   3.5018969977788542E-002   0.0000000000000000     
  -3.5799554785113763E-002   3.9517970647884093E-002   0.0000000000000000     
  -2.7488702628080341E-002   2.3728825588180680E-002   0.0000000000000000     
  -3.0626054736853522E-002   2.7546447984776214E-002   0.0000000000000000     
  -3.3685499142199253E-002   3.1585916744398028E-002   0.0000000000000000     
  -3.6667035844117520E-002   3.5847231867046102E-002   0.0000000000000000     
  -3.9570664842608343E-002   4.0330393352720449E-002   0.0000000000000000     
  -3.0579140763872942E-002   2.4696424379078610E-002   0.0000000000000000     
  -3.3944558169465677E-002   2.8496783034774365E-002   0.0000000000000000     
  -3.7228241789114741E-002   3.2516721320712219E-002   0.0000000000000000     
  -4.0430191622820154E-002   3.6756239236892155E-002   0.0000000000000000     
  -4.3550407670581902E-002   4.1215336783314196E-002   0.0000000000000000     
  -3.3899137627625968E-002   2.5726211766539147E-002   0.0000000000000000     
  -3.7488371383514046E-002   2.9522697500763626E-002   0.0000000000000000     
  -4.0991390242378148E-002   3.3529290941026135E-002   0.0000000000000000     
  -4.4408194204218286E-002   3.7745992087326721E-002   0.0000000000000000     
  -4.7738783269034447E-002   4.2172800939665328E-002   0.0000000000000000     
  -3.7448693219339420E-002   2.6818187750562283E-002   0.0000000000000000     
  -4.1257494378998637E-002   3.0624191382743981E-002   0.0000000000000000     
  -4.4974944501989460E-002   3.4623625605339811E-002   0.0000000000000000     
  -4.8601043588311910E-002   3.8816490418349767E-002   0.0000000000000000     
  -5.2135791637965979E-002   4.3202785821773851E-002   0.0000000000000000     
  -3.5799554785113763E-002   3.9517970647884093E-002   0.0000000000000000     
  -3.8405623065130130E-002   4.4223427032688140E-002   0.0000000000000000     
  -4.0936908720647813E-002   4.9124886942518604E-002   0.0000000000000000     
  -4.3393411751666819E-002   5.4222350377375494E-002   0.0000000000000000     
  -4.5775132158187147E-002   5.9515817337258803E-002   0.0000000000000000     
  -3.9570664842608343E-002   4.0330393352720449E-002   0.0000000000000000     
  -4.2394030250011580E-002   4.5021156315131747E-002   0.0000000000000000     
  -4.5134776178667117E-002   4.9905275867990664E-002   0.0000000000000000     
  -4.7792902628574954E-002   5.4982752011297209E-002   0.0000000000000000     
  -5.0368409599735091E-002   6.0253584745051381E-002   0.0000000000000000     
  -4.3550407670581902E-002   4.1215336783314196E-002   0.0000000000000000     
  -4.6585290473817410E-002   4.5881486832776763E-002   0.0000000000000000     
  -4.9531240573944132E-002   5.0742162258078288E-002   0.0000000000000000     
  -5.2388257970962047E-002   5.5797363059218764E-002   0.0000000000000000     
  -5.5156342664871162E-002   6.1047089236198206E-002   0.0000000000000000     
  -4.7738783269034447E-002   4.2172800939665328E-002   0.0000000000000000     
  -5.0979403736547635E-002   4.6804418585623182E-002   0.0000000000000000     
  -5.4126301906478852E-002   5.1635546112781476E-002   0.0000000000000000     
  -5.7179477778828099E-002   5.6666183521140154E-002   0.0000000000000000     
  -6.0138931353595368E-002   6.1896330810699278E-002   0.0000000000000000     
  -5.2135791637965979E-002   4.3202785821773851E-002   0.0000000000000000     
  -5.5576370038202240E-002   4.7789951573671011E-002   0.0000000000000000     
  -5.8919960176271290E-002   5.2585427432100193E-002   0.0000000000000000     
  -6.2166562052173094E-002   5.7589213397061391E-002   0.0000000000000000     
  -6.5316175665907694E-002   6.2801309468554611E-002   0.0000000000000000     
  -4.5775132158187147E-002   5.9515817337258803E-002   0.0000000000000000     
  -4.8084391998476257E-002   6.4998736083366579E-002   0.0000000000000000     
  -5.0323513330801602E-002   7.0664554876896851E-002   0.0000000000000000     
  -5.2492496155163181E-002   7.6513273717849620E-002   0.0000000000000000     
  -5.4591340471560994E-002   8.2544892606224912E-002   0.0000000000000000     
  -5.0368409599735091E-002   6.0253584745051381E-002   0.0000000000000000     
  -5.2864786401792742E-002   6.5712538698167455E-002   0.0000000000000000     
  -5.5285522344393129E-002   7.1354378499559723E-002   0.0000000000000000     
  -5.7630617427536231E-002   7.7179104149228184E-002   0.0000000000000000     
  -5.9900071651222075E-002   8.3186715647172851E-002   0.0000000000000000     
  -5.5156342664871162E-002   6.1047089236198206E-002   0.0000000000000000     
  -5.7839242177953949E-002   6.6484183781761574E-002   0.0000000000000000     
  -6.0440704032492888E-002   7.2101489688653819E-002   0.0000000000000000     
  -6.2960728228487958E-002   7.7899006956874961E-002   0.0000000000000000     
  -6.5399314765939187E-002   8.3876735586424986E-002   0.0000000000000000     
  -6.0138931353595368E-002   6.1896330810699278E-002   0.0000000000000000     
  -6.3007759326959872E-002   6.7313671334148895E-002   0.0000000000000000     
  -6.5789058395100880E-002   7.2905888444179126E-002   0.0000000000000000     
  -6.8482828558018349E-002   7.8672982140789924E-002   0.0000000000000000     
  -7.1089069815712294E-002   8.4614952423981302E-002   0.0000000000000000     
  -6.5316175665907694E-002   6.2801309468554611E-002   0.0000000000000000     
  -6.8370337848810525E-002   6.8201001355329485E-002   0.0000000000000000     
  -7.1330585432217097E-002   7.3767574766135643E-002   0.0000000000000000     
  -7.4196918416127411E-002   7.9501029700973086E-002   0.0000000000000000     
  -7.6969336800541438E-002   8.5401366159841841E-002   0.0000000000000000     
  -5.4591340471560994E-002   8.2544892606224912E-002   0.0000000000000000     
  -5.6590884938189701E-002   8.8733588964415508E-002   0.0000000000000000     
  -5.8461968213243933E-002   9.5053540214814256E-002   0.0000000000000000     
  -6.0204590296723703E-002  0.10150474635742110        0.0000000000000000     
  -6.1818751188628993E-002  0.10808720739223608        0.0000000000000000     
  -5.9900071651222075E-002   8.3186715647172851E-002   0.0000000000000000     
  -6.2062307247177914E-002   8.9352024941788732E-002   0.0000000000000000     
  -6.4085746447130956E-002   9.5649843981470875E-002   0.0000000000000000     
  -6.5970389251081216E-002  0.10208017276621927        0.0000000000000000     
  -6.7716235659028706E-002  0.10864301129603392        0.0000000000000000     
  -6.5399314765939187E-002   8.3876735586424986E-002   0.0000000000000000     
  -6.7724742184751163E-002   9.0012994909206584E-002   0.0000000000000000     
  -6.9905289024828482E-002   9.6286104257122487E-002   0.0000000000000000     
  -7.1940955286171143E-002  0.10269606363017267        0.0000000000000000     
  -7.3831740968779175E-002  0.10924287302835714        0.0000000000000000     
  -7.1089069815712294E-002   8.4614952423981302E-002   0.0000000000000000     
  -7.3578189750909448E-002   9.0716498866669090E-002   0.0000000000000000     
  -7.5920595946336517E-002   9.6962321041769092E-002   0.0000000000000000     
  -7.8116288401993528E-002  0.10335241894928132        0.0000000000000000     
  -8.0165267117880426E-002  0.10988679258920578        0.0000000000000000     
  -7.6969336800541438E-002   8.5401366159841841E-002   0.0000000000000000     
  -7.9622649945652796E-002   9.1462536814176237E-002   0.0000000000000000     
  -8.2131667211655088E-002   9.7678494335410704E-002   0.0000000000000000     
  -8.4496388598548300E-002  0.10404923872354521        0.0000000000000000     
  -8.6716814106332446E-002  0.11057476997857979        0.0000000000000000     
  -6.1818751188628993E-002  0.10808720739223608        0.0000000000000000     
  -6.3426972719825517E-002  0.11485627972904616        0.0000000000000000     
  -6.5151776721178972E-002  0.12186731977763833        0.0000000000000000     
  -6.6993163192689331E-002  0.12912032753801259        0.0000000000000000     
  -6.8951132134356635E-002  0.13661530301016886        0.0000000000000000     
  -6.7716235659028706E-002  0.10864301129603392        0.0000000000000000     
  -6.9457479447428416E-002  0.11539150991808841        0.0000000000000000     
  -7.1328314392735362E-002  0.12237881897955633        0.0000000000000000     
  -7.3328740494949529E-002  0.12960493848043764        0.0000000000000000     
  -7.5458757754070932E-002  0.13706986842073240        0.0000000000000000     
  -7.3831740968779175E-002  0.10924287302835714        0.0000000000000000     
  -7.5718880852133894E-002  0.11597809115088151        0.0000000000000000     
  -7.7743609715716672E-002  0.12295327669695140        0.0000000000000000     
  -7.9905927559527509E-002  0.13016842966656675        0.0000000000000000     
  -8.2205834383566351E-002  0.13762355005972762        0.0000000000000000     
  -8.0165267117880426E-002  0.10988679258920578        0.0000000000000000     
  -8.2211176933942004E-002  0.11661602342742548        0.0000000000000000     
  -8.4397662690122929E-002  0.12359069292982355        0.0000000000000000     
  -8.6724724386423271E-002  0.13081080109639989        0.0000000000000000     
  -8.9192362022842961E-002  0.13827634792715462        0.0000000000000000     
  -8.6716814106332446E-002  0.11057476997857979        0.0000000000000000     
  -8.8934367692852678E-002  0.11730530674772033        0.0000000000000000     
  -9.1290473315954121E-002  0.12429106767817277        0.0000000000000000     
  -9.3785130975636802E-002  0.13153205276993707        0.0000000000000000     
  -9.6418340671900721E-002  0.13902826202301327        0.0000000000000000     
  -6.8951132134356635E-002  0.13661530301016886        0.0000000000000000     
  -7.0811755654359029E-002  0.14422800512493000        0.0000000000000000     
  -7.2361105860874700E-002  0.15183419281311880        0.0000000000000000     
  -7.3599182753903633E-002  0.15943386607473523        0.0000000000000000     
  -7.4525986333445843E-002  0.16702702490977928        0.0000000000000000     
  -7.5458757754070932E-002  0.13706986842073240        0.0000000000000000     
  -7.7485512875614393E-002  0.14465485511057247        0.0000000000000000     
  -7.9176152565094776E-002  0.15224114486008969        0.0000000000000000     
  -8.0530676822512082E-002  0.15982873766928413        0.0000000000000000     
  -8.1549085647866310E-002  0.16741763353815572        0.0000000000000000     
  -8.2205834383566351E-002  0.13762355005972762        0.0000000000000000     
  -8.4387284032562113E-002  0.14518780085545427        0.0000000000000000     
  -8.6194230351243573E-002  0.15273034503276686        0.0000000000000000     
  -8.7626673339610772E-002  0.16025118259166549        0.0000000000000000     
  -8.8684612997663670E-002  0.16775031353215006        0.0000000000000000     
  -8.9192362022842961E-002  0.13827634792715462        0.0000000000000000     
  -9.1517069125202202E-002  0.14582684235957552        0.0000000000000000     
  -9.3415339219321103E-002  0.15330179333115038        0.0000000000000000     
  -9.4887172305199691E-002  0.16070120084187930        0.0000000000000000     
  -9.5932568382837979E-002  0.16802506489176219        0.0000000000000000     
  -9.6418340671900721E-002  0.13902826202301327        0.0000000000000000     
  -9.8874868153534634E-002  0.14657197962293608        0.0000000000000000     
 -0.10083947916932737       0.15395548975524018        0.0000000000000000     
 -0.10231217371927888       0.16117879241992553        0.0000000000000000     
 -0.10329295180338921       0.16824188761699221        0.0000000000000000     
 </DataArray>
 <DataArray  type="Float64" Name="stress" NumberOfComponents="3" format="ascii">
   13415861523.842173        4024758457.1526518        2894234354.9571242     
   11765928375.918629        1889915980.3633239        1716129790.7826262     
   10313402152.008425        413096583.61845589        810889626.05782986     
   9058282852.1115551       -405699733.08195305        178513860.78273782     
   8000570476.2280254       -566472969.73790121       -180997505.04265144     
   10540004988.346401        3162001496.5039206        2225813060.3924799     
   9667366804.2106686        1589264951.6095462        1446868508.6019452     
   8943464405.7342834        512314358.91298056        863262006.76119006     
   8368297792.9172363       -68850281.585777283        474993554.87021458     
   7941866965.7595329       -154228969.88672876        282063152.92901802     
   8338453042.8264236        2501535912.8479271        1712289971.9543111     
   8021605966.7644415        1424454143.1342888        1275722437.8014121     
   7804823538.0078039        680921197.77180457        956966604.09836841     
   7688105756.5565147        270937076.76047707        756022470.84518158     
   7671452622.4105721        194501780.10030460        672890038.04185045     
   6811205687.2822437        2043361706.1846731        1353665089.6426189     
   6828645863.5799408        1395483554.9375486        1202691578.3810270     
   6897479548.8289881        918917100.19492769        1092003418.0693669     
   7017706743.0293875        613662341.95680976        1021600608.7076401     
   7189327446.1811352        479719280.22319436        991483150.29584551     
   5958262921.7138605        1787478876.5141580        1149938413.4574020     
   6088486494.6571693        1502353187.0193281        1227775930.3407886     
   6221432438.1978350        1226302066.1823492        1268372448.6741846     
   6357100752.3358526        959325514.00322080        1271727968.4575891     
   6495491437.0712280        701423530.48194361        1237842489.6910028     
   8000570476.2280254       -566472969.73790121       -180997505.04265144     
   7917944520.8633060       -198659370.98310518       -78920697.750268310     
   7793556197.0380592        29946332.903271198       -9058265.2499892097     
   7627405504.7522926        119344141.92124033        28589792.458182719     
   7419492444.0059996        69534056.070789337        34023475.374252684     
   7941866965.7595329       -154228969.88672876        282063152.92901802     
   7739722346.4753456        17460280.110708714        280785742.05493236     
   7513972980.6107159        110467041.50667238        265044737.28659758     
   7264618868.1656427        124791314.30116415        234840138.62401026     
   6991660009.1401262        60433098.494181156        190171946.06717318     
   7671452622.4105721        194501780.10030460        672890038.04185045     
   7400505856.0579233        185281636.39568520        589442301.19472659     
   7124111965.0049171        157904410.35653543        509281751.35120571     
   6842270949.2515554        112370101.98286009        432408388.51128948     
   6554982808.7978325        48678711.274652719        358822212.67497629     
   7189327446.1811352        479719280.22319436        991483150.29584551     
   6900295049.6110430        304804697.87182403        847048979.66911340     
   6623973150.2206736        172258439.45286608        723652776.94383717     
   6360361748.0100298        82080504.966322422        621294542.12002110     
   6109460842.9791069        34270894.412191629        539974275.19766116     
   6495491437.0712280        701423530.48194361        1237842489.6910028     
   6239089927.1347008        376029464.53912401        1053605777.4780916     
   6013556536.2579813        153529128.79566073        908157814.06449246     
   5818891264.4410658        33922523.251552343        801498599.45020545     
   5655094111.6839600        17209647.906802416        733628133.63522851     
   7419492444.0059996        69534056.070789337        34023475.374252684     
   7217322106.9954033       -22357262.742812634        16058875.904735271     
   7028032347.1812496       -71313324.234935284        1723361.6773557486     
   6851623164.5635376       -77334128.405588627       -8983067.3078793157     
   6688094559.1422663       -40419675.254773140       -16060411.050975528     
   6991660009.1401262        60433098.494181156        190171946.06717318     
   6807812366.4287462       -269237.47698307037        181338204.50914681     
   6632353546.0834541       -33008832.227839470        175772300.36011818     
   6465283548.1042576       -37785685.758384466        173474233.62009102     
   6306602372.4911547       -14599798.068617344        174444004.28905874     
   6554982808.7978325        48678711.274652719        358822212.67497629     
   6388425723.7195387        18855717.146077871        353878948.39303541     
   6225765706.1769896        2022948.1366558075        351842273.68695068     
   6067002756.1701870       -1819595.7536170483        352712188.55672336     
   5912136873.6991329        7328085.4752655029        356488693.00235206     
   6109460842.9791069        34270894.412191629        539974275.19766116     
   5959162178.8677826        35017601.126373053        533681107.55639899     
   5808268827.4618568        33782016.858547926        529933281.65785450     
   5656780788.7613287        30564141.608719110        528730797.50202060     
   5504698062.7661953        25363975.376879215        530073655.08890462     
   5655094111.6839600        17209647.906802416        733628133.63522851     
   5520021731.8734846        48216414.463907719        720744681.99924266     
   5379862909.9380550        62268373.937842369        710045324.27282846     
   5234617645.8776808        59365526.328614712        701530060.45598578     
   5084285939.6923494        39507871.636213303        695198890.54871213     
   6688094559.1422663       -40419675.254773140       -16060411.050975528     
   6516196519.6136293        3351445.4267528057       -6647037.2868003668     
   6337594275.0399284        24775215.958068609        4445552.3696565684     
   6152287825.4211588        23851636.339151144        17217357.918381505     
   5960277170.7573175        580706.57000207901        31668379.359390136     
   6306602372.4911547       -14599798.068617344        174444004.28905874     
   6134977363.6183510        10391814.034484386        173293143.69895157     
   5958714438.5714808        19923705.557350397        175006823.54684448     
   5777813597.3505411        13995876.499998808        179585043.83273894     
   5592274839.9555340       -7391673.1375792027        187027804.55663890     
   5912136873.6991329        7328085.4752655029        356488693.00235206     
   5744171537.0413780        14556181.467701435        347184268.40745646     
   5573634573.0805569        13212186.449905396        341929708.79629064     
   5400525981.8166704        3296100.4218800068        340725014.16885364     
   5224845763.2497110       -15192076.616381407        343570184.52514088     
   5504698062.7661953        25363975.376879215        530073655.08890462     
   5343779039.8827124        15844547.726413488        515026336.83872056     
   5182354678.5671587        4640658.6357126236        505214208.11799532     
   5020424978.8195343       -8247691.8952188492        500637268.92671931     
   4857989940.6398354       -22820503.866391420        501295519.26490062     
   5084285939.6923494        39507871.636213303        695198890.54871213     
   4933799872.1423512        14256912.810616255        676819348.99274218     
   4784874755.0312777       -5790877.8852279186        664860321.51195049     
   4637510588.3591347       -20635500.451302052        659321808.10634029     
   4491707372.1259155       -30276954.887623310        660203808.77590692     
   5960277170.7573175        580706.57000207901        31668379.359390136     
   5764967656.6283827       -25021977.615473509        15889279.189465690     
   5575477448.7026577       -31226974.456912518        8322667.3940030197     
   5391806546.9801455       -18034283.954307556        8968543.9730114099     
   5213954951.4608517        14556093.892355919        17826908.926482216     
   5592274839.9555340       -7391673.1375792027        187027804.55663890     
   5418455986.5975790       -25395773.640005350        176674810.40569913     
   5249187672.2207441       -28231410.872031212        172887086.08496243     
   5084469896.8250332       -15898584.833639860        175664631.59442675     
   4924302660.4104452        11602704.475158215        185007446.93408617     
   5224845763.2497110       -15192076.616381407        343570184.52514088     
   5067811231.9648399       -27009495.045132160        337163067.96741402     
   4914058472.4390030       -27887674.277101994        335674002.69562501     
   4763587484.6722040       -17826614.312294483        339102988.70977694     
   4616398268.6644335        3173684.8492889404        347450026.00986820     
   4857989940.6398354       -22820503.866391420        501295519.26490062     
   4713033392.7301636       -29863141.830833912        497354051.87461007     
   4570089849.3574343       -30195764.672125816        496683417.22600174     
   4429159310.5216455       -23818372.390276909        499283615.31906283     
   4290241776.2228069       -10730964.985269785        505154646.15381324     
   4491707372.1259155       -30276954.887623310        660203808.77590692     
   4354122468.8935490       -33956713.997115612        657247762.12728620     
   4217281802.9760375       -35155682.057091951        655915329.67608452     
   4081185374.3733778       -33873859.067562580        656206511.42229688     
   3945833183.0855751       -30111245.028506756        658121307.36592281     
   5213954951.4608517        14556093.892355919        17826908.926482216     
   4950682724.9232321        20089593.446091413        19135298.642049164     
   4680647880.7621326        3081034.2548589706        10153638.699815184     
   4403850418.9775524       -36469583.681306124       -9118070.9002325330     
   4120290339.5694709       -98562260.362449884       -38679830.158076055     
   4924302660.4104452        11602704.475158215        185007446.93408617     
   4637075866.6905146       -379080.19498801231        175900929.44111979     
   4344398397.6461611       -30529782.613219261        162699860.13277176     
   4046270253.2773838       -78849402.779537201        145404239.00902319     
   3742691433.5841732       -145337940.69393063        124014066.06989749     
   4616398268.6644335        3173684.8492889404        347450026.00986820     
   4322918330.1690989       -21012957.322668076        329459200.65726668     
   4025299658.6484041       -58995376.245833158        313569321.33170629     
   3723542254.1023502       -110773571.92020106        299780388.03317237     
   3417646116.5309281       -176347544.34578872        288092400.76166427     
   4290241776.2228069       -10730964.985269785        505154646.15381324     
   4008210115.3589830       -41812037.936955929        479810112.29048955     
   3723351663.7688637       -82315746.642971992        462762022.29661435     
   3435666421.4524388       -132242091.10334206        454010376.17219418     
   3145154388.4097128       -191591071.31803489        453555173.91722322     
   3945833183.0855751       -30111245.028506756        658121307.36592281     
   3692951222.2601728       -62776322.037848711        626953664.34077895     
   3438554413.0075331       -100490893.80466294        610277963.02750671     
   3182642755.3276520       -143254960.32893896        608094203.42610765     
   2925216249.2205319       -191068521.61068070        620402385.53657389     
   4120290339.5694709       -98562260.362449884       -38679830.158076055     
   4422874606.1307545       -11773333.578742981        21916653.376456812     
   4714444545.0456619        38301167.717050076        90086652.653331280     
   4995000156.3141842        51661243.524892330        165830167.67254928     
   5264541439.9363441        28306893.844850779        249147198.43409222     
   3742691433.5841732       -145337940.69393063        124014066.06989749     
   4059765925.1818666       -46841383.978481531        188249571.24901748     
   4368305884.1320477        23206730.578597307        253356126.88340002     
   4668311310.4347305        64806402.977348566        319333732.97304195     
   4959782204.0898991        77957633.217728376        386182389.51795793     
   3417646116.5309281       -176347544.34578872        288092400.76166427     
   3730060932.3448129       -71888327.944677830        358860021.75071591     
   4036421010.5100660        12388429.627653837        423796227.90795457     
   4336726351.0266895        76482728.371215343        482901019.23339581     
   4630976953.8946762        120394568.28598857        536174395.72702438     
   3145154388.4097128       -191591071.31803489        453555173.91722322     
   3433759627.6195917       -86914165.477320194        533748004.88155323     
   3718789924.1797085        5846264.8641908169        601406955.72700489     
   4000245278.0900626        86690219.706499338        656532026.45357418     
   4278125689.3506598        155617699.04960299        699123217.06126833     
   2925216249.2205319       -191068521.61068070        620402385.53657389     
   3170862011.0061975       -91918896.576419473        712913520.64153373     
   3415412625.1409745        3580236.2882108688        786188310.34054160     
   3658868091.6248646        95428876.983216524        840226754.63360000     
   3901228410.4578590        183627025.50857520        875028853.52070701     
   5264541439.9363441        28306893.844850779        249147198.43409222     
   4170286934.4982929       -261373524.06055570       -27470043.459621750     
   3181208955.7128000       -200465519.79077828       -241773045.05753958     
   2297307503.5798526        211030906.65416169       -393761806.35967213     
   1518582578.0994713        973115755.27431226       -483436327.36602008     
   4959782204.0898991        77957633.217728376        386182389.51795793     
   4024448398.6999168       -178208724.22340655        200393293.54197064     
   3162741755.8686471       -188951206.46884048        66802635.661575936     
   2374662275.5961018        45730186.481455922       -14589584.123253081     
   1660209957.8822596        525835454.62746340       -43783365.812469006     
   4630976953.8946762        120394568.28598857        536174395.72702438     
   3825661556.5521750       -110928416.29106021        404405854.22595233     
   3062423957.6745396       -201992072.65189481        314719948.62026137     
   2341264157.2617817       -152796400.79645383        267116678.90995154     
   1662182155.3139145        36658599.275247753        261596045.09501728     
   4278125689.3506598        155617699.04960299        699123217.06126833     
   3573926408.0550427       -59532600.263561249        584567638.59230101     
   2880255561.1304674       -239588118.33992231        501978893.81850797     
   2197113148.5769262       -384548855.17950749        451356982.73989111     
   1524499170.3944244       -494414810.78229809        432701905.35644138     
   3901228410.4578590        183627025.50857520        875028853.52070701     
   3269242953.2085462       -24021276.140854597        740878646.64102745     
   2616236566.2364225       -301739343.53297651        628579471.25633097     
   1942209249.5415087       -649527176.66773701        538131327.36658776     
   1247161003.1237929       -1067384775.5451863        469534214.97182119     
   5958262921.7138605        1787478876.5141580        1149938413.4574020     
   6088486494.6571693        1502353187.0193281        1227775930.3407886     
   6221432438.1978350        1226302066.1823492        1268372448.6741846     
   6357100752.3358526        959325514.00322080        1271727968.4575891     
   6495491437.0712280        701423530.48194361        1237842489.6910028     
   5434529019.3208494        1630358705.7962549        1033398424.3193780     
   5489820942.1735086        1372570421.3694198        1113803633.3479190     
   5547295541.1478910        1122057724.0149939        1167501478.1487205     
   5606952816.2439938        878820613.73297703        1194491958.7217829     
   5668792767.4618216        642859090.52336955        1194775075.0671067     
   4894908253.3027887        1468472475.9908366        936333603.14926434     
   4905364624.1283731        1247050426.0510693        1018676860.7680541     
   4917463976.6000500        1031104981.5982699        1084846388.4813571     
   4931206310.7178144        820636142.63243771        1134842186.2891729     
   4946591626.4816704        615643909.15357304        1168664254.1915009     
   4339400623.6596775        1301820187.0979033        858743949.94706047     
   4335117540.5217667        1125793201.0642774        942395612.60119534     
   4331937744.5543127        953443838.93217707        1020407179.6720946     
   4329861235.7573147        784772100.70160174        1092778651.1597588     
   4328888014.1307774        619777986.37255371        1159510027.0641873     
   3768006130.3915172        1130401839.1174550        800629464.71276689     
   3779079691.3536844        1008798746.4090430        884959888.84734142     
   3790716845.0106778        889074296.01671493        974183851.72093308     
   3802917591.3624959        771228487.94047046        1068301353.3335406     
   3815681930.4091392        655261322.18031049        1167312393.6851652     
   6495491437.0712280        701423530.48194361        1237842489.6910028     
   6239089927.1347008        376029464.53912401        1053605777.4780916     
   6013556536.2579813        153529128.79566073        908157814.06449246     
   5818891264.4410658        33922523.251552343        801498599.45020545     
   5655094111.6839600        17209647.906802416        733628133.63522851     
   5668792767.4618216        642859090.52336955        1194775075.0671067     
   5518803812.7664833        383282894.78316045        1073749690.8237829     
   5392962291.3406420        204198143.27460241        980602630.22761452     
   5291268203.1842957        105604835.99769258        915333893.27860141     
   5213721548.2974424        87502972.952434778        877943479.97674370     
   4946591626.4816704        615643909.15357304        1168664254.1915009     
   4871842583.7356472        412533790.62841058        1103009397.8290684     
   4814520288.4688072        267512830.36719298        1054322439.9616349     
   4774624740.6811514        180581028.36992121        1022603380.5892004     
   4752155940.3726797        151738384.63659573        1007852219.7117630     
   4328888014.1307774        619777986.37255371        1159510027.0641873     
   4298206240.0421915        463782152.07487452        1141384898.4939492     
   4278230527.6424789        343473190.07343602        1129317243.2665529     
   4268960876.9316387        258851100.36823916        1123307061.3819988     
   4270397287.9096689        209915882.95928073        1123354352.8402882     
   3815681930.4091392        655261322.18031049        1167312393.6851652     
   3797894781.6861181        537027979.12255394        1188876192.8184242     
   3784093008.8616557        432079222.39333010        1205587040.1423695     
   3774276611.9357553        340415051.99264443        1217444935.6569996     
   3768445590.9084153        262035467.92049360        1224449879.3623157     
   5655094111.6839600        17209647.906802416        733628133.63522851     
   5520021731.8734846        48216414.463907719        720744681.99924266     
   5379862909.9380550        62268373.937842369        710045324.27282846     
   5234617645.8776808        59365526.328614712        701530060.45598578     
   5084285939.6923494        39507871.636213303        695198890.54871213     
   5213721548.2974424        87502972.952434778        877943479.97674370     
   5077024771.4899549        85233226.692188501        854884394.17401218     
   4938319343.8489256        76267977.653477669        836070873.57570493     
   4797605265.3743629        60607225.836308241        821502918.18182170     
   4654882536.0662565        38250971.240671873        811180527.99235916     
   4752155940.3726797        151738384.63659573        1007852219.7117630     
   4619724684.5534744        117959100.95458674        978208256.24893367     
   4488362569.1921349        87743618.798815727        954871329.28538024     
   4358069594.2886715        61091938.169292688        937841438.82110083     
   4228845759.8430820        38004059.066008091        927118584.85609961     
   4270397287.9096689        209915882.95928073        1123354352.8402882     
   4148121471.0640335        146394037.25109243        1090716268.2240064     
   4029992585.9676814        96695297.373855591        1066446691.4018528     
   3916010632.6206126        60819663.327564001        1050545622.3738270     
   3806175611.0228310        38767135.112221003        1043013061.1399294     
   3768445590.9084153        262035467.92049360        1224449879.3623157     
   3662215131.0216427        170538035.58172011        1192408430.0992301     
   3563209394.1755652        103123013.37859416        1170796959.9251237     
   3471428380.3701868        59790401.311128855        1159615468.8399963     
   3386872089.6054993        40540199.379306555        1158863956.8438509     
   5084285939.6923494        39507871.636213303        695198890.54871213     
   4933799872.1423512        14256912.810616255        676819348.99274218     
   4784874755.0312777       -5790877.8852279186        664860321.51195049     
   4637510588.3591347       -20635500.451302052        659321808.10634029     
   4491707372.1259155       -30276954.887623310        660203808.77590692     
   4654882536.0662565        38250971.240671873        811180527.99235916     
   4521711797.7843714        18005743.532448769        795432997.63518906     
   4390052191.3774834        2797622.0742127895        785429268.53583956     
   4259903716.8455911       -7373393.1340372562        781169340.69431269     
   4131266374.1886954       -12507302.092298031        782653214.11060822     
   4228845759.8430820        38004059.066008091        927118584.85609961     
   4111056885.6368666        22184522.917426348        913944944.03980732     
   3994729324.7417121        11236031.139058352        905838391.66397870     
   3879863077.1576247        5158583.7309048176        902798927.72861803     
   3766458142.8845978        3952180.6929643154        904826552.23372293     
   3806175611.0228310        38767135.112221003        1043013061.1399294     
   3701835135.6998305        26793250.965543747        1032355188.2065949     
   3598906155.1239638        19524349.309308767        1026087690.8963677     
   3497388669.2952299        16960430.143518448        1024210569.2092515     
   3397282678.2136269        19101493.468163490        1026723823.1452432     
   3386872089.6054993        40540199.379306555        1158863956.8438509     
   3294046547.9732671        31831927.676801801        1150663730.1355557     
   3202582682.5242386        27662576.584968209        1146177166.2330105     
   3112480493.2584085        28032146.103800178        1145404265.1362150     
   3023739980.1757784        32940636.233299613        1148345026.8451724     
   4491707372.1259155       -30276954.887623310        660203808.77590692     
   4354122468.8935490       -33956713.997115612        657247762.12728620     
   4217281802.9760375       -35155682.057091951        655915329.67608452     
   4081185374.3733778       -33873859.067562580        656206511.42229688     
   3945833183.0855751       -30111245.028506756        658121307.36592281     
   4131266374.1886954       -12507302.092298031        782653214.11060822     
   3999537997.0634789       -15679474.787294388        779402780.57476079     
   3868203353.9558568       -17539200.756975889        778916617.59750128     
   3737262444.8658247       -18086480.001344442        781194725.17882097     
   3606715269.7933922       -17321312.520407200        786237103.31872952     
   3766458142.8845978        3952180.6929643154        904826552.23372293     
   3643845310.0412984        2265299.8648939133        900872811.29717612     
   3521275707.9183307        722521.43794059753        900823997.28038454     
   3398749336.5156956       -676154.58791089058        904680110.18334699     
   3276266195.8333950       -1930728.2126464844        912441150.00605762     
   3397282678.2136269        19101493.468163490        1026723823.1452432     
   3287044407.8270106        19877609.959453464        1021657854.2945288     
   3176498864.8634663        19629484.527650237        1021637468.7247362     
   3065646049.3229942        18357117.172755241        1026662666.4358664     
   2954485961.2055969        16060507.894771099        1036733447.4279150     
   3023739980.1757784        32940636.233299613        1148345026.8451724     
   2929135290.4206128        37157455.496375799        1141757909.5668199     
   2833872824.7912607        39181688.512162924        1141357031.9305577     
   2737952583.2877212        39013335.280654669        1147142393.9363832     
   2641374565.9099913        36652395.801846623        1159113995.5843005     
   3945833183.0855751       -30111245.028506756        658121307.36592281     
   3692951222.2601728       -62776322.037848711        626953664.34077895     
   3438554413.0075331       -100490893.80466294        610277963.02750671     
   3182642755.3276520       -143254960.32893896        608094203.42610765     
   2925216249.2205319       -191068521.61068070        620402385.53657389     
   3606715269.7933922       -17321312.520407200        786237103.31872952     
   3389895178.4767132       -43577875.611322880        755190372.44796062     
   3171929799.9345827       -73652062.787084818        735912711.66008699     
   2952819134.1669984       -107543874.04769230        728404120.95511234     
   2732563181.1739588       -145253309.39315319        732664600.33302832     
   3276266195.8333950       -1930728.2126464844        912441150.00605762     
   3087728340.7997994       -24112667.352829933        881946486.02508414     
   2898414759.7425365       -48880359.905242085        860498020.49802816     
   2708325452.6616054       -76233805.869870901        848095753.42489481     
   2517460419.5570040       -106173005.24673545        844739684.80567992     
   2954485961.2055969        16060507.894771099        1036733447.4279150     
   2786450709.2294383       -4380697.2623677254        1007222005.0721517     
   2618009292.4313979       -26175785.159117103        984033889.54133117     
   2449161710.8114719       -49324755.795475483        967169100.83545303     
   2279907964.3696713       -73827609.171431899        956627638.95452118     
   2641374565.9099913        36652395.801846623        1159113995.5843005     
   2486062283.7656255        15618034.660051942        1131016929.5891588     
   2330713398.0011611       -5538338.5487357378        1106520318.7899899     
   2175327908.6166091       -26816723.824489474        1085624163.1867895     
   2019905815.6119545       -48217121.167246938        1068328462.7795583     
   2925216249.2205319       -191068521.61068070        620402385.53657389     
   3170862011.0061975       -91918896.576419473        712913520.64153373     
   3415412625.1409745        3580236.2882108688        786188310.34054160     
   3658868091.6248646        95428876.983216524        840226754.63360000     
   3901228410.4578590        183627025.50857520        875028853.52070701     
   2732563181.1739588       -145253309.39315319        732664600.33302832     
   2931994302.3463802       -56131955.468688965        820321823.77176499     
   3133180381.3070784        38839257.750017166        893979885.47775567     
   3336121418.0560513        139660330.26297939        953638785.45100307     
   3540817412.5932922        246331262.07017493        999298523.69150615     
   2517460419.5570040       -106173005.24673545        844739684.80567992     
   2685640282.0396295       -22590907.855042338        930868119.59054923     
   2858425207.7496896        76341400.294776201        1008234576.3158830     
   3035815196.6871862        190623919.20272350        1076839054.9816718     
   3217810248.8521247        320256648.86879802        1136681555.5879252     
   2279907964.3696713       -73827609.171431899        956627638.95452118     
   2431799950.0859380        8704246.2645205259        1044552408.0978844     
   2591147104.4688053        116086663.92247474        1128952382.8549154     
   2757949427.5182800        248319643.80245686        1209827563.2256160     
   2932206919.2343564        405403185.90443909        1287177949.2099781     
   2019905815.6119545       -48217121.167246938        1068328462.7795583     
   2170473306.4853115        37753506.890008211        1161374689.2937741     
   2331346071.4644389        158075048.63315248        1256133305.0948622     
   2502524110.5493302        312747504.06218064        1352604310.1828239     
   2684007423.7399883        501770873.17710358        1450787704.5576558     
   3901228410.4578590        183627025.50857520        875028853.52070701     
   3269242953.2085462       -24021276.140854597        740878646.64102745     
   2616236566.2364225       -301739343.53297651        628579471.25633097     
   1942209249.5415087       -649527176.66773701        538131327.36658776     
   1247161003.1237929       -1067384775.5451863        469534214.97182119     
   3540817412.5932922        246331262.07017493        999298523.69150615     
   2979150676.4266801        99678503.279147506        854104687.81632328     
   2400290605.7330618       -104285370.60190463        727075249.85016441     
   1804237200.5124431       -365560359.57296491        618210209.79301107     
   1190990460.7648137       -684146463.63405037        527509567.64488870     
   3217810248.8521247        320256648.86879802        1136681555.5879252     
   2715928994.9512134        231439461.29106104        984909618.44567060     
   2200682001.7190938        98069809.275976181        847615445.62648201     
   1672069269.1557629       -79852307.176486850        724799037.13035858     
   1130090797.2612226       -302326888.06629753        616460392.95730543     
   2932206919.2343564        405403185.90443909        1287177949.2099781     
   2479577908.7821465        371261597.89490861        1133293438.5290689     
   2017410754.1945205        305326196.10066658        990200058.58528495     
   1545705455.4714885        207596980.52173454        857897809.37861955     
   1064462012.6130382        78073951.158073753        736386690.90906596     
   2684007423.7399883        501770873.17710358        1450787704.5576558     
   2270097417.9194717        519144913.09066057        1299256148.0665307     
   1850476863.1593540        517483789.87220138        1154829088.7265780     
   1425145759.4595981        496787503.52163339        1017506526.5377920     
   994104106.82025087        457056054.03907084        887288461.50017369     
   3768006130.3915172        1130401839.1174550        800629464.71276689     
   3779079691.3536844        1008798746.4090430        884959888.84734142     
   3790716845.0106778        889074296.01671493        974183851.72093308     
   3802917591.3624959        771228487.94047046        1068301353.3335406     
   3815681930.4091392        655261322.18031049        1167312393.6851652     
   3207766590.2845759        962329977.08537269        756811541.06542718     
   3235918866.2865748        868254447.46821523        853166248.12099206     
   3263775788.8583736        773194406.41705334        951412374.98558295     
   3291337357.9999704        677149853.93188715        1051549921.6591996     
   3318603573.7113657        580120790.01271677        1153578888.1418421     
   2685723820.1251245        805717146.03753734        722111572.62408555     
   2722377328.5098386        736595934.71449924        829488458.78810978     
   2757876537.3393269        663627058.20736897        935754645.83116901     
   2792221446.6135864        586810516.51614606        1040910133.7532635     
   2825412056.3326173        506146309.64083034        1144954922.5543933     
   2201877819.9131637        660563345.97394919        696529559.38874233     
   2238455078.0234776        613823208.14789581        813926520.84869456     
   2273019090.4535370        560372251.38766158        927210664.25769150     
   2305569857.2033420        500210475.69324684        1036381989.6157331     
   2336107378.2728930        433337881.06465083        1141440496.9228191     
   1756228589.6486928        526868576.89460784        680065501.35939705     
   1784152114.8274891        499936267.76840425        806480434.30274689     
   1809203448.2010050        463429985.95793182        925780430.26515055     
   1831382589.7692404        417349731.46319079        1037965489.2466081     
   1850689539.5321949        361695504.28417999        1143035611.2471197     
   3815681930.4091392        655261322.18031049        1167312393.6851652     
   3797894781.6861181        537027979.12255394        1188876192.8184242     
   3784093008.8616557        432079222.39333010        1205587040.1423695     
   3774276611.9357553        340415051.99264443        1217444935.6569996     
   3768445590.9084153        262035467.92049360        1224449879.3623157     
   3318603573.7113657        580120790.01271677        1153578888.1418421     
   3293795814.2448521        472792120.28872442        1181941807.2641068     
   3272792806.0647264        378145954.85269082        1207240745.3159781     
   3255594549.1709890        296182293.70461965        1229475702.2974548     
   3242201043.5636392        226901136.84450924        1248646678.2085383     
   2825412056.3326173        506146309.64083034        1144954922.5543933     
   2798695031.0909557        411255716.74110585        1179906232.9514625     
   2775602132.5235100        328445546.08876598        1213582533.0170591     
   2756133360.6302795        257715797.68381321        1245983822.7511809     
   2740288715.4112654        199066471.52624559        1277110102.1538293     
   2336107378.2728930        433337881.06465083        1141440496.9228191     
   2312592432.2244277        352418768.47969753        1182769469.8804920     
   2292520988.2380056        282977996.10155559        1224612403.2456119     
   2275893046.3136268        225015563.93022281        1266969297.0181785     
   2262708606.4512897        178531471.96570206        1309840151.1981907     
   1850689539.5321949        361695504.28417999        1143035611.2471197     
   1835488017.6452694        296281275.50450170        1190531518.0511949     
   1823549373.2082138        241743304.89105690        1240330356.0016370     
   1814873606.2210305        198081592.44384986        1292432125.0984457     
   1809460716.6837165        165296138.16287822        1346836825.3416221     
   3768445590.9084153        262035467.92049360        1224449879.3623157     
   3662215131.0216427        170538035.58172011        1192408430.0992301     
   3563209394.1755652        103123013.37859416        1170796959.9251237     
   3471428380.3701868        59790401.311128855        1159615468.8399963     
   3386872089.6054993        40540199.379306555        1158863956.8438509     
   3242201043.5636392        226901136.84450924        1248646678.2085383     
   3165244127.4072676        153137326.26124704        1231509520.3453498     
   3094099846.4094896        98748966.206627965        1222368119.7037561     
   3028768200.5703025        63736056.680649757        1221222476.2837586     
   2969249189.8897099        48098597.683316350        1228072590.0853517     
   2740288715.4112654        199066471.52624559        1277110102.1538293     
   2685650423.3641915        140949806.81216455        1273229799.8280878     
   2635412678.5936074        97501633.019716501        1274911032.8565540     
   2589575481.0995140        68721950.148902535        1282153801.2392280     
   2548138830.8819103        54610758.199720740        1294958104.9761119     
   2262708606.4512897        178531471.96570206        1309840151.1981907     
   2223434018.8924131        133975477.23447216        1317569268.5474410     
   2187147890.7279220        99381013.817866564        1328425699.3835132     
   2153850221.9578180        74748081.715880752        1342409443.7064087     
   2123541012.5821025        60076680.928525567        1359520501.5161254     
   1809460716.6837165        165296138.16287822        1346836825.3416221     
   1778594913.9919312        132214337.52816683        1364527926.5034108     
   1749305482.8124313        104387108.60107297        1382912119.2846360     
   1721592423.1452146        81814451.381589353        1401989403.6852989     
   1695455734.9902833        64496365.869721889        1421759779.7053978     
   3386872089.6054993        40540199.379306555        1158863956.8438509     
   3294046547.9732671        31831927.676801801        1150663730.1355557     
   3202582682.5242386        27662576.584968209        1146177166.2330105     
   3112480493.2584085        28032146.103800178        1145404265.1362150     
   3023739980.1757784        32940636.233299613        1148345026.8451724     
   2969249189.8897099        48098597.683316350        1228072590.0853517     
   2885570244.3408871        35934988.310872078        1220382092.2641299     
   2803148002.1512899        27960390.135848403        1216811160.3943791     
   2721982463.3209200        24174803.158252478        1217359794.4760988     
   2642073627.8497782        24578227.378070951        1222027994.5092921     
   2548138830.8819103        54610758.199720740        1294958104.9761119     
   2474766204.6899834        39339728.139385819        1287654867.7473249     
   2402545309.0333090        27907799.863225698        1284877099.6157300     
   2331476143.9118867        20314973.371234536        1286624800.5813298     
   2261558709.3257146        16561248.663420916        1292897970.6441205     
   2123541012.5821025        60076680.928525567        1359520501.5161254     
   2061634429.0205593        42046147.162341714        1352482056.5851398     
   2000774603.1702952        27504805.767087221        1350374983.8970642     
   1940961535.0313077        16452656.742758155        1353199283.4519060     
   1882195224.6036015        8889700.0893582106        1360954955.2496581     
   1695455734.9902833        64496365.869721889        1421759779.7053978     
   1646174917.3326135        44054245.379743874        1414863658.7775743     
   1597835884.5622480        26751407.847442150        1413304813.2383833     
   1550438636.6791830        12587853.272814095        1417083243.0878289     
   1503983173.6834261        1563581.6558734179        1426198948.3259072     
   3023739980.1757784        32940636.233299613        1148345026.8451724     
   2929135290.4206128        37157455.496375799        1141757909.5668199     
   2833872824.7912607        39181688.512162924        1141357031.9305577     
   2737952583.2877212        39013335.280654669        1147142393.9363832     
   2641374565.9099913        36652395.801846623        1159113995.5843005     
   2642073627.8497782        24578227.378070951        1222027994.5092921     
   2561829706.8103948        26423611.051558495        1214931123.1423953     
   2481346105.5705605        27470060.723543644        1213242011.6662254     
   2400622824.1302748        27717576.394018888        1216960660.0807788     
   2319659862.4895339        27166158.062986374        1226087068.3860583     
   2261558709.3257146        16561248.663420916        1292897970.6441205     
   2193451329.1410728        15367928.389010549        1285779123.4747074     
   2125522364.4297149        14769326.358880758        1283289556.4446523     
   2057771815.1916418        14765442.573030233        1285429269.5539591     
   1990199681.4268501        15356277.031458020        1292198262.8026233     
   1882195224.6036015        8889700.0893582106        1360954955.2496581     
   1824000157.4126563        3990407.5087381601        1354301910.5637531     
   1766401601.3687263        1079485.4181749821        1351499666.2658439     
   1709399556.4718204        156933.81768679619        1352548222.3559265     
   1652994022.7219319        1222752.7072594166        1357447578.8340025     
   1503983173.6834261        1563581.6558734179        1426198948.3259072     
   1453476191.6251323       -7708951.5892747045        1420499484.4095342     
   1403983816.3875940       -13599462.098571122        1417872341.1297910     
   1355506047.9708102       -16107949.872019231        1418317518.4866755     
   1308042886.3747845       -15234414.909607887        1421835016.4801903     
   2641374565.9099913        36652395.801846623        1159113995.5843005     
   2486062283.7656255        15618034.660051942        1131016929.5891588     
   2330713398.0011611       -5538338.5487357378        1106520318.7899899     
   2175327908.6166091       -26816723.824489474        1085624163.1867895     
   2019905815.6119545       -48217121.167246938        1068328462.7795583     
   2319659862.4895339        27166158.062986374        1226087068.3860583     
   2176787653.5458360        7427828.4346292019        1196195986.2203183     
   2033750199.2378964       -12861319.074526906        1171974651.7406402     
   1890547499.5657239       -33701284.464460969        1153423064.9470136     
   1747179554.5293117       -55092067.735195756        1140541225.8394475     
   1990199681.4268501        15356277.031458020        1292198262.8026233     
   1865679809.9412041       -1312341.8062595129        1260363082.4314582     
   1740866051.3471820       -18960584.338565826        1236266942.2364373     
   1615758405.6447845       -37588450.565455556        1219909842.2175608     
   1490356872.8340101       -57195940.486935675        1211291782.3748288     
   1652994022.7219319        1222752.7072594166        1357447578.8340025     
   1552738752.9517334       -10602476.062598288        1323518218.2225804     
   1452060954.3290200       -23836134.340834320        1299397190.2773871     
   1350960626.8537881       -38478222.127467096        1285084494.9984245     
   1249437770.5260441       -54528739.422474802        1280580132.3856974     
   1308042886.3747845       -15234414.909607887        1421835016.4801903     
   1237964482.5774264       -20442574.334381282        1385661393.5936785     
   1167334908.1834128       -27487969.081336319        1361365395.8634884     
   1096154163.1927428       -36370599.150482535        1348947023.2896171     
   1024422247.6054157       -47090464.541819334        1348406275.8720584     
   2019905815.6119545       -48217121.167246938        1068328462.7795583     
   2170473306.4853115        37753506.890008211        1161374689.2937741     
   2331346071.4644389        158075048.63315248        1256133305.0948622     
   2502524110.5493302        312747504.06218064        1352604310.1828239     
   2684007423.7399883        501770873.17710358        1450787704.5576558     
   1747179554.5293117       -55092067.735195756        1140541225.8394475     
   1893470813.8857789        21556058.781734586        1247265144.8053732     
   2047273130.7843671        123241043.77239966        1351138612.1345842     
   2208586505.2250752        249962887.23680282        1452161627.8270812     
   2377410937.2079062        401721589.17493933        1550334191.8828640     
   1490356872.8340101       -57195940.486935675        1211291782.3748288     
   1619335212.3204832        6218677.9837462902        1328433474.4682081     
   1753030392.7854309        85356099.716000438        1438161874.0012867     
   1891442414.2288549        180216324.70984197        1540476980.9740674     
   2034571276.6507483        290799352.96525741        1635378795.3865476     
   1249437770.5260441       -54528739.422474802        1280580132.3856974     
   1348066501.7894194       -8258635.5039845109        1404879678.2822785     
   1448617857.4676223        44420216.463934600        1517203090.6949728     
   1551091837.5606527        103507816.48127657        1617550369.6237843     
   1655488442.0685136        169004164.54805332        1705921515.0687027     
   1024422247.6054157       -47090464.541819334        1348406275.8720584     
   1079664682.2925920       -21875881.681432843        1476603756.2475884     
   1134035524.8309464        433394.01621353626        1588262262.2156434     
   1187534775.2204854        19837362.551140428        1683381793.7762265     
   1240162433.4612029        36336023.923326373        1761962350.9293349     
   2684007423.7399883        501770873.17710358        1450787704.5576558     
   2270097417.9194717        519144913.09066057        1299256148.0665307     
   1850476863.1593540        517483789.87220138        1154829088.7265780     
   1425145759.4595981        496787503.52163339        1017506526.5377920     
   994104106.82025087        457056054.03907084        887288461.50017369     
   2377410937.2079062        401721589.17493933        1550334191.8828640     
   1983287957.5212026        387797351.67417431        1383753421.0200481     
   1583764657.0365422        355872044.84687656        1232511621.7430661     
   1178841035.7539074        305945668.69301099        1096608794.0519238     
   768517093.67331171        238018223.21259826        976044937.94662189     
   2034571276.6507483        290799352.96525741        1635378795.3865476     
   1683762392.9112046        252634958.99417603        1454110742.9839532     
   1327863416.5153449        197503589.50204986        1296416136.6018751     
   966874347.46317017        125405244.48886481        1162294976.2403042     
   600795185.75467694        36339923.954623640        1051747261.8992432     
   1655488442.0685136        169004164.54805332        1705921515.0687027     
   1371520724.0894752        113657735.05066168        1510328113.9582639     
   1082773141.5957718        42378423.837713361        1346542633.3030028     
   789245694.58739638       -44833769.090794057        1214565073.1029279     
   490938383.06435823       -147978843.73485938        1114395433.3580379     
   1240162433.4612029        36336023.923326373        1761962350.9293349     
   1046562951.0560112       -29134320.156389713        1552405533.9429662     
   848493832.27780521       -109503452.14615595        1382891111.8464584     
   645955077.12658596       -204771372.04596263        1253419084.6397974     
   438946685.60234571       -314938079.85585064        1163989452.3229921     
   1756228589.6486928        526868576.89460784        680065501.35939705     
   1784152114.8274891        499936267.76840425        806480434.30274689     
   1809203448.2010050        463429985.95793182        925780430.26515055     
   1831382589.7692404        417349731.46319079        1037965489.2466081     
   1850689539.5321949        361695504.28417999        1143035611.2471197     
   1326559344.8135240        397967803.44405723        669659978.73552966     
   1339686084.3551230        375464874.55847865        791865738.40441763     
   1350646598.2621410        345741193.55762988        908782127.58549416     
   1359440886.5345778        308796760.44151086        1020409146.2787586     
   1366068949.1724336        264631575.21012193        1126746794.4842117     
   890653300.88947058        267195990.26684117        662253571.71661985     
   894199159.05997038        250687212.90171701        781073785.31019568     
   896284757.76658881        229310903.99032149        896430194.90909398     
   896910097.00932598        203067063.53265464        1008322800.5133157     
   896075176.78818154        171955691.52871621        1116751602.1228607     
   448510457.87653154        134553137.36295947        657846280.30266774     
   447691338.94203126        125603282.79811949        774104575.02008057     
   446117926.71434921        114139117.25600684        888724632.23595107     
   443790221.19348550        100160640.73662165        1001706451.9502790     
   440708222.37943983        83667853.239964023        1113050034.1630647     
   130815.77470748674        39244.732412246020        656438104.49367309     
   162624.00130580514        213084.24768601844        770958107.53407288     
   146105.10542192418        225833.35468605306        885665439.56606483     
   81259.087055829499        77492.053412085457        1000560100.5896487     
  -31914.053792247243       -231939.65613550268        1115642090.6048248     
   1850689539.5321949        361695504.28417999        1143035611.2471197     
   1835488017.6452694        296281275.50450170        1190531518.0511949     
   1823549373.2082138        241743304.89105690        1240330356.0016370     
   1814873606.2210305        198081592.44384986        1292432125.0984457     
   1809460716.6837165        165296138.16287822        1346836825.3416221     
   1366068949.1724336        264631575.21012193        1126746794.4842117     
   1360502938.0155067        217271861.25680706        1182027229.2705352     
   1357408884.4161336        178152005.82867315        1238250237.7428672     
   1356786788.3743153        147272008.92572141        1295415819.9012094     
   1358636649.8900514        124631870.54794991        1353523975.7455611     
   896075176.78818154        171955691.52871621        1116751602.1228607     
   896257940.76023245        141484471.72146019        1178893825.0170615     
   898121742.39752114        116616710.79833066        1240618264.1369154     
   901666581.70004761        97352408.759326547        1301924919.4824216     
   906892458.66781151        83691565.604448259        1362813791.0535796     
   440708222.37943983        83667853.239964023        1113050034.1630647     
   442753025.87944734        68919106.898459837        1181131305.2907751     
   445687947.15237677        57137419.800028726        1247434435.1837800     
   449512986.19822663        48322791.944666237        1311959423.8420808     
   454228143.01699841        42475223.332375526        1374706271.2656758     
  -31914.053792247243       -231939.65613550268        1115642090.6048248     
  -11806.626848983389       -424233.21219351096        1188739670.0916753     
   107498.68069949962       -285867.16623403522        1258698750.8834631     
   326001.86885201983        183158.48173928802        1325519332.9801888     
   643702.93760967278        982843.73172885284        1389201416.3818519     
   1809460716.6837165        165296138.16287822        1346836825.3416221     
   1778594913.9919312        132214337.52816683        1364527926.5034108     
   1749305482.8124313        104387108.60107297        1382912119.2846360     
   1721592423.1452146        81814451.381589353        1401989403.6852989     
   1695455734.9902833        64496365.869721889        1421759779.7053978     
   1358636649.8900514        124631870.54794991        1353523975.7455611     
   1332664656.7312624        99118372.624527335        1372791560.9972670     
   1307829407.2391219        77394020.256598830        1393383992.1061592     
   1284130901.4136288        59458813.444163144        1415301269.0722368     
   1261569139.2547841        45312752.187220812        1438543391.8955007     
   906892458.66781151        83691565.604448259        1362813791.0535796     
   887619287.14987302        66287874.024670064        1383144961.2419605     
   869043231.45294666        51207901.848266542        1405432731.5252762     
   851164291.57703221        38451649.075233698        1429677101.9035270     
   833982467.52212834        28019115.705573469        1455878072.3767130     
   454228143.01699841        42475223.332375526        1374706271.2656758     
   443458805.24776447        33722841.728598252        1395588127.2374897     
   432946955.45390713        25828753.376076326        1419058337.5419874     
   422692593.63542402        18792958.274801955        1445116902.1791689     
   412695719.79231697        12615456.424780741        1473763821.1490352     
   643702.93760967278        982843.73172885284        1389201416.3818519     
   183211.02493559220        1423275.7363103542        1410121058.9838555     
  -459420.75799938041        1256574.8400227360        1434260810.1562922     
  -1284192.4111953736        482741.04286504880        1461620669.8991635     
  -2291103.9346524817       -898225.65516354225        1492200638.2124658     
   1695455734.9902833        64496365.869721889        1421759779.7053978     
   1646174917.3326135        44054245.379743874        1414863658.7775743     
   1597835884.5622480        26751407.847442150        1413304813.2383833     
   1550438636.6791830        12587853.272814095        1417083243.0878289     
   1503983173.6834261        1563581.6558734179        1426198948.3259072     
   1261569139.2547841        45312752.187220812        1438543391.8955007     
   1227171939.2066081        30551695.696881711        1434599294.7727284     
   1193573579.7555671        18453441.196993113        1435455844.1148622     
   1160774060.9016578        9017988.6875436306        1441113039.9219010     
   1128773382.6448832        2245338.1685442328        1451570882.1938434     
   833982467.52212834        28019115.705573469        1455878072.3767130     
   812935659.58707619        18479155.565965235        1454719230.7204630     
   792544747.95898807        11125516.449571371        1457824406.6053865     
   772809732.63786447        5958198.3563911915        1465193600.0314863     
   753730613.62370467        2977201.2864252627        1476826810.9987621     
   412695719.79231697        12615456.424780741        1473763821.1490352     
   403466078.47401828        7836624.9869908094        1475223466.6207745     
   394749389.17251390        4767633.6051835716        1480410500.7099581     
   386545651.88780397        3408482.2793568820        1489324923.4165895     
   378854866.61988872        3759171.0095146447        1501966734.7406657     
  -2291103.9346524817       -898225.65516354225        1492200638.2124658     
  -1236804.1325676788       -1375896.0400453159        1496112002.4736633     
   187503.39614311254       -620207.33617344836        1503214126.4285772     
   1981818.6514778621        1368840.4564449464        1513507010.0772069     
   4146141.6334377648        4591247.3378135059        1526990653.4195533     
   1503983173.6834261        1563581.6558734179        1426198948.3259072     
   1453476191.6251323       -7708951.5892747045        1420499484.4095342     
   1403983816.3875940       -13599462.098571122        1417872341.1297910     
   1355506047.9708102       -16107949.872019231        1418317518.4866755     
   1308042886.3747845       -15234414.909607887        1421835016.4801903     
   1128773382.6448832        2245338.1685442328        1451570882.1938434     
   1087309299.7513826       -5265605.1087411642        1447066169.2878132     
   1046431472.0625467       -10822364.370477855        1446038691.2639496     
   1006139899.5783763       -14424939.616661429        1448488448.1222522     
   966434582.29887295       -16073330.847291648        1454415439.8627241     
   753730613.62370467        2977201.2864252627        1476826810.9987621     
   722466327.73938978       -2425082.6696822345        1473017105.5509691     
   691359945.44365120       -7301021.3305389583        1473089549.2308812     
   660411466.73648942       -11650614.696139574        1477044142.0384977     
   629620891.61790264       -15473862.766489714        1484880883.9738166     
   378854866.61988872        3759171.0095146447        1501966734.7406657     
   358947275.58915567        812615.72790431976        1498352293.1990070     
   338769236.53090668       -3035432.9787580818        1499024915.0305896     
   318320749.44514507       -7784975.1104615927        1503984600.2354138     
   297601814.33187169       -13436010.667205945        1513231348.8134818     
   4146141.6334377648        4591247.3378135059        1526990653.4195533     
  -3247856.6993205445        4447490.0840199376        1523071732.2319205     
  -11340654.675684268        1974400.6848746454        1523844788.6630700     
  -20132252.295649149       -2828020.8596071461        1529309822.7129986     
  -29622649.559220172       -9959774.5494437963        1539466834.3817086     
   1308042886.3747845       -15234414.909607887        1421835016.4801903     
   1237964482.5774264       -20442574.334381282        1385661393.5936785     
   1167334908.1834128       -27487969.081336319        1361365395.8634884     
   1096154163.1927428       -36370599.150482535        1348947023.2896171     
   1024422247.6054157       -47090464.541819334        1348406275.8720584     
   966434582.29887295       -16073330.847291648        1454415439.8627241     
   926407814.70419645       -17290813.372628987        1418679491.5596657     
   886142491.11353815       -19303482.551241875        1393261635.8947940     
   845638611.52689612       -22111338.383130312        1378161872.8681028     
   804896175.94427896       -25714380.868271917        1373380202.4795945     
   629620891.61790264       -15473862.766489714        1484880883.9738166     
   615189953.03122807       -14037410.550806522        1449947327.2883391     
   600833073.04925001       -12354096.319468081        1423772330.7229075     
   586550251.67196226       -10423920.072497517        1406355894.2775192     
   572341488.89937353       -8246881.8098617494        1397698017.9521763     
   297601814.33187169       -13436010.667205945        1513231348.8134818     
   304310897.55852288       -10682365.868902668        1479464900.7797008     
   311406653.99054927       -6639810.3860164732        1452897480.3478274     
   318889083.62793654       -1308344.2185923010        1433529087.5178638     
   326758186.47070068        5312032.6334198266        1421359722.2898073     
  -29622649.559220172       -9959774.5494437963        1539466834.3817086     
  -6229351.7139178142       -7225679.3269160921        1507232212.0337451     
   17863233.937431980       -2160624.7508973004        1480637084.7695556     
   42655107.394821890        5235389.1785876937        1459681452.5891345     
   68146268.658262104        14962362.461575042        1444365315.4924870     
   1024422247.6054157       -47090464.541819334        1348406275.8720584     
   1079664682.2925920       -21875881.681432843        1476603756.2475884     
   1134035524.8309464        433394.01621353626        1588262262.2156434     
   1187534775.2204854        19837362.551140428        1683381793.7762265     
   1240162433.4612029        36336023.923326373        1761962350.9293349     
   804896175.94427896       -25714380.868271917        1373380202.4795945     
   818181257.82794666       -14926916.340223372        1498015460.9696972     
   830506380.39329147       -7339316.2065851092        1610244142.0951166     
   841871543.64032340       -2951580.4673231840        1710066245.8558490     
   852276747.56903052       -1763709.1224770546        1797481772.2518909     
   572341488.89937353       -8246881.8098617494        1397698017.9521763     
   555476066.67320812       -8344481.0060461760        1518667959.5257761     
   537562317.95922089       -11936501.828302652        1631363720.7774737     
   518600242.75741881       -19022944.276609838        1735785301.7072711     
   498589841.06779468       -29603808.350989610        1831932702.3151693     
   326758186.47070068        5312032.6334198266        1421359722.2898073     
   291549108.82837528       -2128575.6789017320        1538561251.9158173     
   255203337.52873299       -13358162.848944962        1651620998.2627091     
   217720872.57177252       -28376728.876715556        1760538961.3304892     
   179101713.95749110       -47184273.762224168        1865315141.1191576     
   68146268.658262104        14962362.461575042        1444365315.4924870     
   26400384.293454707        3720799.6412296565        1557695338.1398225     
  -16570560.898171835       -11604299.268511537        1671015974.5508296     
  -60766566.916615844       -31012934.267645329        1784327224.7255096     
  -106187633.76188111       -54505105.356182635        1897629088.6638567     
   1240162433.4612029        36336023.923326373        1761962350.9293349     
   1046562951.0560112       -29134320.156389713        1552405533.9429662     
   848493832.27780521       -109503452.14615595        1382891111.8464584     
   645955077.12658596       -204771372.04596263        1253419084.6397974     
   438946685.60234571       -314938079.85585064        1163989452.3229921     
   852276747.56903052       -1763709.1224770546        1797481772.2518909     
   761037649.78446937       -34899803.225798309        1591969988.7370694     
   668232791.58138287       -73255098.724195600        1417692817.7383261     
   573862172.95978379       -116829595.61763623        1274650259.2556643     
   477925793.91967225       -165623293.90612411        1162842313.2890673     
   498589841.06779468       -29603808.350989610        1831932702.3151693     
   484546035.40734917       -37955180.226898640        1633853807.5521426     
   471840345.28288728       -41846166.982863039        1458201742.9314141     
   460472770.69441104       -41276768.618870735        1304976508.4529986     
   450443311.64192265       -36246985.134927064        1174178104.1168673     
   179101713.95749110       -47184273.762224168        1865315141.1191576     
   217088107.92466307       -38300451.159662992        1678056990.3881774     
   259316493.38231993       -15276656.922152400        1504417887.4257255     
   305786870.33046377        21887108.950317279        1344397832.2317932     
   356499238.76909810        73190846.457750797        1197996824.8063946     
  -106187633.76188111       -54505105.356182635        1897629088.6638567     
  -41336132.663594633       -35935616.024105482        1724579537.2451799     
   30661235.879682459        6453431.4579397030        1556341251.2212524     
   109804471.86794317        72662037.089930624        1392914230.5920658     
   196093575.30119935        162690200.87190640        1234298475.3576381     
   130815.77470748674        39244.732412246020        656438104.49367309     
   162624.00130580514        213084.24768601844        770958107.53407288     
   146105.10542192418        225833.35468605306        885665439.56606483     
   81259.087055829499        77492.053412085457        1000560100.5896487     
  -31914.053792247243       -231939.65613550268        1115642090.6048248     
  -448250183.76203501       -134475055.12861049        657984634.73434293     
  -447417017.61971951       -125353885.76540112        774157206.82814920     
  -445880430.30020189       -113887979.14485079        888694110.66985309     
  -443640421.80348164       -100077335.26695903        1001595346.2594545     
  -440696992.12955916       -83921954.131726086        1112860913.5969534     
  -890397099.07972932       -267119129.72391877        662441461.46938419     
  -893971138.57510948       -250613199.57879779        781143642.29956210     
  -896090008.59360290       -229256704.51072067        896387157.63394308     
  -896753709.13520956       -203049644.51968741        1008172007.4725274     
  -895962240.19992948       -171992019.60569802        1116498191.8153145     
  -1326309930.1783752       -397892979.05351257        669808584.69879675     
  -1339499738.8648639       -375564857.19250369        791917413.94831169     
  -1350482629.7747812       -345880342.74292374        908744580.45833504     
  -1359258602.9081275       -308839435.70477271        1020290084.2288671     
  -1365827658.2649021       -264442136.07805043        1126553925.2599080     
  -1755988677.0579729       -526796603.11739188        680086004.42258072     
  -1784002818.4889832       -500208858.60651904        806478521.77439773     
  -1809058293.8437374       -463758893.84146023        925766379.14302886     
  -1831155103.1222360       -417446708.82221532        1037949576.5284741     
  -1850293246.3244786       -361272303.54878426        1143028113.9307330     
  -31914.053792247243       -231939.65613550268        1115642090.6048248     
  -11806.626848983389       -424233.21219351096        1188739670.0916753     
   107498.68069949962       -285867.16623403522        1258698750.8834631     
   326001.86885201983        183158.48173928802        1325519332.9801888     
   643702.93760967278        982843.73172885284        1389201416.3818519     
  -440696992.12955916       -83921954.131726086        1112860913.5969534     
  -442651647.20392656       -69355500.803282648        1181126049.8645489     
  -445388516.23503649       -57396427.330647796        1247604772.0836215     
  -448907599.22288817       -48044733.713819593        1312297080.2541721     
  -453208896.16748339       -41300419.952801853        1375202974.3761988     
  -895962240.19992948       -171992019.60569802        1116498191.8153145     
  -896028558.78549409       -141507889.69572005        1178902571.0534167     
  -897758503.16514826       -116569179.09937307        1240872620.8895361     
  -901152073.33889174       -97175887.816658765        1302408341.3236721     
  -906209269.30672562       -83328015.847577125        1363509732.3558249     
  -1365827658.2649021       -264442136.07805043        1126553925.2599080     
  -1360142541.3715506       -216881399.88950330        1182069233.6582785     
  -1357002462.1096361       -177804122.47241095        1238502297.3012054     
  -1356407420.4791586       -147210303.82677668        1295853116.1886890     
  -1358357416.4801176       -125099943.95259738        1354121690.3207295     
  -1850293246.3244786       -361272303.54878426        1143028113.9307330     
  -1834993594.9620981       -295476031.38463473        1190626037.6791339     
  -1823120393.0685010       -241101257.44976360        1240493801.3186309     
  -1814673640.6436884       -198147981.74417317        1292631404.8492241     
  -1809653337.6876597       -166616204.26786309        1347038848.2709136     
   643702.93760967278        982843.73172885284        1389201416.3818519     
   183211.02493559220        1423275.7363103542        1410121058.9838555     
  -459420.75799938041        1256574.8400227360        1434260810.1562922     
  -1284192.4111953736        482741.04286504880        1461620669.8991635     
  -2291103.9346524817       -898225.65516354225        1492200638.2124658     
  -453208896.16748339       -41300419.952801853        1375202974.3761988     
  -443420618.91167092       -32182275.291179538        1395778682.2559531     
  -434071913.21088606       -24529369.146314889        1419015401.0817163     
  -425162779.06513017       -18341701.518214300        1444913130.8534877     
  -416693216.47440249       -13619272.406874210        1473471871.5712678     
  -906209269.30672562       -83328015.847577125        1363509732.3558249     
  -887769644.66649640       -66011385.064135164        1383441168.5477679     
  -870027023.26606154       -51018098.413341671        1405474518.0612948     
  -852981405.10542285       -38348155.895201921        1429609780.8964067     
  -836632790.18457854       -28001557.509710610        1455846957.0531032     
  -1358357416.4801176       -125099943.95259738        1354121690.3207295     
  -1332863866.2395401       -100064053.58255535        1373108517.8593001     
  -1308324750.9235258       -78209612.961055517        1393638161.0950294     
  -1284740070.5320723       -59536622.088093579        1415710620.0279212     
  -1262109825.0651827       -44045080.963676453        1439325894.6579709     
  -1809653337.6876597       -166616204.26786309        1347038848.2709136     
  -1778703283.6308038       -134340280.84644371        1364780730.1905487     
  -1748965096.1832771       -106103912.78945267        1383506330.1829197     
  -1720438775.3450806       -81907100.096897066        1403215648.2480271     
  -1693124321.1162133       -61749842.768772006        1423908684.3858700     
  -2291103.9346524817       -898225.65516354225        1492200638.2124658     
  -1236804.1325676788       -1375896.0400453159        1496112002.4736633     
   187503.39614311254       -620207.33617344836        1503214126.4285772     
   1981818.6514778621        1368840.4564449464        1513507010.0772069     
   4146141.6334377648        4591247.3378135059        1526990653.4195533     
  -416693216.47440249       -13619272.406874210        1473471871.5712678     
  -405289503.04672742       -8976049.8190086484        1475747270.8328347     
  -394078823.62966865       -4976273.9331974536        1481611253.2728131     
  -383061178.22322643       -1619944.7494418621        1491063818.8912017     
  -372236566.82740074        1092937.7322596163        1504104967.6880031     
  -836632790.18457854       -28001557.509710610        1455846957.0531032     
  -813743024.60361552       -17896450.390793025        1455829509.2882578     
  -791609334.77050924       -10311595.764730006        1459798468.1865184     
  -770231720.68526053       -5246993.6315267384        1467753833.7478850     
  -749610182.34787047       -2702643.9911836386        1479695605.9723566     
  -1262109825.0651827       -44045080.963676453        1439325894.6579709     
  -1226597368.8032317       -28137097.755394578        1436358717.8399320     
  -1192404030.0263786       -16626172.830772042        1437775771.1696939     
  -1159529808.7346249       -9512306.1898127794        1443577054.6472571     
  -1127974704.9279699       -6795497.8325183392        1453762568.2726200     
  -1693124321.1162133       -61749842.768772006        1423908684.3858700     
  -1643852535.6455750       -39697991.912813902        1417334896.4878569     
  -1596462909.3972774       -23920005.131322980        1415543162.2223392     
  -1550955442.3713176       -14415882.424293637        1418533481.5893161     
  -1507330134.5677001       -11185623.791738868        1426305854.5887885     
   4146141.6334377648        4591247.3378135059        1526990653.4195533     
  -3247856.6993205445        4447490.0840199376        1523071732.2319205     
  -11340654.675684268        1974400.6848746454        1523844788.6630700     
  -20132252.295649149       -2828020.8596071461        1529309822.7129986     
  -29622649.559220172       -9959774.5494437963        1539466834.3817086     
  -372236566.82740074        1092937.7322596163        1504104967.6880031     
  -366664510.41204816        1341864.5560454875        1499452244.6739354     
  -361485039.21494555        282173.98566561937        1499990812.9063473     
  -356698153.23608768       -2086133.9788631797        1505720672.3852382     
  -352303852.47547978       -5763059.3375597894        1516641823.1106086     
  -749610182.34787047       -2702643.9911836386        1479695605.9723566     
  -729645460.81955504       -1633049.9803610742        1474666331.2947712     
  -709767110.08413398       -851358.61252111197        1475327661.4913628     
  -689975130.14160311       -357569.88764551282        1481679596.5621302     
  -670269520.99196315       -151683.80574291945        1493722136.5070734     
  -1127974704.9279699       -6795497.8325183392        1453762568.2726200     
  -1092190707.9218395       -4477253.5252009034        1448713992.0944293     
  -1056186867.2832488       -1426197.1096826792        1449855334.4181135     
  -1019963183.0121933        2357671.4140530825        1457186595.2436719     
  -983519655.10867274        6874352.0460028052        1470707774.5711062     
  -1507330134.5677001       -11185623.791738868        1426305854.5887885     
  -1454300251.7189054       -7190746.0784777403        1421595227.0729094     
  -1400744310.8122923       -1442341.5058265328        1423573831.6866016     
  -1346662311.8478582        6059589.9262290001        1432241668.4298670     
  -1292054254.8256030        15315048.217688918        1447598737.3027065     
  -29622649.559220172       -9959774.5494437963        1539466834.3817086     
  -6229351.7139178142       -7225679.3269160921        1507232212.0337451     
   17863233.937431980       -2160624.7508973004        1480637084.7695556     
   42655107.394821890        5235389.1785876937        1459681452.5891345     
   68146268.658262104        14962362.461575042        1444365315.4924870     
  -352303852.47547978       -5763059.3375597894        1516641823.1106086     
  -314646041.95336866        285176.05927252769        1486061368.0540903     
  -276763047.64570487        7084024.0746134818        1460049318.3941998     
  -238654869.55249083        14633484.708454281        1438605674.1309359     
  -200321507.67372629        22933557.960797668        1421730435.2642977     
  -670269520.99196315       -151683.80574291945        1493722136.5070734     
  -621407454.04202938        8292614.8906981349        1464242727.3847609     
  -572794307.32703817        15907179.470662475        1438260633.9719298     
  -524430080.84698731        22692009.934159160        1415775856.2685788     
  -476314774.60187972        28647106.281177461        1396788394.2747104     
  -983519655.10867274        6874352.0460028052        1470707774.5711062     
  -926513587.97990191        16796637.167355299        1441776290.0257556     
  -870230545.10656607        24308841.437257826        1415271031.5027413     
  -814670526.48866701        29410964.855705738        1391191999.0020654     
  -759833532.12620437        32103007.422699183        1369539192.5237234     
  -1292054254.8256030        15315048.217688918        1447598737.3027065     
  -1229964443.7669818        25797242.889258564        1418662055.9770751     
  -1169071760.9842918        32289009.974387169        1391080510.9866366     
  -1109376206.4775240        34790349.473110735        1364854102.3313885     
  -1050877780.2466917        33301261.385382175        1339982830.0113330     
   68146268.658262104        14962362.461575042        1444365315.4924870     
   26400384.293454707        3720799.6412296565        1557695338.1398225     
  -16570560.898171835       -11604299.268511537        1671015974.5508296     
  -60766566.916615844       -31012934.267645329        1784327224.7255096     
  -106187633.76188111       -54505105.356182635        1897629088.6638567     
  -200321507.67372629        22933557.960797668        1421730435.2642977     
  -243385834.27594814        6291254.6618181914        1531504834.8381722     
  -287020225.98703390       -12251265.666709334        1641520759.0377376     
  -331224682.80698293       -32694003.024779961        1751778207.8629999     
  -375999204.73580098       -55036957.412414730        1862277181.3139541     
  -476314774.60187972        28647106.281177461        1396788394.2747104     
  -519980655.26430982        6819128.9567224085        1503771332.4460659     
  -563561605.31764793       -14725746.337426513        1611246706.1051385     
  -607057624.76189685       -35987519.601278752        1719214515.2519283     
  -650468713.59705997       -56966190.834843576        1827674759.8864329     
  -759833532.12620437        32103007.422699183        1369539192.5237234     
  -803384078.67163253        5304422.5259399712        1474494830.9635084     
  -846194698.89001882       -19027741.280678838        1580193815.7530334     
  -888265392.78136075       -40893483.997149140        1686636146.8922989     
  -929596160.34565997       -60292805.623477161        1793821824.3812983     
  -1050877780.2466917        33301261.385382175        1339982830.0113330     
  -1093596104.4979169        1747135.3694656491        1443675330.3904972     
  -1134919506.7041409       -25157250.496449888        1548362087.9814198     
  -1174847986.8653655       -47411896.212364316        1654043102.7841048     
  -1213381544.9815989       -65016801.778309226        1760718374.7985547     
  -106187633.76188111       -54505105.356182635        1897629088.6638567     
  -41336132.663594633       -35935616.024105482        1724579537.2451799     
   30661235.879682459        6453431.4579397030        1556341251.2212524     
   109804471.86794317        72662037.089930624        1392914230.5920658     
   196093575.30119935        162690200.87190640        1234298475.3576381     
  -375999204.73580098       -55036957.412414730        1862277181.3139541     
  -295536470.03689146       -34844420.301529303        1695013444.5029747     
  -211230495.82678452       -1841084.8199890256        1534572534.0410759     
  -123081282.10549065        43973049.032176748        1380954449.9282587     
  -31088828.872997828        102597981.25500697        1234159192.1645181     
  -650468713.59705997       -56966190.834843576        1827674759.8864329     
  -548647428.28515577       -33426410.841440082        1662343771.7603948     
  -446285531.39585298       -8084592.2567077875        1505847170.9377699     
  -343383022.92915177        19059264.919356421        1358184957.4185534     
  -239939902.88504988        48005160.686751068        1219357131.2027452     
  -929596160.34565997       -60292805.623477161        1793821824.3812983     
  -800669007.40838861       -31681587.643839717        1626570519.0174420     
  -674503870.82751417       -12277090.852192938        1470165161.9113271     
  -551100750.60303783       -2079315.2485389113        1324605753.0629489     
  -430459646.73495501       -1088260.8328607678        1189892292.4723191     
  -1213381544.9815989       -65016801.778309226        1760718374.7985547     
  -1051601207.4065914       -29609950.708733678        1587693686.2741187     
  -895885514.12177956       -14418580.606478393        1427526506.9617534     
  -746234465.12715173       -19442691.471499026        1280216836.8614576     
  -602648060.42271495       -44682283.303829014        1145764675.9732385     
  -1755988677.0579729       -526796603.11739188        680086004.42258072     
  -1784002818.4889832       -500208858.60651904        806478521.77439773     
  -1809058293.8437374       -463758893.84146023        925766379.14302886     
  -1831155103.1222360       -417446708.82221532        1037949576.5284741     
  -1850293246.3244786       -361272303.54878426        1143028113.9307330     
  -2201666678.0597916       -660500003.41793752        696409340.20510507     
  -2238268525.6876388       -613972457.43584204        813851684.98684633     
  -2272805693.5841594       -560562645.68265939        927191269.26084769     
  -2305278181.7493539       -500270568.15838969        1036428093.0271093     
  -2335685990.1832223       -433096224.86303318        1141562156.2856309     
  -2685577271.5251002       -805673181.45753002        721914211.61073840     
  -2722189969.7056522       -736632777.31097221        829363399.75331938     
  -2757631974.4998083       -663690061.87642658        935711726.86360645     
  -2791903285.9075670       -586845035.15389287        1040959192.9415997     
  -2825003903.9289303       -506097697.14337116        1145105797.9872990     
  -3207720457.4538989       -962316137.23616970        756600618.63948107     
  -3235767150.5430250       -868189818.23191047        853013666.07381701     
  -3263537136.5906839       -773141142.42276192        951327751.95130479     
  -3291030415.5968766       -677170109.80872512        1051542876.2719452     
  -3318246987.5616016       -580276720.38979840        1153659039.0357375     
  -3768096235.8461876       -1130428870.7538562        800468561.29133284     
  -3779000068.1997552       -1008643580.1986556        884802483.94833899     
  -3790521179.8567867       -888915887.32166529        974039344.52394342     
  -3802659570.8172803       -771245792.12288499        1068179143.0181460     
  -3815415241.0812368       -655633294.60231423        1167221879.4309468     
  -1850293246.3244786       -361272303.54878426        1143028113.9307330     
  -1834993594.9620981       -295476031.38463473        1190626037.6791339     
  -1823120393.0685010       -241101257.44976360        1240493801.3186309     
  -1814673640.6436884       -198147981.74417317        1292631404.8492241     
  -1809653337.6876597       -166616204.26786309        1347038848.2709136     
  -2335685990.1832223       -433096224.86303318        1141562156.2856309     
  -2312203640.8029346       -351983296.03298169        1182836056.2934277     
  -2292255286.6327987       -282650351.23676968        1224599886.4240797     
  -2275840927.6728139       -225097390.47439539        1266853646.6775873     
  -2262960563.9229808       -179324413.74586058        1309597337.0539494     
  -2825003903.9289303       -506097697.14337116        1145105797.9872990     
  -2798424313.0114245       -411193748.59162563        1179930204.2228966     
  -2775486263.0454378       -328428269.87827742        1213464630.8131087     
  -2756189754.0309706       -257801261.00332737        1245709077.7579334     
  -2740534785.9680223       -199312721.96677494        1276663545.0573738     
  -3318246987.5616016       -580276720.38979840        1153659039.0357375     
  -3293655611.5875673       -473107389.06056511        1181908481.4675405     
  -3272813322.3064184       -378435013.37428808        1207088034.4857161     
  -3255720119.7181582       -296259593.33096766        1229197698.0902646     
  -3242376003.8227844       -226581128.93060601        1248237472.2811852     
  -3815415241.0812368       -655633294.60231423        1167221879.4309468     
  -3797897536.5313616       -537724217.43979990        1188770888.0273590     
  -3784236464.4157419       -432670581.72480071        1205470097.4419026     
  -3774432024.7343755       -340472387.45731723        1217319507.6745782     
  -3768484217.4872646       -261129634.63735020        1224319118.7253852     
  -1809653337.6876597       -166616204.26786309        1347038848.2709136     
  -1778703283.6308038       -134340280.84644371        1364780730.1905487     
  -1748965096.1832771       -106103912.78945267        1383506330.1829197     
  -1720438775.3450806       -81907100.096897066        1403215648.2480271     
  -1693124321.1162133       -61749842.768772006        1423908684.3858700     
  -2262960563.9229808       -179324413.74586058        1309597337.0539494     
  -2222839996.1587663       -135001698.73180509        1317652840.1964304     
  -2185529821.9220638       -100046962.14278805        1328998837.7504592     
  -2151030041.2128749       -74460203.978818297        1343635329.7160349     
  -2119340654.0311997       -58241424.239890099        1361562316.0931580     
  -2740534785.9680223       -199312721.96677494        1276663545.0573738     
  -2684652914.9569874       -140965978.49824083        1273167721.3514857     
  -2633179964.3916473       -97315636.515360832        1275269168.3959572     
  -2586115934.2720051       -68361696.018137097        1282967886.1907873     
  -2543460824.5980577       -54104157.006569147        1296263874.7359755     
  -3242376003.8227844       -226581128.93060601        1248237472.2811852     
  -3164142040.0254664       -152233120.14575601        1231325373.6557152     
  -3091915523.5920281       -97909935.907174706        1222317322.1194148     
  -3025696454.5224705       -63611576.214857101        1221213317.6722853     
  -2965484832.8167930       -49338041.068812370        1228013360.3143263     
  -3768484217.4872646       -261129634.63735020        1224319118.7253852     
  -3661307371.3642035       -168803123.67434859        1192125797.1091177     
  -3561736499.5232067       -101829860.31822574        1170143298.9208329     
  -3469771601.9642730       -60209844.568981647        1158371624.1605284     
  -3385412678.6874027       -43943076.426616192        1156810772.8282065     
  -1693124321.1162133       -61749842.768772006        1423908684.3858700     
  -1643852535.6455750       -39697991.912813902        1417334896.4878569     
  -1596462909.3972774       -23920005.131322980        1415543162.2223392     
  -1550955442.3713176       -14415882.424293637        1418533481.5893161     
  -1507330134.5677001       -11185623.791738868        1426305854.5887885     
  -2119340654.0311997       -58241424.239890099        1361562316.0931580     
  -2058927449.7462964       -39798838.240469337        1353724239.6269007     
  -1999919240.2001309       -26039568.036840916        1350507338.9675536     
  -1942316025.3927002       -16963613.628994942        1351911614.1151137     
  -1886117805.3240085       -12570975.016941428        1357937065.0695856     
  -2543460824.5980577       -54104157.006569147        1296263874.7359755     
  -2472365852.4291382       -39408731.142764091        1287718201.5990136     
  -2402198710.5153542       -27806072.796073079        1283632826.4433732     
  -2332959398.8566980       -19296181.966483474        1284007749.2690566     
  -2264647917.4531760       -13879058.654002547        1288842970.0760622     
  -2965484832.8167930       -49338041.068812370        1228013360.3143263     
  -2884167743.6941023       -38527670.619695306        1219316782.4041953     
  -2803301320.3429422       -29219519.409010649        1214919624.6498015     
  -2722885562.7633090       -21413587.436752796        1214821887.0511434     
  -2642920470.9552054       -15109874.702923536        1219023569.6082225     
  -3385412678.6874027       -43943076.426616192        1156810772.8282065     
  -3294333123.5411882       -37155656.671263456        1148519982.0424457     
  -3203227069.6828995       -30279907.875664353        1144367733.5868356     
  -3112094517.1125326       -23315830.039805532        1144354027.4613748     
  -3020935465.8300920       -16263423.163699985        1148478863.6660655     
  -1507330134.5677001       -11185623.791738868        1426305854.5887885     
  -1454300251.7189054       -7190746.0784777403        1421595227.0729094     
  -1400744310.8122923       -1442341.5058265328        1423573831.6866016     
  -1346662311.8478582        6059589.9262290001        1432241668.4298670     
  -1292054254.8256030        15315048.217688918        1447598737.3027065     
  -1886117805.3240085       -12570975.016941428        1357937065.0695856     
  -1816259014.9097617       -6069625.9770103693        1353172069.7512338     
  -1746306962.0704889        742597.81301069260        1354084739.3551943     
  -1676261646.8061879        7865696.3531227112        1360675073.8814657     
  -1606123069.1168633        15299669.643317461        1372943073.3300517     
  -2264647917.4531760       -13879058.654002547        1288842970.0760622     
  -2180850411.4942255       -5738295.8936249018        1283518678.7169816     
  -2097392438.7430398        1270689.5075367689        1282860485.0729518     
  -2014273999.1996222        7147897.5494749546        1286868389.1439722     
  -1931495092.8639684        11893328.232192397        1295542390.9300418     
  -2642920470.9552054       -15109874.702923536        1219023569.6082225     
  -2548074441.4722943       -6196755.8283152580        1212635053.9701545     
  -2454000740.8299432        141933.57776141167        1209901068.8398750     
  -2360699369.0281510        3906193.5153056383        1210821614.2173829     
  -2268170326.0669188        5096023.9843188524        1215396690.1026821     
  -3020935465.8300920       -16263423.163699985        1148478863.6660655     
  -2917931104.8439717       -7445005.7810956240        1140521195.5107517     
  -2816131868.3312006       -2643669.9763232470        1135206490.6559627     
  -2715537756.2917833       -1859415.7493979931        1132534749.1017039     
  -2616148768.7257175       -5092243.1003156900        1132505970.8479719     
  -1292054254.8256030        15315048.217688918        1447598737.3027065     
  -1229964443.7669818        25797242.889258564        1418662055.9770751     
  -1169071760.9842918        32289009.974387169        1391080510.9866366     
  -1109376206.4775240        34790349.473110735        1364854102.3313885     
  -1050877780.2466917        33301261.385382175        1339982830.0113330     
  -1606123069.1168633        15299669.643317461        1372943073.3300517     
  -1537994925.6003182        21799388.678494036        1340597001.0452759     
  -1470178368.0273850        27260487.901634455        1312459696.3859529     
  -1402673396.3980608        31682967.312741697        1288531159.3520868     
  -1335480010.7123480        35066826.911815286        1268811389.9436765     
  -1931495092.8639684        11893328.232192397        1295542390.9300418     
  -1849175384.6316049        16856541.308351994        1260820060.4071574     
  -1766281720.0105309        23732942.346869349        1233160128.7999933     
  -1682814099.0007510        32522531.347739816        1212562596.1085477     
  -1598772521.6022646        43225308.310972035        1199027462.3328216     
  -2268170326.0669188        5096023.9843188524        1215396690.1026821     
  -2163505820.8608365        10968700.778824329        1179331234.0627286     
  -2057381816.9337254        21706373.310094714        1153181808.2287567     
  -1949798314.2855957        37309041.578094959        1136948412.6007655     
  -1840755312.9164393        57776705.582852125        1130631047.1787608     
  -2616148768.7257175       -5092243.1003156900        1132505970.8479719     
  -2480986234.2880225        4135867.0899087191        1096130522.0119855     
  -2343478658.7969790        21180780.791289687        1072524734.6722416     
  -2203626042.2526002        46042498.003789067        1061688608.8287503     
  -2061428384.6548743        78721018.727450728        1063622144.4815019     
  -1050877780.2466917        33301261.385382175        1339982830.0113330     
  -1093596104.4979169        1747135.3694656491        1443675330.3904972     
  -1134919506.7041409       -25157250.496449888        1548362087.9814198     
  -1174847986.8653655       -47411896.212364316        1654043102.7841048     
  -1213381544.9815989       -65016801.778309226        1760718374.7985547     
  -1335480010.7123480        35066826.911815286        1268811389.9436765     
  -1380266650.9842007        3264173.9348475337        1378584166.1401429     
  -1425791708.4698789       -30999869.754868746        1485829025.1769114     
  -1472055183.1693761       -67725304.157320857        1590545967.0539870     
  -1519057075.0826991       -106912129.27251786        1692734991.7713680     
  -1598772521.6022646        43225308.310972035        1199027462.3328216     
  -1655690833.2417643        8155121.7688338757        1312391618.5446279     
  -1715480901.3539083       -36487586.348778248        1419705683.2252841     
  -1778142725.9386940       -90702816.041869640        1520969656.3747923     
  -1843676306.9961243       -154490567.31043899        1616183537.9931479     
  -1840755312.9164393        57776705.582852125        1130631047.1787608     
  -1919868651.2706020        16419978.871440172        1245097687.6039562     
  -2003987085.3562286       -41620400.278173447        1349992062.1265409     
  -2093110615.1733205       -116344431.86601436        1445314170.7465229     
  -2187239240.7218757       -207752115.89205718        1531064013.4639013     
  -2061428384.6548743        78721018.727450728        1063622144.4815019     
  -2172800105.0707140        28058745.242669463        1176702373.3181195     
  -2291310260.4768400       -46398311.543055892        1276688161.8806803     
  -2416958850.8732510       -144650151.62973845        1363579510.1691787     
  -2549745876.2599468       -266696775.01736450        1437376418.1836164     
  -1213381544.9815989       -65016801.778309226        1760718374.7985547     
  -1051601207.4065914       -29609950.708733678        1587693686.2741187     
  -895885514.12177956       -14418580.606478393        1427526506.9617534     
  -746234465.12715173       -19442691.471499026        1280216836.8614576     
  -602648060.42271495       -44682283.303829014        1145764675.9732385     
  -1519057075.0826991       -106912129.27251786        1692734991.7713680     
  -1319857949.8443937       -76595596.827249110        1510418969.4004540     
  -1122793120.0856762       -53393382.647277296        1345203809.5486882     
  -927862585.80655622       -37305486.732619673        1197089512.2160780     
  -735066347.00702500       -28331909.083276480        1066076077.4026181     
  -1843676306.9961243       -154490567.31043899        1616183537.9931479     
  -1594934527.5028536       -125627193.51195008        1429161588.7214499     
  -1344396694.6785796       -90776975.276795447        1263483855.2759883     
  -1092062808.5232997       -49939912.604947150        1119150337.6567519     
  -837932869.03701687       -3116005.4964285493        996161035.86376119     
  -2187239240.7218757       -207752115.89205718        1531064013.4639013     
  -1876830940.3819807       -176704740.76286703        1343921544.2371151     
  -1560696237.9004836       -126569358.49500835        1182366644.1436424     
  -1238835133.2773876       -57345969.088475347        1046399313.1834853     
  -911247626.51268923        30965427.456715286        936019551.35663843     
  -2549745876.2599468       -266696775.01736450        1437376418.1836164     
  -2165547188.4817653       -229828238.57996786        1254698835.9474370     
  -1771691749.7513902       -160770532.30192548        1101852176.1516554     
  -1368179560.0688090       -59523656.183201075        978836438.79627180     
  -955010619.43403959        73912389.776155651        885651623.88128686     
  -3768096235.8461876       -1130428870.7538562        800468561.29133284     
  -3779000068.1997552       -1008643580.1986556        884802483.94833899     
  -3790521179.8567867       -888915887.32166529        974039344.52394342     
  -3802659570.8172803       -771245792.12288499        1068179143.0181460     
  -3815415241.0812368       -655633294.60231423        1167221879.4309468     
  -4339602263.8365440       -1301880679.1509631        858651794.38732064     
  -4335159392.3899736       -1125713769.5776243        942276817.30630159     
  -4331854619.9026852       -953340523.20189679        1020254454.6872214     
  -4329687946.3746815       -784760940.02377975        1092584706.5300791     
  -4328659371.8059597       -619975020.04327357        1159267572.8348753     
  -4895136198.5595493       -1468540859.5678647        936284072.74847174     
  -4905490404.6175814       -1247035465.3678100        1018592572.9976374     
  -4917503529.2907181       -1031059799.8847678        1084703364.2520816     
  -4931175572.5789585       -820613863.11873710        1134616446.5118041     
  -4946506534.4822998       -615697655.06971681        1168331819.7768054     
  -5434698040.0152016       -1630409412.0045602        1033365396.3747857     
  -5489993104.8825788       -1372608667.5692132        1113749751.0223460     
  -5547467908.0208817       -1122073717.3702784        1167386073.2185247     
  -5607122449.4301081       -878804561.40775585        1194274362.9633217     
  -5668956729.1102571       -642801199.68164635        1194414620.2567375     
  -5958287788.2034988       -1787486336.4610496        1149895765.2662625     
  -6088667493.1849651       -1502433376.1818323        1227748351.3804266     
  -6221747756.0931778       -1226382275.6584289        1268302581.5865498     
  -6357528576.9281330       -959333034.89083815        1271558455.8846312     
  -6496009955.6898308       -701285653.87905908        1237515974.2746713     
  -3815415241.0812368       -655633294.60231423        1167221879.4309468     
  -3797897536.5313616       -537724217.43979990        1188770888.0273590     
  -3784236464.4157419       -432670581.72480071        1205470097.4419026     
  -3774432024.7343755       -340472387.45731723        1217319507.6745782     
  -3768484217.4872646       -261129634.63735020        1224319118.7253852     
  -4328659371.8059597       -619975020.04327357        1159267572.8348753     
  -4298182058.6403713       -464198992.85461164        1141221434.8659577     
  -4278332260.3864255       -343848015.37142491        1129255498.8541927     
  -4269109977.0441227       -258922087.59371543        1123369764.7995801     
  -4270515208.6134615       -209421209.52148223        1123564232.7021201     
  -4946506534.4822998       -615697655.06971681        1168331819.7768054     
  -4871841038.0180798       -412686105.45003223        1102791172.3522725     
  -4814573938.9428940       -267669213.79378581        1054260728.0239125     
  -4774705237.2567396       -180646980.10097528        1022740486.7917262     
  -4752234932.9596128       -151619404.37160110        1008230448.6557126     
  -5668956729.1102571       -642801199.68164635        1194414620.2567375     
  -5518874474.6644917       -383185555.22606516        1073480100.4863032     
  -5392961500.0851469       -204134176.99188066        980485784.95106232     
  -5291217805.3722219       -105647064.97909498        915431673.65101540     
  -5213643390.5257120       -87724219.187704325        878317766.58616245     
  -6496009955.6898308       -701285653.87905908        1237515974.2746713     
  -6239282368.5796041       -375697342.18270683        1053288219.2680498     
  -6013494943.8131847       -153242904.96571279        907930669.63564157     
  -5818647681.3905725       -33922342.228073597        801443325.37744808     
  -5654740581.3117685       -17735653.969793797        733826186.49346948     
  -3768484217.4872646       -261129634.63735020        1224319118.7253852     
  -3661307371.3642035       -168803123.67434859        1192125797.1091177     
  -3561736499.5232067       -101829860.31822574        1170143298.9208329     
  -3469771601.9642730       -60209844.568981647        1158371624.1605284     
  -3385412678.6874027       -43943076.426616192        1156810772.8282065     
  -4270515208.6134615       -209421209.52148223        1123564232.7021201     
  -4147931035.1839294       -145443850.26847672        1090489955.0522132     
  -4029699791.0090537       -95976255.197660685        1065598756.1431481     
  -3915821476.0888348       -61018424.309034586        1048890635.9749260     
  -3806296090.4232736       -40570357.602598190        1040365594.5475453     
  -4752234932.9596128       -151619404.37160110        1008230448.6557126     
  -4620036988.4725761       -117729263.70328116        978070434.17080617     
  -4488938928.2127895       -87505403.792462826        954065753.73960352     
  -4358940752.1802530       -60947824.639144421        936216407.36210358     
  -4230042460.3749704       -38056526.243327856        924522395.03830588     
  -5213643390.5257120       -87724219.187704325        878317766.58616245     
  -5077625231.2301455       -85659363.978763103        854867234.46489906     
  -4939453911.1344185       -76417306.102631569        835544291.71019840     
  -4799129430.2385349       -59998045.559310913        820348938.32206297     
  -4656651788.5424995       -36401582.348807573        809281174.30048895     
  -5654740581.3117685       -17735653.969793797        733826186.49346948     
  -5520695763.4566345       -49234151.094919682        720880355.93448925     
  -5381244739.7739382       -62711962.128168821        710034370.05493343     
  -5236387510.2636786       -58169087.069540024        701288228.85480154     
  -5086124074.9258556       -35605525.919034481        694641932.33409452     
  -3385412678.6874027       -43943076.426616192        1156810772.8282065     
  -3294333123.5411882       -37155656.671263456        1148519982.0424457     
  -3203227069.6828995       -30279907.875664353        1144367733.5868356     
  -3112094517.1125326       -23315830.039805532        1144354027.4613748     
  -3020935465.8300920       -16263423.163699985        1148478863.6660655     
  -3806296090.4232736       -40570357.602598190        1040365594.5475453     
  -3702450108.4506583       -29491063.117284298        1030955782.0985487     
  -3599305011.1442065       -20748050.852504492        1026237323.0174081     
  -3496860798.5039110       -14341320.808244467        1026210217.3041246     
  -3395117470.5297737       -10270872.984519720        1030874464.9586966     
  -4230042460.3749704       -38056526.243327856        924522395.03830588     
  -4111850591.4682269       -22211518.995733500        913144946.98479962     
  -3995086990.6058798       -11127405.229450703        907011663.33685613     
  -3879751657.7879238       -4804184.9444775581        906122544.09447598     
  -3765844593.0143614       -3241858.1408152580        910477589.25765729     
  -4656651788.5424995       -36401582.348807573        809281174.30048895     
  -4522534572.5938978       -15317024.306615591        795087476.70119965     
  -4390573008.0679216       -1417971.0065119267        786690754.54517889     
  -4260767094.9645724        5295577.5514986515        784091007.83242702     
  -4133116833.2838516        4823621.3674213886        787288236.56294489     
  -5086124074.9258556       -35605525.919034481        694641932.33409452     
  -4934502051.8276596       -8807579.0499200821        676783371.24774969     
  -4785763063.5303259        8380251.8163223267        665274596.64237857     
  -4639907110.0338535        15957966.679691553        660115608.51798451     
  -4496934191.3382444        13925565.540185213        661306406.87456238     
  -3020935465.8300920       -16263423.163699985        1148478863.6660655     
  -2917931104.8439717       -7445005.7810956240        1140521195.5107517     
  -2816131868.3312006       -2643669.9763232470        1135206490.6559627     
  -2715537756.2917833       -1859415.7493979931        1132534749.1017039     
  -2616148768.7257175       -5092243.1003156900        1132505970.8479719     
  -3395117470.5297737       -10270872.984519720        1030874464.9586966     
  -3286232152.3655725       -6175838.8615512848        1023181195.2360687     
  -3178042440.1447306       -4399491.2164553404        1018458786.9482768     
  -3070548333.8672562       -4941830.0492372513        1016707240.0953217     
  -2963749833.5331392       -7802855.3598906994        1017926554.6771971     
  -3765844593.0143614       -3241858.1408152580        910477589.25765729     
  -3650141465.8597741       -3589151.7337894440        903643156.25270426     
  -3534624426.1185560       -4556736.7046756744        900107482.81689596     
  -3419293473.7907085       -6144613.0534684658        899870568.95023024     
  -3304148608.8762369       -8352780.7801702023        902932414.65270531     
  -4133116833.2838516        4823621.3674213886        787288236.56294489     
  -4009659045.3265653        315055.60219669342        781907078.56065524     
  -3885877826.2526627       -3115406.4409792423        780152578.26181674     
  -3761773176.0621428       -5467764.7620916367        782024735.66643023     
  -3637345094.7550054       -6742019.3611500263        787523550.77449024     
  -4496934191.3382444        13925565.540185213        661306406.87456238     
  -4364784890.7659550        5536783.1463987827        657972962.15992415     
  -4231802640.5470619       -75500.425372600555        658594073.28304565     
  -4097987440.6815586       -2911285.1751148701        663169740.24392176     
  -3963339291.1694498       -2970571.1028358936        671699963.04256022     
  -2616148768.7257175       -5092243.1003156900        1132505970.8479719     
  -2480986234.2880225        4135867.0899087191        1096130522.0119855     
  -2343478658.7969790        21180780.791289687        1072524734.6722416     
  -2203626042.2526002        46042498.003789067        1061688608.8287503     
  -2061428384.6548743        78721018.727450728        1063622144.4815019     
  -2963749833.5331392       -7802855.3598906994        1017926554.6771971     
  -2794048186.3802361        9750458.6465984583        985993243.65241396     
  -2622633310.0280309        33014536.650761008        965937618.49317658     
  -2449505204.4765291        61989378.652580976        957759679.19948399     
  -2274663869.7257233        96674984.652077556        961459425.77133167     
  -3304148608.8762369       -8352780.7801702023        902932414.65270531     
  -3102456350.8101349        16761186.501975179        874704127.60941172     
  -2899682675.3987732        45479878.268318057        857461550.80096054     
  -2695827582.6421537        77803294.518860698        851204684.22735071     
  -2490891072.5402732        113731435.25359428        855933527.88858175     
  -3637345094.7550054       -6742019.3611500263        787523550.77449024     
  -3406210727.5777116        25168050.656052351        762263173.88297451     
  -3174626754.9092016        58576805.643979430        747096531.59559417     
  -2942593176.7494736        93484245.602630138        742023623.91235280     
  -2710109993.0985317        129890370.53200340        747044450.83325005     
  -3963339291.1694498       -2970571.1028358936        671699963.04256022     
  -3705311316.6829724        34971051.108824253        648670382.47309816     
  -3447465548.5593214        72305318.777723551        634842560.87707722     
  -3189801986.7984877        109032231.90389895        630216498.25448811     
  -2932320631.4004898        145151790.48729265        634792194.60533679     
  -2061428384.6548743        78721018.727450728        1063622144.4815019     
  -2172800105.0707140        28058745.242669463        1176702373.3181195     
  -2291310260.4768400       -46398311.543055892        1276688161.8806803     
  -2416958850.8732510       -144650151.62973845        1363579510.1691787     
  -2549745876.2599468       -266696775.01736450        1437376418.1836164     
  -2274663869.7257233        96674984.652077556        961459425.77133167     
  -2425274227.1461082        26928054.669145465        1065919573.5151601     
  -2582079370.9071655       -63468163.116022587        1157694746.1060519     
  -2745079301.0088892       -174513668.70341587        1236784943.5440040     
  -2914274017.4512854       -306208462.09303892        1303190165.8290164     
  -2490891072.5402732        113731435.25359428        855933527.88858175     
  -2679570166.6191454        25250818.876319528        952874517.96417141     
  -2873500398.3890667       -80733589.804461837        1037539998.0079449     
  -3072681767.8500433       -204221790.78874791        1109929968.0199039     
  -3277114275.0020700       -345213784.07655048        1170044428.0000448     
  -2710109993.0985317        129890370.53200340        747044450.83325005     
  -2935687923.4898176        23027037.864212513        837567206.66515267     
  -3165573342.9225459       -98194591.608379483        916223917.58636343     
  -3399766251.3967037       -233774517.88573849        983014583.59688032     
  -3638266648.9122987       -383712740.96788025        1037939204.6967018     
  -2932320631.4004898        145151790.48729265        634792194.60533679     
  -3193627497.7581329        20256711.632802367        719997639.61810505     
  -3458298204.5075955       -115851168.52775574        793746504.84130514     
  -3726332751.6488767       -263171849.99436724        856038790.27493167     
  -3997731139.1819801       -421705332.76706910        906874495.91898942     
  -2549745876.2599468       -266696775.01736450        1437376418.1836164     
  -2165547188.4817653       -229828238.57996786        1254698835.9474370     
  -1771691749.7513902       -160770532.30192548        1101852176.1516554     
  -1368179560.0688090       -59523656.183201075        978836438.79627180     
  -955010619.43403959        73912389.776155651        885651623.88128686     
  -2914274017.4512854       -306208462.09303892        1303190165.8290164     
  -2449209674.4152350       -240460952.96023822        1131044745.9480398     
  -1973226643.0524373       -138317816.07160008        984608375.51070249     
  -1486324923.3628778        220948.57290118933        863881054.51700270     
  -988504515.34658170        175155340.97322422        768862782.96694171     
  -3277114275.0020700       -345213784.07655048        1170044428.0000448     
  -2742961056.6988869       -254120336.24555624        1009903430.7445846     
  -2196627212.6944041       -122424802.74354720        871349609.93600416     
  -1638112742.9886143        49872816.429501534        754382965.57430470     
  -1067417647.5815108        262772521.27356988        659003497.65949047     
  -3638266648.9122987       -383712740.96788025        1037939204.6967018     
  -3046801335.3327327       -270806388.43594909        891274890.33707619     
  -2441893458.6772952       -113091492.31777000        762075879.42757022     
  -1823543018.9459932        89431947.386616588        650342171.96818876     
  -1191750016.1388357        336763930.67719674        556073767.95893121     
  -3997731139.1819801       -421705332.76706910        906874495.91898942     
  -3360730510.3167496       -290519109.53137004        775159124.72550941     
  -2709025381.0011005       -110317884.79427767        656787183.98539734     
  -2042615751.2350297        118898341.44422674        551758673.69864130     
  -1361501621.0185397        397129569.18411666        460073593.86525881     
  -5958287788.2034988       -1787486336.4610496        1149895765.2662625     
  -6088667493.1849651       -1502433376.1818323        1227748351.3804266     
  -6221747756.0931778       -1226382275.6584289        1268302581.5865498     
  -6357528576.9281330       -959333034.89083815        1271558455.8846312     
  -6496009955.6898308       -701285653.87905908        1237515974.2746713     
  -6811137087.9723988       -2043341126.3917196        1353607460.3191679     
  -6828825177.8450890       -1395533580.6933482        1202626971.9151330     
  -6897891810.7852802       -918987845.21998096        1091918100.5599320     
  -7018336986.7929726       -613703919.97161674        1021480846.2535647     
  -7190160705.8681679       -479681804.94825745        991315208.99603117     
  -8338477584.1698484       -2501543275.2509546        1712232762.4297667     
  -8021845564.7712631       -1424492595.8846796        1275628216.8433156     
  -7805270073.5809355       -680963677.21259904        956865261.26257408     
  -7688751110.5988655       -270956519.23471165        755943895.68754148     
  -7672288675.8250561       -194471121.95102072        672864120.11821759     
  -10540309276.795856       -3162092783.0387573        2225771671.5980587     
  -9667728653.9634914       -1589310421.7558270        1446752086.1649754     
  -8943882544.4801483       -512309771.63628435        863144063.69447613     
  -8368770948.3458138        68909167.319875717        474947604.18656093     
  -7942393865.5604973        154346395.11265087        282162707.64122969     
  -13416632165.850416       -4024989649.7551246        2894224187.8240442     
  -11766474445.421774       -1889987058.3067904        1715998579.8801112     
  -10313729223.482906       -413026128.49103165        810754507.85563791     
  -9058396500.0338097        405893139.69215107        178491971.75062460     
  -8000476275.0744886        566770746.24275589       -180789028.43493000     
  -6496009955.6898308       -701285653.87905908        1237515974.2746713     
  -6239282368.5796041       -375697342.18270683        1053288219.2680498     
  -6013494943.8131847       -153242904.96571279        907930669.63564157     
  -5818647681.3905725       -33922342.228073597        801443325.37744808     
  -5654740581.3117685       -17735653.969793797        733826186.49346948     
  -7190160705.8681679       -479681804.94825745        991315208.99603117     
  -6900687221.5113297       -304560790.63281560        846884466.11101902     
  -6623982619.4084368       -172002717.16386151        723495892.05247366     
  -6360046899.5594893       -82007584.541393757        621149486.82039416     
  -6108880061.9644899       -34575392.765413284        539845250.41478264     
  -7672288675.8250561       -194471121.95102072        672864120.11821759     
  -7401006541.5008860       -185098579.20027447        589430216.12631989     
  -7124322009.3407984       -157718043.66314363        509210444.41314131     
  -6842235079.3447962       -112329515.33963227        432204804.97868025     
  -6554745751.5128813       -48932994.229735136        358413297.82293916     
  -7942393865.5604973        154346395.11265087        282162707.64122969     
  -7740240328.5482740       -17310707.885082722        280925469.31395268     
  -7514513113.6102724       -110388884.46355915        265074326.71764585     
  -7265212220.7464981       -124888134.62278795        234609279.85230726     
  -6992337649.9569464       -60808458.362758160        189530328.71794268     
  -8000476275.0744886        566770746.24275589       -180789028.43493000     
  -7918388582.6534910        198802823.31276131       -78629774.326084599     
  -7794555932.2168579       -30015239.565108299       -8912461.0340134855     
  -7628978323.7645874       -119683442.39085817        28362911.441275027     
  -7421655757.2966785       -70201785.164479256        33196343.099791821     
  -5654740581.3117685       -17735653.969793797        733826186.49346948     
  -5520695763.4566345       -49234151.094919682        720880355.93448925     
  -5381244739.7739382       -62711962.128168821        710034370.05493343     
  -5236387510.2636786       -58169087.069540024        701288228.85480154     
  -5086124074.9258556       -35605525.919034481        694641932.33409452     
  -6108880061.9644899       -34575392.765413284        539845250.41478264     
  -5959668721.4952259       -35813559.803577662        533683965.20465147     
  -5809611823.8333950       -34233202.866515160        530106238.07512915     
  -5658709368.9789934       -29834321.954222918        529112069.02621531     
  -5506961356.9320288       -22616917.066704512        530701458.05790555     
  -6554745751.5128813       -48932994.229735136        358413297.82293916     
  -6388985850.1403942       -19496219.694208622        353715801.22083187     
  -6226941040.2103319       -2443083.3001012802        352085576.10051638     
  -6068611321.7226992        2226414.9525787830        353522622.46198988     
  -5913996694.6774893       -5487724.9361627102        358026940.30525440     
  -6992337649.9569464       -60808458.362758160        189530328.71794268     
  -6808647149.3921356       -282130.76680850983        180975863.98303083     
  -6633232388.9047518        32658396.571063519        175972384.13109347     
  -6466093368.4947910        38013123.650859118        174519889.16212821     
  -6307230088.1622448        15782050.472594738        176618379.07613590     
  -7421655757.2966785       -70201785.164479256        33196343.099791821     
  -7218652619.2504568        21828706.978610516        15464153.491245430     
  -7028485869.9166536        71071236.746984959        1766662.1668591653     
  -6851155509.2952671        77525804.140633106       -7896130.8733696584     
  -6686661537.3862944        41192409.159557343       -13524225.629442280     
  -5086124074.9258556       -35605525.919034481        694641932.33409452     
  -4934502051.8276596       -8807579.0499200821        676783371.24774969     
  -4785763063.5303259        8380251.8163223267        665274596.64237857     
  -4639907110.0338535        15957966.679691553        660115608.51798451     
  -4496934191.3382444        13925565.540185213        661306406.87456238     
  -5506961356.9320288       -22616917.066704512        530701458.05790555     
  -5345083143.0669270       -11787534.835000515        515156347.04600185     
  -5183672739.0545616       -2517518.7790772915        504835880.44398868     
  -5022730144.8949337        5193131.1010558605        499740058.25186771     
  -4862255360.5880384        11344414.805411816        499868880.46964145     
  -5913996694.6774893       -5487724.9361627102        358026940.30525440     
  -5745076981.6771555       -11591314.831371069        347613041.80727232     
  -5574209853.5814247       -11203521.075267076        341298645.64809585     
  -5401395310.3903065       -4324343.6678631306        339083751.82773483     
  -5226633352.1037893        9046217.3908529282        340968360.34617662     
  -6307230088.1622448        15782050.472594738        176618379.07613590     
  -6134483567.6583395       -8218919.0390305519        174153455.53155866     
  -5957374407.1109085       -17677755.072236776        174662892.25470856     
  -5775902606.5199680       -12594457.627072811        178146689.24557862     
  -5590068165.8855028        7030973.2965028286        184604846.50417444     
  -6686661537.3862944        41192409.159557343       -13524225.629442280     
  -6513302901.0104809       -1670347.4579677582       -5222411.7811340028     
  -6333166399.6430206       -21940220.770001411        4928620.2638084609     
  -6146252033.2839184       -19617210.776566267        16928870.505400483     
  -5952559801.9331665        5298682.5223674774        30778338.943635661     
  -4496934191.3382444        13925565.540185213        661306406.87456238     
  -4364784890.7659550        5536783.1463987827        657972962.15992415     
  -4231802640.5470619       -75500.425372600555        658594073.28304565     
  -4097987440.6815586       -2911285.1751148701        663169740.24392176     
  -3963339291.1694498       -2970571.1028358936        671699963.04256022     
  -4862255360.5880384        11344414.805411816        499868880.46964145     
  -4717164063.4439011        10880571.426022053        496963781.54977793     
  -4572923691.1293955        7580311.9478642941        498230676.69026238     
  -4429534243.6445131        1443636.3709509373        503669565.89108258     
  -4286995720.9892626       -7529455.3047180176        513280449.15224546     
  -5226633352.1037893        9046217.3908529282        340968360.34617662     
  -5067978806.3232832        16693688.645211220        336527086.99882197     
  -4911859059.8486385        15891828.880030870        336475245.93438953     
  -4758274112.6798553        6640638.0953042507        340812837.15288293     
  -4607223964.8169374       -11059883.708957434        349539860.65430081     
  -5590068165.8855028        7030973.2965028286        184604846.50417444     
  -5417229119.4040976        22976134.803970575        176662878.50704715     
  -5248608746.7047968        24859050.371109962        173327781.01543280     
  -5084207047.7875872        12679719.997933865        174599554.02932283     
  -4924024022.6524725       -13561856.315555573        180478197.54871786     
  -5952559801.9331665        5298682.5223674774        30778338.943635661     
  -5764915002.6863403        29727909.902309895        17371156.074466813     
  -5583172751.6978579        34481976.421131611        8788281.9333857838     
  -5407333048.9677038        19560882.078849792        5029716.5204015430     
  -5237395894.4958706       -15035373.124512434        6095459.8355025603     
  -3963339291.1694498       -2970571.1028358936        671699963.04256022     
  -3705311316.6829724        34971051.108824253        648670382.47309816     
  -3447465548.5593214        72305318.777723551        634842560.87707722     
  -3189801986.7984877        109032231.90389895        630216498.25448811     
  -2932320631.4004898        145151790.48729265        634792194.60533679     
  -4286995720.9892626       -7529455.3047180176        513280449.15224546     
  -4010746035.1348152        25005896.458985806        490807786.24119717     
  -3732725581.9367085        63443806.034902573        474397666.28159708     
  -3452934361.3949418        107784273.42301559        464050089.27344775     
  -3171372373.5095067        158027298.62335110        459765055.21675235     
  -4607223964.8169374       -11059883.708957434        349539860.65430081     
  -4321721756.2287712        13378441.016512156        329902584.72589606     
  -4032495806.5904512        50229235.909161329        313188635.72695917     
  -3739546115.9019814        99492500.968976736        299398013.65748668     
  -3442872684.1633582        161168236.19596934        288530718.51747543     
  -4924024022.6524725       -13561856.315555573        180478197.54871786     
  -4638238479.9648266        88684.781422615051        165954777.92719689     
  -4346776222.5205441        32661608.400528908        151215469.21315348     
  -4049637250.3196154        84156914.541769266        136260271.40659750     
  -3746821563.3620567        154574603.20513844        121089184.50751229     
  -5237395894.4958706       -15035373.124512434        6095459.8355025603     
  -4960296206.3429966       -14863372.246321440       -1035634.1549038878     
  -4675566829.7269888        10740923.508981943       -11521833.259812986     
  -4383207764.6478615        61777514.141343355       -25363137.479220971     
  -4083219011.1056032        138246399.65082645       -42559546.813146174     
  -2932320631.4004898        145151790.48729265        634792194.60533679     
  -3193627497.7581329        20256711.632802367        719997639.61810505     
  -3458298204.5075955       -115851168.52775574        793746504.84130514     
  -3726332751.6488767       -263171849.99436724        856038790.27493167     
  -3997731139.1819801       -421705332.76706910        906874495.91898942     
  -3171372373.5095067        158027298.62335110        459765055.21675235     
  -3455509774.5822124        40286032.587254047        533132141.98671156     
  -3740280233.9100118       -79565427.632483959        598742978.88425481     
  -4025683751.4928937       -201527082.03584576        656597565.90938568     
  -4311720327.3308735       -325598930.62284219        706695903.06210327     
  -3442872684.1633582        161168236.19596934        288530718.51747543     
  -3739268248.7592545        53752494.335823298        353245359.53747427     
  -4033566089.4735012       -46670834.585516691        413904080.60221982     
  -4325766206.3061199       -140101750.56807613        470506881.71170527     
  -4615868599.2570868       -226540253.61180615        523053762.86593276     
  -3746821563.3620567        154574603.20513844        121089184.50751229     
  -4044902920.2892618        60656096.878489733        180337292.27040091     
  -4338155771.1980906       -17167389.386911392        239229809.99519214     
  -4626580116.0885439       -78895855.591058254        297766737.68188471     
  -4910175954.9606266       -124529301.73396444        355948075.33047730     
  -4083219011.1056032        138246399.65082645       -42559546.813146174     
  -4372413789.1722212        60996840.215286970        14407940.185487624     
  -4654049279.0837498        8944907.9634079933        74720167.063181370     
  -4928125480.8401756       -17909397.104803562        138377133.81992847     
  -5194642394.4414968       -19566074.989348412        205378840.45574483     
  -3997731139.1819801       -421705332.76706910        906874495.91898942     
  -3360730510.3167496       -290519109.53137004        775159124.72550941     
  -2709025381.0011005       -110317884.79427767        656787183.98539734     
  -2042615751.2350297        118898341.44422674        551758673.69864130     
  -1361501621.0185397        397129569.18411666        460073593.86525881     
  -4311720327.3308735       -325598930.62284219        706695903.06210327     
  -3617887745.2658429       -163962422.27646971        589199284.11848176     
  -2928863241.4979491       -18352841.587229490        495049132.92657012     
  -2244646816.0271988        111229811.44487512        424245449.48636663     
  -1565238468.8535795        224785536.81987715        376788233.79788244     
  -4615868599.2570868       -226540253.61180615        523053762.86593276     
  -3836623957.4255509       -25879428.184748650        397011220.96668279     
  -3081699972.6387157        93712540.426650167        304318184.11748934     
  -2351096644.8965740        132235652.22238159        244974652.31835261     
  -1644813974.1991339        89689907.202476740        218980625.56927225     
  -4910175954.9606266       -124529301.73396444        355948075.33047730     
  -4016939146.7958980        123729872.74375796        198594935.27011585     
  -3167535574.4234066        225878261.24733579        84594337.558161527     
  -2361965237.8431759        181915863.77671003        13946282.194597920     
  -1600228137.0552013       -8157319.6680775881       -13349230.820553802     
  -5194642394.4414968       -19566074.989348412        205378840.45574483     
  -4158833313.3768525        284865480.50911570       -6049572.9712122073     
  -3186370046.8520217        378144320.87485409       -164122406.75142431     
  -2277252594.8670120        260270446.10786748       -268839660.88487959     
  -1431480957.4217987       -68756143.791784346       -320201335.37160087     
 </DataArray>
 <DataArray  type="Float64" Name="VM" NumberOfComponents="1" format="ascii">
   12935153514.415676     
   11340526499.023571     
   10210245222.271400     
   9272951257.9889145     
   8304240289.0509176     
   10130408600.416430     
   9322018140.9840279     
   8826200780.7692509     
   8443113442.5138845     
   8034960006.4220705     
   7982753420.3825102     
   7735064657.3189631     
   7668885811.4589558     
   7668904358.0763655     
   7665197198.9783878     
   6492096782.0250187     
   6586950491.3348475     
   6757132176.6786966     
   6960552453.4434757     
   7170552087.5607672     
   5657984069.3667765     
   5890838396.2021999     
   6116125316.9531031     
   6331380777.3370848     
   6536365620.8956776     
   8304240289.0509176     
   8020284925.6583548     
   7778642086.3397398     
   7568601173.3863277     
   7385206056.6125774     
   8034960006.4220705     
   7746288855.9998083     
   7473465909.0523691     
   7214509581.9123211     
   6969428260.0544538     
   7665197198.9783878     
   7380580265.4317102     
   7101484358.9468164     
   6827983827.0015306     
   6560285151.2669477     
   7170552087.5607672     
   6910586896.1748629     
   6658579278.7732134     
   6410686218.7291584     
   6163767212.6921988     
   6536365620.8956776     
   6328650332.8568411     
   6143079777.9227877     
   5965773615.0073576     
   5787719250.3459501     
   7385206056.6125774     
   7228580183.7188950     
   7063959620.6854124     
   6890633276.3171892     
   6708453398.7156248     
   6969428260.0544538     
   6815188393.6145220     
   6655885898.4699297     
   6491216697.7473154     
   6321140236.6858892     
   6560285151.2669477     
   6408398500.9862404     
   6254514151.8789196     
   6098588599.8833437     
   5940651818.9970808     
   6163767212.6921988     
   6013203066.2449589     
   5863736079.5235195     
   5715407000.2455387     
   5568272380.8022890     
   5787719250.3459501     
   5636064919.5334930     
   5488560836.1641388     
   5345130831.8640642     
   5205819778.3315411     
   6708453398.7156248     
   6514531616.8316984     
   6325247744.4234161     
   6140469165.1173372     
   5960239238.1608829     
   6321140236.6858892     
   6137132330.2499514     
   5956495379.6148300     
   5779205191.7754650     
   5605342718.2622614     
   5940651818.9970808     
   5768337375.2572165     
   5598453786.0197649     
   5431037808.2304821     
   5266188538.3233624     
   5568272380.8022890     
   5409927180.4395075     
   5253427090.9036093     
   5098828780.7986155     
   4946245081.8659401     
   5205819778.3315411     
   5064237057.7240448     
   4924315822.7684517     
   4786098972.3150110     
   4649726254.2700796     
   5960239238.1608829     
   5777584831.1013756     
   5591174920.9963932     
   5400868610.7045431     
   5206783718.7609568     
   5605342718.2622614     
   5439812319.5220203     
   5271871587.8023596     
   5101519083.6738081     
   4928938968.1578283     
   5266188538.3233624     
   5114817300.8636971     
   4962239531.0223837     
   4808531445.2534599     
   4653886184.2209606     
   4946245081.8659401     
   4805871899.2123003     
   4665266725.9083433     
   4524529507.5019674     
   4383819309.2243528     
   4649726254.2700796     
   4517002444.8075895     
   4384704996.3499899     
   4252915229.9836030     
   4121733993.2680039     
   5206783718.7609568     
   4940779726.9617481     
   4679141174.3113823     
   4422226198.6796122     
   4170983159.7020345     
   4928938968.1578283     
   4647263062.4598665     
   4368841582.9855824     
   4094019218.5671310     
   3823474312.1131353     
   4653886184.2209606     
   4370873119.4993334     
   4091328515.5360980     
   3815640525.6722288     
   3544444756.0173278     
   4383819309.2243528     
   4114090572.6969395     
   3849553225.2838635     
   3590822706.1604767     
   3338925523.5238400     
   4121733993.2680039     
   3879803111.4337702     
   3646452502.6087127     
   3422718500.5599542     
   3210453455.3117027     
   4170983159.7020345     
   4428935694.9656010     
   4698003025.9149055     
   4977664759.6749582     
   5268149392.0376587     
   3823474312.1131353     
   4096385265.1223264     
   4378793068.0767431     
   4669123686.0930815     
   4966515331.3564739     
   3544444756.0173278     
   3817461444.4537020     
   4096541572.8400083     
   4379605070.2126627     
   4665334594.2568359     
   3338925523.5238400     
   3598800133.8029656     
   3859114228.3317833     
   4117741886.3152165     
   4373459045.6548347     
   3210453455.3117027     
   3446594576.8799658     
   3675201275.0042477     
   3894252650.6462970     
   4102920607.2869658     
   5268149392.0376587     
   4307188832.3364153     
   3312606551.8487916     
   2302715354.6773000     
   1573665382.1851995     
   4966515331.3564739     
   4131054041.5628428     
   3263377026.8934422     
   2352266352.3283381     
   1471582046.9753735     
   4665334594.2568359     
   3944996618.6744246     
   3214805218.7778525     
   2465087278.6118670     
   1705449375.7419996     
   4373459045.6548347     
   3743583471.1112857     
   3130383044.2327266     
   2535991075.1536093     
   1970779417.1900105     
   4102920607.2869658     
   3523316818.5259266     
   2985045788.7654037     
   2514823252.0531516     
   2165019314.2912159     
   5657984069.3667765     
   5890838396.2021999     
   6116125316.9531031     
   6331380777.3370848     
   6536365620.8956776     
   5151279489.8948412     
   5311176262.9271097     
   5467750419.6845341     
   5618111155.7104387     
   5760790460.3313656     
   4643130627.8930321     
   4755376689.2121058     
   4868766055.2686987     
   4980674010.1566992     
   5089182208.6871576     
   4133804271.5010419     
   4224279470.0064640     
   4320668103.4867802     
   4421324101.9533262     
   4524802449.0837212     
   3624822764.8047175     
   3719710927.4440861     
   3825815066.5407562     
   3943077547.8247166     
   4071410306.1482100     
   6536365620.8956776     
   6328650332.8568411     
   6143079777.9227877     
   5965773615.0073576     
   5787719250.3459501     
   5760790460.3313656     
   5652225525.9122725     
   5559608873.4842806     
   5473883126.0040493     
   5389497868.9981337     
   5089182208.6871576     
   5054218415.9170074     
   5029712734.8865786     
   5010448812.0682764     
   4993217844.5759706     
   4524802449.0837212     
   4539219964.4853678     
   4558272161.7483358     
   4579460874.7061110     
   4601055146.7421055     
   4071410306.1482100     
   4112554907.7357502     
   4151065492.5554256     
   4186017474.4036002     
   4216658733.5887103     
   5787719250.3459501     
   5636064919.5334930     
   5488560836.1641388     
   5345130831.8640642     
   5205819778.3315411     
   5389497868.9981337     
   5248161202.9539957     
   5110109845.5718498     
   4975391553.0461645     
   4844108001.5149937     
   4993217844.5759706     
   4866364774.4393158     
   4742848309.5431747     
   4622650710.1976728     
   4505831119.3571072     
   4601055146.7421055     
   4493336025.3817673     
   4390038101.0624495     
   4290874756.0431376     
   4195777625.8593502     
   4216658733.5887103     
   4133021837.0651016     
   4056099507.7429643     
   3985091705.7029395     
   3919711545.6044693     
   5205819778.3315411     
   5064237057.7240448     
   4924315822.7684517     
   4786098972.3150110     
   4649726254.2700796     
   4844108001.5149937     
   4718360516.8792143     
   4594668842.3006287     
   4473133197.7777052     
   4353943895.4063892     
   4505831119.3571072     
   4394993187.3113174     
   4286575941.0862393     
   4180728073.1534076     
   4077679500.3484826     
   4195777625.8593502     
   4099071694.4481993     
   4005097784.1905637     
   3914041365.9457936     
   3826158219.0099792     
   3919711545.6044693     
   3836532436.9674668     
   3756311443.0254912     
   3679255890.2546778     
   3605630809.7915316     
   4649726254.2700796     
   4517002444.8075895     
   4384704996.3499899     
   4252915229.9836030     
   4121733993.2680039     
   4353943895.4063892     
   4228671987.0631895     
   4105031461.2461824     
   3983195604.1567683     
   3863376043.7593369     
   4077679500.3484826     
   3962836716.1931295     
   3851141461.7297206     
   3742877755.8039494     
   3638391959.3580933     
   3826158219.0099792     
   3724388780.1183476     
   3627589650.4881358     
   3536149735.4753757     
   3450542480.9466081     
   3605630809.7915316     
   3518978315.3729334     
   3439392692.3968720     
   3367327834.1209335     
   3303335595.0889626     
   4121733993.2680039     
   3879803111.4337702     
   3646452502.6087127     
   3422718500.5599542     
   3210453455.3117027     
   3863376043.7593369     
   3654032057.6918607     
   3453242680.7850542     
   3261898499.8420119     
   3081445465.6754966     
   3638391959.3580933     
   3455805247.1600227     
   3281195436.9607134     
   3115301514.8480811     
   2959209592.8930283     
   3450542480.9466081     
   3289380161.2115445     
   3134988734.1211648     
   2987955576.8721261     
   2849063059.1209545     
   3303335595.0889626     
   3159037840.8473625     
   3019656527.5473809     
   2885627364.2868576     
   2757483554.1357708     
   3210453455.3117027     
   3446594576.8799658     
   3675201275.0042477     
   3894252650.6462970     
   4102920607.2869658     
   3081445465.6754966     
   3283763639.8953619     
   3477677025.8693838     
   3662180785.2927971     
   3836879674.4684157     
   2959209592.8930283     
   3142195330.3359575     
   3317803095.0219045     
   3486052129.1631351     
   3647256073.8465772     
   2849063059.1209545     
   3027512010.7604322     
   3201612446.2072129     
   3372557318.8607717     
   3541743123.4288960     
   2757483554.1357708     
   2945642583.4295363     
   3134525039.4296136     
   3326619156.9705667     
   3524665658.2324877     
   4102920607.2869658     
   3523316818.5259266     
   2985045788.7654037     
   2514823252.0531516     
   2165019314.2912159     
   3836879674.4684157     
   3282803943.2244048     
   2758351116.6450772     
   2279257651.6171441     
   1880458881.5394471     
   3647256073.8465772     
   3116312284.7178702     
   2606176188.7849908     
   2124078989.4428997     
   1688263557.4832296     
   3541743123.4288960     
   3036219981.6073389     
   2547290787.0286660     
   2078312784.4658301     
   1637945126.8608696     
   3524665658.2324877     
   3050990628.5935163     
   2595255861.4050426     
   2162360342.3124375     
   1761994424.8201785     
   3624822764.8047175     
   3719710927.4440861     
   3825815066.5407562     
   3943077547.8247166     
   4071410306.1482100     
   3138025917.5616713     
   3255628002.1274934     
   3382615161.1046653     
   3518519096.2762113     
   3662882967.9685469     
   2694938625.6393685     
   2830684215.2863054     
   2973716974.7307744     
   3122951168.2955828     
   3277473236.0997071     
   2299041184.7178831     
   2449668045.6595197     
   2605005732.8663378     
   2763124241.9807701     
   2922587005.5128584     
   1955529329.1347432     
   2119529373.2324364     
   2284896836.9399796     
   2448659434.6737123     
   2608846593.6148772     
   4071410306.1482100     
   4112554907.7357502     
   4151065492.5554256     
   4186017474.4036002     
   4216658733.5887103     
   3662882967.9685469     
   3702202298.0119948     
   3740169034.3311157     
   3775871007.6444249     
   3808549357.8431001     
   3277473236.0997071     
   3320750211.3720474     
   3364306349.0123906     
   3407318078.2060986     
   3449107237.7393861     
   2922587005.5128584     
   2975586097.8372951     
   3030845203.4153848     
   3087692245.6372876     
   3145600529.4894748     
   2608846593.6148772     
   2676765587.8900962     
   2749217973.5215235     
   2825712629.3693948     
   2905904735.5645976     
   4216658733.5887103     
   4133021837.0651016     
   4056099507.7429643     
   3985091705.7029395     
   3919711545.6044693     
   3808549357.8431001     
   3755975439.2499795     
   3709476717.3968582     
   3668597874.6306977     
   3633238825.6362414     
   3449107237.7393861     
   3423066681.4611244     
   3402079355.3630991     
   3385914693.5092316     
   3374549973.5130215     
   3145600529.4894748     
   3141924404.4613352     
   3141699543.7852812     
   3144813384.8624029     
   3151245519.7883339     
   2905904735.5645976     
   2920879000.8257208     
   2936954066.4133482     
   2954055822.1572480     
   2972134218.1479311     
   3919711545.6044693     
   3836532436.9674668     
   3756311443.0254912     
   3679255890.2546778     
   3605630809.7915316     
   3633238825.6362414     
   3562598964.0663691     
   3495987928.1561584     
   3433637163.2867723     
   3375837217.0409293     
   3374549973.5130215     
   3317050486.1525464     
   3264763473.3553243     
   3217924791.6020217     
   3176825982.3319359     
   3151245519.7883339     
   3106934784.1515570     
   3069097978.4934540     
   3037945572.0441198     
   3013735374.8940415     
   2972134218.1479311     
   2940209033.3908672     
   2916049086.9948988     
   2899806283.1181598     
   2891668471.9426470     
   3605630809.7915316     
   3518978315.3729334     
   3439392692.3968720     
   3367327834.1209335     
   3303335595.0889626     
   3375837217.0409293     
   3305170156.6037836     
   3241224908.6241946     
   3184367834.5643506     
   3135029845.0098791     
   3176825982.3319359     
   3120487136.1171880     
   3070369225.0686002     
   3026754725.9736695     
   2989966150.4288378     
   3013735374.8940415     
   2970204536.4821758     
   2932221516.4590673     
   2899989428.7894330     
   2873736473.5147753     
   2891668471.9426470     
   2859600251.9192019     
   2832231426.6260514     
   2809691137.0015492     
   2792128218.8165317     
   3303335595.0889626     
   3159037840.8473625     
   3019656527.5473809     
   2885627364.2868576     
   2757483554.1357708     
   3135029845.0098791     
   3002489861.4957027     
   2878026363.6086769     
   2762276923.8475156     
   2656017720.1167746     
   2989966150.4288378     
   2872064864.1253428     
   2765691560.4384007     
   2671584181.9792628     
   2590629400.9682345     
   2873736473.5147753     
   2771763760.6364694     
   2684950627.2309718     
   2613978620.7673697     
   2559659121.6090903     
   2792128218.8165317     
   2705264059.7573743     
   2637320849.9033942     
   2588767808.9333773     
   2560175272.7498698     
   2757483554.1357708     
   2945642583.4295363     
   3134525039.4296136     
   3326619156.9705667     
   3524665658.2324877     
   2656017720.1167746     
   2865639831.3258004     
   3070982610.9861960     
   3273315034.7163291     
   3474048649.5314441     
   2590629400.9682345     
   2811835977.7637730     
   3022531738.8356862     
   3223099675.2312984     
   3414056816.4348698     
   2559659121.6090903     
   2783800535.1555123     
   2990290050.9893160     
   3178908180.8322639     
   3349615589.1548462     
   2560175272.7498698     
   2780440424.8478732     
   2975445565.9503164     
   3144582261.0141106     
   3287521037.8686852     
   3524665658.2324877     
   3050990628.5935163     
   2595255861.4050426     
   2162360342.3124375     
   1761994424.8201785     
   3474048649.5314441     
   3009821370.3530951     
   2574605314.8630247     
   2174916129.9643054     
   1822729076.7907333     
   3414056816.4348698     
   2969312569.2292871     
   2565551700.3913517     
   2209549773.2738137     
   1912840689.3084593     
   3349615589.1548462     
   2929398619.8035412     
   2562779463.3485856     
   2255173750.0483694     
   2015241492.7491012     
   3287521037.8686852     
   2890765044.8737893     
   2561641909.9625039     
   2303180537.6731257     
   2120074420.5392423     
   1955529329.1347432     
   2119529373.2324364     
   2284896836.9399796     
   2448659434.6737123     
   2608846593.6148772     
   1653947889.3413656     
   1820407001.7466316     
   1988583391.6681731     
   2155770975.5202460     
   2320203500.3997965     
   1393706349.5007315     
   1571146299.3969018     
   1749612320.6846817     
   1927095136.4324567     
   2102340761.6632204     
   1207146583.4253993     
   1399173290.5408919     
   1590793466.2002525     
   1781229645.2475734     
   1970023368.3177822     
   1136984154.9524009     
   1335338626.6847847     
   1534017552.6626978     
   1733020932.0683429     
   1932348796.2579861     
   2608846593.6148772     
   2676765587.8900962     
   2749217973.5215235     
   2825712629.3693948     
   2905904735.5645976     
   2320203500.3997965     
   2407102285.4597960     
   2496450050.5708175     
   2587865753.2923365     
   2681077895.4114995     
   2102340761.6632204     
   2205869788.2761626     
   2309304473.1780162     
   2412410866.8150897     
   2515023508.2993927     
   1970023368.3177822     
   2086978539.2079515     
   2201071325.9430904     
   2312225742.4174280     
   2420389618.5240183     
   1932348796.2579861     
   2058957548.0940461     
   2180130216.3937635     
   2295866848.5839887     
   2406167590.4865618     
   2905904735.5645976     
   2920879000.8257208     
   2936954066.4133482     
   2954055822.1572480     
   2972134218.1479311     
   2681077895.4114995     
   2703219931.2854476     
   2727589827.2188883     
   2754161881.4929852     
   2782924009.0155849     
   2515023508.2993927     
   2544148902.3054004     
   2576641223.6428137     
   2612500786.0379968     
   2651732878.8185468     
   2420389618.5240183     
   2454758015.2760954     
   2493613323.4009466     
   2536960216.9942389     
   2584803660.5493631     
   2406167590.4865618     
   2442401687.1697302     
   2484213070.9733572     
   2531601755.8357959     
   2584568093.9149785     
   2972134218.1479311     
   2940209033.3908672     
   2916049086.9948988     
   2899806283.1181598     
   2891668471.9426470     
   2782924009.0155849     
   2764709315.7362671     
   2754003144.7194757     
   2750896268.2607493     
   2755498864.2803707     
   2651732878.8185468     
   2644769861.8185821     
   2644842053.2209949     
   2651988440.0253968     
   2666257111.1846824     
   2584803660.5493631     
   2586220660.7759252     
   2593995671.1540108     
   2608136845.9629731     
   2628656154.3685117     
   2584568093.9149785     
   2591342334.1769671     
   2603643344.5825362     
   2621471628.1497984     
   2644829030.5751047     
   2891668471.9426470     
   2859600251.9192019     
   2832231426.6260514     
   2809691137.0015492     
   2792128218.8165317     
   2755498864.2803707     
   2733129355.9249029     
   2716531704.5582261     
   2705807723.5337129     
   2701066602.6117387     
   2666257111.1846824     
   2651990515.8298149     
   2644439065.8407698     
   2643662503.8666387     
   2649720418.0130095     
   2628656154.3685117     
   2619872306.8882070     
   2618592982.5830617     
   2624838253.6286297     
   2638627160.5749497     
   2644829030.5751047     
   2638046109.9312649     
   2639405940.6445394     
   2648909581.7702847     
   2666562593.6865864     
   2792128218.8165317     
   2705264059.7573743     
   2637320849.9033942     
   2588767808.9333773     
   2560175272.7498698     
   2701066602.6117387     
   2629163984.1057959     
   2574152430.0785589     
   2536194436.0717874     
   2515499161.5879111     
   2649720418.0130095     
   2587340943.2996573     
   2539676889.7279963     
   2506745841.3041029     
   2488582341.7663512     
   2638627160.5749497     
   2581166242.9173980     
   2536103140.1680393     
   2503422878.8580632     
   2483113722.8105006     
   2666562593.6865864     
   2610611581.0175629     
   2564609305.4412904     
   2528563501.3772593     
   2502483097.0145516     
   2560175272.7498698     
   2780440424.8478732     
   2975445565.9503164     
   3144582261.0141106     
   3287521037.8686852     
   2515499161.5879111     
   2722867472.0947857     
   2911107805.2570562     
   3079646238.6237402     
   3228111537.4355750     
   2488582341.7663512     
   2689296481.3066297     
   2877425082.9106750     
   3052544058.4184566     
   3214367846.1901164     
   2483113722.8105006     
   2680883842.2665014     
   2872676800.0333295     
   3058247558.0558944     
   3237430507.5168457     
   2502483097.0145516     
   2698120993.1150255     
   2894322047.5811710     
   3090993491.2405081     
   3288076539.0023665     
   3287521037.8686852     
   2890765044.8737893     
   2561641909.9625039     
   2303180537.6731257     
   2120074420.5392423     
   3228111537.4355750     
   2865320523.0825543     
   2555467004.0429564     
   2298741151.9862456     
   2095616024.2124860     
   3214367846.1901164     
   2874552361.9504747     
   2573555146.5376515     
   2311198138.4192019     
   2087252474.7902369     
   3237430507.5168457     
   2916253509.6606636     
   2619400589.6597652     
   2347234214.7699785     
   2100463116.3007131     
   3288076539.0023665     
   2987312897.2080731     
   2695807515.1497536     
   2414536878.6635685     
   2145576022.2814937     
   1136984154.9524009     
   1335338626.6847847     
   1534017552.6626978     
   1733020932.0683429     
   1932348796.2579861     
   1207296416.8592532     
   1399202724.8643763     
   1590701441.4367983     
   1781014783.3769078     
   1969682923.6030297     
   1393844896.2923610     
   1571148170.8464258     
   1749465949.0434289     
   1926796107.8119473     
   2101888644.1651216     
   1653970394.1762474     
   1820340368.1137850     
   1988411749.9908543     
   2155492670.9813790     
   2319828375.4416780     
   1955380511.5781176     
   2119368718.1017227     
   2284716068.8253932     
   2448468718.5060463     
   2608674544.4905858     
   1932348796.2579861     
   2058957548.0940461     
   2180130216.3937635     
   2295866848.5839887     
   2406167590.4865618     
   1969682923.6030297     
   2086917961.1562827     
   2201284755.0091872     
   2312710436.5963736     
   2421143525.8395972     
   2101888644.1651216     
   2205794724.5048852     
   2309589209.2745814     
   2413037592.3967381     
   2515973479.2592053     
   2319828375.4416780     
   2407051863.9051323     
   2496688442.2035089     
   2588347100.2958384     
   2681751496.0945640     
   2608674544.4905858     
   2676767087.0693359     
   2749330059.8590961     
   2825848009.3072672     
   2905964481.5819101     
   2406167590.4865618     
   2442401687.1697302     
   2484213070.9733572     
   2531601755.8357959     
   2584568093.9149785     
   2421143525.8395972     
   2455194829.1758475     
   2493829731.7810998     
   2537050150.2857971     
   2584860099.0666051     
   2515973479.2592053     
   2544723549.1474261     
   2577060070.3209362     
   2612984877.7827840     
   2652504962.9978981     
   2681751496.0945640     
   2703599109.4964566     
   2728037535.8895874     
   2755053947.4063368     
   2784645137.7782450     
   2905964481.5819101     
   2920746566.9054193     
   2937147290.2985330     
   2955121768.7666922     
   2974639587.1817470     
   2584568093.9149785     
   2591342334.1769671     
   2603643344.5825362     
   2621471628.1497984     
   2644829030.5751047     
   2584860099.0666051     
   2587313717.7565904     
   2595934813.4789243     
   2610733975.0647945     
   2631722506.0892601     
   2652504962.9978981     
   2646932859.3110228     
   2647947056.7967176     
   2655587878.9834003     
   2669905252.8714943     
   2784645137.7782450     
   2767706453.0576401     
   2757512681.6474743     
   2754144912.1003885     
   2757713686.8822098     
   2974639587.1817470     
   2943651486.0375562     
   2919309150.9953532     
   2901727748.3862019     
   2891081804.0040011     
   2644829030.5751047     
   2638046109.9312649     
   2639405940.6445394     
   2648909581.7702847     
   2666562593.6865864     
   2631722506.0892601     
   2622976892.7841864     
   2623107094.8939533     
   2632124243.6640620     
   2650043042.6957479     
   2669905252.8714943     
   2656146830.2419758     
   2651969256.1022148     
   2657431537.0947819     
   2672597434.7104211     
   2757713686.8822098     
   2735749854.4719391     
   2724016863.7922144     
   2722666617.7533321     
   2731860776.7611809     
   2891081804.0040011     
   2857863256.7105603     
   2835445946.5403509     
   2824118431.0366139     
   2824190668.8551588     
   2666562593.6865864     
   2610611581.0175629     
   2564609305.4412904     
   2528563501.3772593     
   2502483097.0145516     
   2650043042.6957479     
   2593111473.0047760     
   2544374304.3156633     
   2503881286.1126618     
   2471679799.4673328     
   2672597434.7104211     
   2612161820.8305535     
   2557975537.8837013     
   2510120721.2394114     
   2468682830.2386703     
   2731860776.7611809     
   2666538670.2128925     
   2605383406.6363144     
   2548481675.8353772     
   2495933360.6341386     
   2824190668.8551588     
   2753727257.6237507     
   2685299703.2710824     
   2618969584.3571553     
   2554821049.0845928     
   2502483097.0145516     
   2698120993.1150255     
   2894322047.5811710     
   3090993491.2405081     
   3288076539.0023665     
   2471679799.4673328     
   2664081196.9371390     
   2857058898.5268202     
   3050595072.4709282     
   3244678646.1147370     
   2468682830.2386703     
   2656681550.0492201     
   2845675229.0365028     
   3035632258.9432917     
   3226528328.2769685     
   2495933360.6341386     
   2678081519.1064672     
   2862052381.7003503     
   3047718473.6180320     
   3234984775.2370090     
   2554821049.0845928     
   2729553357.4970522     
   2907301014.0199094     
   3087780702.5319161     
   3270782682.6133947     
   3288076539.0023665     
   2987312897.2080731     
   2695807515.1497536     
   2414536878.6635685     
   2145576022.2814937     
   3244678646.1147370     
   2949147312.8531809     
   2666265441.6619711     
   2396580995.6329169     
   2141057973.7440033     
   3226528328.2769685     
   2928131222.7583694     
   2645440456.0068417     
   2378827215.1823378     
   2128823488.7578573     
   3234984775.2370090     
   2924705639.3931451     
   2632675837.1117520     
   2359303213.1998868     
   2105316898.3457685     
   3270782682.6133947     
   2939033465.7821641     
   2627431661.6452050     
   2336578810.3282676     
   2067990226.7487566     
   1955380511.5781176     
   2119368718.1017227     
   2284716068.8253932     
   2448468718.5060463     
   2608674544.4905858     
   2298772166.7849145     
   2449415571.0952301     
   2604779679.2024064     
   2762944966.3204780     
   2922484742.4589677     
   2694664609.7481413     
   2830410335.7240877     
   2973461783.2753916     
   3122736715.6535029     
   3277324492.9088793     
   3137836071.1770544     
   3255392366.8691969     
   3382354285.5219402     
   3518249619.9109221     
   3662617943.2680387     
   3624790153.1674953     
   3719565234.7785492     
   3825575212.3979588     
   3942749641.4639130     
   4070989555.5684047     
   2608674544.4905858     
   2676767087.0693359     
   2749330059.8590961     
   2825848009.3072672     
   2905964481.5819101     
   2922484742.4589677     
   2975504035.7631307     
   3030734796.0104966     
   3087489173.3601208     
   3145231189.9821939     
   3277324492.9088793     
   3320582812.0421333     
   3364094262.0665984     
   3407032077.2590528     
   3448716057.9320045     
   3662617943.2680387     
   3701954626.7016602     
   3739940844.1325870     
   3775675551.3261881     
   3808407843.7596951     
   4070989555.5684047     
   4112235429.0493178     
   4150878958.2377176     
   4186020666.9938793     
   4216926723.3516021     
   2905964481.5819101     
   2920746566.9054193     
   2937147290.2985330     
   2955121768.7666922     
   2974639587.1817470     
   3145231189.9821939     
   3141302747.8303175     
   3141115742.8555751     
   3144578846.5749917     
   3151685148.4565363     
   3448716057.9320045     
   3422229696.5384941     
   3400851632.9404416     
   3384360717.5657635     
   3372744953.4634080     
   3808407843.7596951     
   3755232227.7608290     
   3707961382.9829659     
   3666129027.8301659     
   3629638241.3160605     
   4216926723.3516021     
   4132688929.6859765     
   4054793595.5211663     
   3982398805.4083061     
   3915203448.5199146     
   2974639587.1817470     
   2943651486.0375562     
   2919309150.9953532     
   2901727748.3862019     
   2891081804.0040011     
   3151685148.4565363     
   3107495972.8345671     
   3069183639.1976457     
   3036927006.8973470     
   3010957868.0600619     
   3372744953.4634080     
   3315323160.0209355     
   3263077659.1493740     
   3216221757.0964375     
   3175018148.2253904     
   3629638241.3160605     
   3559352179.5244527     
   3493641372.3634477     
   3432729851.4926534     
   3376888822.0850291     
   3915203448.5199146     
   3832610417.0182214     
   3754107036.4627900     
   3679912127.3536863     
   3610290284.2673392     
   2891081804.0040011     
   2857863256.7105603     
   2835445946.5403509     
   2824118431.0366139     
   2824190668.8551588     
   3010957868.0600619     
   2963280882.3611569     
   2924298515.0326433     
   2894375565.2820301     
   2873909635.5347481     
   3175018148.2253904     
   3112215878.7975435     
   3055963819.1245370     
   3006632570.4029536     
   2964637736.7601790     
   3376888822.0850291     
   3299755034.2824793     
   3227080685.4467769     
   3159177909.2372336     
   3096408983.1336532     
   3610290284.2673392     
   3520656066.5606723     
   3433546576.7678361     
   3349179649.3125877     
   3267820002.3175788     
   2824190668.8551588     
   2753727257.6237507     
   2685299703.2710824     
   2618969584.3571553     
   2554821049.0845928     
   2873909635.5347481     
   2791242001.5689359     
   2714755368.6370487     
   2644593535.6142807     
   2580932896.7437663     
   2964637736.7601790     
   2867037865.3839016     
   2779259818.5508289     
   2701587409.2045674     
   2634397465.1823645     
   3096408983.1336532     
   2979442074.6484599     
   2875314635.5730867     
   2784565606.3553624     
   2707960624.1664910     
   3267820002.3175788     
   3125712269.7553210     
   2998817346.3757586     
   2888095600.8619213     
   2794966533.7921839     
   2554821049.0845928     
   2729553357.4970522     
   2907301014.0199094     
   3087780702.5319161     
   3270782682.6133947     
   2580932896.7437663     
   2758828559.8189750     
   2934741437.8068557     
   3108270775.5338221     
   3279117904.4771256     
   2634397465.1823645     
   2814604107.6725278     
   2988026939.3524985     
   3154169001.3247814     
   3312752140.9248633     
   2707960624.1664910     
   2892834978.2795591     
   3066223321.0845981     
   3227681128.1947489     
   3377165068.1543083     
   2794966533.7921839     
   2989431226.9240799     
   3167923700.7592049     
   3330322436.4284987     
   3477136049.0564647     
   3270782682.6133947     
   2939033465.7821641     
   2627431661.6452050     
   2336578810.3282676     
   2067990226.7487566     
   3279117904.4771256     
   2913913686.9851580     
   2575322385.4113278     
   2264238550.3450537     
   1982385937.9776266     
   3312752140.9248633     
   2913200942.3099198     
   2546129812.8762555     
   2213153877.6699839     
   1917430735.9580915     
   3377165068.1543083     
   2939464129.8374901     
   2539336305.3011351     
   2179865457.8315301     
   1867604366.1231139     
   3477136049.0564647     
   2994581649.5268655     
   2553847616.5937824     
   2160643803.6500092     
   1827903673.1701341     
   3624790153.1674953     
   3719565234.7785492     
   3825575212.3979588     
   3942749641.4639130     
   4070989555.5684047     
   4133914063.0360174     
   4224256932.1024008     
   4320514727.2409430     
   4421029459.9779415     
   4524345722.6525812     
   4643290507.0199242     
   4755439573.9404049     
   4868719465.3154249     
   4980499176.3573790     
   5088856035.2377424     
   5151400482.2309303     
   5311288191.1071587     
   5467828857.2360353     
   5618133907.0208626     
   5760740442.6575546     
   5657978753.3098116     
   5890964155.1404839     
   6116346276.1837387     
   6331673160.7353315     
   6536721325.1852894     
   4070989555.5684047     
   4112235429.0493178     
   4150878958.2377176     
   4186020666.9938793     
   4216926723.3516021     
   4524345722.6525812     
   4538920248.4347687     
   4558170277.2254972     
   4579612719.5993032     
   4601522648.5100679     
   5088856035.2377424     
   5054013150.6013680     
   5029657329.1361217     
   5010578974.7386217     
   4993573888.9740982     
   5760740442.6575546     
   5652179423.5020666     
   5559574972.0388975     
   5473864355.4891396     
   5389502430.0903921     
   6536721325.1852894     
   6328819746.4721069     
   6143052473.7786169     
   5965514530.9417849     
   5787194284.7175465     
   4216926723.3516021     
   4132688929.6859765     
   4054793595.5211663     
   3982398805.4083061     
   3915203448.5199146     
   4601522648.5100679     
   4493406252.7248774     
   4389469042.9469719     
   4289400718.4063525     
   4193112781.6113482     
   4993573888.9740982     
   4866677894.0103760     
   4743010422.7990322     
   4622544174.5873785     
   4505324824.0990667     
   5389502430.0903921     
   5248529635.3662271     
   5110869551.6139498     
   4976567271.6512642     
   4845722806.6218081     
   5787194284.7175465     
   5636284627.9824858     
   5489690860.4395428     
   5347331807.4636517     
   5209262325.7914076     
   3915203448.5199146     
   3832610417.0182214     
   3754107036.4627900     
   3679912127.3536863     
   3610290284.2673392     
   4193112781.6113482     
   4097368278.8419757     
   4005026543.0979214     
   3916301028.4400959     
   3831470187.3735952     
   4505324824.0990667     
   4395222323.5264568     
   4287703278.2214975     
   4182945272.9562697     
   4081212564.4286289     
   4845722806.6218081     
   4720251485.5022278     
   4596471981.2536163     
   4474497025.2471638     
   4354547383.8115120     
   5209262325.7914076     
   5067547163.1588240     
   4926608883.9373426     
   4786469887.0179100     
   4647280052.4321728     
   3610290284.2673392     
   3520656066.5606723     
   3433546576.7678361     
   3349179649.3125877     
   3267820002.3175788     
   3831470187.3735952     
   3730919985.0501189     
   3632873000.7006249     
   3537541264.8422937     
   3445180933.0130229     
   4081212564.4286289     
   3969906491.6891165     
   3861096306.3063445     
   3754982889.9015036     
   3651811852.4620323     
   4354547383.8115120     
   4232347464.8336802     
   4112646864.6865759     
   3995633478.6063089     
   3881543735.5754123     
   4647280052.4321728     
   4513793296.4246092     
   4382815596.3298988     
   4254522469.3973436     
   4129144742.0870686     
   3267820002.3175788     
   3125712269.7553210     
   2998817346.3757586     
   2888095600.8619213     
   2794966533.7921839     
   3445180933.0130229     
   3278809482.1354041     
   3124897904.0114393     
   2984572422.4344087     
   2859468053.6423321     
   3651811852.4620323     
   3460179060.1262364     
   3278387741.8229437     
   3107560493.1695786     
   2949344402.3812184     
   3881543735.5754123     
   3664937663.0920491     
   3455735153.6432557     
   3254915849.3891029     
   3063953509.5686059     
   4129144742.0870686     
   3888759873.6200943     
   3653572511.1722727     
   3424329785.0157633     
   3202200541.5877414     
   2794966533.7921839     
   2989431226.9240799     
   3167923700.7592049     
   3330322436.4284987     
   3477136049.0564647     
   2859468053.6423321     
   3058846469.7614198     
   3244696230.1865916     
   3416982955.6821532     
   3576212400.1501861     
   2949344402.3812184     
   3157895622.6559048     
   3355741675.3971567     
   3542796185.9077859     
   3719456599.9478884     
   3063953509.5686059     
   3284958219.3098087     
   3498292924.7134542     
   3703678629.1060243     
   3901297705.3644233     
   3202200541.5877414     
   3437957114.8073754     
   3669155300.3768353     
   3895196599.1539650     
   4115955437.3866086     
   3477136049.0564647     
   2994581649.5268655     
   2553847616.5937824     
   2160643803.6500092     
   1827903673.1701341     
   3576212400.1501861     
   3050458466.9928555     
   2558941922.4732270     
   2109113950.7050934     
   1718840409.3650291     
   3719456599.9478884     
   3154534060.0653667     
   2617057072.1457415     
   2115390963.6112752     
   1670860463.5319304     
   3901297705.3644233     
   3303687939.4906325     
   2727958011.3811727     
   2182939541.1711574     
   1691942839.4682038     
   4115955437.3866086     
   3493589770.8059978     
   2888986468.6200924     
   2311404864.9741960     
   1785243469.7461653     
   5657978753.3098116     
   5890964155.1404839     
   6116346276.1837387     
   6331673160.7353315     
   6536721325.1852894     
   6492003876.3471251     
   6587066671.3477297     
   6757457123.5190096     
   6961090072.6026268     
   7171306287.9583321     
   7982736858.4564409     
   7735231596.4839869     
   7669264659.9860678     
   7669507634.6622772     
   7666031067.5194798     
   10130631427.811752     
   9322292520.3720646     
   8826579794.6735516     
   8443606242.4136381     
   8035556630.8651991     
   12935778125.045494     
   11340962962.202007     
   10210569525.872999     
   9273166424.7217789     
   8304296456.2902679     
   6536721325.1852894     
   6328819746.4721069     
   6143052473.7786169     
   5965514530.9417849     
   5787194284.7175465     
   7171306287.9583321     
   6911020369.3121767     
   6658658016.8531542     
   6410368926.9532251     
   6163010045.8249397     
   7666031067.5194798     
   7381160305.4618225     
   7101766736.1321726     
   6827929175.8973503     
   6559856953.0922880     
   8035556630.8651991     
   7746895398.9925880     
   7474046261.3359623     
   7215032321.4345045     
   6969867677.6019163     
   8304296456.2902679     
   8020794613.9397593     
   7779607054.8157558     
   7570005638.5299578     
   7387028832.9613514     
   5787194284.7175465     
   5636284627.9824858     
   5489690860.4395428     
   5347331807.4636517     
   5209262325.7914076     
   6163010045.8249397     
   6013314614.5048199     
   5864888550.2284517     
   5717773762.3086500     
   5572029839.8460979     
   6559856953.0922880     
   6408611692.7318125     
   6255516006.6887999     
   6100532297.4171486     
   5943692665.5573730     
   6969867677.6019163     
   6815718006.6164303     
   6656603343.2912951     
   6492224305.2405453     
   6322540916.2149630     
   7387028832.9613514     
   7229641305.2651119     
   7064290289.2527094     
   6890259098.8767242     
   6707393513.2903700     
   5209262325.7914076     
   5067547163.1588240     
   4926608883.9373426     
   4786469887.0179100     
   4647280052.4321728     
   5572029839.8460979     
   5413243536.3870497     
   5255663346.2013178     
   5099328303.8689833     
   4944332313.0631762     
   5943692665.5573730     
   5770784640.6233740     
   5599905760.7820377     
   5431083306.4598780     
   5264393370.6714659     
   6322540916.2149630     
   6137794852.1380424     
   5956243002.2350721     
   5777860668.8287878     
   5602718269.0092907     
   6707393513.2903700     
   6512474169.7900753     
   6322230605.0765476     
   6136536998.1735048     
   5955449514.0717402     
   4647280052.4321728     
   4513793296.4246092     
   4382815596.3298988     
   4254522469.3973436     
   4129144742.0870686     
   4944332313.0631762     
   4800416609.9744368     
   4657365581.0661860     
   4515331597.0436296     
   4374526342.3884554     
   5264393370.6714659     
   5109700828.9808493     
   4954222156.0083551     
   4798049059.3280439     
   4641359064.3579645     
   5602718269.0092907     
   5437370277.9311275     
   5269640854.6123180     
   5099533646.7809858     
   4927183245.2920914     
   5955449514.0717402     
   5779914608.5223122     
   5600514040.2356386     
   5417146982.3923759     
   5229905073.7603722     
   4129144742.0870686     
   3888759873.6200943     
   3653572511.1722727     
   3424329785.0157633     
   3202200541.5877414     
   4374526342.3884554     
   4112137911.4020700     
   3853471570.1158509     
   3598968273.1421270     
   3349311942.1277165     
   4641359064.3579645     
   4365980183.9652328     
   4093941371.6035395     
   3825582075.7124944     
   3561457449.4517336     
   4927183245.2920914     
   4647180920.8387613     
   4371052661.1453714     
   4099164525.3799119     
   3832194718.9413719     
   5229905073.7603722     
   4952881571.6855850     
   4680989073.9335575     
   4414639318.8137274     
   4154721871.8003993     
   3202200541.5877414     
   3437957114.8073754     
   3669155300.3768353     
   3895196599.1539650     
   4115955437.3866086     
   3349311942.1277165     
   3596396695.0959744     
   3843684346.2315516     
   4090087972.5092335     
   4334894764.0319452     
   3561457449.4517336     
   3815803744.2054400     
   4074007048.7196507     
   4334739269.1250515     
   4597025025.5512257     
   3832194718.9413719     
   4087521429.5463386     
   4349380198.4953489     
   4616540395.1557798     
   4888146046.2629499     
   4154721871.8003993     
   4403299802.3907089     
   4660325531.1270761     
   4925030602.8170891     
   5197075627.6109476     
   4115955437.3866086     
   3493589770.8059978     
   2888986468.6200924     
   2311404864.9741960     
   1785243469.7461653     
   4334894764.0319452     
   3682969612.1801739     
   3043032152.8246093     
   2416699328.8350573     
   1810594126.4680099     
   4597025025.5512257     
   3885089089.0733962     
   3173685454.8642793     
   2456843145.2727809     
   1733446868.2397289     
   4888146046.2629499     
   4094684896.8959556     
   3289566633.7638597     
   2458095931.6282096     
   1596332567.4564235     
   5197075627.6109476     
   4308347793.8312492     
   3403184307.8949065     
   2462345614.3494873     
   1504336635.7793460     
 </DataArray>
 <DataArray  type="Float64" Name="strain" NumberOfComponents="3" format="ascii">
  0.20347389977827296        0.0000000000000000       0.12541682204814206     
  0.18664922636349388       -2.7331042206871083E-002   7.4365624267247132E-002
  0.16982455294871479       -4.4682067699734519E-002   3.5138550462505962E-002
  0.15299987953393568       -5.2053076478590324E-002   7.7356006339186385E-003
  0.13617520611915659       -4.9444068543438482E-002  -7.8432252185148960E-003
  0.15985674232325375        0.0000000000000000        9.6451899283674133E-002
  0.15317645531213009       -2.1849084827560906E-002   6.2697635372750957E-002
  0.14649616830100648       -3.6178749380121736E-002   3.7408020292984900E-002
  0.13981588128988284       -4.2988993657682474E-002   2.0583054044375965E-002
  0.13313559427875921       -4.2279817660243149E-002   1.2222736626924115E-002
  0.12646653781620076        0.0000000000000000        7.4199232118020153E-002
  0.12657116206373592       -1.6367127448250730E-002   5.5281305638061190E-002
  0.12667578631127105       -2.7675431060508942E-002   4.1468552844262631E-002
  0.12678041055880621       -3.3924910836774624E-002   3.2760973736624538E-002
  0.12688503480634133       -3.5115566777047781E-002   2.9158568315146852E-002
  0.10330328625711403        0.0000000000000000        5.8658820551180151E-002
  0.10683334661831126       -1.0885170068940556E-002   5.2116635063177832E-002
  0.11036340697950850       -1.9172112740896148E-002   4.7320148116339229E-002
  0.11389346734070574       -2.4860828015866775E-002   4.4269359710664404E-002
  0.11742352770190295       -2.7951315893852437E-002   4.2964269846153307E-002
   9.0366987645993546E-002   0.0000000000000000        4.9830664583154091E-002
   9.3963008975856188E-002  -5.4032126896303816E-003   5.3203623648100842E-002
   9.7559030305718830E-002  -1.0668794421283354E-002   5.4962806109214668E-002
  0.10115505163558144       -1.5796745194958918E-002   5.5108211966495534E-002
  0.10475107296544407       -2.0787065010657080E-002   5.3639841219943460E-002
  0.13617520611915659       -4.9444068543438482E-002  -7.8432252185148960E-003
  0.13295903886930396       -4.2900712120701616E-002  -3.4198969025116266E-003
  0.12974287161945131       -3.8468675436802449E-002  -3.9252482749953244E-004
  0.12652670436959867       -3.6147958491740795E-002   1.2388910065212512E-003
  0.12331053711974604       -3.5938561285516840E-002   1.4743505995509498E-003
  0.13313559427875921       -4.2279817660243149E-002   1.2222736626924115E-002
  0.12890807104070220       -3.8407607063864910E-002   1.2167382155713734E-002
  0.12468054780264523       -3.5728747544609037E-002   1.1485271949085895E-002
  0.12045302456458822       -3.4243239102475474E-002   1.0176406007040445E-002
  0.11622550132653120       -3.3951081737464278E-002   8.2407843295775052E-003
  0.12688503480634133       -3.5115566777047781E-002   2.9158568315146852E-002
  0.12241535608565363       -3.3914502007028197E-002   2.5542499718438152E-002
  0.11794567736496595       -3.2988819652415659E-002   2.2068875891885581E-002
  0.11347599864427829       -3.2338519713210112E-002   1.8737696835489211E-002
  0.10900631992359061       -3.1963602189411619E-002   1.5548962549248972E-002
  0.11742352770190295       -2.7951315893852437E-002   4.2964269846153307E-002
  0.11348089400415827       -2.9421396950191483E-002   3.6705455785661582E-002
  0.10953826030641356       -3.0248891760222264E-002   3.1358287000899612E-002
  0.10559562660866888       -3.0433800323944771E-002   2.6922763491867584E-002
  0.10165299291092417       -2.9976122641359008E-002   2.3398885258565316E-002
  0.10475107296544407       -2.0787065010657080E-002   5.3639841219943460E-002
  0.10210468479621607       -2.4928291893354770E-002   4.5656250357383972E-002
   9.9458296626988046E-002  -2.7508963868028889E-002   3.9353505276128006E-002
   9.6811908457759999E-002  -2.8529080934679457E-002   3.4731605976175570E-002
   9.4165520288531979E-002  -2.7988643093306426E-002   3.1790552457526572E-002
  0.12331053711974604       -3.5938561285516840E-002   1.4743505995509498E-003
  0.12040048809697079       -3.6459231580690560E-002   6.9588462253852845E-004
  0.11749043907419551       -3.6328717139821838E-002   7.4679006018749106E-005
  0.11458039005142023       -3.5547017962910835E-002  -3.8926625000810372E-004
  0.11167034102864498       -3.4114134049957556E-002  -6.9595114554227289E-004
  0.11622550132653120       -3.3951081737464278E-002   8.2407843295775052E-003
  0.11346488562786401       -3.4043549123426775E-002   7.8579888620630284E-003
  0.11070426992919677       -3.3711914934214597E-002   7.6167996822717882E-003
  0.10794365423052955       -3.2956179169827696E-002   7.5172167902039441E-003
  0.10518303853186234       -3.1776341830266064E-002   7.5592401858592118E-003
  0.10900631992359061       -3.1963602189411619E-002   1.5548962549248972E-002
  0.10637948347626192       -3.1627866666163060E-002   1.5334754430364868E-002
  0.10375264702893322       -3.1095112728607353E-002   1.5246498526434529E-002
  0.10112581058160452       -3.0365340376744550E-002   1.5284194837458012E-002
   9.8498974134275885E-002  -2.9438549610574571E-002   1.5447843363435257E-002
  0.10165299291092417       -2.9976122641359008E-002   2.3398885258565316E-002
   9.9144281642164517E-002  -2.9212184208899365E-002   2.3126181327443956E-002
   9.6635570373404867E-002  -2.8478310523000150E-002   2.2963775538507029E-002
   9.4126859104645216E-002  -2.7774501583661324E-002   2.2911667891754226E-002
   9.1618147835885538E-002  -2.7100757390882996E-002   2.2969858387185866E-002
   9.4165520288531979E-002  -2.7988643093306426E-002   3.1790552457526572E-002
   9.1759280125571871E-002  -2.6796501751635629E-002   3.1232269553300517E-002
   8.9353039962611708E-002  -2.5861508317392902E-002   3.0768630718489232E-002
   8.6946799799651600E-002  -2.5183662790578154E-002   3.0399635953092717E-002
   8.4540559636691437E-002  -2.4762965171191531E-002   3.0125285257110862E-002
  0.11167034102864498       -3.4114134049957556E-002  -6.9595114554227289E-004
  0.10858651809976005       -3.2525125174288932E-002  -2.8803828242801588E-004
  0.10550269517087513       -3.1275051109231830E-002   1.9264060268511796E-004
  0.10241887224199023       -3.0363911854786606E-002   7.4608550979653188E-004
   9.9335049313105273E-002  -2.9791707410953217E-002   1.3722964389069059E-003
  0.10518303853186234       -3.1776341830266064E-002   7.5592401858592118E-003
  0.10219766365680011       -3.0501689917517019E-002   7.5093695602879013E-003
   9.9212288781737934E-002  -2.9461510433568233E-002   7.5836290203632611E-003
   9.6226913906675690E-002  -2.8655803378419394E-002   7.7820185660853539E-003
   9.3241539031613474E-002  -2.8084568752070660E-002   8.1045381974543529E-003
   9.8498974134275885E-002  -2.9438549610574571E-002   1.5447843363435257E-002
   9.5663411376684465E-002  -2.8478254660745203E-002   1.5044651630989780E-002
   9.2827848619093101E-002  -2.7647969757904366E-002   1.4816954047839261E-002
   8.9992285861501764E-002  -2.6947694902052018E-002   1.4764750613983659E-002
   8.7156723103910413E-002  -2.6377430093188242E-002   1.4888041329422771E-002
   9.1618147835885538E-002  -2.7100757390882996E-002   2.2969858387185866E-002
   8.8983761259413138E-002  -2.6454819403973338E-002   2.2317807929677892E-002
   8.6349374682940738E-002  -2.5834429082240578E-002   2.1892615685113130E-002
   8.3714988106468324E-002  -2.5239586425684652E-002   2.1694281653491170E-002
   8.1080601529995883E-002  -2.4670291434305699E-002   2.1722805834812359E-002
   8.4540559636691437E-002  -2.4762965171191531E-002   3.0125285257110862E-002
   8.2158713304986114E-002  -2.4431384147201488E-002   2.9328838456352160E-002
   7.9776866973280763E-002  -2.4020888406576853E-002   2.8810613932184523E-002
   7.7395020641575413E-002  -2.3531477949317370E-002   2.8570611684608081E-002
   7.5013174309870034E-002  -2.2963152775423296E-002   2.8608831713622634E-002
   9.9335049313105273E-002  -2.9791707410953217E-002   1.3722964389069059E-003
   9.6207904165217073E-002  -2.9241871243399803E-002   6.8853543154351327E-004
   9.3080759017328846E-002  -2.8397836817795161E-002   3.6064892040679752E-004
   8.9953613869440632E-002  -2.7259604134139189E-002   3.8863690549716112E-004
   8.6826468721552419E-002  -2.5827173192431663E-002   7.7249938681422936E-004
   9.3241539031613474E-002  -2.8084568752070660E-002   8.1045381974543529E-003
   9.0434578644826347E-002  -2.7515542826987982E-002   7.6559084509136288E-003
   8.7627618258039219E-002  -2.6716461875637573E-002   7.4917737303483722E-003
   8.4820657871252092E-002  -2.5687325898019166E-002   7.6121340357584930E-003
   8.2013697484464965E-002  -2.4428134894132925E-002   8.0169893671437342E-003
   8.7156723103910413E-002  -2.6377430093188242E-002   1.4888041329422771E-002
   8.4598568007972982E-002  -2.5789214410576397E-002   1.4610399611921274E-002
   8.2040412912035565E-002  -2.5035086933480048E-002   1.4545873450143749E-002
   7.9482257816098204E-002  -2.4115047661899258E-002   1.4694462844090334E-002
   7.6924102720160786E-002  -2.3029096595834020E-002   1.5056167793760955E-002
   8.1080601529995883E-002  -2.4670291434305699E-002   2.1722805834812359E-002
   7.8699872254656911E-002  -2.4062885994164722E-002   2.1552008914566437E-002
   7.6319142979317869E-002  -2.3353711991322603E-002   2.1522948079793408E-002
   7.3938413703978814E-002  -2.2542769425779513E-002   2.1635623330492723E-002
   7.1557684428639801E-002  -2.1630058297535198E-002   2.1890034666665240E-002
   7.5013174309870034E-002  -2.2963152775423296E-002   2.8608831713622634E-002
   7.2738491384878062E-002  -2.2336557577753005E-002   2.8480736358849068E-002
   7.0463808459886090E-002  -2.1672337049165054E-002   2.8422997619296994E-002
   6.8189125534894118E-002  -2.0970491189659601E-002   2.8435615494966197E-002
   6.5914442609902119E-002  -2.0231019999236322E-002   2.8518589985856657E-002
   8.6826468721552419E-002  -2.5827173192431663E-002   7.7249938681422936E-004
   8.2410930781490088E-002  -2.4418587067181308E-002   8.2919627448879707E-004
   7.7995392841427924E-002  -2.3351888832896350E-002   4.3999101032532462E-004
   7.3579854901365732E-002  -2.2627078489576194E-002  -3.9511640567674311E-004
   6.9164316961303429E-002  -2.2244156037221519E-002  -1.6761259735166290E-003
   8.2013697484464965E-002  -2.4428134894132925E-002   8.0169893671437342E-003
   7.7286493179150179E-002  -2.3191697336702372E-002   7.6223736091151906E-003
   7.2559288873835448E-002  -2.2230821698451128E-002   7.0503272724201094E-003
   6.7832084568520745E-002  -2.1545507979379205E-002   6.3008503570576718E-003
   6.3104880263205876E-002  -2.1135756179486376E-002   5.3739428630288910E-003
   7.6924102720160786E-002  -2.3029096595834020E-002   1.5056167793760955E-002
   7.2153703622764992E-002  -2.1964807606223297E-002   1.4276565361814889E-002
   6.7383304525369239E-002  -2.1109754564005906E-002   1.3588003924373940E-002
   6.2612905427973514E-002  -2.0463937469181771E-002   1.2990483481437470E-002
   5.7842506330577748E-002  -2.0027356321751122E-002   1.2484004033005452E-002
   7.1557684428639801E-002  -2.1630058297535198E-002   2.1890034666665240E-002
   6.7012562112334501E-002  -2.0737917875744180E-002   2.0791771532587881E-002
   6.2467439796029256E-002  -1.9988687429560517E-002   2.0053020966186622E-002
   5.7922317479724025E-002  -1.9382366958984560E-002   1.9673782967461747E-002
   5.3377195163418725E-002  -1.8918956464015813E-002   1.9654057536413007E-002
   6.5914442609902119E-002  -2.0231019999236322E-002   2.8518589985856657E-002
   6.1863068647858788E-002  -1.9511028145265008E-002   2.7167992121433754E-002
   5.7811694685815526E-002  -1.8867620295115378E-002   2.6445378397858627E-002
   5.3760320723772230E-002  -1.8300796448787245E-002   2.6350748815131331E-002
   4.9708946761728934E-002  -1.7810556606280670E-002   2.6884103373251533E-002
   6.9164316961303429E-002  -2.2244156037221519E-002  -1.6761259735166290E-003
   7.3773443436739639E-002  -2.2310595256966159E-002   9.4972164631312861E-004
   7.8382569912175792E-002  -2.2933869929944145E-002   3.9037549483110223E-003
   8.2991696387611946E-002  -2.4113980056156052E-002   7.1859739324771355E-003
   8.7600822863048156E-002  -2.5850925635600874E-002   1.0796378598810663E-002
   6.3104880263205876E-002  -2.1135756179486376E-002   5.3739428630288910E-003
   6.7896972339590189E-002  -2.1079519358884025E-002   8.1574814207907576E-003
   7.2689064415974475E-002  -2.1454750577683618E-002   1.0978765498280668E-002
   7.7481156492358774E-002  -2.2261449835884510E-002   1.3837795095498484E-002
   8.2273248568743018E-002  -2.3499617133487360E-002   1.6734570212444844E-002
   5.7842506330577748E-002  -2.0027356321751122E-002   1.2484004033005452E-002
   6.2527123845470267E-002  -1.9848443460802029E-002   1.5550600942531023E-002
   6.7211741360362842E-002  -1.9975631225422771E-002   1.8364503209344699E-002
   7.1896358875255417E-002  -2.0408919615613193E-002   2.0925710833447152E-002
   7.6580976390147992E-002  -2.1148308631373569E-002   2.3234223814837723E-002
   5.3377195163418725E-002  -1.8918956464015813E-002   1.9654057536413007E-002
   5.7663897954379803E-002  -1.8617367562719964E-002   2.3129080211533974E-002
   6.1950600745340853E-002  -1.8496511873162029E-002   2.6060968081503547E-002
   6.6237303536301875E-002  -1.8556389395341988E-002   2.8449721146321549E-002
   7.0524006327262981E-002  -1.8797000129259916E-002   3.0295339405988296E-002
   4.9708946761728934E-002  -1.7810556606280670E-002   2.6884103373251533E-002
   5.3307294666318727E-002  -1.7386291664637982E-002   3.0892919227799798E-002
   5.6905642570908521E-002  -1.7017392520901356E-002   3.4068160114756801E-002
   6.0503990475498329E-002  -1.6703859175070713E-002   3.6409826034122669E-002
   6.4102338380088109E-002  -1.6445691627146375E-002   3.7917916985897304E-002
   8.7600822863048156E-002  -2.5850925635600874E-002   1.0796378598810663E-002
   7.0811649861940995E-002  -2.5207660073500726E-002  -1.1903685499169425E-003
   5.4022476860833890E-002  -1.9247136775076973E-002  -1.0476831952493382E-002
   3.7233303859726730E-002  -7.9693557403298990E-003  -1.7063011608919126E-002
   2.0444130858619625E-002   8.6256830307411825E-003  -2.0948907519194204E-002
   8.2273248568743018E-002  -2.3499617133487360E-002   1.6734570212444844E-002
   6.7965183599448975E-002  -2.3092387397223024E-002   8.6837093868187276E-003
   5.3657118630154987E-002  -1.8962895553823911E-002   2.8947808786682905E-003
   3.9349053660861083E-002  -1.1111141603289576E-002  -6.3221531200763348E-004
   2.5040988691567012E-002   4.6287445437975805E-004  -1.8972791852069903E-003
   7.6580976390147992E-002  -2.1148308631373569E-002   2.3234223814837723E-002
   6.4315668023991551E-002  -2.0977114720945211E-002   1.7524253683124602E-002
   5.2050359657835138E-002  -1.8678654332570946E-002   1.3637864440211325E-002
   3.9785051291678628E-002  -1.4252927466249805E-002   1.1575056086097900E-002
   2.7519742925522339E-002  -7.6999341219821105E-003   1.1335828620784083E-002
   7.0524006327262981E-002  -1.8797000129259916E-002   3.0295339405988296E-002
   5.9863103135568516E-002  -1.8861842044667898E-002   2.5331264338999709E-002
   4.9202199943874071E-002  -1.8394413111317710E-002   2.1752418732135344E-002
   3.8541296752179641E-002  -1.7394713329209756E-002   1.9558802585395281E-002
   2.7880393560485231E-002  -1.5862742698343757E-002   1.8750415898779127E-002
   6.4102338380088109E-002  -1.6445691627146375E-002   3.7917916985897304E-002
   5.4607488934180048E-002  -1.6746569368390307E-002   3.2104741354444521E-002
   4.5112639488271933E-002  -1.8110171890065058E-002   2.7238443754441011E-002
   3.5617790042363831E-002  -2.0536499192169828E-002   2.3319024185885467E-002
   2.6122940596455813E-002  -2.4025551274705403E-002   2.0346482648778919E-002
   9.0366987645993546E-002   0.0000000000000000        4.9830664583154091E-002
   9.3963008975856188E-002  -5.4032126896303816E-003   5.3203623648100842E-002
   9.7559030305718830E-002  -1.0668794421283354E-002   5.4962806109214668E-002
  0.10115505163558144       -1.5796745194958918E-002   5.5108211966495534E-002
  0.10475107296544407       -2.0787065010657080E-002   5.3639841219943460E-002
   8.2423690126366217E-002   0.0000000000000000        4.4780598387173048E-002
   8.4634163596044712E-002  -4.5729310213772131E-003   4.8264824111743154E-002
   8.6844637065723207E-002  -9.0355156388228861E-003   5.0591730719777891E-002
   8.9055110535401674E-002  -1.3387753852337017E-002   5.1761318211277260E-002
   9.1265584005080183E-002  -1.7629645661919616E-002   5.1773586586241288E-002
   7.4239441841758957E-002   0.0000000000000000        4.0574456136468123E-002
   7.5520824938550876E-002  -3.7426493531240446E-003   4.4142663966615682E-002
   7.6802208035342809E-002  -7.4022368563624145E-003   4.7010010167525478E-002
   7.8083591132134728E-002  -1.0978762509715113E-002   4.9176494739197496E-002
   7.9364974228926646E-002  -1.4472226313182138E-002   5.0642117681631710E-002
   6.5814242792171782E-002   0.0000000000000000        3.7212237831039288E-002
   6.6622993003374723E-002  -2.9123676848708756E-003   4.0837143212718467E-002
   6.7431743214577650E-002  -5.7689580739019430E-003   4.4217644452457433E-002
   6.8240493425780563E-002  -8.5697711670932077E-003   4.7353741550256213E-002
   6.9049243636983532E-002  -1.1314806964444663E-002   5.0245434506114781E-002
   5.7148092977604675E-002   0.0000000000000000        3.4693943470886564E-002
   5.7940667790516195E-002  -2.0820860166177076E-003   3.8348261850051461E-002
   5.8733242603427722E-002  -4.1356792914414731E-003   4.2214633574573765E-002
   5.9525817416339249E-002  -6.1607798244713054E-003   4.6293058644453426E-002
   6.0318392229250770E-002  -8.1573876157071887E-003   5.0583537059690493E-002
  0.10475107296544407       -2.0787065010657080E-002   5.3639841219943460E-002
  0.10210468479621607       -2.4928291893354770E-002   4.5656250357383972E-002
   9.9458296626988046E-002  -2.7508963868028889E-002   3.9353505276128006E-002
   9.6811908457759999E-002  -2.8529080934679457E-002   3.4731605976175570E-002
   9.4165520288531979E-002  -2.7988643093306426E-002   3.1790552457526572E-002
   9.1265584005080183E-002  -1.7629645661919616E-002   5.1773586586241288E-002
   9.0063649072192262E-002  -2.1205970817446410E-002   4.6529153269030593E-002
   8.8861714139304354E-002  -2.3561509068793170E-002   4.2492780643196629E-002
   8.7659779206416460E-002  -2.4696260415959931E-002   3.9664468708739395E-002
   8.6457844273528525E-002  -2.4610224858946629E-002   3.8044217465658892E-002
   7.9364974228926646E-002  -1.4472226313182138E-002   5.0642117681631710E-002
   7.9134707442452074E-002  -1.7483649741538064E-002   4.7797073905926302E-002
   7.8904440655977501E-002  -1.9614054269557490E-002   4.5687305731670846E-002
   7.8674173869502914E-002  -2.0863439897240404E-002   4.4312813158865351E-002
   7.8443907083028355E-002  -2.1231806624586805E-002   4.3673596187509732E-002
   6.9049243636983532E-002  -1.1314806964444663E-002   5.0245434506114781E-002
   6.9317859906995488E-002  -1.3761328665629714E-002   4.9460012268071132E-002
   6.9586476177007472E-002  -1.5666599470321795E-002   4.8937080541550632E-002
   6.9855092447019457E-002  -1.7030619378520875E-002   4.8676639326553278E-002
   7.0123708717031413E-002  -1.7853388390227001E-002   4.8678688623079155E-002
   6.0318392229250770E-002  -8.1573876157071887E-003   5.0583537059690493E-002
   6.0613106465822533E-002  -1.0039007589721359E-002   5.1517968355465051E-002
   6.0907820702394276E-002  -1.1719144671086109E-002   5.2242105072836012E-002
   6.1202534938966033E-002  -1.3197798859801371E-002   5.2755947211803315E-002
   6.1497249175537783E-002  -1.4474970155867184E-002   5.3059494772367016E-002
   9.4165520288531979E-002  -2.7988643093306426E-002   3.1790552457526572E-002
   9.1759280125571871E-002  -2.6796501751635629E-002   3.1232269553300517E-002
   8.9353039962611708E-002  -2.5861508317392902E-002   3.0768630718489232E-002
   8.6946799799651600E-002  -2.5183662790578154E-002   3.0399635953092717E-002
   8.4540559636691437E-002  -2.4762965171191531E-002   3.0125285257110862E-002
   8.6457844273528525E-002  -2.4610224858946629E-002   3.8044217465658892E-002
   8.4190913391371636E-002  -2.3964570079246631E-002   3.7044990414207196E-002
   8.1923982509214704E-002  -2.3420463758353334E-002   3.6229737854947215E-002
   7.9657051627057829E-002  -2.2977905896266672E-002   3.5598459787878942E-002
   7.7390120744900912E-002  -2.2636896492986752E-002   3.5151156213002230E-002
   7.8443907083028355E-002  -2.1231806624586805E-002   4.3673596187509732E-002
   7.6405615904451635E-002  -2.1132638406857591E-002   4.2389024437453793E-002
   7.4367324725874845E-002  -2.0979419199313749E-002   4.1377757602366477E-002
   7.2329033547298069E-002  -2.0772149001955148E-002   4.0639795682247702E-002
   7.0290742368721335E-002  -2.0510827814781946E-002   4.0175138677097648E-002
   7.0123708717031413E-002  -1.7853388390227001E-002   4.8678688623079155E-002
   6.8403387664811771E-002  -1.8300706734468628E-002   4.7264371623040279E-002
   6.6683066612592087E-002  -1.8538374640274149E-002   4.6212689960746955E-002
   6.4962745560372390E-002  -1.8566392107643662E-002   4.5523643636199172E-002
   6.3242424508152748E-002  -1.8384759136577139E-002   4.5197232649396943E-002
   6.1497249175537783E-002  -1.4474970155867184E-002   5.3059494772367016E-002
   6.0184228672452114E-002  -1.5468775062079547E-002   5.1671031970966640E-002
   5.8871208169366446E-002  -1.6097330081234588E-002   5.0734534930088698E-002
   5.7558187666280805E-002  -1.6360635213332121E-002   5.0250003649733178E-002
   5.6245167163195123E-002  -1.6258690458372388E-002   5.0217438129900205E-002
   8.4540559636691437E-002  -2.4762965171191531E-002   3.0125285257110862E-002
   8.2158713304986114E-002  -2.4431384147201488E-002   2.9328838456352160E-002
   7.9776866973280763E-002  -2.4020888406576853E-002   2.8810613932184523E-002
   7.7395020641575413E-002  -2.3531477949317370E-002   2.8570611684608081E-002
   7.5013174309870034E-002  -2.2963152775423296E-002   2.8608831713622634E-002
   7.7390120744900912E-002  -2.2636896492986752E-002   3.5151156213002230E-002
   7.5271834578743937E-002  -2.2308463263381040E-002   3.4468763230858193E-002
   7.3153548412587005E-002  -2.1903633922317207E-002   3.4035268303219714E-002
   7.1035262246430045E-002  -2.1422408469795248E-002   3.3850671430086882E-002
   6.8916976080273085E-002  -2.0864786905815114E-002   3.3914972611459690E-002
   7.0290742368721335E-002  -2.0510827814781946E-002   4.0175138677097648E-002
   6.8406692146027306E-002  -2.0185542379560557E-002   3.9604280908391652E-002
   6.6522641923333237E-002  -1.9786379438057587E-002   3.9252996972105741E-002
   6.4638591700639222E-002  -1.9313338990273043E-002   3.9121286868240117E-002
   6.2754541477945139E-002  -1.8766421036206918E-002   3.9209150596794660E-002
   6.3242424508152748E-002  -1.8384759136577139E-002   4.5197232649396943E-002
   6.1563286006836124E-002  -1.8062621495740092E-002   4.4735391488952447E-002
   5.9884147505519521E-002  -1.7669124953798007E-002   4.4463799938842599E-002
   5.8205009004202904E-002  -1.7204269510750839E-002   4.4382457999067565E-002
   5.6525870502886294E-002  -1.6668055166598743E-002   4.4491365669627206E-002
   5.6245167163195123E-002  -1.6258690458372388E-002   5.0217438129900205E-002
   5.4741616161170445E-002  -1.5939700611919641E-002   4.9862094972540752E-002
   5.3238065159145802E-002  -1.5551870469538390E-002   4.9667677203430460E-002
   5.1734514157121145E-002  -1.5095200031228707E-002   4.9634184822569316E-002
   5.0230963155096481E-002  -1.4569689296990568E-002   4.9761617829957472E-002
   7.5013174309870034E-002  -2.2963152775423296E-002   2.8608831713622634E-002
   7.2738491384878062E-002  -2.2336557577753005E-002   2.8480736358849068E-002
   7.0463808459886090E-002  -2.1672337049165054E-002   2.8422997619296994E-002
   6.8189125534894118E-002  -2.0970491189659601E-002   2.8435615494966197E-002
   6.5914442609902119E-002  -2.0231019999236322E-002   2.8518589985856657E-002
   6.8916976080273085E-002  -2.0864786905815114E-002   3.3914972611459690E-002
   6.6737363991661122E-002  -2.0259014565105635E-002   3.3774120491572968E-002
   6.4557751903049160E-002  -1.9633336782395545E-002   3.3753053429225056E-002
   6.2378139814437135E-002  -1.8987753557684867E-002   3.3851771424415575E-002
   6.0198527725825235E-002  -1.8322264890973744E-002   3.4070274477144946E-002
   6.2754541477945139E-002  -1.8766421036206918E-002   3.9209150596794660E-002
   6.0719428668030498E-002  -1.8181471552458257E-002   3.9037821822877634E-002
   5.8684315858115808E-002  -1.7594336515625978E-002   3.9035706548816662E-002
   5.6649203048201147E-002  -1.7005015925710326E-002   3.9202804774611702E-002
   5.4614090238286485E-002  -1.6413509782711083E-002   3.9539116500262497E-002
   5.6525870502886294E-002  -1.6668055166598743E-002   4.4491365669627206E-002
   5.4684685413986245E-002  -1.6103928539810828E-002   4.4271840352762916E-002
   5.2843500325086189E-002  -1.5555336248856496E-002   4.4270956978071901E-002
   5.1002315236186126E-002  -1.5022278293735716E-002   4.4488715545554211E-002
   4.9161130147286090E-002  -1.4504754674448464E-002   4.4925116055209650E-002
   5.0230963155096481E-002  -1.4569689296990568E-002   4.9761617829957472E-002
   4.8633134229528335E-002  -1.4026385527163468E-002   4.9476176081228868E-002
   4.7035305303960204E-002  -1.3516335982086923E-002   4.9458804716990837E-002
   4.5437476378392079E-002  -1.3039540661761028E-002   4.9709503737243275E-002
   4.3839647452823954E-002  -1.2595999566185845E-002   5.0228273141986357E-002
   6.5914442609902119E-002  -2.0231019999236322E-002   2.8518589985856657E-002
   6.1863068647858788E-002  -1.9511028145265008E-002   2.7167992121433754E-002
   5.7811694685815526E-002  -1.8867620295115378E-002   2.6445378397858627E-002
   5.3760320723772230E-002  -1.8300796448787245E-002   2.6350748815131331E-002
   4.9708946761728934E-002  -1.7810556606280670E-002   2.6884103373251533E-002
   6.0198527725825235E-002  -1.8322264890973744E-002   3.4070274477144946E-002
   5.6716142352668503E-002  -1.7675773819238946E-002   3.2724916139411628E-002
   5.3233756979511798E-002  -1.7087183379457659E-002   3.1889550838603772E-002
   4.9751371606355108E-002  -1.6556493571629867E-002   3.1564178574721533E-002
   4.6268986233198417E-002  -1.6083704395755682E-002   3.1748799347764561E-002
   5.4614090238286485E-002  -1.6413509782711083E-002   3.9539116500262497E-002
   5.1582702350094142E-002  -1.5840519493212829E-002   3.8217681061086979E-002
   4.8551314461901821E-002  -1.5306746463800050E-002   3.7288247554914555E-002
   4.5519926573709443E-002  -1.4812190694472541E-002   3.6750815981745441E-002
   4.2488538685517080E-002  -1.4356852185230612E-002   3.6605386341579463E-002
   4.9161130147286090E-002  -1.4504754674448464E-002   4.4925116055209650E-002
   4.6462748640135818E-002  -1.4005265167186656E-002   4.3646286886459905E-002
   4.3764367132985552E-002  -1.3526309548142275E-002   4.2641468546791017E-002
   4.1065985625835251E-002  -1.3067887817315287E-002   4.1910661036202966E-002
   3.8367604118685020E-002  -1.2629999974705555E-002   4.1453864354695918E-002
   4.3839647452823954E-002  -1.2595999566185845E-002   5.0228273141986357E-002
   4.1356281222793501E-002  -1.2170010841160595E-002   4.9010733615530211E-002
   3.8872914992763033E-002  -1.1745872632484736E-002   4.7949213814232894E-002
   3.6389548762732600E-002  -1.1323584940157869E-002   4.7043713738094212E-002
   3.3906182532702139E-002  -1.0903147764180554E-002   4.6294233387114192E-002
   4.9708946761728934E-002  -1.7810556606280670E-002   2.6884103373251533E-002
   5.3307294666318727E-002  -1.7386291664637982E-002   3.0892919227799798E-002
   5.6905642570908521E-002  -1.7017392520901356E-002   3.4068160114756801E-002
   6.0503990475498329E-002  -1.6703859175070713E-002   3.6409826034122669E-002
   6.4102338380088109E-002  -1.6445691627146375E-002   3.7917916985897304E-002
   4.6268986233198417E-002  -1.6083704395755682E-002   3.1748799347764561E-002
   4.9147231483116449E-002  -1.5595504102876717E-002   3.5547279030109818E-002
   5.2025476733034551E-002  -1.5018580944035104E-002   3.8739128370702744E-002
   5.4903721982952618E-002  -1.4352934919230599E-002   4.1324347369543470E-002
   5.7781967232870657E-002  -1.3598566028463543E-002   4.3302936026631933E-002
   4.2488538685517080E-002  -1.4356852185230612E-002   3.6605386341579463E-002
   4.4873625906602377E-002  -1.3804716541115522E-002   4.0337618515590465E-002
   4.7258713127687611E-002  -1.3019769367168844E-002   4.3690164973688266E-002
   4.9643800348772818E-002  -1.2002010663390539E-002   4.6663025715872442E-002
   5.2028887569858087E-002  -1.0751440429780657E-002   4.9256200742143430E-002
   3.8367604118685020E-002  -1.2629999974705555E-002   4.1453864354695918E-002
   4.0486477936776365E-002  -1.2013928979354348E-002   4.5263937684241660E-002
   4.2605351754867717E-002  -1.1020957790302783E-002   4.8921269923713005E-002
   4.4724225572959048E-002  -9.6510864075504514E-003   5.2425861073110022E-002
   4.6843099391050413E-002  -7.9043148310977973E-003   5.5777711132432385E-002
   3.3906182532702139E-002  -1.0903147764180554E-002   4.6294233387114192E-002
   3.5985787573638489E-002  -1.0223141417593090E-002   5.0326236536063551E-002
   3.8065392614574881E-002  -9.0221462134363190E-003   5.4432443220777366E-002
   4.0144997655511265E-002  -7.3001621517103064E-003   5.8612853441255705E-002
   4.2224602696447622E-002  -5.0571892324148826E-003   6.2867467197498417E-002
   6.4102338380088109E-002  -1.6445691627146375E-002   3.7917916985897304E-002
   5.4607488934180048E-002  -1.6746569368390307E-002   3.2104741354444521E-002
   4.5112639488271933E-002  -1.8110171890065058E-002   2.7238443754441011E-002
   3.5617790042363831E-002  -2.0536499192169828E-002   2.3319024185885467E-002
   2.6122940596455813E-002  -2.4025551274705403E-002   2.0346482648778919E-002
   5.7781967232870657E-002  -1.3598566028463543E-002   4.3302936026631933E-002
   4.9154118757382265E-002  -1.3234444994147609E-002   3.7011203138707344E-002
   4.0526270281893886E-002  -1.3739542538697053E-002   3.1506594160173790E-002
   3.1898421806405543E-002  -1.5113858662111630E-002   2.6789109091030480E-002
   2.3270573330917144E-002  -1.7357393364391571E-002   2.2858747931278511E-002
   5.2028887569858087E-002  -1.0751440429780657E-002   4.9256200742143430E-002
   4.4108285942731584E-002  -9.7223206199050505E-003   4.2679416799312392E-002
   3.6187684315605019E-002  -9.3689131873292003E-003   3.6730002643814222E-002
   2.8267082688478485E-002  -9.6912181320535952E-003   3.1407958275648871E-002
   2.0346481061351868E-002  -1.0689235454077739E-002   2.6713283694816570E-002
   4.6843099391050413E-002  -7.9043148310977973E-003   5.5777711132432385E-002
   3.9469990490227896E-002  -6.2101962456622556E-003   4.9109382336259659E-002
   3.2096881589405345E-002  -4.9982838359614937E-003   4.2908669205362349E-002
   2.4723772688582803E-002  -4.2685776019952010E-003   3.7175571739740183E-002
   1.7350663787760269E-002  -4.0210775437639623E-003   3.1910089939392858E-002
   4.2224602696447622E-002  -5.0571892324148826E-003   6.2867467197498417E-002
   3.5239232399871229E-002  -2.6980718714196827E-003   5.6301099749549666E-002
   2.8253862103294891E-002  -6.2765448459341233E-004   5.0042593844818378E-002
   2.1268491806718470E-002   1.1540629280625651E-003   4.4091949483304319E-002
   1.4283121510142160E-002   2.6470803665499254E-003   3.8449166665007528E-002
   5.7148092977604675E-002   0.0000000000000000        3.4693943470886564E-002
   5.7940667790516195E-002  -2.0820860166177076E-003   3.8348261850051461E-002
   5.8733242603427722E-002  -4.1356792914414731E-003   4.2214633574573765E-002
   5.9525817416339249E-002  -6.1607798244713054E-003   4.6293058644453426E-002
   6.0318392229250770E-002  -8.1573876157071887E-003   5.0583537059690493E-002
   4.8651126619316067E-002   0.0000000000000000        3.2795166779501846E-002
   4.9590708867435176E-002  -1.7086868736292896E-003   3.6970537418576324E-002
   5.0530291115554293E-002  -3.4323055040076447E-003   4.1227869582708597E-002
   5.1469873363673403E-002  -5.1708558911350653E-003   4.5567163271898650E-002
   5.2409455611792506E-002  -6.9243380350115461E-003   4.9988418486146491E-002
   4.0733477938564390E-002   0.0000000000000000        3.1291501480377043E-002
   4.1689975801591485E-002  -1.3352877306408743E-003   3.5944499880818090E-002
   4.2646473664618600E-002  -2.7289317165738172E-003   4.0549367986017326E-002
   4.3602971527645709E-002  -4.1809319577988304E-003   4.5106105795974752E-002
   4.4559469390672804E-002  -5.6912884543159140E-003   4.9614713310690374E-002
   3.3395146935349652E-002   0.0000000000000000        3.0182947573512166E-002
   3.4238468592985148E-002  -9.6188858765245810E-004   3.5270149236776766E-002
   3.5081790250620644E-002  -2.0255579291399918E-003   4.0179128784499966E-002
   3.5925111908256140E-002  -3.1910080244625973E-003   4.4909886216681773E-002
   3.6768433565891628E-002  -4.4582388736202835E-003   4.9462421533322164E-002
   2.6636133609671840E-002   0.0000000000000000        2.9469505058907206E-002
   2.7236187241616132E-002  -5.8848944466404190E-004   3.4947485486452365E-002
   2.7836240873560427E-002  -1.3221841417061612E-003   4.0117151978156525E-002
   2.8436294505504722E-002  -2.2010840911263572E-003   4.4978504534019685E-002
   2.9036348137449014E-002  -3.2251892929246418E-003   4.9531543154041853E-002
   6.0318392229250770E-002  -8.1573876157071887E-003   5.0583537059690493E-002
   6.0613106465822533E-002  -1.0039007589721359E-002   5.1517968355465051E-002
   6.0907820702394276E-002  -1.1719144671086109E-002   5.2242105072836012E-002
   6.1202534938966033E-002  -1.3197798859801371E-002   5.2755947211803315E-002
   6.1497249175537783E-002  -1.4474970155867184E-002   5.3059494772367016E-002
   5.2409455611792506E-002  -6.9243380350115461E-003   4.9988418486146491E-002
   5.2532636302637249E-002  -8.5891103997455219E-003   5.1217478314777964E-002
   5.2655816993481985E-002  -1.0061531449445452E-002   5.2313765630359048E-002
   5.2778997684326721E-002  -1.1341601184111285E-002   5.3277280432889706E-002
   5.2902178375171444E-002  -1.2429319603743043E-002   5.4108022722369996E-002
   4.4559469390672804E-002  -5.6912884543159140E-003   4.9614713310690374E-002
   4.4588638601143732E-002  -7.1392132097696801E-003   5.1129270094563375E-002
   4.4617807811614667E-002  -8.4039182278047818E-003   5.2588576430739227E-002
   4.4646977022085595E-002  -9.4854035084211783E-003   5.3992632319217838E-002
   4.4676146232556530E-002  -1.0383669051618902E-002   5.5341437759999272E-002
   3.6768433565891628E-002  -4.4582388736202835E-003   4.9462421533322164E-002
   3.6781113361341974E-002  -5.6893160197938469E-003   5.1253343694821318E-002
   3.6793793156792320E-002  -6.7463050061641033E-003   5.3066537473976515E-002
   3.6806472952242666E-002  -7.6292058327310864E-003   5.4902002870787732E-002
   3.6819152747692985E-002  -8.3380184994947468E-003   5.6759739885254935E-002
   2.9036348137449014E-002  -3.2251892929246418E-003   4.9531543154041853E-002
   2.9110060583231984E-002  -4.2394188298179852E-003   5.1589699115551779E-002
   2.9183773029014946E-002  -5.0886917845234551E-003   5.3747648760070939E-002
   2.9257485474797923E-002  -5.7730081570409883E-003   5.6005392087599311E-002
   2.9331197920580886E-002  -6.2923679473706126E-003   5.8362929098136958E-002
   6.1497249175537783E-002  -1.4474970155867184E-002   5.3059494772367016E-002
   6.0184228672452114E-002  -1.5468775062079547E-002   5.1671031970966640E-002
   5.8871208169366446E-002  -1.6097330081234588E-002   5.0734534930088698E-002
   5.7558187666280805E-002  -1.6360635213332121E-002   5.0250003649733178E-002
   5.6245167163195123E-002  -1.6258690458372388E-002   5.0217438129900205E-002
   5.2902178375171444E-002  -1.2429319603743043E-002   5.4108022722369996E-002
   5.1988382158814891E-002  -1.3273931866015554E-002   5.3365412548298491E-002
   5.1074585942458353E-002  -1.3824683128603648E-002   5.2969285187162762E-002
   5.0160789726101794E-002  -1.4081573391507351E-002   5.2919640638962880E-002
   4.9246993509745249E-002  -1.4044602654726610E-002   5.3216478903698572E-002
   4.4676146232556530E-002  -1.0383669051618902E-002   5.5341437759999272E-002
   4.4056091355342372E-002  -1.1079088669951550E-002   5.5173291325883805E-002
   4.3436036478128208E-002  -1.1552036175972762E-002   5.5246144757117338E-002
   4.2815981600914058E-002  -1.1802511569682528E-002   5.5559998053699877E-002
   4.2195926723699900E-002  -1.1830514851080873E-002   5.6114851215631520E-002
   3.6819152747692985E-002  -8.3380184994947468E-003   5.6759739885254935E-002
   3.6387356262034529E-002  -8.8842454738875306E-003   5.7094668303722444E-002
   3.5955559776376038E-002  -9.2793892233418353E-003   5.7565113639952245E-002
   3.5523763290717561E-002  -9.5234497478577426E-003   5.8171075893944379E-002
   3.5091966805059084E-002  -9.6164270474350874E-003   5.8912555065698771E-002
   2.9331197920580886E-002  -6.2923679473706126E-003   5.8362929098136958E-002
   2.8982176878891354E-002  -6.6894022778235425E-003   5.9129543481814470E-002
   2.8633155837201826E-002  -7.0067422707109413E-003   5.9926191835667567E-002
   2.8284134795512297E-002  -7.2443879260329167E-003   6.0752874159696289E-002
   2.7935113753822780E-002  -7.4023392437893853E-003   6.1609590453900576E-002
   5.6245167163195123E-002  -1.6258690458372388E-002   5.0217438129900205E-002
   5.4741616161170445E-002  -1.5939700611919641E-002   4.9862094972540752E-002
   5.3238065159145802E-002  -1.5551870469538390E-002   4.9667677203430460E-002
   5.1734514157121145E-002  -1.5095200031228707E-002   4.9634184822569316E-002
   5.0230963155096481E-002  -1.4569689296990568E-002   4.9761617829957472E-002
   4.9246993509745249E-002  -1.4044602654726610E-002   5.3216478903698572E-002
   4.7913162464127093E-002  -1.3828934749856567E-002   5.2883223998112294E-002
   4.6579331418508924E-002  -1.3549733508492309E-002   5.2728483617089768E-002
   4.5245500372890740E-002  -1.3206998930633727E-002   5.2752257760630944E-002
   4.3911669327272612E-002  -1.2800731016281042E-002   5.2954546428735996E-002
   4.2195926723699900E-002  -1.1830514851080873E-002   5.6114851215631520E-002
   4.1049404770802794E-002  -1.1718168887793486E-002   5.5798377602384083E-002
   3.9902882817905688E-002  -1.1547596547446116E-002   5.5678007650014967E-002
   3.8756360865008603E-002  -1.1318797830038857E-002   5.5753741358524289E-002
   3.7609838912111469E-002  -1.1031772735571557E-002   5.6025578727911883E-002
   3.5091966805059084E-002  -9.6164270474350874E-003   5.8912555065698771E-002
   3.4150343081197611E-002  -9.6074030257304356E-003   5.8607555785356057E-002
   3.3208719357336151E-002  -9.5454595864000215E-003   5.8516249302206114E-002
   3.2267095633474671E-002  -9.4305967294439040E-003   5.8638635616249254E-002
   3.1325471909613233E-002  -9.2628144548620381E-003   5.8974714727485188E-002
   2.7935113753822780E-002  -7.4023392437893853E-003   6.1609590453900576E-002
   2.7215977395311508E-002  -7.4966371636673371E-003   6.1310758547028221E-002
   2.6496841036800257E-002  -7.5433226253538710E-003   6.1243208573663277E-002
   2.5777704678288983E-002  -7.5423956288490149E-003   6.1406940533805923E-002
   2.5058568319777735E-002  -7.4938561741525744E-003   6.1801954427455980E-002
   5.0230963155096481E-002  -1.4569689296990568E-002   4.9761617829957472E-002
   4.8633134229528335E-002  -1.4026385527163468E-002   4.9476176081228868E-002
   4.7035305303960204E-002  -1.3516335982086923E-002   4.9458804716990837E-002
   4.5437476378392079E-002  -1.3039540661761028E-002   4.9709503737243275E-002
   4.3839647452823954E-002  -1.2595999566185845E-002   5.0228273141986357E-002
   4.3911669327272612E-002  -1.2800731016281042E-002   5.2954546428735996E-002
   4.2565043724915451E-002  -1.2368755016525998E-002   5.2647015336170458E-002
   4.1218418122558290E-002  -1.1948896182460408E-002   5.2573820505536432E-002
   3.9871792520201156E-002  -1.1541154514084394E-002   5.2734961936833746E-002
   3.8525166917843967E-002  -1.1145530011397897E-002   5.3130439630062531E-002
   3.7609838912111469E-002  -1.1031772735571557E-002   5.6025578727911883E-002
   3.6480682510406155E-002  -1.0711124505888521E-002   5.5717095350570650E-002
   3.5351526108700848E-002  -1.0381456382833897E-002   5.5609214112601599E-002
   3.4222369706995548E-002  -1.0042768366407707E-002   5.5701935014004895E-002
   3.3093213305290213E-002  -9.6950604566099496E-003   5.5995258054780339E-002
   3.1325471909613233E-002  -9.2628144548620381E-003   5.8974714727485188E-002
   3.0380050586000580E-002  -9.0534939952509781E-003   5.8686416124429305E-002
   2.9434629262387900E-002  -8.8140165832073843E-003   5.8564985538186565E-002
   2.8489207938775241E-002  -8.5443822187309896E-003   5.8610422968756820E-002
   2.7543786615162567E-002  -8.2445909018220020E-003   5.8822728416140113E-002
   2.5058568319777735E-002  -7.4938561741525744E-003   6.1801954427455980E-002
   2.4263147951698580E-002  -7.3958634846135740E-003   6.1554977657746479E-002
   2.3467727583619424E-002  -7.2465767835808229E-003   6.1441134782290949E-002
   2.2672307215540265E-002  -7.0459960710543713E-003   6.1460425801089270E-002
   2.1876886847461113E-002  -6.7941213470340545E-003   6.1612850714141576E-002
   4.3839647452823954E-002  -1.2595999566185845E-002   5.0228273141986357E-002
   4.1356281222793501E-002  -1.2170010841160595E-002   4.9010733615530211E-002
   3.8872914992763033E-002  -1.1745872632484736E-002   4.7949213814232894E-002
   3.6389548762732600E-002  -1.1323584940157869E-002   4.7043713738094212E-002
   3.3906182532702139E-002  -1.0903147764180554E-002   4.6294233387114192E-002
   3.8525166917843967E-002  -1.1145530011397897E-002   5.3130439630062531E-002
   3.6242655083590786E-002  -1.0760141127152026E-002   5.1835159402880457E-002
   3.3960143249337577E-002  -1.0383106314098264E-002   5.0785568242094403E-002
   3.1677631415084374E-002  -1.0014425572236304E-002   4.9981666147703926E-002
   2.9395119580831172E-002  -9.6540989015664880E-003   4.9423453119709387E-002
   3.3093213305290213E-002  -9.6950604566099496E-003   5.5995258054780339E-002
   3.1101225208051364E-002  -9.3502714131436793E-003   5.4615733572029854E-002
   2.9109237110812532E-002  -9.0203399957120081E-003   5.3571567496912283E-002
   2.7117249013573687E-002  -8.7052662043148477E-003   5.2862759829427633E-002
   2.5125260916334845E-002  -8.4050500389523108E-003   5.2489310569575912E-002
   2.7543786615162567E-002  -8.2445909018220020E-003   5.8822728416140113E-002
   2.5931991596175215E-002  -7.9404016991353049E-003   5.7352456122978485E-002
   2.4320196577187838E-002  -7.6575736773256721E-003   5.6307211578686775E-002
   2.2708401558200472E-002  -7.3961068363933924E-003   5.5686994783265067E-002
   2.1096606539213109E-002  -7.1560011763381337E-003   5.5491805736713556E-002
   2.1876886847461113E-002  -6.7941213470340545E-003   6.1612850714141576E-002
   2.0734954247962345E-002  -6.5305319851268195E-003   6.0045327055726072E-002
   1.9593021648463563E-002  -6.2948073589393361E-003   5.8992500487417832E-002
   1.8451089048964794E-002  -6.0869474684717567E-003   5.8454371009216743E-002
   1.7309156449466026E-002  -5.9069523137240676E-003   5.8430938621122530E-002
   3.3906182532702139E-002  -1.0903147764180554E-002   4.6294233387114192E-002
   3.5985787573638489E-002  -1.0223141417593090E-002   5.0326236536063551E-002
   3.8065392614574881E-002  -9.0221462134363190E-003   5.4432443220777366E-002
   4.0144997655511265E-002  -7.3001621517103064E-003   5.8612853441255705E-002
   4.2224602696447622E-002  -5.0571892324148826E-003   6.2867467197498417E-002
   2.9395119580831172E-002  -9.6540989015664880E-003   4.9423453119709387E-002
   3.1450066604187643E-002  -9.1080864230666525E-003   5.4048156274899506E-002
   3.3505013627544121E-002  -8.1823482577151746E-003   5.8549339859165314E-002
   3.5559960650900571E-002  -6.8768844055119953E-003   6.2927003872506854E-002
   3.7614907674257070E-002  -5.1916948664572082E-003   6.7181148314924111E-002
   2.5125260916334845E-002  -8.4050500389523108E-003   5.2489310569575912E-002
   2.6957826815422657E-002  -7.9930314285399789E-003   5.7565450560289014E-002
   2.8790392714510515E-002  -7.3425503019938151E-003   6.2320347873389088E-002
   3.0622958613598372E-002  -6.4536066593135748E-003   6.6754002508876253E-002
   3.2455524512686185E-002  -5.3262005004994506E-003   7.0866414466750391E-002
   2.1096606539213109E-002  -7.1560011763381337E-003   5.5491805736713556E-002
   2.2509068207343580E-002  -6.8779764340135066E-003   6.0878119392232075E-002
   2.3921529875474034E-002  -6.5027523462725355E-003   6.5745467263448820E-002
   2.5333991543604495E-002  -6.0303289131153201E-003   7.0093849350363988E-002
   2.6746453211734959E-002  -5.4607061345416791E-003   7.3923265652977119E-002
   1.7309156449466026E-002  -5.9069523137240676E-003   5.8430938621122530E-002
   1.8103790779950363E-002  -5.7629214394868400E-003   6.3986162770728827E-002
   1.8898425110434706E-002  -5.6629543905511726E-003   6.8824698029344544E-002
   1.9693059440919054E-002  -5.6070511669167530E-003   7.2946544396969820E-002
   2.0487693771403415E-002  -5.5952117685839076E-003   7.6351701873604516E-002
   4.2224602696447622E-002  -5.0571892324148826E-003   6.2867467197498417E-002
   3.5239232399871229E-002  -2.6980718714196827E-003   5.6301099749549666E-002
   2.8253862103294891E-002  -6.2765448459341233E-004   5.0042593844818378E-002
   2.1268491806718470E-002   1.1540629280625651E-003   4.4091949483304319E-002
   1.4283121510142160E-002   2.6470803665499254E-003   3.8449166665007528E-002
   3.7614907674257070E-002  -5.1916948664572082E-003   6.7181148314924111E-002
   3.1115812533649173E-002  -3.4531505930364415E-003   5.9962648244202083E-002
   2.4616717393041318E-002  -1.9876225377347678E-003   5.3408836942199528E-002
   1.8117622252433400E-002  -7.9511070055268696E-004   4.7519714408916697E-002
   1.1618527111825538E-002   1.2438491851007871E-004   4.2295280644353617E-002
   3.2455524512686185E-002  -5.3262005004994506E-003   7.0866414466750391E-002
   2.6799531753549197E-002  -4.2082293146530891E-003   6.3011465529304644E-002
   2.1143538994412167E-002  -3.3475905908758943E-003   5.6178032586081249E-002
   1.5487546235275179E-002  -2.7442843291681038E-003   5.0366115637079850E-002
   9.8315534761381634E-003  -2.3983105295296570E-003   4.5575714682300539E-002
   2.6746453211734959E-002  -5.4607061345416791E-003   7.3923265652977119E-002
   2.2290390059571279E-002  -4.9633080362696813E-003   6.5447551604858101E-002
   1.7834326907407629E-002  -4.7075586440169688E-003   5.8350180776463458E-002
   1.3378263755243910E-002  -4.6934579577835494E-003   5.2631153167793543E-002
   8.9222006030802679E-003  -4.9210059775694481E-003   4.8290468778848308E-002
   2.0487693771403415E-002  -5.5952117685839076E-003   7.6351701873604516E-002
   1.7588387451715468E-002  -5.7183867578865510E-003   6.7270906470861869E-002
   1.4689081132027534E-002  -6.0675266971582931E-003   5.9925281513346529E-002
   1.1789774812339580E-002  -6.6426315863989741E-003   5.4314827001057886E-002
   8.8904684926516819E-003  -7.4437014256092393E-003   5.0439542933996329E-002
   2.6636133609671840E-002   0.0000000000000000        2.9469505058907206E-002
   2.7236187241616132E-002  -5.8848944466404190E-004   3.4947485486452365E-002
   2.7836240873560427E-002  -1.3221841417061612E-003   4.0117151978156525E-002
   2.8436294505504722E-002  -2.2010840911263572E-003   4.4978504534019685E-002
   2.9036348137449014E-002  -3.2251892929246418E-003   4.9531543154041853E-002
   2.0119483396338449E-002   0.0000000000000000        2.9018599078539618E-002
   2.0450777033126324E-002  -4.4068251246763730E-004   3.4314181997524763E-002
   2.0782070669914200E-002  -9.9087976535020689E-004   3.9380558862038083E-002
   2.1113364306702076E-002  -1.6505917586477079E-003   4.4217729672079542E-002
   2.1444657943489952E-002  -2.4198184923601360E-003   4.8825694427649169E-002
   1.3508241730156970E-002   0.0000000000000000        2.8697654774386860E-002
   1.3649883253157588E-002  -2.9287558027123487E-004   3.3846530696775144E-002
   1.3791524776158207E-002  -6.5957538899425253E-004   3.8845308446060739E-002
   1.3933166299158826E-002  -1.1000994261690525E-003   4.3693988022243682E-002
   1.4074807822159446E-002  -1.6144476917956375E-003   4.8392569425323960E-002
   6.8024086111273955E-003   0.0000000000000000        2.8506672146448933E-002
   6.8335059017099239E-003  -1.4506864807483180E-004   3.3544531584203494E-002
   6.8646031922924532E-003  -3.2827101263829903E-004   3.8511400730224549E-002
   6.8957004828749833E-003  -5.4960709369040019E-004   4.3407279584512092E-002
   6.9267977734575100E-003  -8.0907689123113180E-004   4.8232168147066136E-002
   1.9840392497302156E-006   0.0000000000000000        2.8445651194725832E-002
   1.6449787833333271E-006   2.7382841215712814E-006   3.3408184659809825E-002
   1.3059183169351375E-006   3.0333637176579303E-006   3.8378835714529477E-002
   9.6685785053673111E-007   8.8523878825561009E-007   4.3357604358884777E-002
   6.2779738414005942E-007  -3.7060906666304752E-006   4.8344490592875738E-002
   2.9036348137449014E-002  -3.2251892929246418E-003   4.9531543154041853E-002
   2.9110060583231984E-002  -4.2394188298179852E-003   5.1589699115551779E-002
   2.9183773029014946E-002  -5.0886917845234551E-003   5.3747648760070939E-002
   2.9257485474797923E-002  -5.7730081570409883E-003   5.6005392087599311E-002
   2.9331197920580886E-002  -6.2923679473706126E-003   5.8362929098136958E-002
   2.1444657943489952E-002  -2.4198184923601360E-003   4.8825694427649169E-002
   2.1588689660641078E-002  -3.1813170024640827E-003   5.1221179935056531E-002
   2.1732721377792193E-002  -3.8178443249361153E-003   5.3657510302190910E-002
   2.1876753094943312E-002  -4.3294004597762194E-003   5.6134685529052410E-002
   2.2020784812094438E-002  -4.7159854069844243E-003   5.8652705615640982E-002
   1.4074807822159446E-002  -1.6144476917956375E-003   4.8392569425323960E-002
   1.4230209987396575E-002  -2.1232151751101594E-003   5.1085399084072662E-002
   1.4385612152633700E-002  -2.5469968653487620E-003   5.3760124779266338E-002
   1.4541014317870828E-002  -2.8857927625114623E-003   5.6416746510904933E-002
   1.4696416483107952E-002  -3.1396028665982532E-003   5.9055264278988447E-002
   6.9267977734575100E-003  -8.0907689123113180E-004   4.8232168147066136E-002
   7.0346215634984896E-003  -1.0651133477562395E-003   5.1182356562600249E-002
   7.1424453535394693E-003  -1.2761494057614050E-003   5.4055492191297135E-002
   7.2502691435804454E-003  -1.4421850652466958E-003   5.6851575033156840E-002
   7.3580929336214285E-003  -1.5632203262120666E-003   5.9570605088179289E-002
   6.2779738414005942E-007  -3.7060906666304752E-006   4.8344490592875738E-002
   1.9243889468178316E-006  -7.0115204023135994E-006   5.1512052370639265E-002
   3.2209805094951700E-006  -5.3019461740647523E-006   5.4543612538283402E-002
   4.5175720721705569E-006   1.4226320180613680E-006   5.7439171095808185E-002
   5.8141636348502806E-006   1.3162214174099185E-005   6.0198728043213585E-002
   2.9331197920580886E-002  -6.2923679473706126E-003   5.8362929098136958E-002
   2.8982176878891354E-002  -6.6894022778235425E-003   5.9129543481814470E-002
   2.8633155837201826E-002  -7.0067422707109413E-003   5.9926191835667567E-002
   2.8284134795512297E-002  -7.2443879260329167E-003   6.0752874159696289E-002
   2.7935113753822780E-002  -7.4023392437893853E-003   6.1609590453900576E-002
   2.2020784812094438E-002  -4.7159854069844243E-003   5.8652705615640982E-002
   2.1715485749065070E-002  -5.0113504065808570E-003   5.9487634309881569E-002
   2.1410186686035705E-002  -5.2492466985856294E-003   6.0379972991266899E-002
   2.1104887623006330E-002  -5.4296742829987579E-003   6.1329721659796929E-002
   2.0799588559976968E-002  -5.5526331598202416E-003   6.2336880315471695E-002
   1.4696416483107952E-002  -3.1396028665982532E-003   5.9055264278988447E-002
   1.4462215415707868E-002  -3.3332985353381975E-003   5.9936281653818285E-002
   1.4228014348307779E-002  -3.4917511264602906E-003   6.0902085032761968E-002
   1.3993813280907702E-002  -3.6149606399645999E-003   6.1952674415819510E-002
   1.3759612213507605E-002  -3.7029270758510840E-003   6.3088049802990903E-002
   7.3580929336214285E-003  -1.5632203262120666E-003   5.9570605088179289E-002
   7.2223658788197502E-003  -1.6552466640955181E-003   6.0475485513624555E-002
   7.0866388240180709E-003  -1.7342555543349305E-003   6.1492527960152789E-002
   6.9509117692163908E-003  -1.8002469969304207E-003   6.2621732427763990E-002
   6.8151847144147125E-003  -1.8532209918819056E-003   6.3863098916458194E-002
   5.8141636348502806E-006   1.3162214174099185E-005   6.0198728043213585E-002
  -4.0628615992919018E-006   2.2805207147161277E-005   6.1105245889300407E-002
  -1.3939886833436686E-005   2.3240017790375836E-005   6.2151301773439332E-002
  -2.3816912067581471E-005   1.4466646103727682E-005   6.3336895695630419E-002
  -3.3693937301723653E-005  -3.5149079127966276E-006   6.4662027655873519E-002
   2.7935113753822780E-002  -7.4023392437893853E-003   6.1609590453900576E-002
   2.7215977395311508E-002  -7.4966371636673371E-003   6.1310758547028221E-002
   2.6496841036800257E-002  -7.5433226253538710E-003   6.1243208573663277E-002
   2.5777704678288983E-002  -7.5423956288490149E-003   6.1406940533805923E-002
   2.5058568319777735E-002  -7.4938561741525744E-003   6.1801954427455980E-002
   2.0799588559976968E-002  -5.5526331598202416E-003   6.2336880315471695E-002
   2.0300107174959059E-002  -5.6266647677516782E-003   6.2165969440151563E-002
   1.9800625789941149E-002  -5.6603105454946165E-003   6.2203086578310696E-002
   1.9301144404923243E-002  -5.6535704930492283E-003   6.2448231729949039E-002
   1.8801663019905331E-002  -5.6064446104153454E-003   6.2901404895066543E-002
   1.3759612213507605E-002  -3.7029270758510840E-003   6.3088049802990903E-002
   1.3456531881954777E-002  -3.7566923718359603E-003   6.3037833331220067E-002
   1.3153451550401945E-002  -3.7772984656354175E-003   6.3172390952900087E-002
   1.2850371218849119E-002  -3.7647453572494695E-003   6.3491722668031075E-002
   1.2547290887296284E-002  -3.7190330466781024E-003   6.3995828476613031E-002
   6.8151847144147125E-003  -1.8532209918819056E-003   6.3863098916458194E-002
   6.6852515162986832E-003  -1.8867199759202442E-003   6.3926350220233560E-002
   6.5553183181826478E-003  -1.8942863857761769E-003   6.4151121697431521E-002
   6.4253851200666151E-003  -1.8759202214497384E-003   6.4537413348052214E-002
   6.2954519219505728E-003  -1.8316214829408664E-003   6.5085225172095515E-002
  -3.3693937301723653E-005  -3.5149079127966276E-006   6.4662027655873519E-002
  -1.3733922009234734E-005  -1.6747580004583540E-005   6.4831520107192078E-002
   6.2260932832524513E-006  -1.1274305916939703E-005   6.5139278811905010E-002
   2.6186108575739636E-005   1.2904914350026463E-005   6.5585303770012301E-002
   4.6146123868228556E-005   5.5790080796369601E-005   6.6169594981513979E-002
   2.5058568319777735E-002  -7.4938561741525744E-003   6.1801954427455980E-002
   2.4263147951698580E-002  -7.3958634846135740E-003   6.1554977657746479E-002
   2.3467727583619424E-002  -7.2465767835808229E-003   6.1441134782290949E-002
   2.2672307215540265E-002  -7.0459960710543713E-003   6.1460425801089270E-002
   2.1876886847461113E-002  -6.7941213470340545E-003   6.1612850714141576E-002
   1.8801663019905331E-002  -5.6064446104153454E-003   6.2901404895066543E-002
   1.8148149688066752E-002  -5.5243065839025995E-003   6.2706200669138568E-002
   1.7494636356228169E-002  -5.4125300998206990E-003   6.2661676621437817E-002
   1.6841123024389580E-002  -5.2711151581695728E-003   6.2767832751964264E-002
   1.6187609692551008E-002  -5.1000617589492259E-003   6.3024669060718047E-002
   1.2547290887296284E-002  -3.7190330466781024E-003   6.3995828476613031E-002
   1.2053230875671575E-002  -3.6527496831916528E-003   6.3830741240541999E-002
   1.1559170864046881E-002  -3.5784834160605718E-003   6.3833880466671516E-002
   1.1065110852422188E-002  -3.4962342452847734E-003   6.4005246155001569E-002
   1.0571050840797493E-002  -3.4060021708643418E-003   6.4344838305532059E-002
   6.2954519219505728E-003  -1.8316214829408664E-003   6.5085225172095515E-002
   5.9783915145130723E-003  -1.7811927824807061E-003   6.4928599371956969E-002
   5.6613311070755692E-003  -1.7444367323005017E-003   6.4957746317992213E-002
   5.3442706996380592E-003  -1.7213533324000854E-003   6.5172666010201261E-002
   5.0272102922005579E-003  -1.7119425827794577E-003   6.5573358448584210E-002
   4.6146123868228556E-005   5.5790080796369601E-005   6.6169594981513979E-002
  -7.6368395408775436E-005   9.0364118230268353E-005   6.5999775063383226E-002
  -1.9888291468577769E-004   8.9609951459665438E-005   6.6033274175399698E-002
  -3.2139743396278342E-004   5.3527580484793308E-005   6.6270092317563270E-002
  -4.4391195323978394E-004  -1.7882994694629062E-005   6.6710229489874040E-002
   2.1876886847461113E-002  -6.7941213470340545E-003   6.1612850714141576E-002
   2.0734954247962345E-002  -6.5305319851268195E-003   6.0045327055726072E-002
   1.9593021648463563E-002  -6.2948073589393361E-003   5.8992500487417832E-002
   1.8451089048964794E-002  -6.0869474684717567E-003   5.8454371009216743E-002
   1.7309156449466026E-002  -5.9069523137240676E-003   5.8430938621122530E-002
   1.6187609692551008E-002  -5.1000617589492259E-003   6.3024669060718047E-002
   1.5526584311933087E-002  -4.9202192963981317E-003   6.1476111300918845E-002
   1.4865558931315179E-002  -4.7524371647550551E-003   6.0374670888774407E-002
   1.4204533550697254E-002  -4.5967153640199855E-003   5.9720347824284453E-002
   1.3543508170079342E-002  -4.4530538941925935E-003   5.9513142107449096E-002
   1.0571050840797493E-002  -3.4060021708643418E-003   6.4344838305532059E-002
   1.0323352936607834E-002  -3.3099066076695827E-003   6.2831050849161366E-002
   1.0075655032418175E-002  -3.2100669705707185E-003   6.1696800997992657E-002
   9.8279571282285250E-003  -3.1064832595681033E-003   6.0942088752025836E-002
   9.5802592240388680E-003  -2.9991554746612303E-003   6.0566914111260972E-002
   5.0272102922005579E-003  -1.7119425827794577E-003   6.5573358448584210E-002
   5.1252601219865610E-003  -1.6995939189409920E-003   6.4110145700453702E-002
   5.2233099517725702E-003  -1.6676967763863543E-003   6.2958890815072527E-002
   5.3213597815585708E-003  -1.6162511551162211E-003   6.2119593792440767E-002
   5.4194096113445783E-003  -1.5452570551298395E-003   6.1592254632558317E-002
  -4.4391195323978394E-004  -1.7882994694629062E-005   6.6710229489874040E-002
  -6.7694131930716439E-005  -8.9281230212345797E-005   6.5313395854795619E-002
   3.0852368937835280E-004  -1.2532658220211490E-004   6.4160940340014072E-002
   6.8474151068742637E-004  -1.2601905066431454E-004   6.3252862945529162E-002
   1.0609593319964930E-003  -9.1358635598393079E-005   6.2589163671341097E-002
   1.7309156449466026E-002  -5.9069523137240676E-003   5.8430938621122530E-002
   1.8103790779950363E-002  -5.7629214394868400E-003   6.3986162770728827E-002
   1.8898425110434706E-002  -5.6629543905511726E-003   6.8824698029344544E-002
   1.9693059440919054E-002  -5.6070511669167530E-003   7.2946544396969820E-002
   2.0487693771403415E-002  -5.5952117685839076E-003   7.6351701873604516E-002
   1.3543508170079342E-002  -4.4530538941925935E-003   5.9513142107449096E-002
   1.3710988878833562E-002  -4.3396882281434568E-003   6.4914003308686880E-002
   1.3878469587587785E-002  -4.2748538387428758E-003   6.9777246157455050E-002
   1.4045950296342006E-002  -4.2585507259903371E-003   7.4102870653753455E-002
   1.4213431005096228E-002  -4.2907788898864374E-003   7.7890876797581943E-002
   9.5802592240388680E-003  -2.9991554746612303E-003   6.0566914111260972E-002
   9.2996568495836984E-003  -2.9164550168001430E-003   6.5808944912783635E-002
   9.0190544751285271E-003  -2.8867532869344820E-003   7.0692427900357194E-002
   8.7384521006733627E-003  -2.9100502850639247E-003   7.5217363073981747E-002
   8.4578497262181931E-003  -2.9863460111888007E-003   7.9383750433657335E-002
   5.4194096113445783E-003  -1.5452570551298395E-003   6.1592254632558317E-002
   4.8697946922007639E-003  -1.4932218054569055E-003   6.6670987583018745E-002
   4.3201797730569418E-003  -1.4986527351260812E-003   7.1570243258050725E-002
   3.7705648539131196E-003  -1.5615498441374550E-003   7.6290021657654528E-002
   3.2209499347693061E-003  -1.6819131324911918E-003   8.0830322781830166E-002
   1.0609593319964930E-003  -9.1358635598393079E-005   6.2589163671341097E-002
   4.2140240668476353E-004  -6.9988594113445934E-005   6.7500131319392309E-002
  -2.1815451862697288E-004  -1.1055218331766647E-004   7.2410692230535950E-002
  -8.5771144393870409E-004  -2.1304940321100960E-004   7.7320846404772089E-002
  -1.4972683692504388E-003  -3.7748025379363837E-004   8.2230593842100463E-002
   2.0487693771403415E-002  -5.5952117685839076E-003   7.6351701873604516E-002
   1.7588387451715468E-002  -5.7183867578865510E-003   6.7270906470861869E-002
   1.4689081132027534E-002  -6.0675266971582931E-003   5.9925281513346529E-002
   1.1789774812339580E-002  -6.6426315863989741E-003   5.4314827001057886E-002
   8.8904684926516819E-003  -7.4437014256092393E-003   5.0439542933996329E-002
   1.4213431005096228E-002  -4.2907788898864374E-003   7.7890876797581943E-002
   1.2858459845870147E-002  -4.3868516360189846E-003   6.8985366178606344E-002
   1.1503488686644026E-002  -4.5620822699768415E-003   6.1433355435327464E-002
   1.0148517527417911E-002  -4.8164707917595223E-003   5.5234844567745453E-002
   8.7935463681918236E-003  -5.1500172013670964E-003   5.0389833575859577E-002
   8.4578497262181931E-003  -2.9863460111888007E-003   7.9383750433657335E-002
   8.2655431579236466E-003  -3.0553165141517236E-003   7.0800331660592852E-002
   8.0732365896291035E-003  -3.0566378427954871E-003   6.3188742193694608E-002
   7.8809300213345378E-003  -2.9903099971199006E-003   5.6548982032963276E-002
   7.6886234530400138E-003  -2.8563329771250645E-003   5.0881051178397585E-002
   3.2209499347693061E-003  -1.6819131324911918E-003   8.0830322781830166E-002
   3.8096373878760328E-003  -1.7237813922843653E-003   7.2715802916821018E-002
   4.3983248409827603E-003  -1.5511934156141396E-003   6.5191441788448101E-002
   4.9870122940894757E-003  -1.1641492024803638E-003   5.8257239396711034E-002
   5.5756997471962146E-003  -5.6264875288297711E-004   5.1913195741610435E-002
  -1.4972683692504388E-003  -3.7748025379363837E-004   8.2230593842100463E-002
  -5.0925746427271656E-004  -3.9224627041711813E-004   7.4731779947291133E-002
   4.7875344070500911E-004  -4.5748988432750548E-005   6.7441454219587610E-002
   1.4667643456827330E-003   6.6201159215912783E-004   6.0359616658989521E-002
   2.4547752506604570E-003   1.7310354713591103E-003   5.3486267265497656E-002
   1.9840392497302156E-006   0.0000000000000000        2.8445651194725832E-002
   1.6449787833333271E-006   2.7382841215712814E-006   3.3408184659809825E-002
   1.3059183169351375E-006   3.0333637176579303E-006   3.8378835714529477E-002
   9.6685785053673111E-007   8.8523878825561009E-007   4.3357604358884777E-002
   6.2779738414005942E-007  -3.7060906666304752E-006   4.8344490592875738E-002
  -6.7984611203908644E-003   0.0000000000000000        2.8512667505154861E-002
  -6.8301808648349865E-003   1.4785365867524530E-004   3.3546812295886463E-002
  -6.8619006092791113E-003   3.3126916575349635E-004   3.8510078129026966E-002
  -6.8936203537232317E-003   5.5024652123475751E-004   4.3402465004576361E-002
  -6.9253400981673556E-003   8.0478572511902789E-004   4.8223972922534643E-002
  -1.3504356002709227E-002   0.0000000000000000        2.8705796663673316E-002
  -1.3646452978357836E-002   2.9296903322891714E-004   3.3849557832981027E-002
  -1.3788549954006446E-002   6.5950496778933738E-004   3.8843443497470868E-002
  -1.3930646929655056E-002   1.0996078036812577E-003   4.3687453657142855E-002
  -1.4072743905303668E-002   1.6132775409046798E-003   4.8381588311996959E-002
  -2.0115700607705359E-002   0.0000000000000000        2.9025038670281191E-002
  -2.0447171361785213E-002   4.3808440778259094E-004   3.4316421271093508E-002
  -2.0778642115865071E-002   9.8774076982517797E-004   3.9378931819861185E-002
  -2.1110112869944929E-002   1.6489690861277587E-003   4.4212570316584238E-002
  -2.1441583624024783E-002   2.4217693566903368E-003   4.8817336761262674E-002
  -2.6632494935379256E-002   0.0000000000000000        2.9470393524978499E-002
  -2.7232336015117122E-002   5.8319978233626387E-004   3.4947402610223902E-002
  -2.7832177094854988E-002   1.3159765718610168E-003   4.0116543096197915E-002
  -2.8432018174592857E-002   2.1983303685742580E-003   4.4977814982900544E-002
  -2.9031859254330723E-002   3.2302611724759891E-003   4.9531218270331766E-002
   6.2779738414005942E-007  -3.7060906666304752E-006   4.8344490592875738E-002
   1.9243889468178316E-006  -7.0115204023135994E-006   5.1512052370639265E-002
   3.2209805094951700E-006  -5.3019461740647523E-006   5.4543612538283402E-002
   4.5175720721705569E-006   1.4226320180613680E-006   5.7439171095808185E-002
   5.8141636348502806E-006   1.3162214174099185E-005   6.0198728043213585E-002
  -6.9253400981673556E-003   8.0478572511902789E-004   4.8223972922534643E-002
  -7.0307499493823620E-003   1.0573332226315882E-003   5.1182128827463785E-002
  -7.1361598005973683E-003   1.2703354589977188E-003   5.4062873456956935E-002
  -7.2415696518123712E-003   1.4437924342174478E-003   5.6866206811014119E-002
  -7.3469795030273802E-003   1.5777041482907192E-003   5.9592128889635276E-002
  -1.4072743905303668E-002   1.6132775409046798E-003   4.8381588311996959E-002
  -1.4226269864612968E-002   2.1216779656654697E-003   5.1085778078981389E-002
  -1.4379795823922271E-002   2.5459728641695233E-003   5.3771146905213230E-002
  -1.4533321783231570E-002   2.8861622364168131E-003   5.6437694790692453E-002
  -1.4686847742540875E-002   3.1422460824073427E-003   5.9085421735419086E-002
  -2.1441583624024783E-002   2.4217693566903368E-003   4.8817336761262674E-002
  -2.1584635356744996E-002   3.1860227086993650E-003   5.1223000125192063E-002
  -2.1727687089465212E-002   3.8216102693413309E-003   5.3668432883052238E-002
  -2.1870738822185428E-002   4.3285320386161818E-003   5.6153635034843191E-002
  -2.2013790554905641E-002   4.7067880165239644E-003   5.8678606580564945E-002
  -2.9031859254330723E-002   3.2302611724759891E-003   4.9531218270331766E-002
  -2.9105846425778459E-002   4.2503674517332451E-003   5.1593794966095806E-002
  -2.9179833597226198E-002   5.0972476745131112E-003   5.3754731390474007E-002
  -2.9253820768673944E-002   5.7709018408155580E-003   5.6014027543466377E-002
  -2.9327807940121679E-002   6.2713299506405792E-003   5.8371683425072922E-002
   5.8141636348502806E-006   1.3162214174099185E-005   6.0198728043213585E-002
  -4.0628615992919018E-006   2.2805207147161277E-005   6.1105245889300407E-002
  -1.3939886833436686E-005   2.3240017790375836E-005   6.2151301773439332E-002
  -2.3816912067581471E-005   1.4466646103727682E-005   6.3336895695630419E-002
  -3.3693937301723653E-005  -3.5149079127966276E-006   6.4662027655873519E-002
  -7.3469795030273802E-003   1.5777041482907192E-003   5.9592128889635276E-002
  -7.2294322720719510E-003   1.6807318397053621E-003   6.0483742897757972E-002
  -7.1118850411165269E-003   1.7615367469491824E-003   6.1490667380207704E-002
  -6.9943378101610977E-003   1.8201188700220790E-003   6.2612902336984466E-002
  -6.8767905792056702E-003   1.8564782089241089E-003   6.3850447768088278E-002
  -1.4686847742540875E-002   3.1422460824073427E-003   5.9085421735419086E-002
  -1.4466103819120932E-002   3.3386584722635629E-003   5.9949117303736608E-002
  -1.4245359895700985E-002   3.4998334761079464E-003   6.0903895782656113E-002
  -1.4024615972281039E-002   3.6257710939404161E-003   6.1949757172177627E-002
  -1.3803872048861089E-002   3.7164713257610490E-003   6.3086701472301138E-002
  -2.2013790554905641E-002   4.7067880165239644E-003   5.8678606580564945E-002
  -2.1714077502746225E-002   4.9965851048217776E-003   5.9501369107236336E-002
  -2.1414364450586820E-002   5.2381302052667035E-003   6.0390986980784607E-002
  -2.1114651398427404E-002   5.4314233178588021E-003   6.1347460201209923E-002
  -2.0814938346267995E-002   5.5764644425979719E-003   6.2370788768512077E-002
  -2.9327807940121679E-002   6.2713299506405792E-003   5.8371683425072922E-002
  -2.8973353322947846E-002   6.6545117373799575E-003   5.9140498308257114E-002
  -2.8618898705774023E-002   6.9764269344255083E-003   5.9951940974593193E-002
  -2.8264444088600189E-002   7.2370755417771170E-003   6.0806011424081173E-002
  -2.7909989471426363E-002   7.4364575594348670E-003   6.1702709656721033E-002
  -3.3693937301723653E-005  -3.5149079127966276E-006   6.4662027655873519E-002
  -1.3733922009234734E-005  -1.6747580004583540E-005   6.4831520107192078E-002
   6.2260932832524513E-006  -1.1274305916939703E-005   6.5139278811905010E-002
   2.6186108575739636E-005   1.2904914350026463E-005   6.5585303770012301E-002
   4.6146123868228556E-005   5.5790080796369601E-005   6.6169594981513979E-002
  -6.8767905792056702E-003   1.8564782089241089E-003   6.3850447768088278E-002
  -6.7099448016837470E-003   1.8768466849168261E-003   6.3949048402756170E-002
  -6.5430990241618237E-003   1.8874562192617191E-003   6.4203154308488566E-002
  -6.3762532466398979E-003   1.8883068119587678E-003   6.4612765485285412E-002
  -6.2094074691179772E-003   1.8793984630079974E-003   6.5177881933146803E-002
  -1.3803872048861089E-002   3.7164713257610490E-003   6.3086701472301138E-002
  -1.3472901491439628E-002   3.7704409498381941E-003   6.3085945402491170E-002
  -1.3141930934018171E-002   3.7861867444403795E-003   6.3257933621415796E-002
  -1.2810960376596708E-002   3.7637087095675234E-003   6.3602666129075017E-002
  -1.2479989819175256E-002   3.7030068452196252E-003   6.4120142925468790E-002
  -2.0814938346267995E-002   5.5764644425979719E-003   6.2370788768512077E-002
  -2.0302603991276889E-002   5.6640352147595829E-003   6.2242211106397050E-002
  -1.9790269636285784E-002   5.6849172696190253E-003   6.2303616750686741E-002
  -1.9277935281294682E-002   5.6391106071762443E-003   6.2555005701381144E-002
  -1.8765600926303576E-002   5.5266152274312114E-003   6.2996377958480204E-002
  -2.7909989471426363E-002   7.4364575594348670E-003   6.1702709656721033E-002
  -2.7199052301195518E-002   7.5576294796809787E-003   6.1417845514473796E-002
  -2.6488115130964676E-002   7.5836477947976710E-003   6.1340203696301360E-002
  -2.5777177960733824E-002   7.5145125047850272E-003   6.1469784202203698E-002
  -2.5066240790502976E-002   7.3502236096428530E-003   6.1806587032180837E-002
   4.6146123868228556E-005   5.5790080796369601E-005   6.6169594981513979E-002
  -7.6368395408775436E-005   9.0364118230268353E-005   6.5999775063383226E-002
  -1.9888291468577769E-004   8.9609951459665438E-005   6.6033274175399698E-002
  -3.2139743396278342E-004   5.3527580484793308E-005   6.6270092317563270E-002
  -4.4391195323978394E-004  -1.7882994694629062E-005   6.6710229489874040E-002
  -6.2094074691179772E-003   1.8793984630079974E-003   6.5177881933146803E-002
  -6.1177844963143631E-003   1.8556869613276655E-003   6.4976263935870540E-002
  -6.0261615235107542E-003   1.8121280958358216E-003   6.4999601892608380E-002
  -5.9345385507071453E-003   1.7487218665327188E-003   6.5247895803360323E-002
  -5.8429155779035312E-003   1.6654682734180692E-003   6.5721145668126368E-002
  -1.2479989819175256E-002   3.7030068452196252E-003   6.4120142925468790E-002
  -1.2152592430424112E-002   3.6210098044250905E-003   6.3902207689440091E-002
  -1.1825195041672960E-002   3.5346462402119846E-003   6.3930865331292386E-002
  -1.1497797652921825E-002   3.4439161525805905E-003   6.4206115851025647E-002
  -1.1170400264170672E-002   3.3488195415307676E-003   6.4727959248639846E-002
  -1.8765600926303576E-002   5.5266152274312114E-003   6.2996377958480204E-002
  -1.8180792197737987E-002   5.3863326475225154E-003   6.2777606324091934E-002
  -1.7595983469172401E-002   5.2571643845881998E-003   6.2827064491451590E-002
  -1.7011174740606819E-002   5.1391104386285169E-003   6.3144752460559117E-002
  -1.6426366012041227E-002   5.0321708096434103E-003   6.3730670231414599E-002
  -2.5066240790502976E-002   7.3502236096428530E-003   6.1806587032180837E-002
  -2.4202383798256035E-002   7.1516554906198987E-003   6.1602459839826068E-002
  -2.3338526806009070E-002   6.9796825289643524E-003   6.1688199373086075E-002
  -2.2474669813762116E-002   6.8343047246764415E-003   6.2063805631960907E-002
  -2.1610812821515165E-002   6.7155220777561642E-003   6.2729278616450612E-002
  -4.4391195323978394E-004  -1.7882994694629062E-005   6.6710229489874040E-002
  -6.7694131930716439E-005  -8.9281230212345797E-005   6.5313395854795619E-002
   3.0852368937835280E-004  -1.2532658220211490E-004   6.4160940340014072E-002
   6.8474151068742637E-004  -1.2601905066431454E-004   6.3252862945529162E-002
   1.0609593319964930E-003  -9.1358635598393079E-005   6.2589163671341097E-002
  -5.8429155779035312E-003   1.6654682734180692E-003   6.5721145668126368E-002
  -5.2455265795191735E-003   1.5779831440880521E-003   6.4395992615677244E-002
  -4.6481375811348157E-003   1.5018823061387493E-003   6.3268803797081996E-002
  -4.0507485827504519E-003   1.4371657595700256E-003   6.2339579212340554E-002
  -3.4533595843660933E-003   1.3838335043819261E-003   6.1608318861452904E-002
  -1.1170400264170672E-002   3.3488195415307676E-003   6.4727959248639846E-002
  -1.0398253975153982E-002   3.2452475183884499E-003   6.3450518186672966E-002
  -9.6261076861372807E-003   3.1290911944795649E-003   6.2324627472116957E-002
  -8.8539613971205852E-003   3.0003505698042564E-003   6.1350287104971743E-002
  -8.0818151081038826E-003   2.8590256443623563E-003   6.0527497085237456E-002
  -1.6426366012041227E-002   5.0321708096434103E-003   6.3730670231414599E-002
  -1.5525876318835142E-002   4.9125118926887645E-003   6.2476972567782743E-002
  -1.4625386625629056E-002   4.7563000828204603E-003   6.1328411365118796E-002
  -1.3724896932422979E-002   4.5635353800384309E-003   6.0284986623422833E-002
  -1.2824407239216903E-002   4.3342177843426755E-003   5.9346698342694681E-002
  -2.1610812821515165E-002   6.7155220777561642E-003   6.2729278616450612E-002
  -2.0628393610562654E-002   6.5797762669892179E-003   6.1475355759006589E-002
  -1.9645974399610133E-002   6.3835089711612447E-003   6.0280155476087588E-002
  -1.8663555188657623E-002   6.1267201902727997E-003   5.9143677767693498E-002
  -1.7681135977705105E-002   5.8094099243231612E-003   5.8065922633824429E-002
   1.0609593319964930E-003  -9.1358635598393079E-005   6.2589163671341097E-002
   4.2140240668476353E-004  -6.9988594113445934E-005   6.7500131319392309E-002
  -2.1815451862697288E-004  -1.1055218331766647E-004   7.2410692230535950E-002
  -8.5771144393870409E-004  -2.1304940321100960E-004   7.7320846404772089E-002
  -1.4972683692504388E-003  -3.7748025379363837E-004   8.2230593842100463E-002
  -3.4533595843660933E-003   1.3838335043819261E-003   6.1608318861452904E-002
  -4.0878868445748933E-003   1.3217834157433772E-003   6.6365209509654133E-002
  -4.7224141047836846E-003   1.2309133688233470E-003   7.1132566224968635E-002
  -5.3569413649924820E-003   1.1112233636219153E-003   7.5910389007396661E-002
  -5.9914686252012760E-003   9.6271340013875939E-004   8.0698677856938017E-002
  -8.0818151081038826E-003   2.8590256443623563E-003   6.0527497085237456E-002
  -8.7004398991887763E-003   2.7135554256002559E-003   6.5163424405996193E-002
  -9.3190646902736665E-003   2.5723789209644646E-003   6.9820690597889340E-002
  -9.9376894813585533E-003   2.4354961304548384E-003   7.4499295660916898E-002
  -1.0556314272443449E-002   2.3029070540712404E-003   7.9199239595078755E-002
  -1.2824407239216903E-002   4.3342177843426755E-003   5.9346698342694681E-002
  -1.3416256757156908E-002   4.1053274354571623E-003   6.3894776008418697E-002
  -1.4008106275096920E-002   3.9138444731054468E-003   6.8475065349298120E-002
  -1.4599955793036934E-002   3.7597688972876514E-003   7.3087566365332951E-002
  -1.5191805310976947E-002   3.6431007080036798E-003   7.7732279056522927E-002
  -1.7681135977705105E-002   5.8094099243231612E-003   5.8065922633824429E-002
  -1.8235337418479280E-002   5.4970994453140132E-003   6.2559264316921548E-002
  -1.8789538859253434E-002   5.2553100252465401E-003   6.7095690479194864E-002
  -1.9343740300027605E-002   5.0840416641207559E-003   7.1675201120644544E-002
  -1.9897941740801769E-002   4.9832943619361747E-003   7.6297796241270699E-002
  -1.4972683692504388E-003  -3.7748025379363837E-004   8.2230593842100463E-002
  -5.0925746427271656E-004  -3.9224627041711813E-004   7.4731779947291133E-002
   4.7875344070500911E-004  -4.5748988432750548E-005   6.7441454219587610E-002
   1.4667643456827330E-003   6.6201159215912783E-004   6.0359616658989521E-002
   2.4547752506604570E-003   1.7310354713591103E-003   5.3486267265497656E-002
  -5.9914686252012760E-003   9.6271340013875939E-004   8.0698677856938017E-002
  -4.7513857324405443E-003   8.9694201182563549E-004   7.3450582595128905E-002
  -3.5113028396797970E-003   1.0254677321341055E-003   6.6498143141779958E-002
  -2.2712199469190611E-003   1.3482905610637322E-003   5.9841359496891205E-002
  -1.0311370541583320E-003   1.8654104986151054E-003   5.3480231660462452E-002
  -1.0556314272443449E-002   2.3029070540712404E-003   7.9199239595078755E-002
  -8.9769917505453968E-003   2.1861302940684446E-003   7.2034896776283774E-002
  -7.3976692286473441E-003   2.0966844527008019E-003   6.5253377407303359E-002
  -5.8183467067493121E-003   2.0345695299683660E-003   5.8854681488137314E-002
  -4.2390241848512533E-003   1.9997855258711006E-003   5.2838809018785626E-002
  -1.5191805310976947E-002   3.6431007080036798E-003   7.7732279056522927E-002
  -1.3186075518587279E-002   3.4753185763112815E-003   7.0484722490755825E-002
  -1.1180345726197607E-002   3.1679011732676891E-003   6.3707157016157506E-002
  -9.1746159338079360E-003   2.7208484988728741E-003   5.7399582632727791E-002
  -7.1688861414182792E-003   2.1341605531270957E-003   5.1561999340467166E-002
  -1.9897941740801769E-002   4.9832943619361747E-003   7.6297796241270699E-002
  -1.7378637036566190E-002   4.7645068585540629E-003   6.8800059738545138E-002
  -1.4859332332330600E-002   4.2391178938342572E-003   6.1859481968342650E-002
  -1.2340027628095033E-002   3.4071274677774412E-003   5.5476062930663164E-002
  -9.8207229238594373E-003   2.2685355803830909E-003   4.9649802625507000E-002
  -2.6632494935379256E-002   0.0000000000000000        2.9470393524978499E-002
  -2.7232336015117122E-002   5.8319978233626387E-004   3.4947402610223902E-002
  -2.7832177094854988E-002   1.3159765718610168E-003   4.0116543096197915E-002
  -2.8432018174592857E-002   2.1983303685742580E-003   4.4977814982900544E-002
  -2.9031859254330723E-002   3.2302611724759891E-003   4.9531218270331766E-002
  -3.3391944617240175E-002   0.0000000000000000        3.0177738075554551E-002
  -3.4234613140948104E-002   9.5846833784082614E-004   3.5266906349430006E-002
  -3.5077281664656026E-002   2.0213177065431407E-003   4.0178288334636734E-002
  -3.5919950188363949E-002   3.1885481061069412E-003   4.4911884031174736E-002
  -3.6762618712071878E-002   4.4601595365322258E-003   4.9467693439044010E-002
  -4.0731255284797353E-002   0.0000000000000000        3.1282949169798666E-002
  -4.1686668941872673E-002   1.3337368933453897E-003   3.5939080655977174E-002
  -4.2642082598948000E-002   2.7266588412252629E-003   4.0547508164089613E-002
  -4.3597496256023320E-002   4.1787658436396201E-003   4.5108231694135990E-002
  -4.4552909913098654E-002   5.6900579005884667E-003   4.9621251246116292E-002
  -4.8650426938050800E-002   0.0000000000000000        3.2786026807710845E-002
  -4.9588503417890867E-002   1.7090054488499518E-003   3.6963925529865403E-002
  -5.0526579897730919E-002   3.4319999759073855E-003   4.1224202584556544E-002
  -5.1464656377570986E-002   5.1689835811722980E-003   4.5566857971784294E-002
  -5.2402732857411038E-002   6.9199562646447017E-003   4.9991891691548627E-002
  -5.7149459577000510E-002   0.0000000000000000        3.4686970989291091E-002
  -5.7940116569002643E-002   2.0842740043545156E-003   3.8341440971094688E-002
  -5.8730773561004784E-002   4.1373411105895107E-003   4.2208371596037547E-002
  -5.9521430553006911E-002   6.1592013187049838E-003   4.6287762864119661E-002
  -6.0312087545009045E-002   8.1498546287009470E-003   5.0579614775341029E-002
  -2.9031859254330723E-002   3.2302611724759891E-003   4.9531218270331766E-002
  -2.9105846425778459E-002   4.2503674517332451E-003   5.1593794966095806E-002
  -2.9179833597226198E-002   5.0972476745131112E-003   5.3754731390474007E-002
  -2.9253820768673944E-002   5.7709018408155580E-003   5.6014027543466377E-002
  -2.9327807940121679E-002   6.2713299506405792E-003   5.8371683425072922E-002
  -3.6762618712071878E-002   4.4601595365322258E-003   4.9467693439044010E-002
  -3.6776810866550672E-002   5.6946299367983122E-003   5.1256229106048538E-002
  -3.6791003021029466E-002   6.7504372458844983E-003   5.3065995078376789E-002
  -3.6805195175508253E-002   7.6275814637908126E-003   5.4896991356028782E-002
  -3.6819387329987047E-002   8.3260625905172275E-003   5.6749217939004469E-002
  -4.4552909913098654E-002   5.6900579005884667E-003   4.9621251246116292E-002
  -4.4584436473898946E-002   7.1388924218633611E-003   5.1130308849658856E-002
  -4.4615963034699245E-002   8.4036268172558992E-003   5.2583467335234710E-002
  -4.4647489595499544E-002   9.4842610867660639E-003   5.3980726702843783E-002
  -4.4679016156299836E-002   1.0380795230393865E-002   5.5322086952486201E-002
  -5.2402732857411038E-002   6.9199562646447017E-003   4.9991891691548627E-002
  -5.2528723247823296E-002   8.5831549069284186E-003   5.1216034196926753E-002
  -5.2654713638235540E-002   1.0056816388627293E-002   5.2307148161047694E-002
  -5.2780704028647797E-002   1.1340940709741331E-002   5.3265233583911463E-002
  -5.2906694419060041E-002   1.2435527870270488E-002   5.4090290465518019E-002
  -6.0312087545009045E-002   8.1498546287009470E-003   5.0579614775341029E-002
  -6.0609671188323701E-002   1.0027417391993480E-002   5.1513405147852229E-002
  -6.0907254831638363E-002   1.1710005959998699E-002   5.2237037555815782E-002
  -6.1204838474953005E-002   1.3197620332716591E-002   5.2750511999231718E-002
  -6.1502422118267661E-002   1.4490260510147152E-002   5.3053828478100029E-002
  -2.9327807940121679E-002   6.2713299506405792E-003   5.8371683425072922E-002
  -2.8973353322947846E-002   6.6545117373799575E-003   5.9140498308257114E-002
  -2.8618898705774023E-002   6.9764269344255083E-003   5.9951940974593193E-002
  -2.8264444088600189E-002   7.2370755417771170E-003   6.0806011424081173E-002
  -2.7909989471426363E-002   7.4364575594348670E-003   6.1702709656721033E-002
  -3.6819387329987047E-002   8.3260625905172275E-003   5.6749217939004469E-002
  -3.6372324775653747E-002   8.8641716685970810E-003   5.7098289741845318E-002
  -3.5925262221320454E-002   9.2601997405638500E-003   5.7589949635853233E-002
  -3.5478199666987155E-002   9.5141468064174010E-003   5.8224197621028179E-002
  -3.5031137112653876E-002   9.6260128661578293E-003   5.9001033697370177E-002
  -4.4679016156299836E-002   1.0380795230393865E-002   5.5322086952486201E-002
  -4.4039385356791923E-002   1.1073831599814257E-002   5.5170601258564385E-002
  -4.3399754557283982E-002   1.1543972546702221E-002   5.5261663963824814E-002
  -4.2760123757776068E-002   1.1791218071057740E-002   5.5595275068267454E-002
  -4.2120492958268120E-002   1.1815568172880805E-002   5.6171434571892276E-002
  -5.2906694419060041E-002   1.2435527870270488E-002   5.4090290465518019E-002
  -5.1974535066362328E-002   1.3283491531031399E-002   5.3357432858414329E-002
  -5.1042375713664601E-002   1.3827745352840563E-002   5.2967083958507979E-002
  -5.0110216360966887E-002   1.4068289335698068E-002   5.2919243765799033E-002
  -4.9178057008269160E-002   1.4005123479603761E-002   5.3213912280287476E-002
  -6.1502422118267661E-002   1.4490260510147152E-002   5.3053828478100029E-002
  -6.0177773904364983E-002   1.5493151462248542E-002   5.1658784541395102E-002
  -5.8853125690462318E-002   1.6111518158978939E-002   5.0706209619902756E-002
  -5.7528477476559640E-002   1.6345360600338338E-002   5.0196103713622903E-002
  -5.6203829262656969E-002   1.6194678786326744E-002   5.0128466822555617E-002
  -2.7909989471426363E-002   7.4364575594348670E-003   6.1702709656721033E-002
  -2.7199052301195518E-002   7.5576294796809787E-003   6.1417845514473796E-002
  -2.6488115130964676E-002   7.5836477947976710E-003   6.1340203696301360E-002
  -2.5777177960733824E-002   7.5145125047850272E-003   6.1469784202203698E-002
  -2.5066240790502976E-002   7.3502236096428530E-003   6.1806587032180837E-002
  -3.5031137112653876E-002   9.6260128661578293E-003   5.9001033697370177E-002
  -3.4116463304569258E-002   9.6313232780569913E-003   5.8661383717165699E-002
  -3.3201789496484647E-002   9.5656034003866394E-003   5.8521984688593987E-002
  -3.2287115688400030E-002   9.4288532331469176E-003   5.8582836611654927E-002
  -3.1372441880315433E-002   9.2210727763376854E-003   5.8843939486348709E-002
  -4.2120492958268120E-002   1.1815568172880805E-002   5.6171434571892276E-002
  -4.1009053884771822E-002   1.1705017076432959E-002   5.5801122069290589E-002
  -3.9897614811275531E-002   1.1547559005975552E-002   5.5624089145879504E-002
  -3.8786175737779219E-002   1.1343193961508766E-002   5.5640335801659113E-002
  -3.7674736664282921E-002   1.1091921943032504E-002   5.5849862036629359E-002
  -4.9178057008269160E-002   1.4005123479603761E-002   5.3213912280287476E-002
  -4.7876824041803226E-002   1.3778710874808921E-002   5.2837060570848464E-002
  -4.6575591075337319E-002   1.3529514611564535E-002   5.2646517068158066E-002
  -4.5274358108871385E-002   1.3257534689870664E-002   5.2642281772216214E-002
  -4.3973125142405471E-002   1.2962771109727302E-002   5.2824354683022975E-002
  -5.6203829262656969E-002   1.6194678786326744E-002   5.0128466822555617E-002
  -5.4719773775663484E-002   1.5852404673184883E-002   4.9769199221839311E-002
  -5.3235718288670006E-002   1.5511470217153427E-002   4.9589268455429547E-002
  -5.1751662801676521E-002   1.5171875418232573E-002   4.9588674523326236E-002
  -5.0267607314683035E-002   1.4833620276422127E-002   4.9767417425529509E-002
  -2.5066240790502976E-002   7.3502236096428530E-003   6.1806587032180837E-002
  -2.4202383798256035E-002   7.1516554906198987E-003   6.1602459839826068E-002
  -2.3338526806009070E-002   6.9796825289643524E-003   6.1688199373086075E-002
  -2.2474669813762116E-002   6.8343047246764415E-003   6.2063805631960907E-002
  -2.1610812821515165E-002   6.7155220777561642E-003   6.2729278616450612E-002
  -3.1372441880315433E-002   9.2210727763376854E-003   5.8843939486348709E-002
  -3.0240635451944310E-002   8.9801346415986361E-003   5.8637456355886797E-002
  -2.9108829023573202E-002   8.7439114405692894E-003   5.8677005372058423E-002
  -2.7977022595202079E-002   8.5124031732496507E-003   5.8962586534863512E-002
  -2.6845216166830974E-002   8.2856098396396072E-003   5.9494199844302237E-002
  -3.7674736664282921E-002   1.1091921943032504E-002   5.5849862036629359E-002
  -3.6318815378768972E-002   1.0808613792577380E-002   5.5619142744402543E-002
  -3.4962894093255016E-002   1.0508140352174147E-002   5.5590621019827910E-002
  -3.3606972807741081E-002   1.0190501621822695E-002   5.5764296862905460E-002
  -3.2251051522227105E-002   9.8556976015230502E-003   5.6140170273635145E-002
  -4.3973125142405471E-002   1.2962771109727302E-002   5.2824354683022975E-002
  -4.2436923578729996E-002   1.2637092943556218E-002   5.2547519005373362E-002
  -4.0900722015054528E-002   1.2272369263779071E-002   5.2429046316394584E-002
  -3.9364520451379045E-002   1.1868600070395849E-002   5.2468936616086592E-002
  -3.7828318887703577E-002   1.1425785363406576E-002   5.2667189904449560E-002
  -5.0267607314683035E-002   1.4833620276422127E-002   4.9767417425529509E-002
  -4.8594960051827382E-002   1.4465572094534931E-002   4.9422585138799241E-002
  -4.6922312788971722E-002   1.4036598175383948E-002   4.9192281261758383E-002
  -4.5249665526116062E-002   1.3546698518968949E-002   4.9076505794407164E-002
  -4.3577018263260381E-002   1.2995873125289992E-002   4.9075258736745453E-002
  -2.1610812821515165E-002   6.7155220777561642E-003   6.2729278616450612E-002
  -2.0628393610562654E-002   6.5797762669892179E-003   6.1475355759006589E-002
  -1.9645974399610133E-002   6.3835089711612447E-003   6.0280155476087588E-002
  -1.8663555188657623E-002   6.1267201902727997E-003   5.9143677767693498E-002
  -1.7681135977705105E-002   5.8094099243231612E-003   5.8065922633824429E-002
  -2.6845216166830974E-002   8.2856098396396072E-003   5.9494199844302237E-002
  -2.5742245703397774E-002   8.0532977726431587E-003   5.8092536711961962E-002
  -2.4639275239964592E-002   7.8052333051641665E-003   5.6873253510057967E-002
  -2.3536304776531389E-002   7.5414164372026651E-003   5.5836350238590425E-002
  -2.2433334313098210E-002   7.2618471687586617E-003   5.4981826897559316E-002
  -3.2251051522227105E-002   9.8556976015230502E-003   5.6140170273635145E-002
  -3.0903872450401840E-002   9.5268192782972244E-003   5.4635535950976824E-002
  -2.9556693378576530E-002   9.2269576391671437E-003   5.3436938914666374E-002
  -2.8209514306751216E-002   8.9561126841327526E-003   5.2544379164703739E-002
  -2.6862335234925937E-002   8.7142844131941899E-003   5.1957856701088934E-002
  -3.7828318887703577E-002   1.1425785363406576E-002   5.2667189904449560E-002
  -3.6113273851574736E-002   1.1000340783951255E-002   5.1104353476051571E-002
  -3.4398228815445894E-002   1.0648681973170204E-002   4.9971211689912788E-002
  -3.2683183779317074E-002   1.0370808931062896E-002   4.9267764546033176E-002
  -3.0968138743188250E-002   1.0166721657629732E-002   4.8994012044412963E-002
  -4.3577018263260381E-002   1.2995873125289992E-002   4.9075258736745453E-002
  -4.1370449906916587E-002   1.2473862289605259E-002   4.7498989287186044E-002
  -3.9163881550572766E-002   1.2070406307173057E-002   4.6476071835797134E-002
  -3.6957313194228951E-002   1.1785505177992820E-002   4.6006506382579179E-002
  -3.4750744837885164E-002   1.1619158902065219E-002   4.6090292927531751E-002
  -1.7681135977705105E-002   5.8094099243231612E-003   5.8065922633824429E-002
  -1.8235337418479280E-002   5.4970994453140132E-003   6.2559264316921548E-002
  -1.8789538859253434E-002   5.2553100252465401E-003   6.7095690479194864E-002
  -1.9343740300027605E-002   5.0840416641207559E-003   7.1675201120644544E-002
  -1.9897941740801769E-002   4.9832943619361747E-003   7.6297796241270699E-002
  -2.2433334313098210E-002   7.2618471687586617E-003   5.4981826897559316E-002
  -2.3020765052744252E-002   6.9557361538351292E-003   5.9738647199406192E-002
  -2.3608195792390305E-002   6.6122940464349161E-003   6.4385924424332830E-002
  -2.4195626532036330E-002   6.2315208465581994E-003   6.8923658572339438E-002
  -2.4783057271682396E-002   5.8134165542048644E-003   7.3351849643425948E-002
  -2.6862335234925937E-002   8.7142844131941899E-003   5.1957856701088934E-002
  -2.7635622829540241E-002   8.4143728623560510E-003   5.6870303470267211E-002
  -2.8408910424154582E-002   7.9692780676232366E-003   6.1520579606428982E-002
  -2.9182198018768885E-002   7.3790000289956428E-003   6.5908685109574330E-002
  -2.9955485613383209E-002   6.6435387464733042E-003   7.0034619979703075E-002
  -3.0968138743188250E-002   1.0166721657629732E-002   4.8994012044412963E-002
  -3.2079910748867235E-002   9.8730095708770144E-003   5.3954233129504772E-002
  -3.3191682754546273E-002   9.3262620888115849E-003   5.8499656025483439E-002
  -3.4303454760225269E-002   8.5264792114330308E-003   6.2630280732349330E-002
  -3.5415226765904306E-002   7.4736609387417580E-003   6.6346107250102385E-002
  -3.4750744837885164E-002   1.1619158902065219E-002   4.6090292927531751E-002
  -3.6353628810725250E-002   1.1331646279398061E-002   5.0990436177118514E-002
  -3.7956512783565384E-002   1.0683246109999933E-002   5.5323153681496151E-002
  -3.9559396756405490E-002   9.6739583938706131E-003   5.9088445440664411E-002
  -4.1162280729245618E-002   8.3037831310103227E-003   6.2286311454623378E-002
  -1.9897941740801769E-002   4.9832943619361747E-003   7.6297796241270699E-002
  -1.7378637036566190E-002   4.7645068585540629E-003   6.8800059738545138E-002
  -1.4859332332330600E-002   4.2391178938342572E-003   6.1859481968342650E-002
  -1.2340027628095033E-002   3.4071274677774412E-003   5.5476062930663164E-002
  -9.8207229238594373E-003   2.2685355803830909E-003   4.9649802625507000E-002
  -2.4783057271682396E-002   5.8134165542048644E-003   7.3351849643425948E-002
  -2.1614654513270319E-002   5.3226964687678180E-003   6.5451488674019676E-002
  -1.8446251754858214E-002   4.7240758896404250E-003   5.8292165080443159E-002
  -1.5277848996446172E-002   4.0175548168224530E-003   5.1873878862696718E-002
  -1.2109446238034033E-002   3.2031332503138499E-003   4.6196630020780116E-002
  -2.9955485613383209E-002   6.6435387464733042E-003   7.0034619979703075E-002
  -2.5954106157487812E-002   5.8808860789817674E-003   6.1930335511262827E-002
  -2.1952726701592352E-002   5.2090338854463084E-003   5.4750967061959498E-002
  -1.7951347245696928E-002   4.6279821658673798E-003   4.8496514631792581E-002
  -1.3949967789801471E-002   4.1377309202446089E-003   4.3166978220762986E-002
  -3.5415226765904306E-002   7.4736609387417580E-003   6.6346107250102385E-002
  -3.0396991969218676E-002   6.4390756891954531E-003   5.8236600250274995E-002
  -2.5378757172533017E-002   5.6939918812522784E-003   5.1235887912891173E-002
  -2.0360522375847418E-002   5.2384095149123492E-003   4.5343970237951031E-002
  -1.5342287579161732E-002   5.0723285901753679E-003   4.0560847225454333E-002
  -4.1162280729245618E-002   8.3037831310103227E-003   6.2286311454623378E-002
  -3.4943311948462910E-002   6.9972652994093609E-003   5.4370282891055610E-002
  -2.8724343167680209E-002   6.1789498770581930E-003   4.7746927633238401E-002
  -2.2505374386897477E-002   5.8488368639573601E-003   4.2416245681171777E-002
  -1.6286405606114773E-002   6.0069262601061268E-003   3.8378237034855767E-002
  -5.7149459577000510E-002   0.0000000000000000        3.4686970989291091E-002
  -5.7940116569002643E-002   2.0842740043545156E-003   3.8341440971094688E-002
  -5.8730773561004784E-002   4.1373411105895107E-003   4.2208371596037547E-002
  -5.9521430553006911E-002   6.1592013187049838E-003   4.6287762864119661E-002
  -6.0312087545009045E-002   8.1498546287009470E-003   5.0579614775341029E-002
  -6.5817301001520917E-002   0.0000000000000000        3.7208244423450561E-002
  -6.6624087691944764E-002   2.9139008023227929E-003   4.0831995416606405E-002
  -6.7430874382368611E-002   5.7702643794818155E-003   4.4211026369779596E-002
  -6.8237661072792458E-002   8.5690907314770783E-003   4.7345337282970093E-002
  -6.9044447763216305E-002   1.1310379858308576E-002   5.0234928156177930E-002
  -7.4242899011486493E-002   0.0000000000000000        4.0572309819100441E-002
  -7.5522996083453961E-002   3.7435276002910677E-003   4.4139011496564289E-002
  -7.6803093155421456E-002   7.4031876483741247E-003   4.7003812450923541E-002
  -7.8083190227388952E-002   1.0978980144249174E-002   4.9166712682178176E-002
  -7.9363287299356419E-002   1.4470905087916220E-002   5.0627712190328231E-002
  -8.2426253606897218E-002   0.0000000000000000        4.4779167176240711E-002
  -8.4636841743530256E-002   4.5731543982593442E-003   4.8262489210968325E-002
  -8.6847429880163307E-002   9.0361109172664364E-003   5.0586729839469401E-002
  -8.9058018016796345E-002   1.3388869557021271E-002   5.1751889061743939E-002
  -9.1268606153429396E-002   1.7631430317523851E-002   5.1757966877791953E-002
  -9.0367364787753063E-002   0.0000000000000000        4.9828816494871378E-002
  -9.3965624672173592E-002   5.4027811962276198E-003   5.3202428559818493E-002
  -9.7563884556594149E-002   1.0669034186158740E-002   5.4959778535417156E-002
 -0.10116214444101471        1.5798758969793367E-002   5.5100866421667352E-002
 -0.10476040432543522        2.0791955547131501E-002   5.3625692218569096E-002
  -6.0312087545009045E-002   8.1498546287009470E-003   5.0579614775341029E-002
  -6.0609671188323701E-002   1.0027417391993480E-002   5.1513405147852229E-002
  -6.0907254831638363E-002   1.1710005959998699E-002   5.2237037555815782E-002
  -6.1204838474953005E-002   1.3197620332716591E-002   5.2750511999231718E-002
  -6.1502422118267661E-002   1.4490260510147152E-002   5.3053828478100029E-002
  -6.9044447763216305E-002   1.1310379858308576E-002   5.0234928156177930E-002
  -6.9315372679733145E-002   1.3754260412291667E-002   4.9452928844191502E-002
  -6.9586297596249957E-002   1.5660861045741707E-002   4.8934404950348356E-002
  -6.9857222512766798E-002   1.7030181758658686E-002   4.8679356474648466E-002
  -7.0128147429283610E-002   1.7862222551042604E-002   4.8687783417091873E-002
  -7.9363287299356419E-002   1.4470905087916220E-002   5.0627712190328231E-002
  -7.9133920106384495E-002   1.7481103432589861E-002   4.7787617468598477E-002
  -7.8904552913412640E-002   1.9611716131484706E-002   4.5684631547702879E-002
  -7.8675185720440785E-002   2.0862743184600779E-002   4.4318754427641473E-002
  -7.8445818527468875E-002   2.1234184591938043E-002   4.3689986108414215E-002
  -9.1268606153429396E-002   1.7631430317523851E-002   5.1757966877791953E-002
  -9.0065313468277869E-002   2.1207946452888041E-002   4.6517471021073141E-002
  -8.8862020783126383E-002   2.3562571217227723E-002   4.2487717347879365E-002
  -8.7658728097974883E-002   2.4695304610542857E-002   3.9668705858210668E-002
  -8.6455435412823356E-002   2.4606146632833489E-002   3.8060436552067041E-002
 -0.10476040432543522        2.0791955547131501E-002   5.3625692218569096E-002
 -0.10210955276541321        2.4934789473186243E-002   4.5642489501615494E-002
  -9.9458701205391187E-002   2.7513426302970712E-002   3.9343662350877801E-002
  -9.6807849645369176E-002   2.8527866036484970E-002   3.4729210766356086E-002
  -9.4156998085347166E-002   2.7978108673728942E-002   3.1799134748050344E-002
  -6.1502422118267661E-002   1.4490260510147152E-002   5.3053828478100029E-002
  -6.0177773904364983E-002   1.5493151462248542E-002   5.1658784541395102E-002
  -5.8853125690462318E-002   1.6111518158978939E-002   5.0706209619902756E-002
  -5.7528477476559640E-002   1.6345360600338338E-002   5.0196103713622903E-002
  -5.6203829262656969E-002   1.6194678786326744E-002   5.0128466822555617E-002
  -7.0128147429283610E-002   1.7862222551042604E-002   4.8687783417091873E-002
  -6.8404964668389773E-002   1.8315591004778368E-002   4.7254564718929234E-002
  -6.6681781907495921E-002   1.8548894701750925E-002   4.6175946099536416E-002
  -6.4958599146602070E-002   1.8562133641960264E-002   4.5451927558913460E-002
  -6.3235416385708232E-002   1.8355307825406397E-002   4.5082509097060297E-002
  -7.8445818527468875E-002   2.1234184591938043E-002   4.3689986108414215E-002
  -7.6411970156026535E-002   2.1138030547308194E-002   4.2383052147401602E-002
  -7.4378121784584195E-002   2.0986271244522906E-002   4.1342849328716152E-002
  -7.2344273413141827E-002   2.0778906683582191E-002   4.0569377652357824E-002
  -7.0310425041699529E-002   2.0515936864486051E-002   4.0062637118326590E-002
  -8.6455435412823356E-002   2.4606146632833489E-002   3.8060436552067041E-002
  -8.4198790367275275E-002   2.3960470089838006E-002   3.7044246826812295E-002
  -8.1942145321727153E-002   2.3423647787294902E-002   3.6206919307441930E-002
  -7.9685500276179030E-002   2.2995679725204159E-002   3.5548453993956064E-002
  -7.7428855230630950E-002   2.2676565903565704E-002   3.5068850886354523E-002
  -9.4156998085347166E-002   2.7978108673728942E-002   3.1799134748050344E-002
  -9.1765425302135967E-002   2.6782909632367843E-002   3.1238148757161202E-002
  -8.9373852518924796E-002   2.5861024330066880E-002   3.0768156035713781E-002
  -8.6982279735713611E-002   2.5212452766826057E-002   3.0389156583708068E-002
  -8.4590706952502426E-002   2.4837194942645371E-002   3.0101150401144097E-002
  -5.6203829262656969E-002   1.6194678786326744E-002   5.0128466822555617E-002
  -5.4719773775663484E-002   1.5852404673184883E-002   4.9769199221839311E-002
  -5.3235718288670006E-002   1.5511470217153427E-002   4.9589268455429547E-002
  -5.1751662801676521E-002   1.5171875418232573E-002   4.9588674523326236E-002
  -5.0267607314683035E-002   1.4833620276422127E-002   4.9767417425529509E-002
  -6.3235416385708232E-002   1.8355307825406397E-002   4.5082509097060297E-002
  -6.1560046491924550E-002   1.8020732823631889E-002   4.4674750557603775E-002
  -5.9884676598140923E-002   1.7650724208179293E-002   4.4470283997421020E-002
  -5.8209306704357297E-002   1.7245281979048815E-002   4.4469109416512068E-002
  -5.6533936810573629E-002   1.6804406136240208E-002   4.4671226814876855E-002
  -7.0310425041699529E-002   2.0515936864486051E-002   4.0062637118326590E-002
  -6.8419785596158453E-002   2.0189060974078910E-002   3.9569614369341317E-002
  -6.6529146150617405E-002   1.9789978199205218E-002   3.9303838744597100E-002
  -6.4638506705076343E-002   1.9318688539864994E-002   3.9265310244093958E-002
  -6.2747867259535281E-002   1.8775191996058219E-002   3.9454028867831815E-002
  -7.7428855230630950E-002   2.2676565903565704E-002   3.5068850886354523E-002
  -7.5298991088365214E-002   2.2357389124525895E-002   3.4453790657051987E-002
  -7.3169126946099464E-002   2.1929232190231074E-002   3.4089932696957752E-002
  -7.1039262803833700E-002   2.1392095100681175E-002   3.3977277006071838E-002
  -6.8909398661567964E-002   2.0745977855876278E-002   3.4115823584394279E-002
  -8.4590706952502426E-002   2.4837194942645371E-002   3.0101150401144097E-002
  -8.2197662968544735E-002   2.4525717274972963E-002   2.9327279420735819E-002
  -7.9804618984587045E-002   2.4068486181256999E-002   2.8828565854503073E-002
  -7.7411575000629354E-002   2.3465501661497464E-002   2.8605009702445994E-002
  -7.5018531016671663E-002   2.2716763715694310E-002   2.8656610964564372E-002
  -5.0267607314683035E-002   1.4833620276422127E-002   4.9767417425529509E-002
  -4.8594960051827382E-002   1.4465572094534931E-002   4.9422585138799241E-002
  -4.6922312788971722E-002   1.4036598175383948E-002   4.9192281261758383E-002
  -4.5249665526116062E-002   1.3546698518968949E-002   4.9076505794407164E-002
  -4.3577018263260381E-002   1.2995873125289992E-002   4.9075258736745453E-002
  -5.6533936810573629E-002   1.6804406136240208E-002   4.4671226814876855E-002
  -5.4739656678451785E-002   1.6328230114135339E-002   4.4337851793562977E-002
  -5.2945376546329907E-002   1.5816887347116067E-002   4.4133214101091993E-002
  -5.1151096414208092E-002   1.5270377835182329E-002   4.4057313737463938E-002
  -4.9356816282086199E-002   1.4688701578334185E-002   4.4110150702678541E-002
  -6.2747867259535281E-002   1.8775191996058219E-002   3.9454028867831815E-002
  -6.0817745338993950E-002   1.8190888133735712E-002   3.9157870104283850E-002
  -5.8887623418452550E-002   1.7597176518848182E-002   3.9004657588732158E-002
  -5.6957501497911137E-002   1.6994057151395736E-002   3.8994391321176644E-002
  -5.5027379577369764E-002   1.6381530031378350E-002   3.9127071301617231E-002
  -6.8909398661567964E-002   2.0745977855876278E-002   3.4115823584394279E-002
  -6.6829226033453731E-002   2.0053546153336103E-002   3.3882640070961728E-002
  -6.4749053405339485E-002   1.9377465690580326E-002   3.3806611724678727E-002
  -6.2668880777225253E-002   1.8717736467609186E-002   3.3887738545545311E-002
  -6.0588708149111006E-002   1.8074358484422529E-002   3.4126020533561244E-002
  -7.5018531016671663E-002   2.2716763715694310E-002   2.8656610964564372E-002
  -7.2774098761831246E-002   2.1916204172936424E-002   2.8512161693596716E-002
  -7.0529666506990829E-002   2.1157754862312431E-002   2.8539076508931976E-002
  -6.8285234252150398E-002   2.0441415783822543E-002   2.8737355410569945E-002
  -6.6040801997309995E-002   1.9767186937466652E-002   2.9106998398510942E-002
  -4.3577018263260381E-002   1.2995873125289992E-002   4.9075258736745453E-002
  -4.1370449906916587E-002   1.2473862289605259E-002   4.7498989287186044E-002
  -3.9163881550572766E-002   1.2070406307173057E-002   4.6476071835797134E-002
  -3.6957313194228951E-002   1.1785505177992820E-002   4.6006506382579179E-002
  -3.4750744837885164E-002   1.1619158902065219E-002   4.6090292927531751E-002
  -4.9356816282086199E-002   1.4688701578334185E-002   4.4110150702678541E-002
  -4.6616222066236931E-002   1.4132748576011156E-002   4.2726373891604608E-002
  -4.3875627850387650E-002   1.3663408827652837E-002   4.1857296801370986E-002
  -4.1135033634538389E-002   1.3280682333258995E-002   4.1502919431977640E-002
  -3.8394439418689114E-002   1.2984569092829912E-002   4.1663241783424371E-002
  -5.5027379577369764E-002   1.6381530031378350E-002   3.9127071301617231E-002
  -5.1791411779345459E-002   1.5791634862416928E-002   3.7903845529741173E-002
  -4.8555443981321146E-002   1.5256411348132499E-002   3.7156667201374956E-002
  -4.5319476183296861E-002   1.4775859488525113E-002   3.6885536316518530E-002
  -4.2083508385272528E-002   1.4349979283594605E-002   3.7090452875171875E-002
  -6.0588708149111006E-002   1.8074358484422529E-002   3.4126020533561244E-002
  -5.6896019046242120E-002   1.7450521148822763E-002   3.3031404201595560E-002
  -5.3203329943373255E-002   1.6849413868612332E-002   3.2374183035809079E-002
  -4.9510640840504376E-002   1.6271036643791204E-002   3.2154357036201953E-002
  -4.5817951737635546E-002   1.5715389474359381E-002   3.2371926202774168E-002
  -6.6040801997309995E-002   1.9767186937466652E-002   2.9106998398510942E-002
  -6.1930043866926993E-002   1.9109407435228598E-002   2.8109049907167588E-002
  -5.7819285736543977E-002   1.8442416389091998E-002   2.7509844304673348E-002
  -5.3708527606160954E-002   1.7766213799057420E-002   2.7309381591027818E-002
  -4.9597769475777959E-002   1.7080799665123991E-002   2.7507661766231262E-002
  -3.4750744837885164E-002   1.1619158902065219E-002   4.6090292927531751E-002
  -3.6353628810725250E-002   1.1331646279398061E-002   5.0990436177118514E-002
  -3.7956512783565384E-002   1.0683246109999933E-002   5.5323153681496151E-002
  -3.9559396756405490E-002   9.6739583938706131E-003   5.9088445440664411E-002
  -4.1162280729245618E-002   8.3037831310103227E-003   6.2286311454623378E-002
  -3.8394439418689114E-002   1.2984569092829912E-002   4.1663241783424371E-002
  -4.0555877392447530E-002   1.2575172046882965E-002   4.6189848185656940E-002
  -4.2717315366205981E-002   1.1852594135935451E-002   5.0166772331262252E-002
  -4.4878753339964411E-002   1.0816835359987516E-002   5.3594014220240176E-002
  -4.7040191313722890E-002   9.4678957190391100E-003   5.6471573852590717E-002
  -4.2083508385272528E-002   1.4349979283594605E-002   3.7090452875171875E-002
  -4.4785756871367349E-002   1.3818697814367717E-002   4.1291229111780764E-002
  -4.7488005357462136E-002   1.3021942161870970E-002   4.4960066580344279E-002
  -5.0190253843556985E-002   1.1959712326104419E-002   4.8096965280862505E-002
  -5.2892502329651744E-002   1.0632008307067842E-002   5.0701925213335275E-002
  -4.5817951737635546E-002   1.5715389474359381E-002   3.2371926202774168E-002
  -4.9043267247484687E-002   1.5062223581852628E-002   3.6294578955489952E-002
  -5.2268582757333870E-002   1.4191290187806405E-002   3.9703036428742414E-002
  -5.5493898267183039E-002   1.3102589292221210E-002   4.2597298622531483E-002
  -5.8719213777032243E-002   1.1796120895096823E-002   4.4977365536857078E-002
  -4.9597769475777959E-002   1.7080799665123991E-002   2.7507661766231262E-002
  -5.3328408520799564E-002   1.6305749349337373E-002   3.1199897716784553E-002
  -5.7059047565821142E-002   1.5360638213742048E-002   3.4395681876456558E-002
  -6.0789686610842775E-002   1.4245466258338262E-002   3.7095014245247040E-002
  -6.4520325655864325E-002   1.2960233483125416E-002   3.9297894823156210E-002
  -4.1162280729245618E-002   8.3037831310103227E-003   6.2286311454623378E-002
  -3.4943311948462910E-002   6.9972652994093609E-003   5.4370282891055610E-002
  -2.8724343167680209E-002   6.1789498770581930E-003   4.7746927633238401E-002
  -2.2505374386897477E-002   5.8488368639573601E-003   4.2416245681171777E-002
  -1.6286405606114773E-002   6.0069262601061268E-003   3.8378237034855767E-002
  -4.7040191313722890E-002   9.4678957190391100E-003   5.6471573852590717E-002
  -3.9617856475452733E-002   8.2383658227388745E-003   4.9011938991081722E-002
  -3.2195521637182624E-002   7.5608362807355195E-003   4.2666362938797109E-002
  -2.4773186798912470E-002   7.4353070930294092E-003   3.7434845695736782E-002
  -1.7350851960642483E-002   7.8617782596199781E-003   3.3317387261900810E-002
  -5.2892502329651744E-002   1.0632008307067842E-002   5.0701925213335275E-002
  -4.4445415930420340E-002   9.4794663460684991E-003   4.3762481998931999E-002
  -3.5998329531188998E-002   8.9427226844129015E-003   3.7758483097226847E-002
  -2.7551243131957746E-002   9.0217773221014305E-003   3.2689928508219869E-002
  -1.9104156732726363E-002   9.7166302591337184E-003   2.8556818231911252E-002
  -5.8719213777032243E-002   1.1796120895096823E-002   4.4977365536857078E-002
  -4.9425990313365802E-002   1.0720566869397846E-002   3.8621911914606635E-002
  -4.0132766849699408E-002   1.0324609088090311E-002   3.3023288108528046E-002
  -3.0839543386032970E-002   1.0608247551173577E-002   2.8181494118621513E-002
  -2.1546319922366580E-002   1.1571482258647459E-002   2.4096529944887021E-002
  -6.4520325655864325E-002   1.2960233483125416E-002   3.9297894823156210E-002
  -5.4559579624288979E-002   1.1961667392727582E-002   3.3590228738105410E-002
  -4.4598833592713619E-002   1.1706495491767541E-002   2.8460777972700552E-002
  -3.4638087561138294E-002   1.2194717780245595E-002   2.3909542526941122E-002
  -2.4677341529562913E-002   1.3426334258161310E-002   1.9936522400827883E-002
  -9.0367364787753063E-002   0.0000000000000000        4.9828816494871378E-002
  -9.3965624672173592E-002   5.4027811962276198E-003   5.3202428559818493E-002
  -9.7563884556594149E-002   1.0669034186158740E-002   5.4959778535417156E-002
 -0.10116214444101471        1.5798758969793367E-002   5.5100866421667352E-002
 -0.10476040432543522        2.0791955547131501E-002   5.3625692218569096E-002
 -0.10330224583424805        0.0000000000000000        5.8656323280497275E-002
 -0.10683608506061806        1.0885232877669638E-002   5.2113835449655768E-002
 -0.11036992428698811        1.9172994966926718E-002   4.7316451024263725E-002
 -0.11390376351335814        2.4863286267771255E-002   4.4264170004321139E-002
 -0.11743760273972818        2.7956106780203216E-002   4.2956992389828016E-002
 -0.12646691002657603        0.0000000000000000        7.4196753038623220E-002
 -0.12657496310009766        1.6367684559111657E-002   5.5277222729877014E-002
 -0.12668301617361927        2.7676955747694694E-002   4.1464161321378208E-002
 -0.12679106924714087        3.3927813565749129E-002   3.2757568813126796E-002
 -0.12689912232066250        3.5120258013274938E-002   2.9157445205122763E-002
 -0.15986135736473717        0.0000000000000000        9.6450105769249214E-002
 -0.15318225879061240        2.1850136240553673E-002   6.2692590400482265E-002
 -0.14650316021648771        3.6180916528462670E-002   3.7402909426760632E-002
 -0.13982406164236294        4.2992340863726997E-002   2.0581062848084308E-002
 -0.13314496306823820        4.2284409246346660E-002   1.2227050664453287E-002
 -0.20348558784873130        0.0000000000000000       0.12541638147237524     
 -0.18665797213216229        2.7332587921995697E-002   7.4359938461471486E-002
 -0.16983035641559327        4.4684877309230667E-002   3.5132695340410976E-002
 -0.15300274069902425        5.2056868161704899E-002   7.7346521091937320E-003
 -0.13617512498245526        4.9448560479418383E-002  -7.8341912321803001E-003
 -0.10476040432543522        2.0791955547131501E-002   5.3625692218569096E-002
 -0.10210955276541321        2.4934789473186243E-002   4.5642489501615494E-002
  -9.9458701205391187E-002   2.7513426302970712E-002   3.9343662350877801E-002
  -9.6807849645369176E-002   2.8527866036484970E-002   3.4729210766356086E-002
  -9.4156998085347166E-002   2.7978108673728942E-002   3.1799134748050344E-002
 -0.11743760273972818        2.7956106780203216E-002   4.2956992389828016E-002
 -0.11348864973869141        2.9427422930343054E-002   3.6698326864810824E-002
 -0.10953969673765464        3.0253201144311157E-002   3.1351488655607190E-002
 -0.10559074373661786        3.0433441422107552E-002   2.6916477762217082E-002
 -0.10164179073558111        2.9968143763732233E-002   2.3393294184640579E-002
 -0.12689912232066250        3.5120258013274938E-002   2.9157445205122763E-002
 -0.12242461612901340        3.3920056387499856E-002   2.5541976032140531E-002
 -0.11795010993736427        3.2992975985651603E-002   2.2065785924569457E-002
 -0.11347560374571512        3.2339016807730117E-002   1.8728874882409478E-002
 -0.10900109755406602        3.1958178853735489E-002   1.5531242905660698E-002
 -0.13314496306823820        4.2284409246346660E-002   1.2227050664453287E-002
 -0.12891745193637916        3.8412689844656664E-002   1.2173437003604617E-002
 -0.12468994080452009        3.5732750826992045E-002   1.1486554157764653E-002
 -0.12046242967266103        3.4244592193352692E-002   1.0166402126933314E-002
 -0.11623491854080198        3.3948213943738766E-002   8.2129809111108499E-003
 -0.13617512498245526        4.9448560479418383E-002  -7.8341912321803001E-003
 -0.13296715716078866        4.2905323301813479E-002  -3.4072902207969991E-003
 -0.12975918933912209        3.8472525668332480E-002  -3.8620664480725105E-004
 -0.12655122151745549        3.6150167578975295E-002   1.2290594957885845E-003
 -0.12334325369578891        3.5938249033742070E-002   1.4385082009909789E-003
  -9.4156998085347166E-002   2.7978108673728942E-002   3.1799134748050344E-002
  -9.1765425302135967E-002   2.6782909632367843E-002   3.1238148757161202E-002
  -8.9373852518924796E-002   2.5861024330066880E-002   3.0768156035713781E-002
  -8.6982279735713611E-002   2.5212452766826057E-002   3.0389156583708068E-002
  -8.4590706952502426E-002   2.4837194942645371E-002   3.0101150401144097E-002
 -0.10164179073558111        2.9968143763732233E-002   2.3393294184640579E-002
  -9.9148744225902544E-002   2.9201450944083170E-002   2.3126305158868231E-002
  -9.6655697716224023E-002   2.8477505738058396E-002   2.2971270316588931E-002
  -9.4162651206545447E-002   2.7796308145657918E-002   2.2928189657802665E-002
  -9.1669604696866969E-002   2.7157858166881738E-002   2.2997063182509242E-002
 -0.10900109755406602        3.1958178853735489E-002   1.5531242905660698E-002
 -0.10638561640386886        3.1619992255798493E-002   1.5327684719569381E-002
 -0.10377013525367169        3.1093987146049971E-002   1.5257041631022376E-002
 -0.10115465410347455        3.0380163524489807E-002   1.5319313640019561E-002
  -9.8539172953277340E-002   2.9478521391118069E-002   1.5514500746561025E-002
 -0.11623491854080198        3.3948213943738766E-002   8.2129809111108499E-003
 -0.11347604183603489        3.4038533567513872E-002   7.8422874392646696E-003
 -0.11071716513126785        3.3710468554041487E-002   7.6254699790140506E-003
 -0.10795828842650081        3.2964018903321603E-002   7.5625285303588894E-003
 -0.10519941172173372        3.1799184615354470E-002   7.6534630932992226E-003
 -0.12334325369578891        3.5938249033742070E-002   1.4385082009909789E-003
 -0.12042002052240067        3.6457074879229126E-002   6.7011331795396867E-004
 -0.11749678734901248        3.6326949962033013E-002   7.6555360563897168E-005
 -0.11457355417562429        3.5547874282153558E-002  -3.4216567117935186E-004
 -0.11165032100223604        3.4119847839590767E-002  -5.8604977727583218E-004
  -8.4590706952502426E-002   2.4837194942645371E-002   3.0101150401144097E-002
  -8.2197662968544735E-002   2.4525717274972963E-002   2.9327279420735819E-002
  -7.9804618984587045E-002   2.4068486181256999E-002   2.8828565854503073E-002
  -7.7411575000629354E-002   2.3465501661497464E-002   2.8605009702445994E-002
  -7.5018531016671663E-002   2.2716763715694310E-002   2.8656610964564372E-002
  -9.1669604696866969E-002   2.7157858166881738E-002   2.2997063182509242E-002
  -8.9025781376940449E-002   2.6528956801417959E-002   2.2323441705326748E-002
  -8.6381958057013972E-002   2.5876405048954852E-002   2.1876221485906178E-002
  -8.3738134737087508E-002   2.5200202909492264E-002   2.1655402524247601E-002
  -8.1094311417161030E-002   2.4500350383030389E-002   2.1660984820351128E-002
  -9.8539172953277340E-002   2.9478521391118069E-002   1.5514500746561025E-002
  -9.5693326453795732E-002   2.8532196327862927E-002   1.5063231811648467E-002
  -9.2847479954314083E-002   2.7684323916652674E-002   1.4789607978084153E-002
  -9.0001633454832461E-002   2.6934904157487144E-002   1.4693629245868509E-002
  -8.7155786955350756E-002   2.6283937050366496E-002   1.4775295615000988E-002
 -0.10519941172173372        3.1799184615354470E-002   7.6534630932992226E-003
 -0.10220029819911050        3.0535435854307853E-002   7.5466497397008760E-003
  -9.9201184676487295E-002   2.9492242784350597E-002   7.5687253310373712E-003
  -9.6202071153864088E-002   2.8669605405481954E-002   7.7196898673084066E-003
  -9.3202957631240896E-002   2.8067523717702561E-002   7.9995433485142257E-003
 -0.11165032100223604        3.4119847839590767E-002  -5.8604977727583218E-004
 -0.10854669661288485        3.2538675380752946E-002  -2.2630451051580680E-004
 -0.10544307222353366        3.1300161652048408E-002   2.1357354476503332E-004
 -0.10233944783418247        3.0404306653476820E-002   7.3358438856735431E-004
  -9.9235823444831284E-002   2.9851110385038626E-002   1.3337280208908786E-003
  -7.5018531016671663E-002   2.2716763715694310E-002   2.8656610964564372E-002
  -7.2774098761831246E-002   2.1916204172936424E-002   2.8512161693596716E-002
  -7.0529666506990829E-002   2.1157754862312431E-002   2.8539076508931976E-002
  -6.8285234252150398E-002   2.0441415783822543E-002   2.8737355410569945E-002
  -6.6040801997309995E-002   1.9767186937466652E-002   2.9106998398510942E-002
  -8.1094311417161030E-002   2.4500350383030389E-002   2.1660984820351128E-002
  -7.8673803914528467E-002   2.3767163174319872E-002   2.1535097200490377E-002
  -7.6253296411895904E-002   2.2990956988111377E-002   2.1589995989911369E-002
  -7.3832788909263314E-002   2.2171731824405086E-002   2.1825681188613579E-002
  -7.1412281406630779E-002   2.1309487683201012E-002   2.2242152796597303E-002
  -8.7155786955350756E-002   2.6283937050366496E-002   1.4775295615000988E-002
  -8.4549781881947450E-002   2.5618122175703271E-002   1.4582840436615618E-002
  -8.1943776808544130E-002   2.4824159113910373E-002   1.4580593990490213E-002
  -7.9337771735140783E-002   2.3902047864987681E-002   1.4768556276624926E-002
  -7.6731766661737505E-002   2.2851788428935399E-002   1.5146727295019702E-002
  -9.3202957631240896E-002   2.8067523717702561E-002   7.9995433485142257E-003
  -9.0402032664088153E-002   2.7469081177086668E-002   7.6553914019720434E-003
  -8.7601107696935493E-002   2.6657361239709149E-002   7.5108705106687549E-003
  -8.4800182729782791E-002   2.5632363905570169E-002   7.5659806746039898E-003
  -8.1999257762630104E-002   2.4394089174669772E-002   7.8207218937777732E-003
  -9.9235823444831284E-002   2.9851110385038626E-002   1.3337280208908786E-003
  -9.6230556260950562E-002   2.9320040178470202E-002   7.5275009656022851E-004
  -9.3225289077069950E-002   2.8490563365508148E-002   3.8082555044671729E-004
  -9.0220021893189312E-002   2.7362679946152685E-002   2.1795438255073352E-004
  -8.7214754709308617E-002   2.5936389920404146E-002   2.6413659287177760E-004
  -6.6040801997309995E-002   1.9767186937466652E-002   2.9106998398510942E-002
  -6.1930043866926993E-002   1.9109407435228598E-002   2.8109049907167588E-002
  -5.7819285736543977E-002   1.8442416389091998E-002   2.7509844304673348E-002
  -5.3708527606160954E-002   1.7766213799057420E-002   2.7309381591027818E-002
  -4.9597769475777959E-002   1.7080799665123991E-002   2.7507661766231262E-002
  -7.1412281406630779E-002   2.1309487683201012E-002   2.2242152796597303E-002
  -6.6970796734541857E-002   2.0470495116657175E-002   2.1268337403785212E-002
  -6.2529312062452991E-002   1.9721024676931917E-002   2.0557232205535875E-002
  -5.8087827390364111E-002   1.9061076364024970E-002   2.0108837201849403E-002
  -5.3646342718275203E-002   1.8490650177936718E-002   1.9923152392725935E-002
  -7.6731766661737505E-002   2.2851788428935399E-002   1.5146727295019702E-002
  -7.2095588142228745E-002   2.1831582798085725E-002   1.4295778671455497E-002
  -6.7459409622719999E-002   2.0999632964771614E-002   1.3571507548168230E-002
  -6.2823231103211238E-002   2.0355938928992852E-002   1.2973913925157756E-002
  -5.8187052583702478E-002   1.9900500690749612E-002   1.2502997802423935E-002
  -8.1999257762630104E-002   2.4394089174669772E-002   7.8207218937777732E-003
  -7.7304418089987559E-002   2.3192670479514510E-002   7.1913737101785315E-003
  -7.2609578417345041E-002   2.2278241252611533E-002   6.5526703325699837E-003
  -6.7914738744702441E-002   2.1650801493960901E-002   5.9046117609525585E-003
  -6.3219899072059965E-002   2.1310351203562589E-002   5.2471979953255324E-003
  -8.7214754709308617E-002   2.5936389920404146E-002   2.6413659287177760E-004
  -8.2597286577818341E-002   2.4553758160942962E-002  -4.4877480045835139E-005
  -7.7979818446328064E-002   2.3556849540451313E-002  -4.9927944125856272E-004
  -7.3362350314837732E-002   2.2945664058928360E-002  -1.0990692907662421E-003
  -6.8744882183347511E-002   2.2720201716375121E-002  -1.8442470285696677E-003
  -4.9597769475777959E-002   1.7080799665123991E-002   2.7507661766231262E-002
  -5.3328408520799564E-002   1.6305749349337373E-002   3.1199897716784553E-002
  -5.7059047565821142E-002   1.5360638213742048E-002   3.4395681876456558E-002
  -6.0789686610842775E-002   1.4245466258338262E-002   3.7095014245247040E-002
  -6.4520325655864325E-002   1.2960233483125416E-002   3.9297894823156210E-002
  -5.3646342718275203E-002   1.8490650177936718E-002   1.9923152392725935E-002
  -5.7793259739306477E-002   1.7948982749365294E-002   2.3102392819424167E-002
  -6.1940176760337778E-002   1.7375310709008662E-002   2.5945529084984376E-002
  -6.6087093781369011E-002   1.6769634056867044E-002   2.8452561189406714E-002
  -7.0234010802400340E-002   1.6131952792940329E-002   3.0623489132691140E-002
  -5.8187052583702478E-002   1.9900500690749612E-002   1.2502997802423935E-002
  -6.2589899951000019E-002   1.9592216149393327E-002   1.5307298913290551E-002
  -6.6992747318297435E-002   1.9389983204275561E-002   1.7935843492762858E-002
  -7.1395594685594949E-002   1.9293801855395996E-002   2.0388631540840561E-002
  -7.5798442052892406E-002   1.9303672102755326E-002   2.2665663057523752E-002
  -6.3219899072059965E-002   2.1310351203562589E-002   5.2471979953255324E-003
  -6.7718329155880150E-002   2.1235449549421137E-002   7.8146159983840391E-003
  -7.2216759239700293E-002   2.1404655699541929E-002   1.0366625099791660E-002
  -7.6715189323520436E-002   2.1817969653925084E-002   1.2903225299548338E-002
  -8.1213619407340620E-002   2.2475391412570392E-002   1.5424416597654016E-002
  -6.8744882183347511E-002   2.2720201716375121E-002  -1.8442470285696677E-003
  -7.3178547353946799E-002   2.2878682949449225E-002   6.2434407470446374E-004
  -7.7612212524546198E-002   2.3419328194808881E-002   3.2378739060711925E-003
  -8.2045877695145569E-002   2.4342137452454150E-002   5.9963424655302341E-003
  -8.6479542865744885E-002   2.5647110722385014E-002   8.8997497530822756E-003
  -6.4520325655864325E-002   1.2960233483125416E-002   3.9297894823156210E-002
  -5.4559579624288979E-002   1.1961667392727582E-002   3.3590228738105410E-002
  -4.4598833592713619E-002   1.1706495491767541E-002   2.8460777972700552E-002
  -3.4638087561138294E-002   1.2194717780245595E-002   2.3909542526941122E-002
  -2.4677341529562913E-002   1.3426334258161310E-002   1.9936522400827883E-002
  -7.0234010802400340E-002   1.6131952792940329E-002   3.0623489132691140E-002
  -5.9478316976381701E-002   1.5356731688388053E-002   2.5531968978467545E-002
  -4.8722623150362999E-002   1.4338435514369252E-002   2.1452129093484706E-002
  -3.7966929324344353E-002   1.3077064270883912E-002   1.8383969477742554E-002
  -2.7211235498325714E-002   1.1572617957932518E-002   1.6327490131241573E-002
  -7.5798442052892406E-002   1.9303672102755326E-002   2.2665663057523752E-002
  -6.3814335482835438E-002   1.8751795984048608E-002   1.7203819575222920E-002
  -5.1830228912778512E-002   1.6970375536971082E-002   1.3187121311757873E-002
  -3.9846122342721474E-002   1.3959410761522564E-002   1.0615568267128613E-002
  -2.7862015772664617E-002   9.7189016577036158E-003   9.4891604413351316E-003
  -8.1213619407340620E-002   2.2475391412570392E-002   1.5424416597654016E-002
  -6.7567635143650426E-002   2.2146860279708788E-002   8.6057805283716871E-003
  -5.3921650879960120E-002   1.9602315559572630E-002   3.6657546275203328E-003
  -4.0275666616269822E-002   1.4841757252161050E-002   6.0433889509924326E-004
  -2.6629682352579634E-002   7.8651853574747133E-003  -5.7846666889066478E-004
  -8.6479542865744885E-002   2.5647110722385014E-002   8.8997497530822756E-003
  -7.0738215958826456E-002   2.5541924575369523E-002  -2.6214816208586234E-004
  -5.4996889051907971E-002   2.2234255582174345E-002  -7.1119709592283864E-003
  -3.9255562144989542E-002   1.5724103742799520E-002  -1.1649718638344783E-002
  -2.3514235238071057E-002   6.0114690572459217E-003  -1.3875391199436038E-002
 </DataArray>
 </PointData>
 </Piece>
 <Piece  NumberOfPoints="          1600 "  NumberOfCells="         1024 ">
 <Points>
 <DataArray  type="Float64" NumberOfComponents="3"  format="ascii" >
  0.50000000000000000        0.0000000000000000        0.0000000000000000     
  0.53125000000000000        0.0000000000000000        0.0000000000000000     
  0.56250000000000000        0.0000000000000000        0.0000000000000000     
  0.59375000000000000        0.0000000000000000        0.0000000000000000     
  0.62500000000000000        0.0000000000000000        0.0000000000000000     
  0.50000000000000000        3.1250000000000000E-002   0.0000000000000000     
  0.53125000000000000        3.1250000000000000E-002   0.0000000000000000     
  0.56250000000000000        3.1250000000000000E-002   0.0000000000000000     
  0.59375000000000000        3.1250000000000000E-002   0.0000000000000000     
  0.62500000000000000        3.1250000000000000E-002   0.0000000000000000     
  0.50000000000000000        6.2500000000000000E-002   0.0000000000000000     
  0.53125000000000000        6.2500000000000000E-002   0.0000000000000000     
  0.56250000000000000        6.2500000000000000E-002   0.0000000000000000     
  0.59375000000000000        6.2500000000000000E-002   0.0000000000000000     
  0.62500000000000000        6.2500000000000000E-002   0.0000000000000000     
  0.50000000000000000        9.3750000000000000E-002   0.0000000000000000     
  0.53125000000000000        9.3750000000000000E-002   0.0000000000000000     
  0.56250000000000000        9.3750000000000000E-002   0.0000000000000000     
  0.59375000000000000        9.3750000000000000E-002   0.0000000000000000     
  0.62500000000000000        9.3750000000000000E-002   0.0000000000000000     
  0.50000000000000000       0.12500000000000000        0.0000000000000000     
  0.53125000000000000       0.12500000000000000        0.0000000000000000     
  0.56250000000000000       0.12500000000000000        0.0000000000000000     
  0.59375000000000000       0.12500000000000000        0.0000000000000000     
  0.62500000000000000       0.12500000000000000        0.0000000000000000     
  0.62500000000000000        0.0000000000000000        0.0000000000000000     
  0.65625000000000000        0.0000000000000000        0.0000000000000000     
  0.68750000000000000        0.0000000000000000        0.0000000000000000     
  0.71875000000000000        0.0000000000000000        0.0000000000000000     
  0.75000000000000000        0.0000000000000000        0.0000000000000000     
  0.62500000000000000        3.1250000000000000E-002   0.0000000000000000     
  0.65625000000000000        3.1250000000000000E-002   0.0000000000000000     
  0.68750000000000000        3.1250000000000000E-002   0.0000000000000000     
  0.71875000000000000        3.1250000000000000E-002   0.0000000000000000     
  0.75000000000000000        3.1250000000000000E-002   0.0000000000000000     
  0.62500000000000000        6.2500000000000000E-002   0.0000000000000000     
  0.65625000000000000        6.2500000000000000E-002   0.0000000000000000     
  0.68750000000000000        6.2500000000000000E-002   0.0000000000000000     
  0.71875000000000000        6.2500000000000000E-002   0.0000000000000000     
  0.75000000000000000        6.2500000000000000E-002   0.0000000000000000     
  0.62500000000000000        9.3750000000000000E-002   0.0000000000000000     
  0.65625000000000000        9.3750000000000000E-002   0.0000000000000000     
  0.68750000000000000        9.3750000000000000E-002   0.0000000000000000     
  0.71875000000000000        9.3750000000000000E-002   0.0000000000000000     
  0.75000000000000000        9.3750000000000000E-002   0.0000000000000000     
  0.62500000000000000       0.12500000000000000        0.0000000000000000     
  0.65625000000000000       0.12500000000000000        0.0000000000000000     
  0.68750000000000000       0.12500000000000000        0.0000000000000000     
  0.71875000000000000       0.12500000000000000        0.0000000000000000     
  0.75000000000000000       0.12500000000000000        0.0000000000000000     
  0.75000000000000000        0.0000000000000000        0.0000000000000000     
  0.78125000000000000        0.0000000000000000        0.0000000000000000     
  0.81250000000000000        0.0000000000000000        0.0000000000000000     
  0.84375000000000000        0.0000000000000000        0.0000000000000000     
  0.87500000000000000        0.0000000000000000        0.0000000000000000     
  0.75000000000000000        3.1250000000000000E-002   0.0000000000000000     
  0.78125000000000000        3.1250000000000000E-002   0.0000000000000000     
  0.81250000000000000        3.1250000000000000E-002   0.0000000000000000     
  0.84375000000000000        3.1250000000000000E-002   0.0000000000000000     
  0.87500000000000000        3.1250000000000000E-002   0.0000000000000000     
  0.75000000000000000        6.2500000000000000E-002   0.0000000000000000     
  0.78125000000000000        6.2500000000000000E-002   0.0000000000000000     
  0.81250000000000000        6.2500000000000000E-002   0.0000000000000000     
  0.84375000000000000        6.2500000000000000E-002   0.0000000000000000     
  0.87500000000000000        6.2500000000000000E-002   0.0000000000000000     
  0.75000000000000000        9.3750000000000000E-002   0.0000000000000000     
  0.78125000000000000        9.3750000000000000E-002   0.0000000000000000     
  0.81250000000000000        9.3750000000000000E-002   0.0000000000000000     
  0.84375000000000000        9.3750000000000000E-002   0.0000000000000000     
  0.87500000000000000        9.3750000000000000E-002   0.0000000000000000     
  0.75000000000000000       0.12500000000000000        0.0000000000000000     
  0.78125000000000000       0.12500000000000000        0.0000000000000000     
  0.81250000000000000       0.12500000000000000        0.0000000000000000     
  0.84375000000000000       0.12500000000000000        0.0000000000000000     
  0.87500000000000000       0.12500000000000000        0.0000000000000000     
  0.87500000000000000        0.0000000000000000        0.0000000000000000     
  0.90625000000000000        0.0000000000000000        0.0000000000000000     
  0.93750000000000000        0.0000000000000000        0.0000000000000000     
  0.96875000000000000        0.0000000000000000        0.0000000000000000     
   1.0000000000000000        0.0000000000000000        0.0000000000000000     
  0.87500000000000000        3.1250000000000000E-002   0.0000000000000000     
  0.90625000000000000        3.1250000000000000E-002   0.0000000000000000     
  0.93750000000000000        3.1250000000000000E-002   0.0000000000000000     
  0.96875000000000000        3.1250000000000000E-002   0.0000000000000000     
   1.0000000000000000        3.1250000000000000E-002   0.0000000000000000     
  0.87500000000000000        6.2500000000000000E-002   0.0000000000000000     
  0.90625000000000000        6.2500000000000000E-002   0.0000000000000000     
  0.93750000000000000        6.2500000000000000E-002   0.0000000000000000     
  0.96875000000000000        6.2500000000000000E-002   0.0000000000000000     
   1.0000000000000000        6.2500000000000000E-002   0.0000000000000000     
  0.87500000000000000        9.3750000000000000E-002   0.0000000000000000     
  0.90625000000000000        9.3750000000000000E-002   0.0000000000000000     
  0.93750000000000000        9.3750000000000000E-002   0.0000000000000000     
  0.96875000000000000        9.3750000000000000E-002   0.0000000000000000     
   1.0000000000000000        9.3750000000000000E-002   0.0000000000000000     
  0.87500000000000000       0.12500000000000000        0.0000000000000000     
  0.90625000000000000       0.12500000000000000        0.0000000000000000     
  0.93750000000000000       0.12500000000000000        0.0000000000000000     
  0.96875000000000000       0.12500000000000000        0.0000000000000000     
   1.0000000000000000       0.12500000000000000        0.0000000000000000     
   1.0000000000000000        0.0000000000000000        0.0000000000000000     
   1.0312500000000000        0.0000000000000000        0.0000000000000000     
   1.0625000000000000        0.0000000000000000        0.0000000000000000     
   1.0937500000000000        0.0000000000000000        0.0000000000000000     
   1.1250000000000000        0.0000000000000000        0.0000000000000000     
   1.0000000000000000        3.1250000000000000E-002   0.0000000000000000     
   1.0312500000000000        3.1250000000000000E-002   0.0000000000000000     
   1.0625000000000000        3.1250000000000000E-002   0.0000000000000000     
   1.0937500000000000        3.1250000000000000E-002   0.0000000000000000     
   1.1250000000000000        3.1250000000000000E-002   0.0000000000000000     
   1.0000000000000000        6.2500000000000000E-002   0.0000000000000000     
   1.0312500000000000        6.2500000000000000E-002   0.0000000000000000     
   1.0625000000000000        6.2500000000000000E-002   0.0000000000000000     
   1.0937500000000000        6.2500000000000000E-002   0.0000000000000000     
   1.1250000000000000        6.2500000000000000E-002   0.0000000000000000     
   1.0000000000000000        9.3750000000000000E-002   0.0000000000000000     
   1.0312500000000000        9.3750000000000000E-002   0.0000000000000000     
   1.0625000000000000        9.3750000000000000E-002   0.0000000000000000     
   1.0937500000000000        9.3750000000000000E-002   0.0000000000000000     
   1.1250000000000000        9.3750000000000000E-002   0.0000000000000000     
   1.0000000000000000       0.12500000000000000        0.0000000000000000     
   1.0312500000000000       0.12500000000000000        0.0000000000000000     
   1.0625000000000000       0.12500000000000000        0.0000000000000000     
   1.0937500000000000       0.12500000000000000        0.0000000000000000     
   1.1250000000000000       0.12500000000000000        0.0000000000000000     
   1.1250000000000000        0.0000000000000000        0.0000000000000000     
   1.1562500000000000        0.0000000000000000        0.0000000000000000     
   1.1875000000000000        0.0000000000000000        0.0000000000000000     
   1.2187500000000000        0.0000000000000000        0.0000000000000000     
   1.2500000000000000        0.0000000000000000        0.0000000000000000     
   1.1250000000000000        3.1250000000000000E-002   0.0000000000000000     
   1.1562500000000000        3.1250000000000000E-002   0.0000000000000000     
   1.1875000000000000        3.1250000000000000E-002   0.0000000000000000     
   1.2187500000000000        3.1250000000000000E-002   0.0000000000000000     
   1.2500000000000000        3.1250000000000000E-002   0.0000000000000000     
   1.1250000000000000        6.2500000000000000E-002   0.0000000000000000     
   1.1562500000000000        6.2500000000000000E-002   0.0000000000000000     
   1.1875000000000000        6.2500000000000000E-002   0.0000000000000000     
   1.2187500000000000        6.2500000000000000E-002   0.0000000000000000     
   1.2500000000000000        6.2500000000000000E-002   0.0000000000000000     
   1.1250000000000000        9.3750000000000000E-002   0.0000000000000000     
   1.1562500000000000        9.3750000000000000E-002   0.0000000000000000     
   1.1875000000000000        9.3750000000000000E-002   0.0000000000000000     
   1.2187500000000000        9.3750000000000000E-002   0.0000000000000000     
   1.2500000000000000        9.3750000000000000E-002   0.0000000000000000     
   1.1250000000000000       0.12500000000000000        0.0000000000000000     
   1.1562500000000000       0.12500000000000000        0.0000000000000000     
   1.1875000000000000       0.12500000000000000        0.0000000000000000     
   1.2187500000000000       0.12500000000000000        0.0000000000000000     
   1.2500000000000000       0.12500000000000000        0.0000000000000000     
   1.2500000000000000        0.0000000000000000        0.0000000000000000     
   1.2812500000000000        0.0000000000000000        0.0000000000000000     
   1.3125000000000000        0.0000000000000000        0.0000000000000000     
   1.3437500000000000        0.0000000000000000        0.0000000000000000     
   1.3750000000000000        0.0000000000000000        0.0000000000000000     
   1.2500000000000000        3.1250000000000000E-002   0.0000000000000000     
   1.2812500000000000        3.1250000000000000E-002   0.0000000000000000     
   1.3125000000000000        3.1250000000000000E-002   0.0000000000000000     
   1.3437500000000000        3.1250000000000000E-002   0.0000000000000000     
   1.3750000000000000        3.1250000000000000E-002   0.0000000000000000     
   1.2500000000000000        6.2500000000000000E-002   0.0000000000000000     
   1.2812500000000000        6.2500000000000000E-002   0.0000000000000000     
   1.3125000000000000        6.2500000000000000E-002   0.0000000000000000     
   1.3437500000000000        6.2500000000000000E-002   0.0000000000000000     
   1.3750000000000000        6.2500000000000000E-002   0.0000000000000000     
   1.2500000000000000        9.3750000000000000E-002   0.0000000000000000     
   1.2812500000000000        9.3750000000000000E-002   0.0000000000000000     
   1.3125000000000000        9.3750000000000000E-002   0.0000000000000000     
   1.3437500000000000        9.3750000000000000E-002   0.0000000000000000     
   1.3750000000000000        9.3750000000000000E-002   0.0000000000000000     
   1.2500000000000000       0.12500000000000000        0.0000000000000000     
   1.2812500000000000       0.12500000000000000        0.0000000000000000     
   1.3125000000000000       0.12500000000000000        0.0000000000000000     
   1.3437500000000000       0.12500000000000000        0.0000000000000000     
   1.3750000000000000       0.12500000000000000        0.0000000000000000     
   1.3750000000000000        0.0000000000000000        0.0000000000000000     
   1.4062500000000000        0.0000000000000000        0.0000000000000000     
   1.4375000000000000        0.0000000000000000        0.0000000000000000     
   1.4687500000000000        0.0000000000000000        0.0000000000000000     
   1.5000000000000000        0.0000000000000000        0.0000000000000000     
   1.3750000000000000        3.1250000000000000E-002   0.0000000000000000     
   1.4062500000000000        3.1250000000000000E-002   0.0000000000000000     
   1.4375000000000000        3.1250000000000000E-002   0.0000000000000000     
   1.4687500000000000        3.1250000000000000E-002   0.0000000000000000     
   1.5000000000000000        3.1250000000000000E-002   0.0000000000000000     
   1.3750000000000000        6.2500000000000000E-002   0.0000000000000000     
   1.4062500000000000        6.2500000000000000E-002   0.0000000000000000     
   1.4375000000000000        6.2500000000000000E-002   0.0000000000000000     
   1.4687500000000000        6.2500000000000000E-002   0.0000000000000000     
   1.5000000000000000        6.2500000000000000E-002   0.0000000000000000     
   1.3750000000000000        9.3750000000000000E-002   0.0000000000000000     
   1.4062500000000000        9.3750000000000000E-002   0.0000000000000000     
   1.4375000000000000        9.3750000000000000E-002   0.0000000000000000     
   1.4687500000000000        9.3750000000000000E-002   0.0000000000000000     
   1.5000000000000000        9.3750000000000000E-002   0.0000000000000000     
   1.3750000000000000       0.12500000000000000        0.0000000000000000     
   1.4062500000000000       0.12500000000000000        0.0000000000000000     
   1.4375000000000000       0.12500000000000000        0.0000000000000000     
   1.4687500000000000       0.12500000000000000        0.0000000000000000     
   1.5000000000000000       0.12500000000000000        0.0000000000000000     
  0.50000000000000000       0.12500000000000000        0.0000000000000000     
  0.53125000000000000       0.12500000000000000        0.0000000000000000     
  0.56250000000000000       0.12500000000000000        0.0000000000000000     
  0.59375000000000000       0.12500000000000000        0.0000000000000000     
  0.62500000000000000       0.12500000000000000        0.0000000000000000     
  0.50000000000000000       0.15625000000000000        0.0000000000000000     
  0.53125000000000000       0.15625000000000000        0.0000000000000000     
  0.56250000000000000       0.15625000000000000        0.0000000000000000     
  0.59375000000000000       0.15625000000000000        0.0000000000000000     
  0.62500000000000000       0.15625000000000000        0.0000000000000000     
  0.50000000000000000       0.18750000000000000        0.0000000000000000     
  0.53125000000000000       0.18750000000000000        0.0000000000000000     
  0.56250000000000000       0.18750000000000000        0.0000000000000000     
  0.59375000000000000       0.18750000000000000        0.0000000000000000     
  0.62500000000000000       0.18750000000000000        0.0000000000000000     
  0.50000000000000000       0.21875000000000000        0.0000000000000000     
  0.53125000000000000       0.21875000000000000        0.0000000000000000     
  0.56250000000000000       0.21875000000000000        0.0000000000000000     
  0.59375000000000000       0.21875000000000000        0.0000000000000000     
  0.62500000000000000       0.21875000000000000        0.0000000000000000     
  0.50000000000000000       0.25000000000000000        0.0000000000000000     
  0.53125000000000000       0.25000000000000000        0.0000000000000000     
  0.56250000000000000       0.25000000000000000        0.0000000000000000     
  0.59375000000000000       0.25000000000000000        0.0000000000000000     
  0.62500000000000000       0.25000000000000000        0.0000000000000000     
  0.62500000000000000       0.12500000000000000        0.0000000000000000     
  0.65625000000000000       0.12500000000000000        0.0000000000000000     
  0.68750000000000000       0.12500000000000000        0.0000000000000000     
  0.71875000000000000       0.12500000000000000        0.0000000000000000     
  0.75000000000000000       0.12500000000000000        0.0000000000000000     
  0.62500000000000000       0.15625000000000000        0.0000000000000000     
  0.65625000000000000       0.15625000000000000        0.0000000000000000     
  0.68750000000000000       0.15625000000000000        0.0000000000000000     
  0.71875000000000000       0.15625000000000000        0.0000000000000000     
  0.75000000000000000       0.15625000000000000        0.0000000000000000     
  0.62500000000000000       0.18750000000000000        0.0000000000000000     
  0.65625000000000000       0.18750000000000000        0.0000000000000000     
  0.68750000000000000       0.18750000000000000        0.0000000000000000     
  0.71875000000000000       0.18750000000000000        0.0000000000000000     
  0.75000000000000000       0.18750000000000000        0.0000000000000000     
  0.62500000000000000       0.21875000000000000        0.0000000000000000     
  0.65625000000000000       0.21875000000000000        0.0000000000000000     
  0.68750000000000000       0.21875000000000000        0.0000000000000000     
  0.71875000000000000       0.21875000000000000        0.0000000000000000     
  0.75000000000000000       0.21875000000000000        0.0000000000000000     
  0.62500000000000000       0.25000000000000000        0.0000000000000000     
  0.65625000000000000       0.25000000000000000        0.0000000000000000     
  0.68750000000000000       0.25000000000000000        0.0000000000000000     
  0.71875000000000000       0.25000000000000000        0.0000000000000000     
  0.75000000000000000       0.25000000000000000        0.0000000000000000     
  0.75000000000000000       0.12500000000000000        0.0000000000000000     
  0.78125000000000000       0.12500000000000000        0.0000000000000000     
  0.81250000000000000       0.12500000000000000        0.0000000000000000     
  0.84375000000000000       0.12500000000000000        0.0000000000000000     
  0.87500000000000000       0.12500000000000000        0.0000000000000000     
  0.75000000000000000       0.15625000000000000        0.0000000000000000     
  0.78125000000000000       0.15625000000000000        0.0000000000000000     
  0.81250000000000000       0.15625000000000000        0.0000000000000000     
  0.84375000000000000       0.15625000000000000        0.0000000000000000     
  0.87500000000000000       0.15625000000000000        0.0000000000000000     
  0.75000000000000000       0.18750000000000000        0.0000000000000000     
  0.78125000000000000       0.18750000000000000        0.0000000000000000     
  0.81250000000000000       0.18750000000000000        0.0000000000000000     
  0.84375000000000000       0.18750000000000000        0.0000000000000000     
  0.87500000000000000       0.18750000000000000        0.0000000000000000     
  0.75000000000000000       0.21875000000000000        0.0000000000000000     
  0.78125000000000000       0.21875000000000000        0.0000000000000000     
  0.81250000000000000       0.21875000000000000        0.0000000000000000     
  0.84375000000000000       0.21875000000000000        0.0000000000000000     
  0.87500000000000000       0.21875000000000000        0.0000000000000000     
  0.75000000000000000       0.25000000000000000        0.0000000000000000     
  0.78125000000000000       0.25000000000000000        0.0000000000000000     
  0.81250000000000000       0.25000000000000000        0.0000000000000000     
  0.84375000000000000       0.25000000000000000        0.0000000000000000     
  0.87500000000000000       0.25000000000000000        0.0000000000000000     
  0.87500000000000000       0.12500000000000000        0.0000000000000000     
  0.90625000000000000       0.12500000000000000        0.0000000000000000     
  0.93750000000000000       0.12500000000000000        0.0000000000000000     
  0.96875000000000000       0.12500000000000000        0.0000000000000000     
   1.0000000000000000       0.12500000000000000        0.0000000000000000     
  0.87500000000000000       0.15625000000000000        0.0000000000000000     
  0.90625000000000000       0.15625000000000000        0.0000000000000000     
  0.93750000000000000       0.15625000000000000        0.0000000000000000     
  0.96875000000000000       0.15625000000000000        0.0000000000000000     
   1.0000000000000000       0.15625000000000000        0.0000000000000000     
  0.87500000000000000       0.18750000000000000        0.0000000000000000     
  0.90625000000000000       0.18750000000000000        0.0000000000000000     
  0.93750000000000000       0.18750000000000000        0.0000000000000000     
  0.96875000000000000       0.18750000000000000        0.0000000000000000     
   1.0000000000000000       0.18750000000000000        0.0000000000000000     
  0.87500000000000000       0.21875000000000000        0.0000000000000000     
  0.90625000000000000       0.21875000000000000        0.0000000000000000     
  0.93750000000000000       0.21875000000000000        0.0000000000000000     
  0.96875000000000000       0.21875000000000000        0.0000000000000000     
   1.0000000000000000       0.21875000000000000        0.0000000000000000     
  0.87500000000000000       0.25000000000000000        0.0000000000000000     
  0.90625000000000000       0.25000000000000000        0.0000000000000000     
  0.93750000000000000       0.25000000000000000        0.0000000000000000     
  0.96875000000000000       0.25000000000000000        0.0000000000000000     
   1.0000000000000000       0.25000000000000000        0.0000000000000000     
   1.0000000000000000       0.12500000000000000        0.0000000000000000     
   1.0312500000000000       0.12500000000000000        0.0000000000000000     
   1.0625000000000000       0.12500000000000000        0.0000000000000000     
   1.0937500000000000       0.12500000000000000        0.0000000000000000     
   1.1250000000000000       0.12500000000000000        0.0000000000000000     
   1.0000000000000000       0.15625000000000000        0.0000000000000000     
   1.0312500000000000       0.15625000000000000        0.0000000000000000     
   1.0625000000000000       0.15625000000000000        0.0000000000000000     
   1.0937500000000000       0.15625000000000000        0.0000000000000000     
   1.1250000000000000       0.15625000000000000        0.0000000000000000     
   1.0000000000000000       0.18750000000000000        0.0000000000000000     
   1.0312500000000000       0.18750000000000000        0.0000000000000000     
   1.0625000000000000       0.18750000000000000        0.0000000000000000     
   1.0937500000000000       0.18750000000000000        0.0000000000000000     
   1.1250000000000000       0.18750000000000000        0.0000000000000000     
   1.0000000000000000       0.21875000000000000        0.0000000000000000     
   1.0312500000000000       0.21875000000000000        0.0000000000000000     
   1.0625000000000000       0.21875000000000000        0.0000000000000000     
   1.0937500000000000       0.21875000000000000        0.0000000000000000     
   1.1250000000000000       0.21875000000000000        0.0000000000000000     
   1.0000000000000000       0.25000000000000000        0.0000000000000000     
   1.0312500000000000       0.25000000000000000        0.0000000000000000     
   1.0625000000000000       0.25000000000000000        0.0000000000000000     
   1.0937500000000000       0.25000000000000000        0.0000000000000000     
   1.1250000000000000       0.25000000000000000        0.0000000000000000     
   1.1250000000000000       0.12500000000000000        0.0000000000000000     
   1.1562500000000000       0.12500000000000000        0.0000000000000000     
   1.1875000000000000       0.12500000000000000        0.0000000000000000     
   1.2187500000000000       0.12500000000000000        0.0000000000000000     
   1.2500000000000000       0.12500000000000000        0.0000000000000000     
   1.1250000000000000       0.15625000000000000        0.0000000000000000     
   1.1562500000000000       0.15625000000000000        0.0000000000000000     
   1.1875000000000000       0.15625000000000000        0.0000000000000000     
   1.2187500000000000       0.15625000000000000        0.0000000000000000     
   1.2500000000000000       0.15625000000000000        0.0000000000000000     
   1.1250000000000000       0.18750000000000000        0.0000000000000000     
   1.1562500000000000       0.18750000000000000        0.0000000000000000     
   1.1875000000000000       0.18750000000000000        0.0000000000000000     
   1.2187500000000000       0.18750000000000000        0.0000000000000000     
   1.2500000000000000       0.18750000000000000        0.0000000000000000     
   1.1250000000000000       0.21875000000000000        0.0000000000000000     
   1.1562500000000000       0.21875000000000000        0.0000000000000000     
   1.1875000000000000       0.21875000000000000        0.0000000000000000     
   1.2187500000000000       0.21875000000000000        0.0000000000000000     
   1.2500000000000000       0.21875000000000000        0.0000000000000000     
   1.1250000000000000       0.25000000000000000        0.0000000000000000     
   1.1562500000000000       0.25000000000000000        0.0000000000000000     
   1.1875000000000000       0.25000000000000000        0.0000000000000000     
   1.2187500000000000       0.25000000000000000        0.0000000000000000     
   1.2500000000000000       0.25000000000000000        0.0000000000000000     
   1.2500000000000000       0.12500000000000000        0.0000000000000000     
   1.2812500000000000       0.12500000000000000        0.0000000000000000     
   1.3125000000000000       0.12500000000000000        0.0000000000000000     
   1.3437500000000000       0.12500000000000000        0.0000000000000000     
   1.3750000000000000       0.12500000000000000        0.0000000000000000     
   1.2500000000000000       0.15625000000000000        0.0000000000000000     
   1.2812500000000000       0.15625000000000000        0.0000000000000000     
   1.3125000000000000       0.15625000000000000        0.0000000000000000     
   1.3437500000000000       0.15625000000000000        0.0000000000000000     
   1.3750000000000000       0.15625000000000000        0.0000000000000000     
   1.2500000000000000       0.18750000000000000        0.0000000000000000     
   1.2812500000000000       0.18750000000000000        0.0000000000000000     
   1.3125000000000000       0.18750000000000000        0.0000000000000000     
   1.3437500000000000       0.18750000000000000        0.0000000000000000     
   1.3750000000000000       0.18750000000000000        0.0000000000000000     
   1.2500000000000000       0.21875000000000000        0.0000000000000000     
   1.2812500000000000       0.21875000000000000        0.0000000000000000     
   1.3125000000000000       0.21875000000000000        0.0000000000000000     
   1.3437500000000000       0.21875000000000000        0.0000000000000000     
   1.3750000000000000       0.21875000000000000        0.0000000000000000     
   1.2500000000000000       0.25000000000000000        0.0000000000000000     
   1.2812500000000000       0.25000000000000000        0.0000000000000000     
   1.3125000000000000       0.25000000000000000        0.0000000000000000     
   1.3437500000000000       0.25000000000000000        0.0000000000000000     
   1.3750000000000000       0.25000000000000000        0.0000000000000000     
   1.3750000000000000       0.12500000000000000        0.0000000000000000     
   1.4062500000000000       0.12500000000000000        0.0000000000000000     
   1.4375000000000000       0.12500000000000000        0.0000000000000000     
   1.4687500000000000       0.12500000000000000        0.0000000000000000     
   1.5000000000000000       0.12500000000000000        0.0000000000000000     
   1.3750000000000000       0.15625000000000000        0.0000000000000000     
   1.4062500000000000       0.15625000000000000        0.0000000000000000     
   1.4375000000000000       0.15625000000000000        0.0000000000000000     
   1.4687500000000000       0.15625000000000000        0.0000000000000000     
   1.5000000000000000       0.15625000000000000        0.0000000000000000     
   1.3750000000000000       0.18750000000000000        0.0000000000000000     
   1.4062500000000000       0.18750000000000000        0.0000000000000000     
   1.4375000000000000       0.18750000000000000        0.0000000000000000     
   1.4687500000000000       0.18750000000000000        0.0000000000000000     
   1.5000000000000000       0.18750000000000000        0.0000000000000000     
   1.3750000000000000       0.21875000000000000        0.0000000000000000     
   1.4062500000000000       0.21875000000000000        0.0000000000000000     
   1.4375000000000000       0.21875000000000000        0.0000000000000000     
   1.4687500000000000       0.21875000000000000        0.0000000000000000     
   1.5000000000000000       0.21875000000000000        0.0000000000000000     
   1.3750000000000000       0.25000000000000000        0.0000000000000000     
   1.4062500000000000       0.25000000000000000        0.0000000000000000     
   1.4375000000000000       0.25000000000000000        0.0000000000000000     
   1.4687500000000000       0.25000000000000000        0.0000000000000000     
   1.5000000000000000       0.25000000000000000        0.0000000000000000     
  0.50000000000000000       0.25000000000000000        0.0000000000000000     
  0.53125000000000000       0.25000000000000000        0.0000000000000000     
  0.56250000000000000       0.25000000000000000        0.0000000000000000     
  0.59375000000000000       0.25000000000000000        0.0000000000000000     
  0.62500000000000000       0.25000000000000000        0.0000000000000000     
  0.50000000000000000       0.28125000000000000        0.0000000000000000     
  0.53125000000000000       0.28125000000000000        0.0000000000000000     
  0.56250000000000000       0.28125000000000000        0.0000000000000000     
  0.59375000000000000       0.28125000000000000        0.0000000000000000     
  0.62500000000000000       0.28125000000000000        0.0000000000000000     
  0.50000000000000000       0.31250000000000000        0.0000000000000000     
  0.53125000000000000       0.31250000000000000        0.0000000000000000     
  0.56250000000000000       0.31250000000000000        0.0000000000000000     
  0.59375000000000000       0.31250000000000000        0.0000000000000000     
  0.62500000000000000       0.31250000000000000        0.0000000000000000     
  0.50000000000000000       0.34375000000000000        0.0000000000000000     
  0.53125000000000000       0.34375000000000000        0.0000000000000000     
  0.56250000000000000       0.34375000000000000        0.0000000000000000     
  0.59375000000000000       0.34375000000000000        0.0000000000000000     
  0.62500000000000000       0.34375000000000000        0.0000000000000000     
  0.50000000000000000       0.37500000000000000        0.0000000000000000     
  0.53125000000000000       0.37500000000000000        0.0000000000000000     
  0.56250000000000000       0.37500000000000000        0.0000000000000000     
  0.59375000000000000       0.37500000000000000        0.0000000000000000     
  0.62500000000000000       0.37500000000000000        0.0000000000000000     
  0.62500000000000000       0.25000000000000000        0.0000000000000000     
  0.65625000000000000       0.25000000000000000        0.0000000000000000     
  0.68750000000000000       0.25000000000000000        0.0000000000000000     
  0.71875000000000000       0.25000000000000000        0.0000000000000000     
  0.75000000000000000       0.25000000000000000        0.0000000000000000     
  0.62500000000000000       0.28125000000000000        0.0000000000000000     
  0.65625000000000000       0.28125000000000000        0.0000000000000000     
  0.68750000000000000       0.28125000000000000        0.0000000000000000     
  0.71875000000000000       0.28125000000000000        0.0000000000000000     
  0.75000000000000000       0.28125000000000000        0.0000000000000000     
  0.62500000000000000       0.31250000000000000        0.0000000000000000     
  0.65625000000000000       0.31250000000000000        0.0000000000000000     
  0.68750000000000000       0.31250000000000000        0.0000000000000000     
  0.71875000000000000       0.31250000000000000        0.0000000000000000     
  0.75000000000000000       0.31250000000000000        0.0000000000000000     
  0.62500000000000000       0.34375000000000000        0.0000000000000000     
  0.65625000000000000       0.34375000000000000        0.0000000000000000     
  0.68750000000000000       0.34375000000000000        0.0000000000000000     
  0.71875000000000000       0.34375000000000000        0.0000000000000000     
  0.75000000000000000       0.34375000000000000        0.0000000000000000     
  0.62500000000000000       0.37500000000000000        0.0000000000000000     
  0.65625000000000000       0.37500000000000000        0.0000000000000000     
  0.68750000000000000       0.37500000000000000        0.0000000000000000     
  0.71875000000000000       0.37500000000000000        0.0000000000000000     
  0.75000000000000000       0.37500000000000000        0.0000000000000000     
  0.75000000000000000       0.25000000000000000        0.0000000000000000     
  0.78125000000000000       0.25000000000000000        0.0000000000000000     
  0.81250000000000000       0.25000000000000000        0.0000000000000000     
  0.84375000000000000       0.25000000000000000        0.0000000000000000     
  0.87500000000000000       0.25000000000000000        0.0000000000000000     
  0.75000000000000000       0.28125000000000000        0.0000000000000000     
  0.78125000000000000       0.28125000000000000        0.0000000000000000     
  0.81250000000000000       0.28125000000000000        0.0000000000000000     
  0.84375000000000000       0.28125000000000000        0.0000000000000000     
  0.87500000000000000       0.28125000000000000        0.0000000000000000     
  0.75000000000000000       0.31250000000000000        0.0000000000000000     
  0.78125000000000000       0.31250000000000000        0.0000000000000000     
  0.81250000000000000       0.31250000000000000        0.0000000000000000     
  0.84375000000000000       0.31250000000000000        0.0000000000000000     
  0.87500000000000000       0.31250000000000000        0.0000000000000000     
  0.75000000000000000       0.34375000000000000        0.0000000000000000     
  0.78125000000000000       0.34375000000000000        0.0000000000000000     
  0.81250000000000000       0.34375000000000000        0.0000000000000000     
  0.84375000000000000       0.34375000000000000        0.0000000000000000     
  0.87500000000000000       0.34375000000000000        0.0000000000000000     
  0.75000000000000000       0.37500000000000000        0.0000000000000000     
  0.78125000000000000       0.37500000000000000        0.0000000000000000     
  0.81250000000000000       0.37500000000000000        0.0000000000000000     
  0.84375000000000000       0.37500000000000000        0.0000000000000000     
  0.87500000000000000       0.37500000000000000        0.0000000000000000     
  0.87500000000000000       0.25000000000000000        0.0000000000000000     
  0.90625000000000000       0.25000000000000000        0.0000000000000000     
  0.93750000000000000       0.25000000000000000        0.0000000000000000     
  0.96875000000000000       0.25000000000000000        0.0000000000000000     
   1.0000000000000000       0.25000000000000000        0.0000000000000000     
  0.87500000000000000       0.28125000000000000        0.0000000000000000     
  0.90625000000000000       0.28125000000000000        0.0000000000000000     
  0.93750000000000000       0.28125000000000000        0.0000000000000000     
  0.96875000000000000       0.28125000000000000        0.0000000000000000     
   1.0000000000000000       0.28125000000000000        0.0000000000000000     
  0.87500000000000000       0.31250000000000000        0.0000000000000000     
  0.90625000000000000       0.31250000000000000        0.0000000000000000     
  0.93750000000000000       0.31250000000000000        0.0000000000000000     
  0.96875000000000000       0.31250000000000000        0.0000000000000000     
   1.0000000000000000       0.31250000000000000        0.0000000000000000     
  0.87500000000000000       0.34375000000000000        0.0000000000000000     
  0.90625000000000000       0.34375000000000000        0.0000000000000000     
  0.93750000000000000       0.34375000000000000        0.0000000000000000     
  0.96875000000000000       0.34375000000000000        0.0000000000000000     
   1.0000000000000000       0.34375000000000000        0.0000000000000000     
  0.87500000000000000       0.37500000000000000        0.0000000000000000     
  0.90625000000000000       0.37500000000000000        0.0000000000000000     
  0.93750000000000000       0.37500000000000000        0.0000000000000000     
  0.96875000000000000       0.37500000000000000        0.0000000000000000     
   1.0000000000000000       0.37500000000000000        0.0000000000000000     
   1.0000000000000000       0.25000000000000000        0.0000000000000000     
   1.0312500000000000       0.25000000000000000        0.0000000000000000     
   1.0625000000000000       0.25000000000000000        0.0000000000000000     
   1.0937500000000000       0.25000000000000000        0.0000000000000000     
   1.1250000000000000       0.25000000000000000        0.0000000000000000     
   1.0000000000000000       0.28125000000000000        0.0000000000000000     
   1.0312500000000000       0.28125000000000000        0.0000000000000000     
   1.0625000000000000       0.28125000000000000        0.0000000000000000     
   1.0937500000000000       0.28125000000000000        0.0000000000000000     
   1.1250000000000000       0.28125000000000000        0.0000000000000000     
   1.0000000000000000       0.31250000000000000        0.0000000000000000     
   1.0312500000000000       0.31250000000000000        0.0000000000000000     
   1.0625000000000000       0.31250000000000000        0.0000000000000000     
   1.0937500000000000       0.31250000000000000        0.0000000000000000     
   1.1250000000000000       0.31250000000000000        0.0000000000000000     
   1.0000000000000000       0.34375000000000000        0.0000000000000000     
   1.0312500000000000       0.34375000000000000        0.0000000000000000     
   1.0625000000000000       0.34375000000000000        0.0000000000000000     
   1.0937500000000000       0.34375000000000000        0.0000000000000000     
   1.1250000000000000       0.34375000000000000        0.0000000000000000     
   1.0000000000000000       0.37500000000000000        0.0000000000000000     
   1.0312500000000000       0.37500000000000000        0.0000000000000000     
   1.0625000000000000       0.37500000000000000        0.0000000000000000     
   1.0937500000000000       0.37500000000000000        0.0000000000000000     
   1.1250000000000000       0.37500000000000000        0.0000000000000000     
   1.1250000000000000       0.25000000000000000        0.0000000000000000     
   1.1562500000000000       0.25000000000000000        0.0000000000000000     
   1.1875000000000000       0.25000000000000000        0.0000000000000000     
   1.2187500000000000       0.25000000000000000        0.0000000000000000     
   1.2500000000000000       0.25000000000000000        0.0000000000000000     
   1.1250000000000000       0.28125000000000000        0.0000000000000000     
   1.1562500000000000       0.28125000000000000        0.0000000000000000     
   1.1875000000000000       0.28125000000000000        0.0000000000000000     
   1.2187500000000000       0.28125000000000000        0.0000000000000000     
   1.2500000000000000       0.28125000000000000        0.0000000000000000     
   1.1250000000000000       0.31250000000000000        0.0000000000000000     
   1.1562500000000000       0.31250000000000000        0.0000000000000000     
   1.1875000000000000       0.31250000000000000        0.0000000000000000     
   1.2187500000000000       0.31250000000000000        0.0000000000000000     
   1.2500000000000000       0.31250000000000000        0.0000000000000000     
   1.1250000000000000       0.34375000000000000        0.0000000000000000     
   1.1562500000000000       0.34375000000000000        0.0000000000000000     
   1.1875000000000000       0.34375000000000000        0.0000000000000000     
   1.2187500000000000       0.34375000000000000        0.0000000000000000     
   1.2500000000000000       0.34375000000000000        0.0000000000000000     
   1.1250000000000000       0.37500000000000000        0.0000000000000000     
   1.1562500000000000       0.37500000000000000        0.0000000000000000     
   1.1875000000000000       0.37500000000000000        0.0000000000000000     
   1.2187500000000000       0.37500000000000000        0.0000000000000000     
   1.2500000000000000       0.37500000000000000        0.0000000000000000     
   1.2500000000000000       0.25000000000000000        0.0000000000000000     
   1.2812500000000000       0.25000000000000000        0.0000000000000000     
   1.3125000000000000       0.25000000000000000        0.0000000000000000     
   1.3437500000000000       0.25000000000000000        0.0000000000000000     
   1.3750000000000000       0.25000000000000000        0.0000000000000000     
   1.2500000000000000       0.28125000000000000        0.0000000000000000     
   1.2812500000000000       0.28125000000000000        0.0000000000000000     
   1.3125000000000000       0.28125000000000000        0.0000000000000000     
   1.3437500000000000       0.28125000000000000        0.0000000000000000     
   1.3750000000000000       0.28125000000000000        0.0000000000000000     
   1.2500000000000000       0.31250000000000000        0.0000000000000000     
   1.2812500000000000       0.31250000000000000        0.0000000000000000     
   1.3125000000000000       0.31250000000000000        0.0000000000000000     
   1.3437500000000000       0.31250000000000000        0.0000000000000000     
   1.3750000000000000       0.31250000000000000        0.0000000000000000     
   1.2500000000000000       0.34375000000000000        0.0000000000000000     
   1.2812500000000000       0.34375000000000000        0.0000000000000000     
   1.3125000000000000       0.34375000000000000        0.0000000000000000     
   1.3437500000000000       0.34375000000000000        0.0000000000000000     
   1.3750000000000000       0.34375000000000000        0.0000000000000000     
   1.2500000000000000       0.37500000000000000        0.0000000000000000     
   1.2812500000000000       0.37500000000000000        0.0000000000000000     
   1.3125000000000000       0.37500000000000000        0.0000000000000000     
   1.3437500000000000       0.37500000000000000        0.0000000000000000     
   1.3750000000000000       0.37500000000000000        0.0000000000000000     
   1.3750000000000000       0.25000000000000000        0.0000000000000000     
   1.4062500000000000       0.25000000000000000        0.0000000000000000     
   1.4375000000000000       0.25000000000000000        0.0000000000000000     
   1.4687500000000000       0.25000000000000000        0.0000000000000000     
   1.5000000000000000       0.25000000000000000        0.0000000000000000     
   1.3750000000000000       0.28125000000000000        0.0000000000000000     
   1.4062500000000000       0.28125000000000000        0.0000000000000000     
   1.4375000000000000       0.28125000000000000        0.0000000000000000     
   1.4687500000000000       0.28125000000000000        0.0000000000000000     
   1.5000000000000000       0.28125000000000000        0.0000000000000000     
   1.3750000000000000       0.31250000000000000        0.0000000000000000     
   1.4062500000000000       0.31250000000000000        0.0000000000000000     
   1.4375000000000000       0.31250000000000000        0.0000000000000000     
   1.4687500000000000       0.31250000000000000        0.0000000000000000     
   1.5000000000000000       0.31250000000000000        0.0000000000000000     
   1.3750000000000000       0.34375000000000000        0.0000000000000000     
   1.4062500000000000       0.34375000000000000        0.0000000000000000     
   1.4375000000000000       0.34375000000000000        0.0000000000000000     
   1.4687500000000000       0.34375000000000000        0.0000000000000000     
   1.5000000000000000       0.34375000000000000        0.0000000000000000     
   1.3750000000000000       0.37500000000000000        0.0000000000000000     
   1.4062500000000000       0.37500000000000000        0.0000000000000000     
   1.4375000000000000       0.37500000000000000        0.0000000000000000     
   1.4687500000000000       0.37500000000000000        0.0000000000000000     
   1.5000000000000000       0.37500000000000000        0.0000000000000000     
  0.50000000000000000       0.37500000000000000        0.0000000000000000     
  0.53125000000000000       0.37500000000000000        0.0000000000000000     
  0.56250000000000000       0.37500000000000000        0.0000000000000000     
  0.59375000000000000       0.37500000000000000        0.0000000000000000     
  0.62500000000000000       0.37500000000000000        0.0000000000000000     
  0.50000000000000000       0.40625000000000000        0.0000000000000000     
  0.53125000000000000       0.40625000000000000        0.0000000000000000     
  0.56250000000000000       0.40625000000000000        0.0000000000000000     
  0.59375000000000000       0.40625000000000000        0.0000000000000000     
  0.62500000000000000       0.40625000000000000        0.0000000000000000     
  0.50000000000000000       0.43750000000000000        0.0000000000000000     
  0.53125000000000000       0.43750000000000000        0.0000000000000000     
  0.56250000000000000       0.43750000000000000        0.0000000000000000     
  0.59375000000000000       0.43750000000000000        0.0000000000000000     
  0.62500000000000000       0.43750000000000000        0.0000000000000000     
  0.50000000000000000       0.46875000000000000        0.0000000000000000     
  0.53125000000000000       0.46875000000000000        0.0000000000000000     
  0.56250000000000000       0.46875000000000000        0.0000000000000000     
  0.59375000000000000       0.46875000000000000        0.0000000000000000     
  0.62500000000000000       0.46875000000000000        0.0000000000000000     
  0.50000000000000000       0.50000000000000000        0.0000000000000000     
  0.53125000000000000       0.50000000000000000        0.0000000000000000     
  0.56250000000000000       0.50000000000000000        0.0000000000000000     
  0.59375000000000000       0.50000000000000000        0.0000000000000000     
  0.62500000000000000       0.50000000000000000        0.0000000000000000     
  0.62500000000000000       0.37500000000000000        0.0000000000000000     
  0.65625000000000000       0.37500000000000000        0.0000000000000000     
  0.68750000000000000       0.37500000000000000        0.0000000000000000     
  0.71875000000000000       0.37500000000000000        0.0000000000000000     
  0.75000000000000000       0.37500000000000000        0.0000000000000000     
  0.62500000000000000       0.40625000000000000        0.0000000000000000     
  0.65625000000000000       0.40625000000000000        0.0000000000000000     
  0.68750000000000000       0.40625000000000000        0.0000000000000000     
  0.71875000000000000       0.40625000000000000        0.0000000000000000     
  0.75000000000000000       0.40625000000000000        0.0000000000000000     
  0.62500000000000000       0.43750000000000000        0.0000000000000000     
  0.65625000000000000       0.43750000000000000        0.0000000000000000     
  0.68750000000000000       0.43750000000000000        0.0000000000000000     
  0.71875000000000000       0.43750000000000000        0.0000000000000000     
  0.75000000000000000       0.43750000000000000        0.0000000000000000     
  0.62500000000000000       0.46875000000000000        0.0000000000000000     
  0.65625000000000000       0.46875000000000000        0.0000000000000000     
  0.68750000000000000       0.46875000000000000        0.0000000000000000     
  0.71875000000000000       0.46875000000000000        0.0000000000000000     
  0.75000000000000000       0.46875000000000000        0.0000000000000000     
  0.62500000000000000       0.50000000000000000        0.0000000000000000     
  0.65625000000000000       0.50000000000000000        0.0000000000000000     
  0.68750000000000000       0.50000000000000000        0.0000000000000000     
  0.71875000000000000       0.50000000000000000        0.0000000000000000     
  0.75000000000000000       0.50000000000000000        0.0000000000000000     
  0.75000000000000000       0.37500000000000000        0.0000000000000000     
  0.78125000000000000       0.37500000000000000        0.0000000000000000     
  0.81250000000000000       0.37500000000000000        0.0000000000000000     
  0.84375000000000000       0.37500000000000000        0.0000000000000000     
  0.87500000000000000       0.37500000000000000        0.0000000000000000     
  0.75000000000000000       0.40625000000000000        0.0000000000000000     
  0.78125000000000000       0.40625000000000000        0.0000000000000000     
  0.81250000000000000       0.40625000000000000        0.0000000000000000     
  0.84375000000000000       0.40625000000000000        0.0000000000000000     
  0.87500000000000000       0.40625000000000000        0.0000000000000000     
  0.75000000000000000       0.43750000000000000        0.0000000000000000     
  0.78125000000000000       0.43750000000000000        0.0000000000000000     
  0.81250000000000000       0.43750000000000000        0.0000000000000000     
  0.84375000000000000       0.43750000000000000        0.0000000000000000     
  0.87500000000000000       0.43750000000000000        0.0000000000000000     
  0.75000000000000000       0.46875000000000000        0.0000000000000000     
  0.78125000000000000       0.46875000000000000        0.0000000000000000     
  0.81250000000000000       0.46875000000000000        0.0000000000000000     
  0.84375000000000000       0.46875000000000000        0.0000000000000000     
  0.87500000000000000       0.46875000000000000        0.0000000000000000     
  0.75000000000000000       0.50000000000000000        0.0000000000000000     
  0.78125000000000000       0.50000000000000000        0.0000000000000000     
  0.81250000000000000       0.50000000000000000        0.0000000000000000     
  0.84375000000000000       0.50000000000000000        0.0000000000000000     
  0.87500000000000000       0.50000000000000000        0.0000000000000000     
  0.87500000000000000       0.37500000000000000        0.0000000000000000     
  0.90625000000000000       0.37500000000000000        0.0000000000000000     
  0.93750000000000000       0.37500000000000000        0.0000000000000000     
  0.96875000000000000       0.37500000000000000        0.0000000000000000     
   1.0000000000000000       0.37500000000000000        0.0000000000000000     
  0.87500000000000000       0.40625000000000000        0.0000000000000000     
  0.90625000000000000       0.40625000000000000        0.0000000000000000     
  0.93750000000000000       0.40625000000000000        0.0000000000000000     
  0.96875000000000000       0.40625000000000000        0.0000000000000000     
   1.0000000000000000       0.40625000000000000        0.0000000000000000     
  0.87500000000000000       0.43750000000000000        0.0000000000000000     
  0.90625000000000000       0.43750000000000000        0.0000000000000000     
  0.93750000000000000       0.43750000000000000        0.0000000000000000     
  0.96875000000000000       0.43750000000000000        0.0000000000000000     
   1.0000000000000000       0.43750000000000000        0.0000000000000000     
  0.87500000000000000       0.46875000000000000        0.0000000000000000     
  0.90625000000000000       0.46875000000000000        0.0000000000000000     
  0.93750000000000000       0.46875000000000000        0.0000000000000000     
  0.96875000000000000       0.46875000000000000        0.0000000000000000     
   1.0000000000000000       0.46875000000000000        0.0000000000000000     
  0.87500000000000000       0.50000000000000000        0.0000000000000000     
  0.90625000000000000       0.50000000000000000        0.0000000000000000     
  0.93750000000000000       0.50000000000000000        0.0000000000000000     
  0.96875000000000000       0.50000000000000000        0.0000000000000000     
   1.0000000000000000       0.50000000000000000        0.0000000000000000     
   1.0000000000000000       0.37500000000000000        0.0000000000000000     
   1.0312500000000000       0.37500000000000000        0.0000000000000000     
   1.0625000000000000       0.37500000000000000        0.0000000000000000     
   1.0937500000000000       0.37500000000000000        0.0000000000000000     
   1.1250000000000000       0.37500000000000000        0.0000000000000000     
   1.0000000000000000       0.40625000000000000        0.0000000000000000     
   1.0312500000000000       0.40625000000000000        0.0000000000000000     
   1.0625000000000000       0.40625000000000000        0.0000000000000000     
   1.0937500000000000       0.40625000000000000        0.0000000000000000     
   1.1250000000000000       0.40625000000000000        0.0000000000000000     
   1.0000000000000000       0.43750000000000000        0.0000000000000000     
   1.0312500000000000       0.43750000000000000        0.0000000000000000     
   1.0625000000000000       0.43750000000000000        0.0000000000000000     
   1.0937500000000000       0.43750000000000000        0.0000000000000000     
   1.1250000000000000       0.43750000000000000        0.0000000000000000     
   1.0000000000000000       0.46875000000000000        0.0000000000000000     
   1.0312500000000000       0.46875000000000000        0.0000000000000000     
   1.0625000000000000       0.46875000000000000        0.0000000000000000     
   1.0937500000000000       0.46875000000000000        0.0000000000000000     
   1.1250000000000000       0.46875000000000000        0.0000000000000000     
   1.0000000000000000       0.50000000000000000        0.0000000000000000     
   1.0312500000000000       0.50000000000000000        0.0000000000000000     
   1.0625000000000000       0.50000000000000000        0.0000000000000000     
   1.0937500000000000       0.50000000000000000        0.0000000000000000     
   1.1250000000000000       0.50000000000000000        0.0000000000000000     
   1.1250000000000000       0.37500000000000000        0.0000000000000000     
   1.1562500000000000       0.37500000000000000        0.0000000000000000     
   1.1875000000000000       0.37500000000000000        0.0000000000000000     
   1.2187500000000000       0.37500000000000000        0.0000000000000000     
   1.2500000000000000       0.37500000000000000        0.0000000000000000     
   1.1250000000000000       0.40625000000000000        0.0000000000000000     
   1.1562500000000000       0.40625000000000000        0.0000000000000000     
   1.1875000000000000       0.40625000000000000        0.0000000000000000     
   1.2187500000000000       0.40625000000000000        0.0000000000000000     
   1.2500000000000000       0.40625000000000000        0.0000000000000000     
   1.1250000000000000       0.43750000000000000        0.0000000000000000     
   1.1562500000000000       0.43750000000000000        0.0000000000000000     
   1.1875000000000000       0.43750000000000000        0.0000000000000000     
   1.2187500000000000       0.43750000000000000        0.0000000000000000     
   1.2500000000000000       0.43750000000000000        0.0000000000000000     
   1.1250000000000000       0.46875000000000000        0.0000000000000000     
   1.1562500000000000       0.46875000000000000        0.0000000000000000     
   1.1875000000000000       0.46875000000000000        0.0000000000000000     
   1.2187500000000000       0.46875000000000000        0.0000000000000000     
   1.2500000000000000       0.46875000000000000        0.0000000000000000     
   1.1250000000000000       0.50000000000000000        0.0000000000000000     
   1.1562500000000000       0.50000000000000000        0.0000000000000000     
   1.1875000000000000       0.50000000000000000        0.0000000000000000     
   1.2187500000000000       0.50000000000000000        0.0000000000000000     
   1.2500000000000000       0.50000000000000000        0.0000000000000000     
   1.2500000000000000       0.37500000000000000        0.0000000000000000     
   1.2812500000000000       0.37500000000000000        0.0000000000000000     
   1.3125000000000000       0.37500000000000000        0.0000000000000000     
   1.3437500000000000       0.37500000000000000        0.0000000000000000     
   1.3750000000000000       0.37500000000000000        0.0000000000000000     
   1.2500000000000000       0.40625000000000000        0.0000000000000000     
   1.2812500000000000       0.40625000000000000        0.0000000000000000     
   1.3125000000000000       0.40625000000000000        0.0000000000000000     
   1.3437500000000000       0.40625000000000000        0.0000000000000000     
   1.3750000000000000       0.40625000000000000        0.0000000000000000     
   1.2500000000000000       0.43750000000000000        0.0000000000000000     
   1.2812500000000000       0.43750000000000000        0.0000000000000000     
   1.3125000000000000       0.43750000000000000        0.0000000000000000     
   1.3437500000000000       0.43750000000000000        0.0000000000000000     
   1.3750000000000000       0.43750000000000000        0.0000000000000000     
   1.2500000000000000       0.46875000000000000        0.0000000000000000     
   1.2812500000000000       0.46875000000000000        0.0000000000000000     
   1.3125000000000000       0.46875000000000000        0.0000000000000000     
   1.3437500000000000       0.46875000000000000        0.0000000000000000     
   1.3750000000000000       0.46875000000000000        0.0000000000000000     
   1.2500000000000000       0.50000000000000000        0.0000000000000000     
   1.2812500000000000       0.50000000000000000        0.0000000000000000     
   1.3125000000000000       0.50000000000000000        0.0000000000000000     
   1.3437500000000000       0.50000000000000000        0.0000000000000000     
   1.3750000000000000       0.50000000000000000        0.0000000000000000     
   1.3750000000000000       0.37500000000000000        0.0000000000000000     
   1.4062500000000000       0.37500000000000000        0.0000000000000000     
   1.4375000000000000       0.37500000000000000        0.0000000000000000     
   1.4687500000000000       0.37500000000000000        0.0000000000000000     
   1.5000000000000000       0.37500000000000000        0.0000000000000000     
   1.3750000000000000       0.40625000000000000        0.0000000000000000     
   1.4062500000000000       0.40625000000000000        0.0000000000000000     
   1.4375000000000000       0.40625000000000000        0.0000000000000000     
   1.4687500000000000       0.40625000000000000        0.0000000000000000     
   1.5000000000000000       0.40625000000000000        0.0000000000000000     
   1.3750000000000000       0.43750000000000000        0.0000000000000000     
   1.4062500000000000       0.43750000000000000        0.0000000000000000     
   1.4375000000000000       0.43750000000000000        0.0000000000000000     
   1.4687500000000000       0.43750000000000000        0.0000000000000000     
   1.5000000000000000       0.43750000000000000        0.0000000000000000     
   1.3750000000000000       0.46875000000000000        0.0000000000000000     
   1.4062500000000000       0.46875000000000000        0.0000000000000000     
   1.4375000000000000       0.46875000000000000        0.0000000000000000     
   1.4687500000000000       0.46875000000000000        0.0000000000000000     
   1.5000000000000000       0.46875000000000000        0.0000000000000000     
   1.3750000000000000       0.50000000000000000        0.0000000000000000     
   1.4062500000000000       0.50000000000000000        0.0000000000000000     
   1.4375000000000000       0.50000000000000000        0.0000000000000000     
   1.4687500000000000       0.50000000000000000        0.0000000000000000     
   1.5000000000000000       0.50000000000000000        0.0000000000000000     
  0.50000000000000000       0.50000000000000000        0.0000000000000000     
  0.53125000000000000       0.50000000000000000        0.0000000000000000     
  0.56250000000000000       0.50000000000000000        0.0000000000000000     
  0.59375000000000000       0.50000000000000000        0.0000000000000000     
  0.62500000000000000       0.50000000000000000        0.0000000000000000     
  0.50000000000000000       0.53125000000000000        0.0000000000000000     
  0.53125000000000000       0.53125000000000000        0.0000000000000000     
  0.56250000000000000       0.53125000000000000        0.0000000000000000     
  0.59375000000000000       0.53125000000000000        0.0000000000000000     
  0.62500000000000000       0.53125000000000000        0.0000000000000000     
  0.50000000000000000       0.56250000000000000        0.0000000000000000     
  0.53125000000000000       0.56250000000000000        0.0000000000000000     
  0.56250000000000000       0.56250000000000000        0.0000000000000000     
  0.59375000000000000       0.56250000000000000        0.0000000000000000     
  0.62500000000000000       0.56250000000000000        0.0000000000000000     
  0.50000000000000000       0.59375000000000000        0.0000000000000000     
  0.53125000000000000       0.59375000000000000        0.0000000000000000     
  0.56250000000000000       0.59375000000000000        0.0000000000000000     
  0.59375000000000000       0.59375000000000000        0.0000000000000000     
  0.62500000000000000       0.59375000000000000        0.0000000000000000     
  0.50000000000000000       0.62500000000000000        0.0000000000000000     
  0.53125000000000000       0.62500000000000000        0.0000000000000000     
  0.56250000000000000       0.62500000000000000        0.0000000000000000     
  0.59375000000000000       0.62500000000000000        0.0000000000000000     
  0.62500000000000000       0.62500000000000000        0.0000000000000000     
  0.62500000000000000       0.50000000000000000        0.0000000000000000     
  0.65625000000000000       0.50000000000000000        0.0000000000000000     
  0.68750000000000000       0.50000000000000000        0.0000000000000000     
  0.71875000000000000       0.50000000000000000        0.0000000000000000     
  0.75000000000000000       0.50000000000000000        0.0000000000000000     
  0.62500000000000000       0.53125000000000000        0.0000000000000000     
  0.65625000000000000       0.53125000000000000        0.0000000000000000     
  0.68750000000000000       0.53125000000000000        0.0000000000000000     
  0.71875000000000000       0.53125000000000000        0.0000000000000000     
  0.75000000000000000       0.53125000000000000        0.0000000000000000     
  0.62500000000000000       0.56250000000000000        0.0000000000000000     
  0.65625000000000000       0.56250000000000000        0.0000000000000000     
  0.68750000000000000       0.56250000000000000        0.0000000000000000     
  0.71875000000000000       0.56250000000000000        0.0000000000000000     
  0.75000000000000000       0.56250000000000000        0.0000000000000000     
  0.62500000000000000       0.59375000000000000        0.0000000000000000     
  0.65625000000000000       0.59375000000000000        0.0000000000000000     
  0.68750000000000000       0.59375000000000000        0.0000000000000000     
  0.71875000000000000       0.59375000000000000        0.0000000000000000     
  0.75000000000000000       0.59375000000000000        0.0000000000000000     
  0.62500000000000000       0.62500000000000000        0.0000000000000000     
  0.65625000000000000       0.62500000000000000        0.0000000000000000     
  0.68750000000000000       0.62500000000000000        0.0000000000000000     
  0.71875000000000000       0.62500000000000000        0.0000000000000000     
  0.75000000000000000       0.62500000000000000        0.0000000000000000     
  0.75000000000000000       0.50000000000000000        0.0000000000000000     
  0.78125000000000000       0.50000000000000000        0.0000000000000000     
  0.81250000000000000       0.50000000000000000        0.0000000000000000     
  0.84375000000000000       0.50000000000000000        0.0000000000000000     
  0.87500000000000000       0.50000000000000000        0.0000000000000000     
  0.75000000000000000       0.53125000000000000        0.0000000000000000     
  0.78125000000000000       0.53125000000000000        0.0000000000000000     
  0.81250000000000000       0.53125000000000000        0.0000000000000000     
  0.84375000000000000       0.53125000000000000        0.0000000000000000     
  0.87500000000000000       0.53125000000000000        0.0000000000000000     
  0.75000000000000000       0.56250000000000000        0.0000000000000000     
  0.78125000000000000       0.56250000000000000        0.0000000000000000     
  0.81250000000000000       0.56250000000000000        0.0000000000000000     
  0.84375000000000000       0.56250000000000000        0.0000000000000000     
  0.87500000000000000       0.56250000000000000        0.0000000000000000     
  0.75000000000000000       0.59375000000000000        0.0000000000000000     
  0.78125000000000000       0.59375000000000000        0.0000000000000000     
  0.81250000000000000       0.59375000000000000        0.0000000000000000     
  0.84375000000000000       0.59375000000000000        0.0000000000000000     
  0.87500000000000000       0.59375000000000000        0.0000000000000000     
  0.75000000000000000       0.62500000000000000        0.0000000000000000     
  0.78125000000000000       0.62500000000000000        0.0000000000000000     
  0.81250000000000000       0.62500000000000000        0.0000000000000000     
  0.84375000000000000       0.62500000000000000        0.0000000000000000     
  0.87500000000000000       0.62500000000000000        0.0000000000000000     
  0.87500000000000000       0.50000000000000000        0.0000000000000000     
  0.90625000000000000       0.50000000000000000        0.0000000000000000     
  0.93750000000000000       0.50000000000000000        0.0000000000000000     
  0.96875000000000000       0.50000000000000000        0.0000000000000000     
   1.0000000000000000       0.50000000000000000        0.0000000000000000     
  0.87500000000000000       0.53125000000000000        0.0000000000000000     
  0.90625000000000000       0.53125000000000000        0.0000000000000000     
  0.93750000000000000       0.53125000000000000        0.0000000000000000     
  0.96875000000000000       0.53125000000000000        0.0000000000000000     
   1.0000000000000000       0.53125000000000000        0.0000000000000000     
  0.87500000000000000       0.56250000000000000        0.0000000000000000     
  0.90625000000000000       0.56250000000000000        0.0000000000000000     
  0.93750000000000000       0.56250000000000000        0.0000000000000000     
  0.96875000000000000       0.56250000000000000        0.0000000000000000     
   1.0000000000000000       0.56250000000000000        0.0000000000000000     
  0.87500000000000000       0.59375000000000000        0.0000000000000000     
  0.90625000000000000       0.59375000000000000        0.0000000000000000     
  0.93750000000000000       0.59375000000000000        0.0000000000000000     
  0.96875000000000000       0.59375000000000000        0.0000000000000000     
   1.0000000000000000       0.59375000000000000        0.0000000000000000     
  0.87500000000000000       0.62500000000000000        0.0000000000000000     
  0.90625000000000000       0.62500000000000000        0.0000000000000000     
  0.93750000000000000       0.62500000000000000        0.0000000000000000     
  0.96875000000000000       0.62500000000000000        0.0000000000000000     
   1.0000000000000000       0.62500000000000000        0.0000000000000000     
   1.0000000000000000       0.50000000000000000        0.0000000000000000     
   1.0312500000000000       0.50000000000000000        0.0000000000000000     
   1.0625000000000000       0.50000000000000000        0.0000000000000000     
   1.0937500000000000       0.50000000000000000        0.0000000000000000     
   1.1250000000000000       0.50000000000000000        0.0000000000000000     
   1.0000000000000000       0.53125000000000000        0.0000000000000000     
   1.0312500000000000       0.53125000000000000        0.0000000000000000     
   1.0625000000000000       0.53125000000000000        0.0000000000000000     
   1.0937500000000000       0.53125000000000000        0.0000000000000000     
   1.1250000000000000       0.53125000000000000        0.0000000000000000     
   1.0000000000000000       0.56250000000000000        0.0000000000000000     
   1.0312500000000000       0.56250000000000000        0.0000000000000000     
   1.0625000000000000       0.56250000000000000        0.0000000000000000     
   1.0937500000000000       0.56250000000000000        0.0000000000000000     
   1.1250000000000000       0.56250000000000000        0.0000000000000000     
   1.0000000000000000       0.59375000000000000        0.0000000000000000     
   1.0312500000000000       0.59375000000000000        0.0000000000000000     
   1.0625000000000000       0.59375000000000000        0.0000000000000000     
   1.0937500000000000       0.59375000000000000        0.0000000000000000     
   1.1250000000000000       0.59375000000000000        0.0000000000000000     
   1.0000000000000000       0.62500000000000000        0.0000000000000000     
   1.0312500000000000       0.62500000000000000        0.0000000000000000     
   1.0625000000000000       0.62500000000000000        0.0000000000000000     
   1.0937500000000000       0.62500000000000000        0.0000000000000000     
   1.1250000000000000       0.62500000000000000        0.0000000000000000     
   1.1250000000000000       0.50000000000000000        0.0000000000000000     
   1.1562500000000000       0.50000000000000000        0.0000000000000000     
   1.1875000000000000       0.50000000000000000        0.0000000000000000     
   1.2187500000000000       0.50000000000000000        0.0000000000000000     
   1.2500000000000000       0.50000000000000000        0.0000000000000000     
   1.1250000000000000       0.53125000000000000        0.0000000000000000     
   1.1562500000000000       0.53125000000000000        0.0000000000000000     
   1.1875000000000000       0.53125000000000000        0.0000000000000000     
   1.2187500000000000       0.53125000000000000        0.0000000000000000     
   1.2500000000000000       0.53125000000000000        0.0000000000000000     
   1.1250000000000000       0.56250000000000000        0.0000000000000000     
   1.1562500000000000       0.56250000000000000        0.0000000000000000     
   1.1875000000000000       0.56250000000000000        0.0000000000000000     
   1.2187500000000000       0.56250000000000000        0.0000000000000000     
   1.2500000000000000       0.56250000000000000        0.0000000000000000     
   1.1250000000000000       0.59375000000000000        0.0000000000000000     
   1.1562500000000000       0.59375000000000000        0.0000000000000000     
   1.1875000000000000       0.59375000000000000        0.0000000000000000     
   1.2187500000000000       0.59375000000000000        0.0000000000000000     
   1.2500000000000000       0.59375000000000000        0.0000000000000000     
   1.1250000000000000       0.62500000000000000        0.0000000000000000     
   1.1562500000000000       0.62500000000000000        0.0000000000000000     
   1.1875000000000000       0.62500000000000000        0.0000000000000000     
   1.2187500000000000       0.62500000000000000        0.0000000000000000     
   1.2500000000000000       0.62500000000000000        0.0000000000000000     
   1.2500000000000000       0.50000000000000000        0.0000000000000000     
   1.2812500000000000       0.50000000000000000        0.0000000000000000     
   1.3125000000000000       0.50000000000000000        0.0000000000000000     
   1.3437500000000000       0.50000000000000000        0.0000000000000000     
   1.3750000000000000       0.50000000000000000        0.0000000000000000     
   1.2500000000000000       0.53125000000000000        0.0000000000000000     
   1.2812500000000000       0.53125000000000000        0.0000000000000000     
   1.3125000000000000       0.53125000000000000        0.0000000000000000     
   1.3437500000000000       0.53125000000000000        0.0000000000000000     
   1.3750000000000000       0.53125000000000000        0.0000000000000000     
   1.2500000000000000       0.56250000000000000        0.0000000000000000     
   1.2812500000000000       0.56250000000000000        0.0000000000000000     
   1.3125000000000000       0.56250000000000000        0.0000000000000000     
   1.3437500000000000       0.56250000000000000        0.0000000000000000     
   1.3750000000000000       0.56250000000000000        0.0000000000000000     
   1.2500000000000000       0.59375000000000000        0.0000000000000000     
   1.2812500000000000       0.59375000000000000        0.0000000000000000     
   1.3125000000000000       0.59375000000000000        0.0000000000000000     
   1.3437500000000000       0.59375000000000000        0.0000000000000000     
   1.3750000000000000       0.59375000000000000        0.0000000000000000     
   1.2500000000000000       0.62500000000000000        0.0000000000000000     
   1.2812500000000000       0.62500000000000000        0.0000000000000000     
   1.3125000000000000       0.62500000000000000        0.0000000000000000     
   1.3437500000000000       0.62500000000000000        0.0000000000000000     
   1.3750000000000000       0.62500000000000000        0.0000000000000000     
   1.3750000000000000       0.50000000000000000        0.0000000000000000     
   1.4062500000000000       0.50000000000000000        0.0000000000000000     
   1.4375000000000000       0.50000000000000000        0.0000000000000000     
   1.4687500000000000       0.50000000000000000        0.0000000000000000     
   1.5000000000000000       0.50000000000000000        0.0000000000000000     
   1.3750000000000000       0.53125000000000000        0.0000000000000000     
   1.4062500000000000       0.53125000000000000        0.0000000000000000     
   1.4375000000000000       0.53125000000000000        0.0000000000000000     
   1.4687500000000000       0.53125000000000000        0.0000000000000000     
   1.5000000000000000       0.53125000000000000        0.0000000000000000     
   1.3750000000000000       0.56250000000000000        0.0000000000000000     
   1.4062500000000000       0.56250000000000000        0.0000000000000000     
   1.4375000000000000       0.56250000000000000        0.0000000000000000     
   1.4687500000000000       0.56250000000000000        0.0000000000000000     
   1.5000000000000000       0.56250000000000000        0.0000000000000000     
   1.3750000000000000       0.59375000000000000        0.0000000000000000     
   1.4062500000000000       0.59375000000000000        0.0000000000000000     
   1.4375000000000000       0.59375000000000000        0.0000000000000000     
   1.4687500000000000       0.59375000000000000        0.0000000000000000     
   1.5000000000000000       0.59375000000000000        0.0000000000000000     
   1.3750000000000000       0.62500000000000000        0.0000000000000000     
   1.4062500000000000       0.62500000000000000        0.0000000000000000     
   1.4375000000000000       0.62500000000000000        0.0000000000000000     
   1.4687500000000000       0.62500000000000000        0.0000000000000000     
   1.5000000000000000       0.62500000000000000        0.0000000000000000     
  0.50000000000000000       0.62500000000000000        0.0000000000000000     
  0.53125000000000000       0.62500000000000000        0.0000000000000000     
  0.56250000000000000       0.62500000000000000        0.0000000000000000     
  0.59375000000000000       0.62500000000000000        0.0000000000000000     
  0.62500000000000000       0.62500000000000000        0.0000000000000000     
  0.50000000000000000       0.65625000000000000        0.0000000000000000     
  0.53125000000000000       0.65625000000000000        0.0000000000000000     
  0.56250000000000000       0.65625000000000000        0.0000000000000000     
  0.59375000000000000       0.65625000000000000        0.0000000000000000     
  0.62500000000000000       0.65625000000000000        0.0000000000000000     
  0.50000000000000000       0.68750000000000000        0.0000000000000000     
  0.53125000000000000       0.68750000000000000        0.0000000000000000     
  0.56250000000000000       0.68750000000000000        0.0000000000000000     
  0.59375000000000000       0.68750000000000000        0.0000000000000000     
  0.62500000000000000       0.68750000000000000        0.0000000000000000     
  0.50000000000000000       0.71875000000000000        0.0000000000000000     
  0.53125000000000000       0.71875000000000000        0.0000000000000000     
  0.56250000000000000       0.71875000000000000        0.0000000000000000     
  0.59375000000000000       0.71875000000000000        0.0000000000000000     
  0.62500000000000000       0.71875000000000000        0.0000000000000000     
  0.50000000000000000       0.75000000000000000        0.0000000000000000     
  0.53125000000000000       0.75000000000000000        0.0000000000000000     
  0.56250000000000000       0.75000000000000000        0.0000000000000000     
  0.59375000000000000       0.75000000000000000        0.0000000000000000     
  0.62500000000000000       0.75000000000000000        0.0000000000000000     
  0.62500000000000000       0.62500000000000000        0.0000000000000000     
  0.65625000000000000       0.62500000000000000        0.0000000000000000     
  0.68750000000000000       0.62500000000000000        0.0000000000000000     
  0.71875000000000000       0.62500000000000000        0.0000000000000000     
  0.75000000000000000       0.62500000000000000        0.0000000000000000     
  0.62500000000000000       0.65625000000000000        0.0000000000000000     
  0.65625000000000000       0.65625000000000000        0.0000000000000000     
  0.68750000000000000       0.65625000000000000        0.0000000000000000     
  0.71875000000000000       0.65625000000000000        0.0000000000000000     
  0.75000000000000000       0.65625000000000000        0.0000000000000000     
  0.62500000000000000       0.68750000000000000        0.0000000000000000     
  0.65625000000000000       0.68750000000000000        0.0000000000000000     
  0.68750000000000000       0.68750000000000000        0.0000000000000000     
  0.71875000000000000       0.68750000000000000        0.0000000000000000     
  0.75000000000000000       0.68750000000000000        0.0000000000000000     
  0.62500000000000000       0.71875000000000000        0.0000000000000000     
  0.65625000000000000       0.71875000000000000        0.0000000000000000     
  0.68750000000000000       0.71875000000000000        0.0000000000000000     
  0.71875000000000000       0.71875000000000000        0.0000000000000000     
  0.75000000000000000       0.71875000000000000        0.0000000000000000     
  0.62500000000000000       0.75000000000000000        0.0000000000000000     
  0.65625000000000000       0.75000000000000000        0.0000000000000000     
  0.68750000000000000       0.75000000000000000        0.0000000000000000     
  0.71875000000000000       0.75000000000000000        0.0000000000000000     
  0.75000000000000000       0.75000000000000000        0.0000000000000000     
  0.75000000000000000       0.62500000000000000        0.0000000000000000     
  0.78125000000000000       0.62500000000000000        0.0000000000000000     
  0.81250000000000000       0.62500000000000000        0.0000000000000000     
  0.84375000000000000       0.62500000000000000        0.0000000000000000     
  0.87500000000000000       0.62500000000000000        0.0000000000000000     
  0.75000000000000000       0.65625000000000000        0.0000000000000000     
  0.78125000000000000       0.65625000000000000        0.0000000000000000     
  0.81250000000000000       0.65625000000000000        0.0000000000000000     
  0.84375000000000000       0.65625000000000000        0.0000000000000000     
  0.87500000000000000       0.65625000000000000        0.0000000000000000     
  0.75000000000000000       0.68750000000000000        0.0000000000000000     
  0.78125000000000000       0.68750000000000000        0.0000000000000000     
  0.81250000000000000       0.68750000000000000        0.0000000000000000     
  0.84375000000000000       0.68750000000000000        0.0000000000000000     
  0.87500000000000000       0.68750000000000000        0.0000000000000000     
  0.75000000000000000       0.71875000000000000        0.0000000000000000     
  0.78125000000000000       0.71875000000000000        0.0000000000000000     
  0.81250000000000000       0.71875000000000000        0.0000000000000000     
  0.84375000000000000       0.71875000000000000        0.0000000000000000     
  0.87500000000000000       0.71875000000000000        0.0000000000000000     
  0.75000000000000000       0.75000000000000000        0.0000000000000000     
  0.78125000000000000       0.75000000000000000        0.0000000000000000     
  0.81250000000000000       0.75000000000000000        0.0000000000000000     
  0.84375000000000000       0.75000000000000000        0.0000000000000000     
  0.87500000000000000       0.75000000000000000        0.0000000000000000     
  0.87500000000000000       0.62500000000000000        0.0000000000000000     
  0.90625000000000000       0.62500000000000000        0.0000000000000000     
  0.93750000000000000       0.62500000000000000        0.0000000000000000     
  0.96875000000000000       0.62500000000000000        0.0000000000000000     
   1.0000000000000000       0.62500000000000000        0.0000000000000000     
  0.87500000000000000       0.65625000000000000        0.0000000000000000     
  0.90625000000000000       0.65625000000000000        0.0000000000000000     
  0.93750000000000000       0.65625000000000000        0.0000000000000000     
  0.96875000000000000       0.65625000000000000        0.0000000000000000     
   1.0000000000000000       0.65625000000000000        0.0000000000000000     
  0.87500000000000000       0.68750000000000000        0.0000000000000000     
  0.90625000000000000       0.68750000000000000        0.0000000000000000     
  0.93750000000000000       0.68750000000000000        0.0000000000000000     
  0.96875000000000000       0.68750000000000000        0.0000000000000000     
   1.0000000000000000       0.68750000000000000        0.0000000000000000     
  0.87500000000000000       0.71875000000000000        0.0000000000000000     
  0.90625000000000000       0.71875000000000000        0.0000000000000000     
  0.93750000000000000       0.71875000000000000        0.0000000000000000     
  0.96875000000000000       0.71875000000000000        0.0000000000000000     
   1.0000000000000000       0.71875000000000000        0.0000000000000000     
  0.87500000000000000       0.75000000000000000        0.0000000000000000     
  0.90625000000000000       0.75000000000000000        0.0000000000000000     
  0.93750000000000000       0.75000000000000000        0.0000000000000000     
  0.96875000000000000       0.75000000000000000        0.0000000000000000     
   1.0000000000000000       0.75000000000000000        0.0000000000000000     
   1.0000000000000000       0.62500000000000000        0.0000000000000000     
   1.0312500000000000       0.62500000000000000        0.0000000000000000     
   1.0625000000000000       0.62500000000000000        0.0000000000000000     
   1.0937500000000000       0.62500000000000000        0.0000000000000000     
   1.1250000000000000       0.62500000000000000        0.0000000000000000     
   1.0000000000000000       0.65625000000000000        0.0000000000000000     
   1.0312500000000000       0.65625000000000000        0.0000000000000000     
   1.0625000000000000       0.65625000000000000        0.0000000000000000     
   1.0937500000000000       0.65625000000000000        0.0000000000000000     
   1.1250000000000000       0.65625000000000000        0.0000000000000000     
   1.0000000000000000       0.68750000000000000        0.0000000000000000     
   1.0312500000000000       0.68750000000000000        0.0000000000000000     
   1.0625000000000000       0.68750000000000000        0.0000000000000000     
   1.0937500000000000       0.68750000000000000        0.0000000000000000     
   1.1250000000000000       0.68750000000000000        0.0000000000000000     
   1.0000000000000000       0.71875000000000000        0.0000000000000000     
   1.0312500000000000       0.71875000000000000        0.0000000000000000     
   1.0625000000000000       0.71875000000000000        0.0000000000000000     
   1.0937500000000000       0.71875000000000000        0.0000000000000000     
   1.1250000000000000       0.71875000000000000        0.0000000000000000     
   1.0000000000000000       0.75000000000000000        0.0000000000000000     
   1.0312500000000000       0.75000000000000000        0.0000000000000000     
   1.0625000000000000       0.75000000000000000        0.0000000000000000     
   1.0937500000000000       0.75000000000000000        0.0000000000000000     
   1.1250000000000000       0.75000000000000000        0.0000000000000000     
   1.1250000000000000       0.62500000000000000        0.0000000000000000     
   1.1562500000000000       0.62500000000000000        0.0000000000000000     
   1.1875000000000000       0.62500000000000000        0.0000000000000000     
   1.2187500000000000       0.62500000000000000        0.0000000000000000     
   1.2500000000000000       0.62500000000000000        0.0000000000000000     
   1.1250000000000000       0.65625000000000000        0.0000000000000000     
   1.1562500000000000       0.65625000000000000        0.0000000000000000     
   1.1875000000000000       0.65625000000000000        0.0000000000000000     
   1.2187500000000000       0.65625000000000000        0.0000000000000000     
   1.2500000000000000       0.65625000000000000        0.0000000000000000     
   1.1250000000000000       0.68750000000000000        0.0000000000000000     
   1.1562500000000000       0.68750000000000000        0.0000000000000000     
   1.1875000000000000       0.68750000000000000        0.0000000000000000     
   1.2187500000000000       0.68750000000000000        0.0000000000000000     
   1.2500000000000000       0.68750000000000000        0.0000000000000000     
   1.1250000000000000       0.71875000000000000        0.0000000000000000     
   1.1562500000000000       0.71875000000000000        0.0000000000000000     
   1.1875000000000000       0.71875000000000000        0.0000000000000000     
   1.2187500000000000       0.71875000000000000        0.0000000000000000     
   1.2500000000000000       0.71875000000000000        0.0000000000000000     
   1.1250000000000000       0.75000000000000000        0.0000000000000000     
   1.1562500000000000       0.75000000000000000        0.0000000000000000     
   1.1875000000000000       0.75000000000000000        0.0000000000000000     
   1.2187500000000000       0.75000000000000000        0.0000000000000000     
   1.2500000000000000       0.75000000000000000        0.0000000000000000     
   1.2500000000000000       0.62500000000000000        0.0000000000000000     
   1.2812500000000000       0.62500000000000000        0.0000000000000000     
   1.3125000000000000       0.62500000000000000        0.0000000000000000     
   1.3437500000000000       0.62500000000000000        0.0000000000000000     
   1.3750000000000000       0.62500000000000000        0.0000000000000000     
   1.2500000000000000       0.65625000000000000        0.0000000000000000     
   1.2812500000000000       0.65625000000000000        0.0000000000000000     
   1.3125000000000000       0.65625000000000000        0.0000000000000000     
   1.3437500000000000       0.65625000000000000        0.0000000000000000     
   1.3750000000000000       0.65625000000000000        0.0000000000000000     
   1.2500000000000000       0.68750000000000000        0.0000000000000000     
   1.2812500000000000       0.68750000000000000        0.0000000000000000     
   1.3125000000000000       0.68750000000000000        0.0000000000000000     
   1.3437500000000000       0.68750000000000000        0.0000000000000000     
   1.3750000000000000       0.68750000000000000        0.0000000000000000     
   1.2500000000000000       0.71875000000000000        0.0000000000000000     
   1.2812500000000000       0.71875000000000000        0.0000000000000000     
   1.3125000000000000       0.71875000000000000        0.0000000000000000     
   1.3437500000000000       0.71875000000000000        0.0000000000000000     
   1.3750000000000000       0.71875000000000000        0.0000000000000000     
   1.2500000000000000       0.75000000000000000        0.0000000000000000     
   1.2812500000000000       0.75000000000000000        0.0000000000000000     
   1.3125000000000000       0.75000000000000000        0.0000000000000000     
   1.3437500000000000       0.75000000000000000        0.0000000000000000     
   1.3750000000000000       0.75000000000000000        0.0000000000000000     
   1.3750000000000000       0.62500000000000000        0.0000000000000000     
   1.4062500000000000       0.62500000000000000        0.0000000000000000     
   1.4375000000000000       0.62500000000000000        0.0000000000000000     
   1.4687500000000000       0.62500000000000000        0.0000000000000000     
   1.5000000000000000       0.62500000000000000        0.0000000000000000     
   1.3750000000000000       0.65625000000000000        0.0000000000000000     
   1.4062500000000000       0.65625000000000000        0.0000000000000000     
   1.4375000000000000       0.65625000000000000        0.0000000000000000     
   1.4687500000000000       0.65625000000000000        0.0000000000000000     
   1.5000000000000000       0.65625000000000000        0.0000000000000000     
   1.3750000000000000       0.68750000000000000        0.0000000000000000     
   1.4062500000000000       0.68750000000000000        0.0000000000000000     
   1.4375000000000000       0.68750000000000000        0.0000000000000000     
   1.4687500000000000       0.68750000000000000        0.0000000000000000     
   1.5000000000000000       0.68750000000000000        0.0000000000000000     
   1.3750000000000000       0.71875000000000000        0.0000000000000000     
   1.4062500000000000       0.71875000000000000        0.0000000000000000     
   1.4375000000000000       0.71875000000000000        0.0000000000000000     
   1.4687500000000000       0.71875000000000000        0.0000000000000000     
   1.5000000000000000       0.71875000000000000        0.0000000000000000     
   1.3750000000000000       0.75000000000000000        0.0000000000000000     
   1.4062500000000000       0.75000000000000000        0.0000000000000000     
   1.4375000000000000       0.75000000000000000        0.0000000000000000     
   1.4687500000000000       0.75000000000000000        0.0000000000000000     
   1.5000000000000000       0.75000000000000000        0.0000000000000000     
  0.50000000000000000       0.75000000000000000        0.0000000000000000     
  0.53125000000000000       0.75000000000000000        0.0000000000000000     
  0.56250000000000000       0.75000000000000000        0.0000000000000000     
  0.59375000000000000       0.75000000000000000        0.0000000000000000     
  0.62500000000000000       0.75000000000000000        0.0000000000000000     
  0.50000000000000000       0.78125000000000000        0.0000000000000000     
  0.53125000000000000       0.78125000000000000        0.0000000000000000     
  0.56250000000000000       0.78125000000000000        0.0000000000000000     
  0.59375000000000000       0.78125000000000000        0.0000000000000000     
  0.62500000000000000       0.78125000000000000        0.0000000000000000     
  0.50000000000000000       0.81250000000000000        0.0000000000000000     
  0.53125000000000000       0.81250000000000000        0.0000000000000000     
  0.56250000000000000       0.81250000000000000        0.0000000000000000     
  0.59375000000000000       0.81250000000000000        0.0000000000000000     
  0.62500000000000000       0.81250000000000000        0.0000000000000000     
  0.50000000000000000       0.84375000000000000        0.0000000000000000     
  0.53125000000000000       0.84375000000000000        0.0000000000000000     
  0.56250000000000000       0.84375000000000000        0.0000000000000000     
  0.59375000000000000       0.84375000000000000        0.0000000000000000     
  0.62500000000000000       0.84375000000000000        0.0000000000000000     
  0.50000000000000000       0.87500000000000000        0.0000000000000000     
  0.53125000000000000       0.87500000000000000        0.0000000000000000     
  0.56250000000000000       0.87500000000000000        0.0000000000000000     
  0.59375000000000000       0.87500000000000000        0.0000000000000000     
  0.62500000000000000       0.87500000000000000        0.0000000000000000     
  0.62500000000000000       0.75000000000000000        0.0000000000000000     
  0.65625000000000000       0.75000000000000000        0.0000000000000000     
  0.68750000000000000       0.75000000000000000        0.0000000000000000     
  0.71875000000000000       0.75000000000000000        0.0000000000000000     
  0.75000000000000000       0.75000000000000000        0.0000000000000000     
  0.62500000000000000       0.78125000000000000        0.0000000000000000     
  0.65625000000000000       0.78125000000000000        0.0000000000000000     
  0.68750000000000000       0.78125000000000000        0.0000000000000000     
  0.71875000000000000       0.78125000000000000        0.0000000000000000     
  0.75000000000000000       0.78125000000000000        0.0000000000000000     
  0.62500000000000000       0.81250000000000000        0.0000000000000000     
  0.65625000000000000       0.81250000000000000        0.0000000000000000     
  0.68750000000000000       0.81250000000000000        0.0000000000000000     
  0.71875000000000000       0.81250000000000000        0.0000000000000000     
  0.75000000000000000       0.81250000000000000        0.0000000000000000     
  0.62500000000000000       0.84375000000000000        0.0000000000000000     
  0.65625000000000000       0.84375000000000000        0.0000000000000000     
  0.68750000000000000       0.84375000000000000        0.0000000000000000     
  0.71875000000000000       0.84375000000000000        0.0000000000000000     
  0.75000000000000000       0.84375000000000000        0.0000000000000000     
  0.62500000000000000       0.87500000000000000        0.0000000000000000     
  0.65625000000000000       0.87500000000000000        0.0000000000000000     
  0.68750000000000000       0.87500000000000000        0.0000000000000000     
  0.71875000000000000       0.87500000000000000        0.0000000000000000     
  0.75000000000000000       0.87500000000000000        0.0000000000000000     
  0.75000000000000000       0.75000000000000000        0.0000000000000000     
  0.78125000000000000       0.75000000000000000        0.0000000000000000     
  0.81250000000000000       0.75000000000000000        0.0000000000000000     
  0.84375000000000000       0.75000000000000000        0.0000000000000000     
  0.87500000000000000       0.75000000000000000        0.0000000000000000     
  0.75000000000000000       0.78125000000000000        0.0000000000000000     
  0.78125000000000000       0.78125000000000000        0.0000000000000000     
  0.81250000000000000       0.78125000000000000        0.0000000000000000     
  0.84375000000000000       0.78125000000000000        0.0000000000000000     
  0.87500000000000000       0.78125000000000000        0.0000000000000000     
  0.75000000000000000       0.81250000000000000        0.0000000000000000     
  0.78125000000000000       0.81250000000000000        0.0000000000000000     
  0.81250000000000000       0.81250000000000000        0.0000000000000000     
  0.84375000000000000       0.81250000000000000        0.0000000000000000     
  0.87500000000000000       0.81250000000000000        0.0000000000000000     
  0.75000000000000000       0.84375000000000000        0.0000000000000000     
  0.78125000000000000       0.84375000000000000        0.0000000000000000     
  0.81250000000000000       0.84375000000000000        0.0000000000000000     
  0.84375000000000000       0.84375000000000000        0.0000000000000000     
  0.87500000000000000       0.84375000000000000        0.0000000000000000     
  0.75000000000000000       0.87500000000000000        0.0000000000000000     
  0.78125000000000000       0.87500000000000000        0.0000000000000000     
  0.81250000000000000       0.87500000000000000        0.0000000000000000     
  0.84375000000000000       0.87500000000000000        0.0000000000000000     
  0.87500000000000000       0.87500000000000000        0.0000000000000000     
  0.87500000000000000       0.75000000000000000        0.0000000000000000     
  0.90625000000000000       0.75000000000000000        0.0000000000000000     
  0.93750000000000000       0.75000000000000000        0.0000000000000000     
  0.96875000000000000       0.75000000000000000        0.0000000000000000     
   1.0000000000000000       0.75000000000000000        0.0000000000000000     
  0.87500000000000000       0.78125000000000000        0.0000000000000000     
  0.90625000000000000       0.78125000000000000        0.0000000000000000     
  0.93750000000000000       0.78125000000000000        0.0000000000000000     
  0.96875000000000000       0.78125000000000000        0.0000000000000000     
   1.0000000000000000       0.78125000000000000        0.0000000000000000     
  0.87500000000000000       0.81250000000000000        0.0000000000000000     
  0.90625000000000000       0.81250000000000000        0.0000000000000000     
  0.93750000000000000       0.81250000000000000        0.0000000000000000     
  0.96875000000000000       0.81250000000000000        0.0000000000000000     
   1.0000000000000000       0.81250000000000000        0.0000000000000000     
  0.87500000000000000       0.84375000000000000        0.0000000000000000     
  0.90625000000000000       0.84375000000000000        0.0000000000000000     
  0.93750000000000000       0.84375000000000000        0.0000000000000000     
  0.96875000000000000       0.84375000000000000        0.0000000000000000     
   1.0000000000000000       0.84375000000000000        0.0000000000000000     
  0.87500000000000000       0.87500000000000000        0.0000000000000000     
  0.90625000000000000       0.87500000000000000        0.0000000000000000     
  0.93750000000000000       0.87500000000000000        0.0000000000000000     
  0.96875000000000000       0.87500000000000000        0.0000000000000000     
   1.0000000000000000       0.87500000000000000        0.0000000000000000     
   1.0000000000000000       0.75000000000000000        0.0000000000000000     
   1.0312500000000000       0.75000000000000000        0.0000000000000000     
   1.0625000000000000       0.75000000000000000        0.0000000000000000     
   1.0937500000000000       0.75000000000000000        0.0000000000000000     
   1.1250000000000000       0.75000000000000000        0.0000000000000000     
   1.0000000000000000       0.78125000000000000        0.0000000000000000     
   1.0312500000000000       0.78125000000000000        0.0000000000000000     
   1.0625000000000000       0.78125000000000000        0.0000000000000000     
   1.0937500000000000       0.78125000000000000        0.0000000000000000     
   1.1250000000000000       0.78125000000000000        0.0000000000000000     
   1.0000000000000000       0.81250000000000000        0.0000000000000000     
   1.0312500000000000       0.81250000000000000        0.0000000000000000     
   1.0625000000000000       0.81250000000000000        0.0000000000000000     
   1.0937500000000000       0.81250000000000000        0.0000000000000000     
   1.1250000000000000       0.81250000000000000        0.0000000000000000     
   1.0000000000000000       0.84375000000000000        0.0000000000000000     
   1.0312500000000000       0.84375000000000000        0.0000000000000000     
   1.0625000000000000       0.84375000000000000        0.0000000000000000     
   1.0937500000000000       0.84375000000000000        0.0000000000000000     
   1.1250000000000000       0.84375000000000000        0.0000000000000000     
   1.0000000000000000       0.87500000000000000        0.0000000000000000     
   1.0312500000000000       0.87500000000000000        0.0000000000000000     
   1.0625000000000000       0.87500000000000000        0.0000000000000000     
   1.0937500000000000       0.87500000000000000        0.0000000000000000     
   1.1250000000000000       0.87500000000000000        0.0000000000000000     
   1.1250000000000000       0.75000000000000000        0.0000000000000000     
   1.1562500000000000       0.75000000000000000        0.0000000000000000     
   1.1875000000000000       0.75000000000000000        0.0000000000000000     
   1.2187500000000000       0.75000000000000000        0.0000000000000000     
   1.2500000000000000       0.75000000000000000        0.0000000000000000     
   1.1250000000000000       0.78125000000000000        0.0000000000000000     
   1.1562500000000000       0.78125000000000000        0.0000000000000000     
   1.1875000000000000       0.78125000000000000        0.0000000000000000     
   1.2187500000000000       0.78125000000000000        0.0000000000000000     
   1.2500000000000000       0.78125000000000000        0.0000000000000000     
   1.1250000000000000       0.81250000000000000        0.0000000000000000     
   1.1562500000000000       0.81250000000000000        0.0000000000000000     
   1.1875000000000000       0.81250000000000000        0.0000000000000000     
   1.2187500000000000       0.81250000000000000        0.0000000000000000     
   1.2500000000000000       0.81250000000000000        0.0000000000000000     
   1.1250000000000000       0.84375000000000000        0.0000000000000000     
   1.1562500000000000       0.84375000000000000        0.0000000000000000     
   1.1875000000000000       0.84375000000000000        0.0000000000000000     
   1.2187500000000000       0.84375000000000000        0.0000000000000000     
   1.2500000000000000       0.84375000000000000        0.0000000000000000     
   1.1250000000000000       0.87500000000000000        0.0000000000000000     
   1.1562500000000000       0.87500000000000000        0.0000000000000000     
   1.1875000000000000       0.87500000000000000        0.0000000000000000     
   1.2187500000000000       0.87500000000000000        0.0000000000000000     
   1.2500000000000000       0.87500000000000000        0.0000000000000000     
   1.2500000000000000       0.75000000000000000        0.0000000000000000     
   1.2812500000000000       0.75000000000000000        0.0000000000000000     
   1.3125000000000000       0.75000000000000000        0.0000000000000000     
   1.3437500000000000       0.75000000000000000        0.0000000000000000     
   1.3750000000000000       0.75000000000000000        0.0000000000000000     
   1.2500000000000000       0.78125000000000000        0.0000000000000000     
   1.2812500000000000       0.78125000000000000        0.0000000000000000     
   1.3125000000000000       0.78125000000000000        0.0000000000000000     
   1.3437500000000000       0.78125000000000000        0.0000000000000000     
   1.3750000000000000       0.78125000000000000        0.0000000000000000     
   1.2500000000000000       0.81250000000000000        0.0000000000000000     
   1.2812500000000000       0.81250000000000000        0.0000000000000000     
   1.3125000000000000       0.81250000000000000        0.0000000000000000     
   1.3437500000000000       0.81250000000000000        0.0000000000000000     
   1.3750000000000000       0.81250000000000000        0.0000000000000000     
   1.2500000000000000       0.84375000000000000        0.0000000000000000     
   1.2812500000000000       0.84375000000000000        0.0000000000000000     
   1.3125000000000000       0.84375000000000000        0.0000000000000000     
   1.3437500000000000       0.84375000000000000        0.0000000000000000     
   1.3750000000000000       0.84375000000000000        0.0000000000000000     
   1.2500000000000000       0.87500000000000000        0.0000000000000000     
   1.2812500000000000       0.87500000000000000        0.0000000000000000     
   1.3125000000000000       0.87500000000000000        0.0000000000000000     
   1.3437500000000000       0.87500000000000000        0.0000000000000000     
   1.3750000000000000       0.87500000000000000        0.0000000000000000     
   1.3750000000000000       0.75000000000000000        0.0000000000000000     
   1.4062500000000000       0.75000000000000000        0.0000000000000000     
   1.4375000000000000       0.75000000000000000        0.0000000000000000     
   1.4687500000000000       0.75000000000000000        0.0000000000000000     
   1.5000000000000000       0.75000000000000000        0.0000000000000000     
   1.3750000000000000       0.78125000000000000        0.0000000000000000     
   1.4062500000000000       0.78125000000000000        0.0000000000000000     
   1.4375000000000000       0.78125000000000000        0.0000000000000000     
   1.4687500000000000       0.78125000000000000        0.0000000000000000     
   1.5000000000000000       0.78125000000000000        0.0000000000000000     
   1.3750000000000000       0.81250000000000000        0.0000000000000000     
   1.4062500000000000       0.81250000000000000        0.0000000000000000     
   1.4375000000000000       0.81250000000000000        0.0000000000000000     
   1.4687500000000000       0.81250000000000000        0.0000000000000000     
   1.5000000000000000       0.81250000000000000        0.0000000000000000     
   1.3750000000000000       0.84375000000000000        0.0000000000000000     
   1.4062500000000000       0.84375000000000000        0.0000000000000000     
   1.4375000000000000       0.84375000000000000        0.0000000000000000     
   1.4687500000000000       0.84375000000000000        0.0000000000000000     
   1.5000000000000000       0.84375000000000000        0.0000000000000000     
   1.3750000000000000       0.87500000000000000        0.0000000000000000     
   1.4062500000000000       0.87500000000000000        0.0000000000000000     
   1.4375000000000000       0.87500000000000000        0.0000000000000000     
   1.4687500000000000       0.87500000000000000        0.0000000000000000     
   1.5000000000000000       0.87500000000000000        0.0000000000000000     
  0.50000000000000000       0.87500000000000000        0.0000000000000000     
  0.53125000000000000       0.87500000000000000        0.0000000000000000     
  0.56250000000000000       0.87500000000000000        0.0000000000000000     
  0.59375000000000000       0.87500000000000000        0.0000000000000000     
  0.62500000000000000       0.87500000000000000        0.0000000000000000     
  0.50000000000000000       0.90625000000000000        0.0000000000000000     
  0.53125000000000000       0.90625000000000000        0.0000000000000000     
  0.56250000000000000       0.90625000000000000        0.0000000000000000     
  0.59375000000000000       0.90625000000000000        0.0000000000000000     
  0.62500000000000000       0.90625000000000000        0.0000000000000000     
  0.50000000000000000       0.93750000000000000        0.0000000000000000     
  0.53125000000000000       0.93750000000000000        0.0000000000000000     
  0.56250000000000000       0.93750000000000000        0.0000000000000000     
  0.59375000000000000       0.93750000000000000        0.0000000000000000     
  0.62500000000000000       0.93750000000000000        0.0000000000000000     
  0.50000000000000000       0.96875000000000000        0.0000000000000000     
  0.53125000000000000       0.96875000000000000        0.0000000000000000     
  0.56250000000000000       0.96875000000000000        0.0000000000000000     
  0.59375000000000000       0.96875000000000000        0.0000000000000000     
  0.62500000000000000       0.96875000000000000        0.0000000000000000     
  0.50000000000000000        1.0000000000000000        0.0000000000000000     
  0.53125000000000000        1.0000000000000000        0.0000000000000000     
  0.56250000000000000        1.0000000000000000        0.0000000000000000     
  0.59375000000000000        1.0000000000000000        0.0000000000000000     
  0.62500000000000000        1.0000000000000000        0.0000000000000000     
  0.62500000000000000       0.87500000000000000        0.0000000000000000     
  0.65625000000000000       0.87500000000000000        0.0000000000000000     
  0.68750000000000000       0.87500000000000000        0.0000000000000000     
  0.71875000000000000       0.87500000000000000        0.0000000000000000     
  0.75000000000000000       0.87500000000000000        0.0000000000000000     
  0.62500000000000000       0.90625000000000000        0.0000000000000000     
  0.65625000000000000       0.90625000000000000        0.0000000000000000     
  0.68750000000000000       0.90625000000000000        0.0000000000000000     
  0.71875000000000000       0.90625000000000000        0.0000000000000000     
  0.75000000000000000       0.90625000000000000        0.0000000000000000     
  0.62500000000000000       0.93750000000000000        0.0000000000000000     
  0.65625000000000000       0.93750000000000000        0.0000000000000000     
  0.68750000000000000       0.93750000000000000        0.0000000000000000     
  0.71875000000000000       0.93750000000000000        0.0000000000000000     
  0.75000000000000000       0.93750000000000000        0.0000000000000000     
  0.62500000000000000       0.96875000000000000        0.0000000000000000     
  0.65625000000000000       0.96875000000000000        0.0000000000000000     
  0.68750000000000000       0.96875000000000000        0.0000000000000000     
  0.71875000000000000       0.96875000000000000        0.0000000000000000     
  0.75000000000000000       0.96875000000000000        0.0000000000000000     
  0.62500000000000000        1.0000000000000000        0.0000000000000000     
  0.65625000000000000        1.0000000000000000        0.0000000000000000     
  0.68750000000000000        1.0000000000000000        0.0000000000000000     
  0.71875000000000000        1.0000000000000000        0.0000000000000000     
  0.75000000000000000        1.0000000000000000        0.0000000000000000     
  0.75000000000000000       0.87500000000000000        0.0000000000000000     
  0.78125000000000000       0.87500000000000000        0.0000000000000000     
  0.81250000000000000       0.87500000000000000        0.0000000000000000     
  0.84375000000000000       0.87500000000000000        0.0000000000000000     
  0.87500000000000000       0.87500000000000000        0.0000000000000000     
  0.75000000000000000       0.90625000000000000        0.0000000000000000     
  0.78125000000000000       0.90625000000000000        0.0000000000000000     
  0.81250000000000000       0.90625000000000000        0.0000000000000000     
  0.84375000000000000       0.90625000000000000        0.0000000000000000     
  0.87500000000000000       0.90625000000000000        0.0000000000000000     
  0.75000000000000000       0.93750000000000000        0.0000000000000000     
  0.78125000000000000       0.93750000000000000        0.0000000000000000     
  0.81250000000000000       0.93750000000000000        0.0000000000000000     
  0.84375000000000000       0.93750000000000000        0.0000000000000000     
  0.87500000000000000       0.93750000000000000        0.0000000000000000     
  0.75000000000000000       0.96875000000000000        0.0000000000000000     
  0.78125000000000000       0.96875000000000000        0.0000000000000000     
  0.81250000000000000       0.96875000000000000        0.0000000000000000     
  0.84375000000000000       0.96875000000000000        0.0000000000000000     
  0.87500000000000000       0.96875000000000000        0.0000000000000000     
  0.75000000000000000        1.0000000000000000        0.0000000000000000     
  0.78125000000000000        1.0000000000000000        0.0000000000000000     
  0.81250000000000000        1.0000000000000000        0.0000000000000000     
  0.84375000000000000        1.0000000000000000        0.0000000000000000     
  0.87500000000000000        1.0000000000000000        0.0000000000000000     
  0.87500000000000000       0.87500000000000000        0.0000000000000000     
  0.90625000000000000       0.87500000000000000        0.0000000000000000     
  0.93750000000000000       0.87500000000000000        0.0000000000000000     
  0.96875000000000000       0.87500000000000000        0.0000000000000000     
   1.0000000000000000       0.87500000000000000        0.0000000000000000     
  0.87500000000000000       0.90625000000000000        0.0000000000000000     
  0.90625000000000000       0.90625000000000000        0.0000000000000000     
  0.93750000000000000       0.90625000000000000        0.0000000000000000     
  0.96875000000000000       0.90625000000000000        0.0000000000000000     
   1.0000000000000000       0.90625000000000000        0.0000000000000000     
  0.87500000000000000       0.93750000000000000        0.0000000000000000     
  0.90625000000000000       0.93750000000000000        0.0000000000000000     
  0.93750000000000000       0.93750000000000000        0.0000000000000000     
  0.96875000000000000       0.93750000000000000        0.0000000000000000     
   1.0000000000000000       0.93750000000000000        0.0000000000000000     
  0.87500000000000000       0.96875000000000000        0.0000000000000000     
  0.90625000000000000       0.96875000000000000        0.0000000000000000     
  0.93750000000000000       0.96875000000000000        0.0000000000000000     
  0.96875000000000000       0.96875000000000000        0.0000000000000000     
   1.0000000000000000       0.96875000000000000        0.0000000000000000     
  0.87500000000000000        1.0000000000000000        0.0000000000000000     
  0.90625000000000000        1.0000000000000000        0.0000000000000000     
  0.93750000000000000        1.0000000000000000        0.0000000000000000     
  0.96875000000000000        1.0000000000000000        0.0000000000000000     
   1.0000000000000000        1.0000000000000000        0.0000000000000000     
   1.0000000000000000       0.87500000000000000        0.0000000000000000     
   1.0312500000000000       0.87500000000000000        0.0000000000000000     
   1.0625000000000000       0.87500000000000000        0.0000000000000000     
   1.0937500000000000       0.87500000000000000        0.0000000000000000     
   1.1250000000000000       0.87500000000000000        0.0000000000000000     
   1.0000000000000000       0.90625000000000000        0.0000000000000000     
   1.0312500000000000       0.90625000000000000        0.0000000000000000     
   1.0625000000000000       0.90625000000000000        0.0000000000000000     
   1.0937500000000000       0.90625000000000000        0.0000000000000000     
   1.1250000000000000       0.90625000000000000        0.0000000000000000     
   1.0000000000000000       0.93750000000000000        0.0000000000000000     
   1.0312500000000000       0.93750000000000000        0.0000000000000000     
   1.0625000000000000       0.93750000000000000        0.0000000000000000     
   1.0937500000000000       0.93750000000000000        0.0000000000000000     
   1.1250000000000000       0.93750000000000000        0.0000000000000000     
   1.0000000000000000       0.96875000000000000        0.0000000000000000     
   1.0312500000000000       0.96875000000000000        0.0000000000000000     
   1.0625000000000000       0.96875000000000000        0.0000000000000000     
   1.0937500000000000       0.96875000000000000        0.0000000000000000     
   1.1250000000000000       0.96875000000000000        0.0000000000000000     
   1.0000000000000000        1.0000000000000000        0.0000000000000000     
   1.0312500000000000        1.0000000000000000        0.0000000000000000     
   1.0625000000000000        1.0000000000000000        0.0000000000000000     
   1.0937500000000000        1.0000000000000000        0.0000000000000000     
   1.1250000000000000        1.0000000000000000        0.0000000000000000     
   1.1250000000000000       0.87500000000000000        0.0000000000000000     
   1.1562500000000000       0.87500000000000000        0.0000000000000000     
   1.1875000000000000       0.87500000000000000        0.0000000000000000     
   1.2187500000000000       0.87500000000000000        0.0000000000000000     
   1.2500000000000000       0.87500000000000000        0.0000000000000000     
   1.1250000000000000       0.90625000000000000        0.0000000000000000     
   1.1562500000000000       0.90625000000000000        0.0000000000000000     
   1.1875000000000000       0.90625000000000000        0.0000000000000000     
   1.2187500000000000       0.90625000000000000        0.0000000000000000     
   1.2500000000000000       0.90625000000000000        0.0000000000000000     
   1.1250000000000000       0.93750000000000000        0.0000000000000000     
   1.1562500000000000       0.93750000000000000        0.0000000000000000     
   1.1875000000000000       0.93750000000000000        0.0000000000000000     
   1.2187500000000000       0.93750000000000000        0.0000000000000000     
   1.2500000000000000       0.93750000000000000        0.0000000000000000     
   1.1250000000000000       0.96875000000000000        0.0000000000000000     
   1.1562500000000000       0.96875000000000000        0.0000000000000000     
   1.1875000000000000       0.96875000000000000        0.0000000000000000     
   1.2187500000000000       0.96875000000000000        0.0000000000000000     
   1.2500000000000000       0.96875000000000000        0.0000000000000000     
   1.1250000000000000        1.0000000000000000        0.0000000000000000     
   1.1562500000000000        1.0000000000000000        0.0000000000000000     
   1.1875000000000000        1.0000000000000000        0.0000000000000000     
   1.2187500000000000        1.0000000000000000        0.0000000000000000     
   1.2500000000000000        1.0000000000000000        0.0000000000000000     
   1.2500000000000000       0.87500000000000000        0.0000000000000000     
   1.2812500000000000       0.87500000000000000        0.0000000000000000     
   1.3125000000000000       0.87500000000000000        0.0000000000000000     
   1.3437500000000000       0.87500000000000000        0.0000000000000000     
   1.3750000000000000       0.87500000000000000        0.0000000000000000     
   1.2500000000000000       0.90625000000000000        0.0000000000000000     
   1.2812500000000000       0.90625000000000000        0.0000000000000000     
   1.3125000000000000       0.90625000000000000        0.0000000000000000     
   1.3437500000000000       0.90625000000000000        0.0000000000000000     
   1.3750000000000000       0.90625000000000000        0.0000000000000000     
   1.2500000000000000       0.93750000000000000        0.0000000000000000     
   1.2812500000000000       0.93750000000000000        0.0000000000000000     
   1.3125000000000000       0.93750000000000000        0.0000000000000000     
   1.3437500000000000       0.93750000000000000        0.0000000000000000     
   1.3750000000000000       0.93750000000000000        0.0000000000000000     
   1.2500000000000000       0.96875000000000000        0.0000000000000000     
   1.2812500000000000       0.96875000000000000        0.0000000000000000     
   1.3125000000000000       0.96875000000000000        0.0000000000000000     
   1.3437500000000000       0.96875000000000000        0.0000000000000000     
   1.3750000000000000       0.96875000000000000        0.0000000000000000     
   1.2500000000000000        1.0000000000000000        0.0000000000000000     
   1.2812500000000000        1.0000000000000000        0.0000000000000000     
   1.3125000000000000        1.0000000000000000        0.0000000000000000     
   1.3437500000000000        1.0000000000000000        0.0000000000000000     
   1.3750000000000000        1.0000000000000000        0.0000000000000000     
   1.3750000000000000       0.87500000000000000        0.0000000000000000     
   1.4062500000000000       0.87500000000000000        0.0000000000000000     
   1.4375000000000000       0.87500000000000000        0.0000000000000000     
   1.4687500000000000       0.87500000000000000        0.0000000000000000     
   1.5000000000000000       0.87500000000000000        0.0000000000000000     
   1.3750000000000000       0.90625000000000000        0.0000000000000000     
   1.4062500000000000       0.90625000000000000        0.0000000000000000     
   1.4375000000000000       0.90625000000000000        0.0000000000000000     
   1.4687500000000000       0.90625000000000000        0.0000000000000000     
   1.5000000000000000       0.90625000000000000        0.0000000000000000     
   1.3750000000000000       0.93750000000000000        0.0000000000000000     
   1.4062500000000000       0.93750000000000000        0.0000000000000000     
   1.4375000000000000       0.93750000000000000        0.0000000000000000     
   1.4687500000000000       0.93750000000000000        0.0000000000000000     
   1.5000000000000000       0.93750000000000000        0.0000000000000000     
   1.3750000000000000       0.96875000000000000        0.0000000000000000     
   1.4062500000000000       0.96875000000000000        0.0000000000000000     
   1.4375000000000000       0.96875000000000000        0.0000000000000000     
   1.4687500000000000       0.96875000000000000        0.0000000000000000     
   1.5000000000000000       0.96875000000000000        0.0000000000000000     
   1.3750000000000000        1.0000000000000000        0.0000000000000000     
   1.4062500000000000        1.0000000000000000        0.0000000000000000     
   1.4375000000000000        1.0000000000000000        0.0000000000000000     
   1.4687500000000000        1.0000000000000000        0.0000000000000000     
   1.5000000000000000        1.0000000000000000        0.0000000000000000     
 </DataArray>
 </Points>
 <Cells>
 <DataArray  type="Int32"  Name="connectivity"  format="ascii">
           0           1           6           5
           1           2           7           6
           2           3           8           7
           3           4           9           8
           5           6          11          10
           6           7          12          11
           7           8          13          12
           8           9          14          13
          10          11          16          15
          11          12          17          16
          12          13          18          17
          13          14          19          18
          15          16          21          20
          16          17          22          21
          17          18          23          22
          18          19          24          23
          25          26          31          30
          26          27          32          31
          27          28          33          32
          28          29          34          33
          30          31          36          35
          31          32          37          36
          32          33          38          37
          33          34          39          38
          35          36          41          40
          36          37          42          41
          37          38          43          42
          38          39          44          43
          40          41          46          45
          41          42          47          46
          42          43          48          47
          43          44          49          48
          50          51          56          55
          51          52          57          56
          52          53          58          57
          53          54          59          58
          55          56          61          60
          56          57          62          61
          57          58          63          62
          58          59          64          63
          60          61          66          65
          61          62          67          66
          62          63          68          67
          63          64          69          68
          65          66          71          70
          66          67          72          71
          67          68          73          72
          68          69          74          73
          75          76          81          80
          76          77          82          81
          77          78          83          82
          78          79          84          83
          80          81          86          85
          81          82          87          86
          82          83          88          87
          83          84          89          88
          85          86          91          90
          86          87          92          91
          87          88          93          92
          88          89          94          93
          90          91          96          95
          91          92          97          96
          92          93          98          97
          93          94          99          98
         100         101         106         105
         101         102         107         106
         102         103         108         107
         103         104         109         108
         105         106         111         110
         106         107         112         111
         107         108         113         112
         108         109         114         113
         110         111         116         115
         111         112         117         116
         112         113         118         117
         113         114         119         118
         115         116         121         120
         116         117         122         121
         117         118         123         122
         118         119         124         123
         125         126         131         130
         126         127         132         131
         127         128         133         132
         128         129         134         133
         130         131         136         135
         131         132         137         136
         132         133         138         137
         133         134         139         138
         135         136         141         140
         136         137         142         141
         137         138         143         142
         138         139         144         143
         140         141         146         145
         141         142         147         146
         142         143         148         147
         143         144         149         148
         150         151         156         155
         151         152         157         156
         152         153         158         157
         153         154         159         158
         155         156         161         160
         156         157         162         161
         157         158         163         162
         158         159         164         163
         160         161         166         165
         161         162         167         166
         162         163         168         167
         163         164         169         168
         165         166         171         170
         166         167         172         171
         167         168         173         172
         168         169         174         173
         175         176         181         180
         176         177         182         181
         177         178         183         182
         178         179         184         183
         180         181         186         185
         181         182         187         186
         182         183         188         187
         183         184         189         188
         185         186         191         190
         186         187         192         191
         187         188         193         192
         188         189         194         193
         190         191         196         195
         191         192         197         196
         192         193         198         197
         193         194         199         198
         200         201         206         205
         201         202         207         206
         202         203         208         207
         203         204         209         208
         205         206         211         210
         206         207         212         211
         207         208         213         212
         208         209         214         213
         210         211         216         215
         211         212         217         216
         212         213         218         217
         213         214         219         218
         215         216         221         220
         216         217         222         221
         217         218         223         222
         218         219         224         223
         225         226         231         230
         226         227         232         231
         227         228         233         232
         228         229         234         233
         230         231         236         235
         231         232         237         236
         232         233         238         237
         233         234         239         238
         235         236         241         240
         236         237         242         241
         237         238         243         242
         238         239         244         243
         240         241         246         245
         241         242         247         246
         242         243         248         247
         243         244         249         248
         250         251         256         255
         251         252         257         256
         252         253         258         257
         253         254         259         258
         255         256         261         260
         256         257         262         261
         257         258         263         262
         258         259         264         263
         260         261         266         265
         261         262         267         266
         262         263         268         267
         263         264         269         268
         265         266         271         270
         266         267         272         271
         267         268         273         272
         268         269         274         273
         275         276         281         280
         276         277         282         281
         277         278         283         282
         278         279         284         283
         280         281         286         285
         281         282         287         286
         282         283         288         287
         283         284         289         288
         285         286         291         290
         286         287         292         291
         287         288         293         292
         288         289         294         293
         290         291         296         295
         291         292         297         296
         292         293         298         297
         293         294         299         298
         300         301         306         305
         301         302         307         306
         302         303         308         307
         303         304         309         308
         305         306         311         310
         306         307         312         311
         307         308         313         312
         308         309         314         313
         310         311         316         315
         311         312         317         316
         312         313         318         317
         313         314         319         318
         315         316         321         320
         316         317         322         321
         317         318         323         322
         318         319         324         323
         325         326         331         330
         326         327         332         331
         327         328         333         332
         328         329         334         333
         330         331         336         335
         331         332         337         336
         332         333         338         337
         333         334         339         338
         335         336         341         340
         336         337         342         341
         337         338         343         342
         338         339         344         343
         340         341         346         345
         341         342         347         346
         342         343         348         347
         343         344         349         348
         350         351         356         355
         351         352         357         356
         352         353         358         357
         353         354         359         358
         355         356         361         360
         356         357         362         361
         357         358         363         362
         358         359         364         363
         360         361         366         365
         361         362         367         366
         362         363         368         367
         363         364         369         368
         365         366         371         370
         366         367         372         371
         367         368         373         372
         368         369         374         373
         375         376         381         380
         376         377         382         381
         377         378         383         382
         378         379         384         383
         380         381         386         385
         381         382         387         386
         382         383         388         387
         383         384         389         388
         385         386         391         390
         386         387         392         391
         387         388         393         392
         388         389         394         393
         390         391         396         395
         391         392         397         396
         392         393         398         397
         393         394         399         398
         400         401         406         405
         401         402         407         406
         402         403         408         407
         403         404         409         408
         405         406         411         410
         406         407         412         411
         407         408         413         412
         408         409         414         413
         410         411         416         415
         411         412         417         416
         412         413         418         417
         413         414         419         418
         415         416         421         420
         416         417         422         421
         417         418         423         422
         418         419         424         423
         425         426         431         430
         426         427         432         431
         427         428         433         432
         428         429         434         433
         430         431         436         435
         431         432         437         436
         432         433         438         437
         433         434         439         438
         435         436         441         440
         436         437         442         441
         437         438         443         442
         438         439         444         443
         440         441         446         445
         441         442         447         446
         442         443         448         447
         443         444         449         448
         450         451         456         455
         451         452         457         456
         452         453         458         457
         453         454         459         458
         455         456         461         460
         456         457         462         461
         457         458         463         462
         458         459         464         463
         460         461         466         465
         461         462         467         466
         462         463         468         467
         463         464         469         468
         465         466         471         470
         466         467         472         471
         467         468         473         472
         468         469         474         473
         475         476         481         480
         476         477         482         481
         477         478         483         482
         478         479         484         483
         480         481         486         485
         481         482         487         486
         482         483         488         487
         483         484         489         488
         485         486         491         490
         486         487         492         491
         487         488         493         492
         488         489         494         493
         490         491         496         495
         491         492         497         496
         492         493         498         497
         493         494         499         498
         500         501         506         505
         501         502         507         506
         502         503         508         507
         503         504         509         508
         505         506         511         510
         506         507         512         511
         507         508         513         512
         508         509         514         513
         510         511         516         515
         511         512         517         516
         512         513         518         517
         513         514         519         518
         515         516         521         520
         516         517         522         521
         517         518         523         522
         518         519         524         523
         525         526         531         530
         526         527         532         531
         527         528         533         532
         528         529         534         533
         530         531         536         535
         531         532         537         536
         532         533         538         537
         533         534         539         538
         535         536         541         540
         536         537         542         541
         537         538         543         542
         538         539         544         543
         540         541         546         545
         541         542         547         546
         542         543         548         547
         543         544         549         548
         550         551         556         555
         551         552         557         556
         552         553         558         557
         553         554         559         558
         555         556         561         560
         556         557         562         561
         557         558         563         562
         558         559         564         563
         560         561         566         565
         561         562         567         566
         562         563         568         567
         563         564         569         568
         565         566         571         570
         566         567         572         571
         567         568         573         572
         568         569         574         573
         575         576         581         580
         576         577         582         581
         577         578         583         582
         578         579         584         583
         580         581         586         585
         581         582         587         586
         582         583         588         587
         583         584         589         588
         585         586         591         590
         586         587         592         591
         587         588         593         592
         588         589         594         593
         590         591         596         595
         591         592         597         596
         592         593         598         597
         593         594         599         598
         600         601         606         605
         601         602         607         606
         602         603         608         607
         603         604         609         608
         605         606         611         610
         606         607         612         611
         607         608         613         612
         608         609         614         613
         610         611         616         615
         611         612         617         616
         612         613         618         617
         613         614         619         618
         615         616         621         620
         616         617         622         621
         617         618         623         622
         618         619         624         623
         625         626         631         630
         626         627         632         631
         627         628         633         632
         628         629         634         633
         630         631         636         635
         631         632         637         636
         632         633         638         637
         633         634         639         638
         635         636         641         640
         636         637         642         641
         637         638         643         642
         638         639         644         643
         640         641         646         645
         641         642         647         646
         642         643         648         647
         643         644         649         648
         650         651         656         655
         651         652         657         656
         652         653         658         657
         653         654         659         658
         655         656         661         660
         656         657         662         661
         657         658         663         662
         658         659         664         663
         660         661         666         665
         661         662         667         666
         662         663         668         667
         663         664         669         668
         665         666         671         670
         666         667         672         671
         667         668         673         672
         668         669         674         673
         675         676         681         680
         676         677         682         681
         677         678         683         682
         678         679         684         683
         680         681         686         685
         681         682         687         686
         682         683         688         687
         683         684         689         688
         685         686         691         690
         686         687         692         691
         687         688         693         692
         688         689         694         693
         690         691         696         695
         691         692         697         696
         692         693         698         697
         693         694         699         698
         700         701         706         705
         701         702         707         706
         702         703         708         707
         703         704         709         708
         705         706         711         710
         706         707         712         711
         707         708         713         712
         708         709         714         713
         710         711         716         715
         711         712         717         716
         712         713         718         717
         713         714         719         718
         715         716         721         720
         716         717         722         721
         717         718         723         722
         718         719         724         723
         725         726         731         730
         726         727         732         731
         727         728         733         732
         728         729         734         733
         730         731         736         735
         731         732         737         736
         732         733         738         737
         733         734         739         738
         735         736         741         740
         736         737         742         741
         737         738         743         742
         738         739         744         743
         740         741         746         745
         741         742         747         746
         742         743         748         747
         743         744         749         748
         750         751         756         755
         751         752         757         756
         752         753         758         757
         753         754         759         758
         755         756         761         760
         756         757         762         761
         757         758         763         762
         758         759         764         763
         760         761         766         765
         761         762         767         766
         762         763         768         767
         763         764         769         768
         765         766         771         770
         766         767         772         771
         767         768         773         772
         768         769         774         773
         775         776         781         780
         776         777         782         781
         777         778         783         782
         778         779         784         783
         780         781         786         785
         781         782         787         786
         782         783         788         787
         783         784         789         788
         785         786         791         790
         786         787         792         791
         787         788         793         792
         788         789         794         793
         790         791         796         795
         791         792         797         796
         792         793         798         797
         793         794         799         798
         800         801         806         805
         801         802         807         806
         802         803         808         807
         803         804         809         808
         805         806         811         810
         806         807         812         811
         807         808         813         812
         808         809         814         813
         810         811         816         815
         811         812         817         816
         812         813         818         817
         813         814         819         818
         815         816         821         820
         816         817         822         821
         817         818         823         822
         818         819         824         823
         825         826         831         830
         826         827         832         831
         827         828         833         832
         828         829         834         833
         830         831         836         835
         831         832         837         836
         832         833         838         837
         833         834         839         838
         835         836         841         840
         836         837         842         841
         837         838         843         842
         838         839         844         843
         840         841         846         845
         841         842         847         846
         842         843         848         847
         843         844         849         848
         850         851         856         855
         851         852         857         856
         852         853         858         857
         853         854         859         858
         855         856         861         860
         856         857         862         861
         857         858         863         862
         858         859         864         863
         860         861         866         865
         861         862         867         866
         862         863         868         867
         863         864         869         868
         865         866         871         870
         866         867         872         871
         867         868         873         872
         868         869         874         873
         875         876         881         880
         876         877         882         881
         877         878         883         882
         878         879         884         883
         880         881         886         885
         881         882         887         886
         882         883         888         887
         883         884         889         888
         885         886         891         890
         886         887         892         891
         887         888         893         892
         888         889         894         893
         890         891         896         895
         891         892         897         896
         892         893         898         897
         893         894         899         898
         900         901         906         905
         901         902         907         906
         902         903         908         907
         903         904         909         908
         905         906         911         910
         906         907         912         911
         907         908         913         912
         908         909         914         913
         910         911         916         915
         911         912         917         916
         912         913         918         917
         913         914         919         918
         915         916         921         920
         916         917         922         921
         917         918         923         922
         918         919         924         923
         925         926         931         930
         926         927         932         931
         927         928         933         932
         928         929         934         933
         930         931         936         935
         931         932         937         936
         932         933         938         937
         933         934         939         938
         935         936         941         940
         936         937         942         941
         937         938         943         942
         938         939         944         943
         940         941         946         945
         941         942         947         946
         942         943         948         947
         943         944         949         948
         950         951         956         955
         951         952         957         956
         952         953         958         957
         953         954         959         958
         955         956         961         960
         956         957         962         961
         957         958         963         962
         958         959         964         963
         960         961         966         965
         961         962         967         966
         962         963         968         967
         963         964         969         968
         965         966         971         970
         966         967         972         971
         967         968         973         972
         968         969         974         973
         975         976         981         980
         976         977         982         981
         977         978         983         982
         978         979         984         983
         980         981         986         985
         981         982         987         986
         982         983         988         987
         983         984         989         988
         985         986         991         990
         986         987         992         991
         987         988         993         992
         988         989         994         993
         990         991         996         995
         991         992         997         996
         992         993         998         997
         993         994         999         998
        1000        1001        1006        1005
        1001        1002        1007        1006
        1002        1003        1008        1007
        1003        1004        1009        1008
        1005        1006        1011        1010
        1006        1007        1012        1011
        1007        1008        1013        1012
        1008        1009        1014        1013
        1010        1011        1016        1015
        1011        1012        1017        1016
        1012        1013        1018        1017
        1013        1014        1019        1018
        1015        1016        1021        1020
        1016        1017        1022        1021
        1017        1018        1023        1022
        1018        1019        1024        1023
        1025        1026        1031        1030
        1026        1027        1032        1031
        1027        1028        1033        1032
        1028        1029        1034        1033
        1030        1031        1036        1035
        1031        1032        1037        1036
        1032        1033        1038        1037
        1033        1034        1039        1038
        1035        1036        1041        1040
        1036        1037        1042        1041
        1037        1038        1043        1042
        1038        1039        1044        1043
        1040        1041        1046        1045
        1041        1042        1047        1046
        1042        1043        1048        1047
        1043        1044        1049        1048
        1050        1051        1056        1055
        1051        1052        1057        1056
        1052        1053        1058        1057
        1053        1054        1059        1058
        1055        1056        1061        1060
        1056        1057        1062        1061
        1057        1058        1063        1062
        1058        1059        1064        1063
        1060        1061        1066        1065
        1061        1062        1067        1066
        1062        1063        1068        1067
        1063        1064        1069        1068
        1065        1066        1071        1070
        1066        1067        1072        1071
        1067        1068        1073        1072
        1068        1069        1074        1073
        1075        1076        1081        1080
        1076        1077        1082        1081
        1077        1078        1083        1082
        1078        1079        1084        1083
        1080        1081        1086        1085
        1081        1082        1087        1086
        1082        1083        1088        1087
        1083        1084        1089        1088
        1085        1086        1091        1090
        1086        1087        1092        1091
        1087        1088        1093        1092
        1088        1089        1094        1093
        1090        1091        1096        1095
        1091        1092        1097        1096
        1092        1093        1098        1097
        1093        1094        1099        1098
        1100        1101        1106        1105
        1101        1102        1107        1106
        1102        1103        1108        1107
        1103        1104        1109        1108
        1105        1106        1111        1110
        1106        1107        1112        1111
        1107        1108        1113        1112
        1108        1109        1114        1113
        1110        1111        1116        1115
        1111        1112        1117        1116
        1112        1113        1118        1117
        1113        1114        1119        1118
        1115        1116        1121        1120
        1116        1117        1122        1121
        1117        1118        1123        1122
        1118        1119        1124        1123
        1125        1126        1131        1130
        1126        1127        1132        1131
        1127        1128        1133        1132
        1128        1129        1134        1133
        1130        1131        1136        1135
        1131        1132        1137        1136
        1132        1133        1138        1137
        1133        1134        1139        1138
        1135        1136        1141        1140
        1136        1137        1142        1141
        1137        1138        1143        1142
        1138        1139        1144        1143
        1140        1141        1146        1145
        1141        1142        1147        1146
        1142        1143        1148        1147
        1143        1144        1149        1148
        1150        1151        1156        1155
        1151        1152        1157        1156
        1152        1153        1158        1157
        1153        1154        1159        1158
        1155        1156        1161        1160
        1156        1157        1162        1161
        1157        1158        1163        1162
        1158        1159        1164        1163
        1160        1161        1166        1165
        1161        1162        1167        1166
        1162        1163        1168        1167
        1163        1164        1169        1168
        1165        1166        1171        1170
        1166        1167        1172        1171
        1167        1168        1173        1172
        1168        1169        1174        1173
        1175        1176        1181        1180
        1176        1177        1182        1181
        1177        1178        1183        1182
        1178        1179        1184        1183
        1180        1181        1186        1185
        1181        1182        1187        1186
        1182        1183        1188        1187
        1183        1184        1189        1188
        1185        1186        1191        1190
        1186        1187        1192        1191
        1187        1188        1193        1192
        1188        1189        1194        1193
        1190        1191        1196        1195
        1191        1192        1197        1196
        1192        1193        1198        1197
        1193        1194        1199        1198
        1200        1201        1206        1205
        1201        1202        1207        1206
        1202        1203        1208        1207
        1203        1204        1209        1208
        1205        1206        1211        1210
        1206        1207        1212        1211
        1207        1208        1213        1212
        1208        1209        1214        1213
        1210        1211        1216        1215
        1211        1212        1217        1216
        1212        1213        1218        1217
        1213        1214        1219        1218
        1215        1216        1221        1220
        1216        1217        1222        1221
        1217        1218        1223        1222
        1218        1219        1224        1223
        1225        1226        1231        1230
        1226        1227        1232        1231
        1227        1228        1233        1232
        1228        1229        1234        1233
        1230        1231        1236        1235
        1231        1232        1237        1236
        1232        1233        1238        1237
        1233        1234        1239        1238
        1235        1236        1241        1240
        1236        1237        1242        1241
        1237        1238        1243        1242
        1238        1239        1244        1243
        1240        1241        1246        1245
        1241        1242        1247        1246
        1242        1243        1248        1247
        1243        1244        1249        1248
        1250        1251        1256        1255
        1251        1252        1257        1256
        1252        1253        1258        1257
        1253        1254        1259        1258
        1255        1256        1261        1260
        1256        1257        1262        1261
        1257        1258        1263        1262
        1258        1259        1264        1263
        1260        1261        1266        1265
        1261        1262        1267        1266
        1262        1263        1268        1267
        1263        1264        1269        1268
        1265        1266        1271        1270
        1266        1267        1272        1271
        1267        1268        1273        1272
        1268        1269        1274        1273
        1275        1276        1281        1280
        1276        1277        1282        1281
        1277        1278        1283        1282
        1278        1279        1284        1283
        1280        1281        1286        1285
        1281        1282        1287        1286
        1282        1283        1288        1287
        1283        1284        1289        1288
        1285        1286        1291        1290
        1286        1287        1292        1291
        1287        1288        1293        1292
        1288        1289        1294        1293
        1290        1291        1296        1295
        1291        1292        1297        1296
        1292        1293        1298        1297
        1293        1294        1299        1298
        1300        1301        1306        1305
        1301        1302        1307        1306
        1302        1303        1308        1307
        1303        1304        1309        1308
        1305        1306        1311        1310
        1306        1307        1312        1311
        1307        1308        1313        1312
        1308        1309        1314        1313
        1310        1311        1316        1315
        1311        1312        1317        1316
        1312        1313        1318        1317
        1313        1314        1319        1318
        1315        1316        1321        1320
        1316        1317        1322        1321
        1317        1318        1323        1322
        1318        1319        1324        1323
        1325        1326        1331        1330
        1326        1327        1332        1331
        1327        1328        1333        1332
        1328        1329        1334        1333
        1330        1331        1336        1335
        1331        1332        1337        1336
        1332        1333        1338        1337
        1333        1334        1339        1338
        1335        1336        1341        1340
        1336        1337        1342        1341
        1337        1338        1343        1342
        1338        1339        1344        1343
        1340        1341        1346        1345
        1341        1342        1347        1346
        1342        1343        1348        1347
        1343        1344        1349        1348
        1350        1351        1356        1355
        1351        1352        1357        1356
        1352        1353        1358        1357
        1353        1354        1359        1358
        1355        1356        1361        1360
        1356        1357        1362        1361
        1357        1358        1363        1362
        1358        1359        1364        1363
        1360        1361        1366        1365
        1361        1362        1367        1366
        1362        1363        1368        1367
        1363        1364        1369        1368
        1365        1366        1371        1370
        1366        1367        1372        1371
        1367        1368        1373        1372
        1368        1369        1374        1373
        1375        1376        1381        1380
        1376        1377        1382        1381
        1377        1378        1383        1382
        1378        1379        1384        1383
        1380        1381        1386        1385
        1381        1382        1387        1386
        1382        1383        1388        1387
        1383        1384        1389        1388
        1385        1386        1391        1390
        1386        1387        1392        1391
        1387        1388        1393        1392
        1388        1389        1394        1393
        1390        1391        1396        1395
        1391        1392        1397        1396
        1392        1393        1398        1397
        1393        1394        1399        1398
        1400        1401        1406        1405
        1401        1402        1407        1406
        1402        1403        1408        1407
        1403        1404        1409        1408
        1405        1406        1411        1410
        1406        1407        1412        1411
        1407        1408        1413        1412
        1408        1409        1414        1413
        1410        1411        1416        1415
        1411        1412        1417        1416
        1412        1413        1418        1417
        1413        1414        1419        1418
        1415        1416        1421        1420
        1416        1417        1422        1421
        1417        1418        1423        1422
        1418        1419        1424        1423
        1425        1426        1431        1430
        1426        1427        1432        1431
        1427        1428        1433        1432
        1428        1429        1434        1433
        1430        1431        1436        1435
        1431        1432        1437        1436
        1432        1433        1438        1437
        1433        1434        1439        1438
        1435        1436        1441        1440
        1436        1437        1442        1441
        1437        1438        1443        1442
        1438        1439        1444        1443
        1440        1441        1446        1445
        1441        1442        1447        1446
        1442        1443        1448        1447
        1443        1444        1449        1448
        1450        1451        1456        1455
        1451        1452        1457        1456
        1452        1453        1458        1457
        1453        1454        1459        1458
        1455        1456        1461        1460
        1456        1457        1462        1461
        1457        1458        1463        1462
        1458        1459        1464        1463
        1460        1461        1466        1465
        1461        1462        1467        1466
        1462        1463        1468        1467
        1463        1464        1469        1468
        1465        1466        1471        1470
        1466        1467        1472        1471
        1467        1468        1473        1472
        1468        1469        1474        1473
        1475        1476        1481        1480
        1476        1477        1482        1481
        1477        1478        1483        1482
        1478        1479        1484        1483
        1480        1481        1486        1485
        1481        1482        1487        1486
        1482        1483        1488        1487
        1483        1484        1489        1488
        1485        1486        1491        1490
        1486        1487        1492        1491
        1487        1488        1493        1492
        1488        1489        1494        1493
        1490        1491        1496        1495
        1491        1492        1497        1496
        1492        1493        1498        1497
        1493        1494        1499        1498
        1500        1501        1506        1505
        1501        1502        1507        1506
        1502        1503        1508        1507
        1503        1504        1509        1508
        1505        1506        1511        1510
        1506        1507        1512        1511
        1507        1508        1513        1512
        1508        1509        1514        1513
        1510        1511        1516        1515
        1511        1512        1517        1516
        1512        1513        1518        1517
        1513        1514        1519        1518
        1515        1516        1521        1520
        1516        1517        1522        1521
        1517        1518        1523        1522
        1518        1519        1524        1523
        1525        1526        1531        1530
        1526        1527        1532        1531
        1527        1528        1533        1532
        1528        1529        1534        1533
        1530        1531        1536        1535
        1531        1532        1537        1536
        1532        1533        1538        1537
        1533        1534        1539        1538
        1535        1536        1541        1540
        1536        1537        1542        1541
        1537        1538        1543        1542
        1538        1539        1544        1543
        1540        1541        1546        1545
        1541        1542        1547        1546
        1542        1543        1548        1547
        1543        1544        1549        1548
        1550        1551        1556        1555
        1551        1552        1557        1556
        1552        1553        1558        1557
        1553        1554        1559        1558
        1555        1556        1561        1560
        1556        1557        1562        1561
        1557        1558        1563        1562
        1558        1559        1564        1563
        1560        1561        1566        1565
        1561        1562        1567        1566
        1562        1563        1568        1567
        1563        1564        1569        1568
        1565        1566        1571        1570
        1566        1567        1572        1571
        1567        1568        1573        1572
        1568        1569        1574        1573
        1575        1576        1581        1580
        1576        1577        1582        1581
        1577        1578        1583        1582
        1578        1579        1584        1583
        1580        1581        1586        1585
        1581        1582        1587        1586
        1582        1583        1588        1587
        1583        1584        1589        1588
        1585        1586        1591        1590
        1586        1587        1592        1591
        1587        1588        1593        1592
        1588        1589        1594        1593
        1590        1591        1596        1595
        1591        1592        1597        1596
        1592        1593        1598        1597
        1593        1594        1599        1598
 </DataArray>
 <DataArray  type="Int32"  Name="offsets"  format="ascii"> 
           4
           8
          12
          16
          20
          24
          28
          32
          36
          40
          44
          48
          52
          56
          60
          64
          68
          72
          76
          80
          84
          88
          92
          96
         100
         104
         108
         112
         116
         120
         124
         128
         132
         136
         140
         144
         148
         152
         156
         160
         164
         168
         172
         176
         180
         184
         188
         192
         196
         200
         204
         208
         212
         216
         220
         224
         228
         232
         236
         240
         244
         248
         252
         256
         260
         264
         268
         272
         276
         280
         284
         288
         292
         296
         300
         304
         308
         312
         316
         320
         324
         328
         332
         336
         340
         344
         348
         352
         356
         360
         364
         368
         372
         376
         380
         384
         388
         392
         396
         400
         404
         408
         412
         416
         420
         424
         428
         432
         436
         440
         444
         448
         452
         456
         460
         464
         468
         472
         476
         480
         484
         488
         492
         496
         500
         504
         508
         512
         516
         520
         524
         528
         532
         536
         540
         544
         548
         552
         556
         560
         564
         568
         572
         576
         580
         584
         588
         592
         596
         600
         604
         608
         612
         616
         620
         624
         628
         632
         636
         640
         644
         648
         652
         656
         660
         664
         668
         672
         676
         680
         684
         688
         692
         696
         700
         704
         708
         712
         716
         720
         724
         728
         732
         736
         740
         744
         748
         752
         756
         760
         764
         768
         772
         776
         780
         784
         788
         792
         796
         800
         804
         808
         812
         816
         820
         824
         828
         832
         836
         840
         844
         848
         852
         856
         860
         864
         868
         872
         876
         880
         884
         888
         892
         896
         900
         904
         908
         912
         916
         920
         924
         928
         932
         936
         940
         944
         948
         952
         956
         960
         964
         968
         972
         976
         980
         984
         988
         992
         996
        1000
        1004
        1008
        1012
        1016
        1020
        1024
        1028
        1032
        1036
        1040
        1044
        1048
        1052
        1056
        1060
        1064
        1068
        1072
        1076
        1080
        1084
        1088
        1092
        1096
        1100
        1104
        1108
        1112
        1116
        1120
        1124
        1128
        1132
        1136
        1140
        1144
        1148
        1152
        1156
        1160
        1164
        1168
        1172
        1176
        1180
        1184
        1188
        1192
        1196
        1200
        1204
        1208
        1212
        1216
        1220
        1224
        1228
        1232
        1236
        1240
        1244
        1248
        1252
        1256
        1260
        1264
        1268
        1272
        1276
        1280
        1284
        1288
        1292
        1296
        1300
        1304
        1308
        1312
        1316
        1320
        1324
        1328
        1332
        1336
        1340
        1344
        1348
        1352
        1356
        1360
        1364
        1368
        1372
        1376
        1380
        1384
        1388
        1392
        1396
        1400
        1404
        1408
        1412
        1416
        1420
        1424
        1428
        1432
        1436
        1440
        1444
        1448
        1452
        1456
        1460
        1464
        1468
        1472
        1476
        1480
        1484
        1488
        1492
        1496
        1500
        1504
        1508
        1512
        1516
        1520
        1524
        1528
        1532
        1536
        1540
        1544
        1548
        1552
        1556
        1560
        1564
        1568
        1572
        1576
        1580
        1584
        1588
        1592
        1596
        1600
        1604
        1608
        1612
        1616
        1620
        1624
        1628
        1632
        1636
        1640
        1644
        1648
        1652
        1656
        1660
        1664
        1668
        1672
        1676
        1680
        1684
        1688
        1692
        1696
        1700
        1704
        1708
        1712
        1716
        1720
        1724
        1728
        1732
        1736
        1740
        1744
        1748
        1752
        1756
        1760
        1764
        1768
        1772
        1776
        1780
        1784
        1788
        1792
        1796
        1800
        1804
        1808
        1812
        1816
        1820
        1824
        1828
        1832
        1836
        1840
        1844
        1848
        1852
        1856
        1860
        1864
        1868
        1872
        1876
        1880
        1884
        1888
        1892
        1896
        1900
        1904
        1908
        1912
        1916
        1920
        1924
        1928
        1932
        1936
        1940
        1944
        1948
        1952
        1956
        1960
        1964
        1968
        1972
        1976
        1980
        1984
        1988
        1992
        1996
        2000
        2004
        2008
        2012
        2016
        2020
        2024
        2028
        2032
        2036
        2040
        2044
        2048
        2052
        2056
        2060
        2064
        2068
        2072
        2076
        2080
        2084
        2088
        2092
        2096
        2100
        2104
        2108
        2112
        2116
        2120
        2124
        2128
        2132
        2136
        2140
        2144
        2148
        2152
        2156
        2160
        2164
        2168
        2172
        2176
        2180
        2184
        2188
        2192
        2196
        2200
        2204
        2208
        2212
        2216
        2220
        2224
        2228
        2232
        2236
        2240
        2244
        2248
        2252
        2256
        2260
        2264
        2268
        2272
        2276
        2280
        2284
        2288
        2292
        2296
        2300
        2304
        2308
        2312
        2316
        2320
        2324
        2328
        2332
        2336
        2340
        2344
        2348
        2352
        2356
        2360
        2364
        2368
        2372
        2376
        2380
        2384
        2388
        2392
        2396
        2400
        2404
        2408
        2412
        2416
        2420
        2424
        2428
        2432
        2436
        2440
        2444
        2448
        2452
        2456
        2460
        2464
        2468
        2472
        2476
        2480
        2484
        2488
        2492
        2496
        2500
        2504
        2508
        2512
        2516
        2520
        2524
        2528
        2532
        2536
        2540
        2544
        2548
        2552
        2556
        2560
        2564
        2568
        2572
        2576
        2580
        2584
        2588
        2592
        2596
        2600
        2604
        2608
        2612
        2616
        2620
        2624
        2628
        2632
        2636
        2640
        2644
        2648
        2652
        2656
        2660
        2664
        2668
        2672
        2676
        2680
        2684
        2688
        2692
        2696
        2700
        2704
        2708
        2712
        2716
        2720
        2724
        2728
        2732
        2736
        2740
        2744
        2748
        2752
        2756
        2760
        2764
        2768
        2772
        2776
        2780
        2784
        2788
        2792
        2796
        2800
        2804
        2808
        2812
        2816
        2820
        2824
        2828
        2832
        2836
        2840
        2844
        2848
        2852
        2856
        2860
        2864
        2868
        2872
        2876
        2880
        2884
        2888
        2892
        2896
        2900
        2904
        2908
        2912
        2916
        2920
        2924
        2928
        2932
        2936
        2940
        2944
        2948
        2952
        2956
        2960
        2964
        2968
        2972
        2976
        2980
        2984
        2988
        2992
        2996
        3000
        3004
        3008
        3012
        3016
        3020
        3024
        3028
        3032
        3036
        3040
        3044
        3048
        3052
        3056
        3060
        3064
        3068
        3072
        3076
        3080
        3084
        3088
        3092
        3096
        3100
        3104
        3108
        3112
        3116
        3120
        3124
        3128
        3132
        3136
        3140
        3144
        3148
        3152
        3156
        3160
        3164
        3168
        3172
        3176
        3180
        3184
        3188
        3192
        3196
        3200
        3204
        3208
        3212
        3216
        3220
        3224
        3228
        3232
        3236
        3240
        3244
        3248
        3252
        3256
        3260
        3264
        3268
        3272
        3276
        3280
        3284
        3288
        3292
        3296
        3300
        3304
        3308
        3312
        3316
        3320
        3324
        3328
        3332
        3336
        3340
        3344
        3348
        3352
        3356
        3360
        3364
        3368
        3372
        3376
        3380
        3384
        3388
        3392
        3396
        3400
        3404
        3408
        3412
        3416
        3420
        3424
        3428
        3432
        3436
        3440
        3444
        3448
        3452
        3456
        3460
        3464
        3468
        3472
        3476
        3480
        3484
        3488
        3492
        3496
        3500
        3504
        3508
        3512
        3516
        3520
        3524
        3528
        3532
        3536
        3540
        3544
        3548
        3552
        3556
        3560
        3564
        3568
        3572
        3576
        3580
        3584
        3588
        3592
        3596
        3600
        3604
        3608
        3612
        3616
        3620
        3624
        3628
        3632
        3636
        3640
        3644
        3648
        3652
        3656
        3660
        3664
        3668
        3672
        3676
        3680
        3684
        3688
        3692
        3696
        3700
        3704
        3708
        3712
        3716
        3720
        3724
        3728
        3732
        3736
        3740
        3744
        3748
        3752
        3756
        3760
        3764
        3768
        3772
        3776
        3780
        3784
        3788
        3792
        3796
        3800
        3804
        3808
        3812
        3816
        3820
        3824
        3828
        3832
        3836
        3840
        3844
        3848
        3852
        3856
        3860
        3864
        3868
        3872
        3876
        3880
        3884
        3888
        3892
        3896
        3900
        3904
        3908
        3912
        3916
        3920
        3924
        3928
        3932
        3936
        3940
        3944
        3948
        3952
        3956
        3960
        3964
        3968
        3972
        3976
        3980
        3984
        3988
        3992
        3996
        4000
        4004
        4008
        4012
        4016
        4020
        4024
        4028
        4032
        4036
        4040
        4044
        4048
        4052
        4056
        4060
        4064
        4068
        4072
        4076
        4080
        4084
        4088
        4092
        4096
 </DataArray>
 <DataArray  type="UInt8"  Name="types"  format="ascii">
 9
 9
 9
 9
 9
 9
 9
 9
 9
 9
 9
 9
 9
 9
 9
 9
 9
 9
 9
 9
 9
 9
 9
 9
 9
 9
 9
 9
 9
 9
 9
 9
 9
 9
 9
 9
 9
 9
 9
 9
 9
 9
 9
 9
 9
 9
 9
 9
 9
 9
 9
 9
 9
 9
 9
 9
 9
 9
 9
 9
 9
 9
 9
 9
 9
 9
 9
 9
 9
 9
 9
 9
 9
 9
 9
 9
 9
 9
 9
 9
 9
 9
 9
 9
 9
 9
 9
 9
 9
 9
 9
 9
 9
 9
 9
 9
 9
 9
 9
 9
 9
 9
 9
 9
 9
 9
 9
 9
 9
 9
 9
 9
 9
 9
 9
 9
 9
 9
 9
 9
 9
 9
 9
 9
 9
 9
 9
 9
 9
 9
 9
 9
 9
 9
 9
 9
 9
 9
 9
 9
 9
 9
 9
 9
 9
 9
 9
 9
 9
 9
 9
 9
 9
 9
 9
 9
 9
 9
 9
 9
 9
 9
 9
 9
 9
 9
 9
 9
 9
 9
 9
 9
 9
 9
 9
 9
 9
 9
 9
 9
 9
 9
 9
 9
 9
 9
 9
 9
 9
 9
 9
 9
 9
 9
 9
 9
 9
 9
 9
 9
 9
 9
 9
 9
 9
 9
 9
 9
 9
 9
 9
 9
 9
 9
 9
 9
 9
 9
 9
 9
 9
 9
 9
 9
 9
 9
 9
 9
 9
 9
 9
 9
 9
 9
 9
 9
 9
 9
 9
 9
 9
 9
 9
 9
 9
 9
 9
 9
 9
 9
 9
 9
 9
 9
 9
 9
 9
 9
 9
 9
 9
 9
 9
 9
 9
 9
 9
 9
 9
 9
 9
 9
 9
 9
 9
 9
 9
 9
 9
 9
 9
 9
 9
 9
 9
 9
 9
 9
 9
 9
 9
 9
 9
 9
 9
 9
 9
 9
 9
 9
 9
 9
 9
 9
 9
 9
 9
 9
 9
 9
 9
 9
 9
 9
 9
 9
 9
 9
 9
 9
 9
 9
 9
 9
 9
 9
 9
 9
 9
 9
 9
 9
 9
 9
 9
 9
 9
 9
 9
 9
 9
 9
 9
 9
 9
 9
 9
 9
 9
 9
 9
 9
 9
 9
 9
 9
 9
 9
 9
 9
 9
 9
 9
 9
 9
 9
 9
 9
 9
 9
 9
 9
 9
 9
 9
 9
 9
 9
 9
 9
 9
 9
 9
 9
 9
 9
 9
 9
 9
 9
 9
 9
 9
 9
 9
 9
 9
 9
 9
 9
 9
 9
 9
 9
 9
 9
 9
 9
 9
 9
 9
 9
 9
 9
 9
 9
 9
 9
 9
 9
 9
 9
 9
 9
 9
 9
 9
 9
 9
 9
 9
 9
 9
 9
 9
 9
 9
 9
 9
 9
 9
 9
 9
 9
 9
 9
 9
 9
 9
 9
 9
 9
 9
 9
 9
 9
 9
 9
 9
 9
 9
 9
 9
 9
 9
 9
 9
 9
 9
 9
 9
 9
 9
 9
 9
 9
 9
 9
 9
 9
 9
 9
 9
 9
 9
 9
 9
 9
 9
 9
 9
 9
 9
 9
 9
 9
 9
 9
 9
 9
 9
 9
 9
 9
 9
 9
 9
 9
 9
 9
 9
 9
 9
 9
 9
 9
 9
 9
 9
 9
 9
 9
 9
 9
 9
 9
 9
 9
 9
 9
 9
 9
 9
 9
 9
 9
 9
 9
 9
 9
 9
 9
 9
 9
 9
 9
 9
 9
 9
 9
 9
 9
 9
 9
 9
 9
 9
 9
 9
 9
 9
 9
 9
 9
 9
 9
 9
 9
 9
 9
 9
 9
 9
 9
 9
 9
 9
 9
 9
 9
 9
 9
 9
 9
 9
 9
 9
 9
 9
 9
 9
 9
 9
 9
 9
 9
 9
 9
 9
 9
 9
 9
 9
 9
 9
 9
 9
 9
 9
 9
 9
 9
 9
 9
 9
 9
 9
 9
 9
 9
 9
 9
 9
 9
 9
 9
 9
 9
 9
 9
 9
 9
 9
 9
 9
 9
 9
 9
 9
 9
 9
 9
 9
 9
 9
 9
 9
 9
 9
 9
 9
 9
 9
 9
 9
 9
 9
 9
 9
 9
 9
 9
 9
 9
 9
 9
 9
 9
 9
 9
 9
 9
 9
 9
 9
 9
 9
 9
 9
 9
 9
 9
 9
 9
 9
 9
 9
 9
 9
 9
 9
 9
 9
 9
 9
 9
 9
 9
 9
 9
 9
 9
 9
 9
 9
 9
 9
 9
 9
 9
 9
 9
 9
 9
 9
 9
 9
 9
 9
 9
 9
 9
 9
 9
 9
 9
 9
 9
 9
 9
 9
 9
 9
 9
 9
 9
 9
 9
 9
 9
 9
 9
 9
 9
 9
 9
 9
 9
 9
 9
 9
 9
 9
 9
 9
 9
 9
 9
 9
 9
 9
 9
 9
 9
 9
 9
 9
 9
 9
 9
 9
 9
 9
 9
 9
 9
 9
 9
 9
 9
 9
 9
 9
 9
 9
 9
 9
 9
 9
 9
 9
 9
 9
 9
 9
 9
 9
 9
 9
 9
 9
 9
 9
 9
 9
 9
 9
 9
 9
 9
 9
 9
 9
 9
 9
 9
 9
 9
 9
 9
 9
 9
 9
 9
 9
 9
 9
 9
 9
 9
 9
 9
 9
 9
 9
 9
 9
 9
 9
 9
 9
 9
 9
 9
 9
 9
 9
 9
 9
 9
 9
 9
 9
 9
 9
 9
 9
 9
 9
 9
 9
 9
 9
 9
 9
 9
 9
 9
 9
 9
 9
 9
 9
 9
 9
 9
 9
 9
 9
 9
 9
 9
 9
 9
 9
 9
 9
 9
 9
 9
 9
 9
 9
 9
 9
 9
 9
 9
 9
 9
 9
 9
 9
 9
 9
 9
 9
 9
 9
 9
 9
 9
 9
 9
 9
 9
 9
 9
 9
 9
 9
 9
 9
 9
 9
 9
 9
 9
 9
 9
 9
 9
 9
 9
 9
 9
 9
 9
 9
 9
 9
 9
 9
 9
 9
 9
 9
 9
 9
 9
 9
 9
 9
 9
 9
 9
 9
 9
 9
 9
 9
 9
 9
 9
 9
 9
 9
 9
 9
 9
 9
 9
 9
 9
 9
 9
 9
 9
 9
 9
 9
 9
 9
 9
 9
 9
 9
 9
 9
 9
 9
 9
 9
 9
 9
 9
 9
 9
 9
 9
 9
 9
 9
 9
 9
 9
 9
 9
 9
 9
 9
 9
 9
 9
 9
 9
 9
 9
 9
 9
 9
 9
 9
 9
 </DataArray>
 </Cells> 
 <PointData>
 <DataArray  type="Float64" Name="disp" NumberOfComponents="3" format="ascii">
   6.5283878493632930E-002   6.3074980670230624E-002   0.0000000000000000     
   6.8387781745589599E-002   6.8182107672766695E-002   0.0000000000000000     
   7.1405217177851601E-002   7.3595838820393777E-002   0.0000000000000000     
   7.4336184790418952E-002   7.9316174113111843E-002   0.0000000000000000     
   7.7180684583291637E-002   8.5343113550920918E-002   0.0000000000000000     
   6.0116096939995700E-002   6.1859099222868349E-002   0.0000000000000000     
   6.2997521582891874E-002   6.7187139290742104E-002   0.0000000000000000     
   6.5804066252269811E-002   7.2751210059458768E-002   0.0000000000000000     
   6.8535730948129564E-002   7.8551311529018314E-002   0.0000000000000000     
   7.1192515670471093E-002   8.4587443699420825E-002   0.0000000000000000     
   5.5143988575413388E-002   6.0854930189754526E-002   0.0000000000000000     
   5.7815957411016090E-002   6.6332328283260175E-002   0.0000000000000000     
   6.0422113973134267E-002   7.1997767873914598E-002   0.0000000000000000     
   6.2962458261767912E-002   7.7851248961717787E-002   0.0000000000000000     
   6.5436990276917031E-002   8.3892771546669742E-002   0.0000000000000000     
   5.0367553399886002E-002   6.0062473570889147E-002   0.0000000000000000     
   5.2843089229962267E-002   6.5617674650320937E-002   0.0000000000000000     
   5.5259360340444937E-002   7.1335512263761294E-002   0.0000000000000000     
   5.7616366731334002E-002   7.7215986411210191E-002   0.0000000000000000     
   5.9914108402629465E-002   8.3259097092667655E-002   0.0000000000000000     
   4.5786791413413519E-002   5.9481729366272204E-002   0.0000000000000000     
   4.8078917039730391E-002   6.5043178391924389E-002   0.0000000000000000     
   5.0315805354201840E-002   7.0764443228998830E-002   0.0000000000000000     
   5.2497456356827829E-002   7.6645523877495569E-002   0.0000000000000000     
   5.4623870047608408E-002   8.2686420337414607E-002   0.0000000000000000     
   7.7180684583291637E-002   8.5343113550920918E-002   0.0000000000000000     
   7.9940835854003148E-002   9.1586323929460686E-002   0.0000000000000000     
   8.2618757900086978E-002   9.7955472044370898E-002   0.0000000000000000     
   8.5214450721543142E-002  0.10445055789565152        0.0000000000000000     
   8.7727914318371611E-002  0.11107158148330259        0.0000000000000000     
   7.1192515670471093E-002   8.4587443699420825E-002   0.0000000000000000     
   7.3779253527815211E-002   9.0814867375331204E-002   0.0000000000000000     
   7.6300777628682703E-002   9.7188843361414451E-002   0.0000000000000000     
   7.8757087973073597E-002  0.10370937165767058        0.0000000000000000     
   8.1148184560987879E-002  0.11037645226409956        0.0000000000000000     
   6.5436990276917031E-002   8.3892771546669742E-002   0.0000000000000000     
   6.7851612840113693E-002   9.0109708901141672E-002   0.0000000000000000     
   7.0212228772889990E-002   9.6489434297504770E-002   0.0000000000000000     
   7.2518838075245881E-002  0.10303194773575908        0.0000000000000000     
   7.4771440747181422E-002  0.10973724921590457        0.0000000000000000     
   5.9914108402629465E-002   8.3259097092667655E-002   0.0000000000000000     
   6.2157913790898647E-002   8.9470848506892089E-002   0.0000000000000000     
   6.4353111332708823E-002   9.5857244852641910E-002   0.0000000000000000     
   6.6499701028060035E-002  0.10241828612991706        0.0000000000000000     
   6.8597682876952240E-002  0.10915397233871758        0.0000000000000000     
   5.4623870047608408E-002   8.2686420337414607E-002   0.0000000000000000     
   5.6698156380170041E-002   8.8898286192582471E-002   0.0000000000000000     
   5.8723425308139246E-002   9.5292275026825773E-002   0.0000000000000000     
   6.0699676831516010E-002  0.10186838684014451        0.0000000000000000     
   6.2626910950300346E-002  0.10862662163253865        0.0000000000000000     
   8.7727914318371611E-002  0.11107158148330259        0.0000000000000000     
   9.0107094323339340E-002  0.11780721653946225        0.0000000000000000     
   9.2299936369213298E-002  0.12464613679626875        0.0000000000000000     
   9.4306440455993457E-002  0.13158834225372201        0.0000000000000000     
   9.6126606583679816E-002  0.13863383291182207        0.0000000000000000     
   8.1148184560987879E-002  0.11037645226409956        0.0000000000000000     
   8.3412421561451650E-002  0.11716476469175281        0.0000000000000000     
   8.5488153143491008E-002  0.12404898845168179        0.0000000000000000     
   8.7375379307105983E-002  0.13102912354388643        0.0000000000000000     
   8.9074100052296518E-002  0.13810516996836675        0.0000000000000000     
   7.4771440747181422E-002  0.10973724921590457        0.0000000000000000     
   7.6905001195504044E-002  0.11656931658657335        0.0000000000000000     
   7.8854483827021274E-002  0.12349212769639763        0.0000000000000000     
   8.0619888641733098E-002  0.13050568254537739        0.0000000000000000     
   8.2201215639639502E-002  0.13760998113351255        0.0000000000000000     
   6.8597682876952240E-002  0.10915397233871758        0.0000000000000000     
   7.0584833225496565E-002  0.11602087222392388        0.0000000000000000     
   7.2398928419804109E-002  0.12297555453041630        0.0000000000000000     
   7.4039968459874830E-002  0.13001801925819484        0.0000000000000000     
   7.5507953345708784E-002  0.13714826640725949        0.0000000000000000     
   6.2626910950300346E-002  0.10862662163253865        0.0000000000000000     
   6.4451917651429172E-002  0.11551943160380437        0.0000000000000000     
   6.6121486921839459E-002  0.12249926895373775        0.0000000000000000     
   6.7635618761531194E-002  0.12956613368233882        0.0000000000000000     
   6.8994313170504362E-002  0.13672002578960754        0.0000000000000000     
   9.6126606583679816E-002  0.13863383291182207        0.0000000000000000     
   9.7844676228917488E-002  0.14580455205144802        0.0000000000000000     
   9.9544890868351596E-002  0.15312244295347888        0.0000000000000000     
  0.10122725050198211       0.16058750561791466        0.0000000000000000     
  0.10289175512980905       0.16819974004475535        0.0000000000000000     
   8.9074100052296518E-002  0.13810516996836675        0.0000000000000000     
   9.0671332750416223E-002  0.14530051334103544        0.0000000000000000     
   9.2254094772818637E-002  0.15263853927780507        0.0000000000000000     
   9.3822386119503789E-002  0.16011924777867567        0.0000000000000000     
   9.5376206790471652E-002  0.16774263884364726        0.0000000000000000     
   8.2201215639639502E-002  0.13760998113351255        0.0000000000000000     
   8.3683841396489198E-002  0.14482919859135823        0.0000000000000000     
   8.5153142488030825E-002  0.15218751004946934        0.0000000000000000     
   8.6609118914264441E-002  0.15968491550784594        0.0000000000000000     
   8.8051770675190016E-002  0.16732141496648800        0.0000000000000000     
   7.5507953345708784E-002  0.13714826640725949        0.0000000000000000     
   7.6882202167136413E-002  0.14439060780241639        0.0000000000000000     
   7.8242034013988174E-002  0.15176935526847174        0.0000000000000000     
   7.9587448886264095E-002  0.15928450880542544        0.0000000000000000     
   8.0918446783964135E-002  0.16693606841327760        0.0000000000000000     
   6.8994313170504362E-002  0.13672002578960754        0.0000000000000000     
   7.0266415062357881E-002  0.14398474097420999        0.0000000000000000     
   7.1520769350690683E-002  0.15138407493481221        0.0000000000000000     
   7.2757376035502724E-002  0.15891802767141425        0.0000000000000000     
   7.3976235116794034E-002  0.16658659918401605        0.0000000000000000     
  0.10289175512980905       0.16819974004475535        0.0000000000000000     
  0.10449342864537325       0.17592046557348465        0.0000000000000000     
  0.10598729494221551       0.18371100154358627        0.0000000000000000     
  0.10737335402033586       0.19157134795506020        0.0000000000000000     
  0.10865160587973428       0.19950150480790646        0.0000000000000000     
   9.5376206790471652E-002  0.16774263884364726        0.0000000000000000     
   9.6871997482784217E-002  0.17547577041414655        0.0000000000000000     
   9.8266198893503465E-002  0.18328570043160036        0.0000000000000000     
   9.9558811022629423E-002  0.19117242889600869        0.0000000000000000     
  0.10074983387016206       0.19913595580737151        0.0000000000000000     
   8.8051770675190016E-002  0.16732141496648800        0.0000000000000000     
   8.9439906563542962E-002  0.17506852222002564        0.0000000000000000     
   9.0732335372058798E-002  0.18289775106308909        0.0000000000000000     
   9.1929057100737482E-002  0.19080910149567820        0.0000000000000000     
   9.3030071749579030E-002  0.19880257351779307        0.0000000000000000     
   8.0918446783964135E-002  0.16693606841327760        0.0000000000000000     
   8.2197155887649559E-002  0.17469872099112196        0.0000000000000000     
   8.3385704377881509E-002  0.18254715343805231        0.0000000000000000     
   8.4484092254660095E-002  0.19048136575406874        0.0000000000000000     
   8.5492319517985207E-002  0.19850135793917112        0.0000000000000000     
   7.3976235116794034E-002  0.16658659918401605        0.0000000000000000     
   7.5143745455103911E-002  0.17436636672743544        0.0000000000000000     
   7.6226305910971626E-002  0.18223390755649013        0.0000000000000000     
   7.7223916484397193E-002  0.19018922167118024        0.0000000000000000     
   7.8136577175380584E-002  0.19823230907150569        0.0000000000000000     
  0.10865160587973428       0.19950150480790646        0.0000000000000000     
  0.10984196674412464       0.20751111222495974        0.0000000000000000     
  0.11096435283722075       0.21560981032905469        0.0000000000000000     
  0.11201876415902265       0.22379759912019137        0.0000000000000000     
  0.11300520070953031       0.23207447859836974        0.0000000000000000     
  0.10074983387016206       0.19913595580737151        0.0000000000000000     
  0.10185569198044579       0.20717865478612327        0.0000000000000000     
  0.10289280989782507       0.21530289945269832        0.0000000000000000     
  0.10386118762229980       0.22350868980709671        0.0000000000000000     
  0.10476082515387009       0.23179602584931841        0.0000000000000000     
   9.3030071749579030E-002  0.19880257351779307        0.0000000000000000     
   9.4048452031261748E-002  0.20687545156965240        0.0000000000000000     
   9.4997270658464000E-002  0.21502502009147487        0.0000000000000000     
   9.5876527631185718E-002  0.22325127908326053        0.0000000000000000     
   9.6686222949426970E-002  0.23155422854500929        0.0000000000000000     
   8.5492319517985207E-002  0.19850135793917112        0.0000000000000000     
   8.6420246896572517E-002  0.20660150257554713        0.0000000000000000     
   8.7277735119137584E-002  0.21477617224538428        0.0000000000000000     
   8.8064784185680409E-002  0.22302536694868272        0.0000000000000000     
   8.8781394096200991E-002  0.23134908668544227        0.0000000000000000     
   7.8136577175380584E-002  0.19823230907150569        0.0000000000000000     
   7.8971076576378071E-002  0.20635680780380750        0.0000000000000000     
   7.9734203279845817E-002  0.21455635591442671        0.0000000000000000     
   8.0425957285783833E-002  0.22283095340336337        0.0000000000000000     
   8.1046338594192135E-002  0.23118060027061738        0.0000000000000000     
  0.11300520070953031       0.23207447859836974        0.0000000000000000     
  0.11394680464020791       0.24045206031841754        0.0000000000000000     
  0.11486671810251961       0.24894195583516254        0.0000000000000000     
  0.11576494109646543       0.25754416514860468        0.0000000000000000     
  0.11664147362204534       0.26625868825874410        0.0000000000000000     
  0.10476082515387009       0.23179602584931841        0.0000000000000000     
  0.10559389092879189       0.24018590354753544        0.0000000000000000     
  0.10636255338332122       0.24869931886991956        0.0000000000000000     
  0.10706681251745813       0.25733627181647090        0.0000000000000000     
  0.10770666833120260       0.26609676238718938        0.0000000000000000     
   9.6686222949426970E-002  0.23155422854500929        0.0000000000000000     
   9.7415729316059366E-002  0.23995956073836533        0.0000000000000000     
   9.8054419433954543E-002  0.24849296792497283        0.0000000000000000     
   9.8602293303112529E-002  0.25715445010483173        0.0000000000000000     
   9.9059350923533296E-002  0.26594400727794204        0.0000000000000000     
   8.8781394096200991E-002  0.23134908668544227        0.0000000000000000     
   8.9412319802010393E-002  0.23977303189090735        0.0000000000000000     
   8.9942316254419591E-002  0.24832290300032234        0.0000000000000000     
   9.0371383453428600E-002  0.25699870001368724        0.0000000000000000     
   9.0699521399037461E-002  0.26580042293100209        0.0000000000000000     
   8.1046338594192135E-002  0.23118060027061738        0.0000000000000000     
   8.1583662386644912E-002  0.23962631700516140        0.0000000000000000     
   8.2026243844716309E-002  0.24818912409596813        0.0000000000000000     
   8.2374082968406356E-002  0.25686902154303737        0.0000000000000000     
   8.2627179757715066E-002  0.26566600934636936        0.0000000000000000     
  0.11664147362204534       0.26625868825874410        0.0000000000000000     
  0.11743851445371536       0.27525207055004225        0.0000000000000000     
  0.11809826236593152       0.28469085740696082        0.0000000000000000     
  0.11862071735869381       0.29457504882949986        0.0000000000000000     
  0.11900587943200221       0.30490464481765928        0.0000000000000000     
  0.10770666833120260       0.26609676238718938        0.0000000000000000     
  0.10826392394150021       0.27511354106059588        0.0000000000000000     
  0.10872038246529661       0.28451935831521108        0.0000000000000000     
  0.10907604390259179       0.29431421415103515        0.0000000000000000     
  0.10933090825338579       0.30449810856806792        0.0000000000000000     
   9.9059350923533296E-002  0.26594400727794204        0.0000000000000000     
   9.9436747966528294E-002  0.27495967882555805        0.0000000000000000     
   9.9745640103409000E-002  0.28429950412893412        0.0000000000000000     
   9.9986027334175401E-002  0.29396348318807008        0.0000000000000000     
  0.10015790965882750       0.30395161600296611        0.0000000000000000     
   9.0699521399037461E-002  0.26580042293100209        0.0000000000000000     
   9.0956986528799647E-002  0.27479048384492882        0.0000000000000000     
   9.1174035280268698E-002  0.28403129484812967        0.0000000000000000     
   9.1350667653444573E-002  0.29352285594060473        0.0000000000000000     
   9.1486883648327327E-002  0.30326516712235391        0.0000000000000000     
   8.2627179757715066E-002  0.26566600934636936        0.0000000000000000     
   8.2824639628314226E-002  0.27460595611870814        0.0000000000000000     
   8.3005567995875634E-002  0.28371473047279810        0.0000000000000000     
   8.3169964860399334E-002  0.29299233240863920        0.0000000000000000     
   8.3317830221885297E-002  0.30243876192623137        0.0000000000000000     
   4.5786791413413519E-002   5.9481729366272204E-002   0.0000000000000000     
   4.8078917039730391E-002   6.5043178391924389E-002   0.0000000000000000     
   5.0315805354201840E-002   7.0764443228998830E-002   0.0000000000000000     
   5.2497456356827829E-002   7.6645523877495569E-002   0.0000000000000000     
   5.4623870047608408E-002   8.2686420337414607E-002   0.0000000000000000     
   4.1374991754066531E-002   5.8987795774604543E-002   0.0000000000000000     
   4.3486762139713642E-002   6.4525981989158293E-002   0.0000000000000000     
   4.5546815965066920E-002   7.0232580100159842E-002   0.0000000000000000     
   4.7555153230126386E-002   7.6107590107609160E-002   0.0000000000000000     
   4.9511773934892027E-002   8.2151012011506291E-002   0.0000000000000000     
   3.7105443559915574E-002   5.8455770994586986E-002   0.0000000000000000     
   3.9029945829305170E-002   6.3983227923110453E-002   0.0000000000000000     
   4.0907759123702196E-002   6.9687942207776882E-002   0.0000000000000000     
   4.2738883443106654E-002   7.5569913848586232E-002   0.0000000000000000     
   4.4523318787518508E-002   8.1629142845538530E-002   0.0000000000000000     
   3.2978146830960661E-002   5.7885655026219521E-002   0.0000000000000000     
   3.4708468108504996E-002   6.3414916193780868E-002   0.0000000000000000     
   3.6398634830107648E-002   6.9130529551849951E-002   0.0000000000000000     
   3.8048646995768605E-002   7.5032495100426755E-002   0.0000000000000000     
   3.9658504605487858E-002   8.1120812839511280E-002   0.0000000000000000     
   2.8993101567201793E-002   5.7277447869502146E-002   0.0000000000000000     
   3.0522328977313114E-002   6.2821046801169539E-002   0.0000000000000000     
   3.2019443084283269E-002   6.8560342132379062E-002   0.0000000000000000     
   3.3484443888112260E-002   7.4495333863130744E-002   0.0000000000000000     
   3.4917331388800078E-002   8.0626021993424571E-002   0.0000000000000000     
   5.4623870047608408E-002   8.2686420337414607E-002   0.0000000000000000     
   5.6698156380170041E-002   8.8898286192582471E-002   0.0000000000000000     
   5.8723425308139246E-002   9.5292275026825773E-002   0.0000000000000000     
   6.0699676831516010E-002  0.10186838684014451        0.0000000000000000     
   6.2626910950300346E-002  0.10862662163253865        0.0000000000000000     
   4.9511773934892027E-002   8.2151012011506291E-002   0.0000000000000000     
   5.1416990865340073E-002   8.8371339692158934E-002   0.0000000000000000     
   5.3271116807446790E-002   9.4777067029874748E-002   0.0000000000000000     
   5.5074151761212178E-002  0.10136819402465377        0.0000000000000000     
   5.6826095726636230E-002  0.10814472067649601        0.0000000000000000     
   4.4523318787518508E-002   8.1629142845538530E-002   0.0000000000000000     
   4.6259067503820923E-002   8.7869326739567558E-002   0.0000000000000000     
   4.7944131938897051E-002   9.4294163071607123E-002   0.0000000000000000     
   4.9578512092746871E-002  0.10090365184165724        0.0000000000000000     
   5.1162207965370410E-002  0.10769779304971787        0.0000000000000000     
   3.9658504605487858E-002   8.1120812839511280E-002   0.0000000000000000     
   4.1224386295612599E-002   8.7392247334808382E-002   0.0000000000000000     
   4.2742470702490022E-002   9.3843563152022927E-002   0.0000000000000000     
   4.4212757826120115E-002  0.10047476029115487        0.0000000000000000     
   4.5635247666502884E-002  0.10728583875220425        0.0000000000000000     
   3.4917331388800078E-002   8.0626021993424571E-002   0.0000000000000000     
   3.6312947240715106E-002   8.6940101477881407E-002   0.0000000000000000     
   3.7666133098225710E-002   9.3425267271122103E-002   0.0000000000000000     
   3.8976888961331890E-002  0.10008151937314670        0.0000000000000000     
   4.0245214830033654E-002  0.10690885778395516        0.0000000000000000     
   6.2626910950300346E-002  0.10862662163253865        0.0000000000000000     
   6.4451917651429172E-002  0.11551943160380437        0.0000000000000000     
   6.6121486921839459E-002  0.12249926895373775        0.0000000000000000     
   6.7635618761531194E-002  0.12956613368233882        0.0000000000000000     
   6.8994313170504362E-002  0.13672002578960754        0.0000000000000000     
   5.6826095726636230E-002  0.10814472067649601        0.0000000000000000     
   5.8484398387101968E-002  0.11505766040977487        0.0000000000000000     
   6.0006509425992408E-002  0.12205802664886388        0.0000000000000000     
   6.1392428843307568E-002  0.12914581939376296        0.0000000000000000     
   6.2642156639047417E-002  0.13632103864447218        0.0000000000000000     
   5.1162207965370410E-002  0.10769779304971787        0.0000000000000000     
   5.2660419346314991E-002  0.11462822432539549        0.0000000000000000     
   5.4038346025127984E-002  0.12164658329829652        0.0000000000000000     
   5.5295988001809369E-002  0.12875286996842100        0.0000000000000000     
   5.6433345276359174E-002  0.13594708433576885        0.0000000000000000     
   4.5635247666502884E-002  0.10728583875220425        0.0000000000000000     
   4.6979980529068259E-002  0.11423112335066617        0.0000000000000000     
   4.8216996719246168E-002  0.12126493890203568        0.0000000000000000     
   4.9346296237036624E-002  0.12838728540631286        0.0000000000000000     
   5.0367879082439615E-002  0.13559816286349766        0.0000000000000000     
   4.0245214830033654E-002  0.10690885778395516        0.0000000000000000     
   4.1443081935361753E-002  0.11386635748558691        0.0000000000000000     
   4.2542461508346972E-002  0.12091309346008138        0.0000000000000000     
   4.3543353548989305E-002  0.12804906570743854        0.0000000000000000     
   4.4445758057288745E-002  0.13527427422765848        0.0000000000000000     
   6.8994313170504362E-002  0.13672002578960754        0.0000000000000000     
   7.0266415062357881E-002  0.14398474097420999        0.0000000000000000     
   7.1520769350690683E-002  0.15138407493481221        0.0000000000000000     
   7.2757376035502724E-002  0.15891802767141425        0.0000000000000000     
   7.3976235116794034E-002  0.16658659918401605        0.0000000000000000     
   6.2642156639047417E-002  0.13632103864447218        0.0000000000000000     
   6.3813242965170019E-002  0.14360695322240957        0.0000000000000000     
   6.4963237973633431E-002  0.15102683194899327        0.0000000000000000     
   6.6092141664437609E-002  0.15858067482422328        0.0000000000000000     
   6.7199954037582582E-002  0.16626848184809956        0.0000000000000000     
   5.6433345276359174E-002  0.13594708433576885        0.0000000000000000     
   5.7499448758589276E-002  0.14325259966268580        0.0000000000000000     
   5.8543329358311559E-002  0.15069278921151735        0.0000000000000000     
   5.9564987075526037E-002  0.15826765298226356        0.0000000000000000     
   6.0564421910232702E-002  0.16597719097492439        0.0000000000000000     
   5.0367879082439615E-002  0.13559816286349766        0.0000000000000000     
   5.1325032442615617E-002  0.14292168029503866        0.0000000000000000     
   5.2261043504725067E-002  0.15038194672238447        0.0000000000000000     
   5.3175912268767979E-002  0.15797896214553508        0.0000000000000000     
   5.4069638734744352E-002  0.16571272656449051        0.0000000000000000     
   4.4445758057288745E-002  0.13527427422765848        0.0000000000000000     
   4.5289994017249043E-002  0.14261419511946813        0.0000000000000000     
   4.6116380412873935E-002  0.15009430448159458        0.0000000000000000     
   4.6924917244163436E-002  0.15771460231403786        0.0000000000000000     
   4.7715604511117539E-002  0.16547508861679791        0.0000000000000000     
   7.3976235116794034E-002  0.16658659918401605        0.0000000000000000     
   7.5143745455103911E-002  0.17436636672743544        0.0000000000000000     
   7.6226305910971626E-002  0.18223390755649013        0.0000000000000000     
   7.7223916484397193E-002  0.19018922167118024        0.0000000000000000     
   7.8136577175380584E-002  0.19823230907150569        0.0000000000000000     
   6.7199954037582582E-002  0.16626848184809956        0.0000000000000000     
   6.8257271842743258E-002  0.17406746457954905        0.0000000000000000     
   6.9234691829594519E-002  0.18195483457749859        0.0000000000000000     
   7.0132213998136364E-002  0.18993059184194819        0.0000000000000000     
   7.0949838348368793E-002  0.19799473637289783        0.0000000000000000     
   6.0564421910232702E-002  0.16597719097492439        0.0000000000000000     
   6.1515331627404815E-002  0.17379801969804579        0.0000000000000000     
   6.2391413992015643E-002  0.18170675566017364        0.0000000000000000     
   6.3192669004065172E-002  0.18970339886130788        0.0000000000000000     
   6.3919096663553415E-002  0.19778794930144863        0.0000000000000000     
   5.4069638734744352E-002  0.16571272656449051        0.0000000000000000     
   5.4917924809088553E-002  0.17355803208292556        0.0000000000000000     
   5.5696472398234977E-002  0.18148967080451525        0.0000000000000000     
   5.6405281502183616E-002  0.18950764272925946        0.0000000000000000     
   5.7044352120934456E-002  0.19761194785715822        0.0000000000000000     
   4.7715604511117539E-002  0.16547508861679791        0.0000000000000000     
   4.8465051387794493E-002  0.17334750173418856        0.0000000000000000     
   4.9149867048252541E-002  0.18130358001052352        0.0000000000000000     
   4.9770051492491689E-002  0.18934332344580279        0.0000000000000000     
   5.0325604720511938E-002  0.19746673204002640        0.0000000000000000     
   7.8136577175380584E-002  0.19823230907150569        0.0000000000000000     
   7.8971076576378071E-002  0.20635680780380750        0.0000000000000000     
   7.9734203279845817E-002  0.21455635591442671        0.0000000000000000     
   8.0425957285783833E-002  0.22283095340336337        0.0000000000000000     
   8.1046338594192135E-002  0.23118060027061738        0.0000000000000000     
   7.0949838348368793E-002  0.19799473637289783        0.0000000000000000     
   7.1691895431460539E-002  0.20614123032862330        0.0000000000000000     
   7.2362715798580404E-002  0.21436403586740041        0.0000000000000000     
   7.2962299449728332E-002  0.22266315298922915        0.0000000000000000     
   7.3490646384904351E-002  0.23103858169410946        0.0000000000000000     
   6.3919096663553415E-002  0.19778794930144863        0.0000000000000000     
   6.4573657822602104E-002  0.20595463322418445        0.0000000000000000     
   6.5159313333333066E-002  0.21419767687310384        0.0000000000000000     
   6.5676063195746218E-002  0.22251708024820679        0.0000000000000000     
   6.6123907409841615E-002  0.23091284334949333        0.0000000000000000     
   5.7044352120934456E-002  0.19761194785715822        0.0000000000000000     
   5.7616363749802765E-002  0.20579701649049087        0.0000000000000000     
   5.8123995884103767E-002  0.21405727893153692        0.0000000000000000     
   5.8567248523837483E-002  0.22239273518029626        0.0000000000000000     
   5.8946121669003898E-002  0.23080338523676891        0.0000000000000000     
   5.0325604720511938E-002  0.19746673204002640        0.0000000000000000     
   5.0820013213062488E-002  0.20566838012754263        0.0000000000000000     
   5.1256763450892549E-002  0.21394284204269973        0.0000000000000000     
   5.1635855434002127E-002  0.22229011778549759        0.0000000000000000     
   5.1957289162391215E-002  0.23071020735593634        0.0000000000000000     
   8.1046338594192135E-002  0.23118060027061738        0.0000000000000000     
   8.1583662386644912E-002  0.23962631700516140        0.0000000000000000     
   8.2026243844716309E-002  0.24818912409596813        0.0000000000000000     
   8.2374082968406356E-002  0.25686902154303737        0.0000000000000000     
   8.2627179757715066E-002  0.26566600934636936        0.0000000000000000     
   7.3490646384904351E-002  0.23103858169410946        0.0000000000000000     
   7.3942925628951106E-002  0.23950419273555812        0.0000000000000000     
   7.4314306206711214E-002  0.24807385686709185        0.0000000000000000     
   7.4604788118184703E-002  0.25674757408871068        0.0000000000000000     
   7.4814371363371546E-002  0.26552534440041453        0.0000000000000000     
   6.6123907409841615E-002  0.23091284334949333        0.0000000000000000     
   6.6503278087917159E-002  0.23939143573652799        0.0000000000000000     
   6.6814607342270793E-002  0.24795932696887532        0.0000000000000000     
   6.7057895172902504E-002  0.25661651704653538        0.0000000000000000     
   6.7233141579812278E-002  0.26536300596950807        0.0000000000000000     
   5.8946121669003898E-002  0.23080338523676891        0.0000000000000000     
   5.9264719763543069E-002  0.23928804600807102        0.0000000000000000     
   5.9527147251395025E-002  0.24784553440131857        0.0000000000000000     
   5.9733404132559773E-002  0.25647585041651150        0.0000000000000000     
   5.9883490407037311E-002  0.26517899405364997        0.0000000000000000     
   5.1957289162391215E-002  0.23071020735593634        0.0000000000000000     
   5.2227250655828825E-002  0.23919402355018718        0.0000000000000000     
   5.2451925934083925E-002  0.24773247916442148        0.0000000000000000     
   5.2631314997156509E-002  0.25632557419863916        0.0000000000000000     
   5.2765417845046611E-002  0.26497330865284030        0.0000000000000000     
   8.2627179757715066E-002  0.26566600934636936        0.0000000000000000     
   8.2824639628314226E-002  0.27460595611870814        0.0000000000000000     
   8.3005567995875634E-002  0.28371473047279810        0.0000000000000000     
   8.3169964860399334E-002  0.29299233240863920        0.0000000000000000     
   8.3317830221885297E-002  0.30243876192623137        0.0000000000000000     
   7.4814371363371546E-002  0.26552534440041453        0.0000000000000000     
   7.4984475964500003E-002  0.27440060420209011        0.0000000000000000     
   7.5156521943798404E-002  0.28336678989362418        0.0000000000000000     
   7.5330509301266682E-002  0.29242390147501679        0.0000000000000000     
   7.5506438036904877E-002  0.30157193894626766        0.0000000000000000     
   6.7233141579812278E-002  0.26536300596950807        0.0000000000000000     
   6.7381264236784991E-002  0.27416893665026881        0.0000000000000000     
   6.7543180817605450E-002  0.28300445200129304        0.0000000000000000     
   6.7718891322273642E-002  0.29186955202258075        0.0000000000000000     
   6.7908395750789580E-002  0.30076423671413194        0.0000000000000000     
   5.9883490407037311E-002  0.26517899405364997        0.0000000000000000     
   6.0015004445169141E-002  0.27391095346324429        0.0000000000000000     
   6.0165544617296771E-002  0.28262771679580467        0.0000000000000000     
   6.0335110923420192E-002  0.29132928405133141        0.0000000000000000     
   6.0523703363539426E-002  0.30001565522982421        0.0000000000000000     
   5.2765417845046611E-002  0.26497330865284030        0.0000000000000000     
   5.2885696589652469E-002  0.27362665464101643        0.0000000000000000     
   5.3023613342872387E-002  0.28223658427715920        0.0000000000000000     
   5.3179168104706361E-002  0.29080309756126854        0.0000000000000000     
   5.3352360875154381E-002  0.29932619449334452        0.0000000000000000     
   2.8993101567201793E-002   5.7277447869502146E-002   0.0000000000000000     
   3.0522328977313114E-002   6.2821046801169539E-002   0.0000000000000000     
   3.2019443084283269E-002   6.8560342132379062E-002   0.0000000000000000     
   3.3484443888112260E-002   7.4495333863130744E-002   0.0000000000000000     
   3.4917331388800078E-002   8.0626021993424571E-002   0.0000000000000000     
   2.5120460788734540E-002   5.6708777694568599E-002   0.0000000000000000     
   2.6449827525267484E-002   6.2270269952427085E-002   0.0000000000000000     
   2.7754376280493522E-002   6.8035498860149174E-002   0.0000000000000000     
   2.9034107054412644E-002   7.4004464417734866E-002   0.0000000000000000     
   3.0289019847024871E-002   8.0177166625184149E-002   0.0000000000000000     
   2.1330377515654479E-002   5.6257272671552595E-002   0.0000000000000000     
   2.2469262841906080E-002   6.1831235854704153E-002   0.0000000000000000     
   2.3587626813002860E-002   6.7614118645945201E-002   0.0000000000000000     
   2.4685469428944815E-002   7.3605921045275746E-002   0.0000000000000000     
   2.5762790689731929E-002   7.9806643052695803E-002   0.0000000000000000     
   1.7622851747961608E-002   5.5922932800454121E-002   0.0000000000000000     
   1.8580634927228910E-002   6.1503944508000737E-002   0.0000000000000000     
   1.9519194681811288E-002   6.7296201489767171E-002   0.0000000000000000     
   2.0438531011708738E-002   7.3299703745753439E-002   0.0000000000000000     
   2.1338643916921265E-002   7.9514451275959547E-002   0.0000000000000000     
   1.3997883485655926E-002   5.5705758081273191E-002   0.0000000000000000     
   1.4783943781235962E-002   6.1288395912316843E-002   0.0000000000000000     
   1.5549079886918799E-002   6.7081747391615099E-002   0.0000000000000000     
   1.6293291802704439E-002   7.3085812519167931E-002   0.0000000000000000     
   1.7016579528592871E-002   7.9300591294975353E-002   0.0000000000000000     
   3.4917331388800078E-002   8.0626021993424571E-002   0.0000000000000000     
   3.6312947240715106E-002   8.6940101477881407E-002   0.0000000000000000     
   3.7666133098225710E-002   9.3425267271122103E-002   0.0000000000000000     
   3.8976888961331890E-002  0.10008151937314670        0.0000000000000000     
   4.0245214830033654E-002  0.10690885778395516        0.0000000000000000     
   3.0289019847024871E-002   8.0177166625184149E-002   0.0000000000000000     
   3.1513319518329808E-002   8.6532882721468918E-002   0.0000000000000000     
   3.2701210928327090E-002   9.3050889945561099E-002   0.0000000000000000     
   3.3852694077016715E-002   9.9731188297460610E-002   0.0000000000000000     
   3.4967768964398682E-002  0.10657377777716752        0.0000000000000000     
   2.5762790689731929E-002   7.9806643052695803E-002   0.0000000000000000     
   2.6814072307658084E-002   8.6190584618253310E-002   0.0000000000000000     
   2.7833795995017147E-002   9.2732045691996223E-002   0.0000000000000000     
   2.8821961751809105E-002   9.9431026273924569E-002   0.0000000000000000     
   2.9778569578033962E-002  0.10628752636403829        0.0000000000000000     
   2.1338643916921265E-002   7.9514451275959547E-002   0.0000000000000000     
   2.2215205608699953E-002   8.5913207168234529E-002   0.0000000000000000     
   2.3063888298295882E-002   9.2468734510427544E-002   0.0000000000000000     
   2.3884691985709063E-002   9.9181033302538524E-002   0.0000000000000000     
   2.4677616670939480E-002  0.10605010354456751        0.0000000000000000     
   1.7016579528592871E-002   7.9300591294975353E-002   0.0000000000000000     
   1.7716719421455397E-002   8.5700750371412615E-002   0.0000000000000000     
   1.8391487838163301E-002   9.2260956400854993E-002   0.0000000000000000     
   1.9040884778716578E-002   9.8981209383302515E-002   0.0000000000000000     
   1.9664910243115237E-002  0.10586150931875513        0.0000000000000000     
   4.0245214830033654E-002  0.10690885778395516        0.0000000000000000     
   4.1443081935361753E-002  0.11386635748558691        0.0000000000000000     
   4.2542461508346972E-002  0.12091309346008138        0.0000000000000000     
   4.3543353548989305E-002  0.12804906570743854        0.0000000000000000     
   4.4445758057288745E-002  0.13527427422765848        0.0000000000000000     
   3.4967768964398682E-002  0.10657377777716752        0.0000000000000000     
   3.6019855294340507E-002  0.11354237442831780        0.0000000000000000     
   3.6982372770709648E-002  0.12060069429454746        0.0000000000000000     
   3.7855321393506128E-002  0.12774873737585651        0.0000000000000000     
   3.8638701162729952E-002  0.13498650367224493        0.0000000000000000     
   2.9778569578033962E-002  0.10628752636403829        0.0000000000000000     
   3.0680432335149489E-002  0.11326762187701891        0.0000000000000000     
   3.1504362884613439E-002  0.12033738872754786        0.0000000000000000     
   3.2250361226425821E-002  0.12749682691562511        0.0000000000000000     
   3.2918427360586630E-002  0.13474593644125069        0.0000000000000000     
   2.4677616670939480E-002  0.10605010354456751        0.0000000000000000     
   2.5424813057788716E-002  0.11304209983169027        0.0000000000000000     
   2.6108431850058351E-002  0.12012317675908253        0.0000000000000000     
   2.6728473047748374E-002  0.12729333432674433        0.0000000000000000     
   2.7284936650858786E-002  0.13455257253467562        0.0000000000000000     
   1.9664910243115237E-002  0.10586150931875513        0.0000000000000000     
   2.0252997462258195E-002  0.11286580829233182        0.0000000000000000     
   2.0794579667044372E-002  0.11995805838915151        0.0000000000000000     
   2.1289656857473780E-002  0.12713825960921421        0.0000000000000000     
   2.1738229033546407E-002  0.13440641195251990        0.0000000000000000     
   4.4445758057288745E-002  0.13527427422765848        0.0000000000000000     
   4.5289994017249043E-002  0.14261419511946813        0.0000000000000000     
   4.6116380412873935E-002  0.15009430448159458        0.0000000000000000     
   4.6924917244163436E-002  0.15771460231403786        0.0000000000000000     
   4.7715604511117539E-002  0.16547508861679791        0.0000000000000000     
   3.8638701162729952E-002  0.13498650367224493        0.0000000000000000     
   3.9370222846729301E-002  0.14234101633590407        0.0000000000000000     
   4.0087597213852383E-002  0.14983929851902519        0.0000000000000000     
   4.0790824264099190E-002  0.15748135022160831        0.0000000000000000     
   4.1479903997469730E-002  0.16526717144365347        0.0000000000000000     
   3.2918427360586630E-002  0.13474593644125069        0.0000000000000000     
   3.3541608295296135E-002  0.14211301614427629        0.0000000000000000     
   3.4152951038754584E-002  0.14962636486455372        0.0000000000000000     
   3.4752455590961996E-002  0.15728598260208290        0.0000000000000000     
   3.5340121951918352E-002  0.16509186935686390        0.0000000000000000     
   2.7284936650858786E-002  0.13455257253467562        0.0000000000000000     
   2.7804150362949531E-002  0.14193019454458483        0.0000000000000000     
   2.8312441887580555E-002  0.14945550351818018        0.0000000000000000     
   2.8809811224751850E-002  0.15712849945546167        0.0000000000000000     
   2.9296258374463424E-002  0.16494918235642930        0.0000000000000000     
   2.1738229033546407E-002  0.13440641195251990        0.0000000000000000     
   2.2157849049689496E-002  0.14179255153682968        0.0000000000000000     
   2.2566069760330282E-002  0.14932671447990459        0.0000000000000000     
   2.2962891165468763E-002  0.15700890078174451        0.0000000000000000     
   2.3348313265104937E-002  0.16483911044234961        0.0000000000000000     
   4.7715604511117539E-002  0.16547508861679791        0.0000000000000000     
   4.8465051387794493E-002  0.17334750173418856        0.0000000000000000     
   4.9149867048252541E-002  0.18130358001052352        0.0000000000000000     
   4.9770051492491689E-002  0.18934332344580279        0.0000000000000000     
   5.0325604720511938E-002  0.19746673204002640        0.0000000000000000     
   4.1479903997469730E-002  0.16526717144365347        0.0000000000000000     
   4.2132467756851047E-002  0.17316534936291239        0.0000000000000000     
   4.2726146885130198E-002  0.18114447115713697        0.0000000000000000     
   4.3260941382307197E-002  0.18920453682632718        0.0000000000000000     
   4.3736851248382030E-002  0.19734554637048299        0.0000000000000000     
   3.5340121951918352E-002  0.16509186935686390        0.0000000000000000     
   3.5895930309586641E-002  0.17301049568017493        0.0000000000000000     
   3.6399860851929831E-002  0.18100833212329420        0.0000000000000000     
   3.6851913578947931E-002  0.18908537868622166        0.0000000000000000     
   3.7252088490640933E-002  0.19724163536895747        0.0000000000000000     
   2.9296258374463424E-002  0.16494918235642930        0.0000000000000000     
   2.9755439046001284E-002  0.17288294068597618        0.0000000000000000     
   3.0171008948651438E-002  0.18089516290899521        0.0000000000000000     
   3.0542968082413888E-002  0.18898584902548643        0.0000000000000000     
   3.0871316447288636E-002  0.19715499903544992        0.0000000000000000     
   2.3348313265104937E-002  0.16483911044234961        0.0000000000000000     
   2.3710993966094968E-002  0.17278268438031602        0.0000000000000000     
   2.4039591175295010E-002  0.18080496351423994        0.0000000000000000     
   2.4334104892705072E-002  0.18890594784412137        0.0000000000000000     
   2.4594535118325149E-002  0.19708563736996026        0.0000000000000000     
   5.0325604720511938E-002  0.19746673204002640        0.0000000000000000     
   5.0820013213062488E-002  0.20566838012754263        0.0000000000000000     
   5.1256763450892549E-002  0.21394284204269973        0.0000000000000000     
   5.1635855434002127E-002  0.22229011778549759        0.0000000000000000     
   5.1957289162391215E-002  0.23071020735593634        0.0000000000000000     
   4.3736851248382030E-002  0.19734554637048299        0.0000000000000000     
   4.4158340463696641E-002  0.20556188488161040        0.0000000000000000     
   4.4529873008592943E-002  0.21384793745171524        0.0000000000000000     
   4.4851448883070966E-002  0.22220370408079770        0.0000000000000000     
   4.5123068087130694E-002  0.23062918476885758        0.0000000000000000     
   3.7252088490640933E-002  0.19724163536895747        0.0000000000000000     
   3.7605079753020548E-002  0.20547069149896471        0.0000000000000000     
   3.7915581532098501E-002  0.21376613640370673        0.0000000000000000     
   3.8183593827874791E-002  0.22212797008318336        0.0000000000000000     
   3.8409116640349419E-002  0.23055619253739476        0.0000000000000000     
   3.0871316447288636E-002  0.19715499903544992        0.0000000000000000     
   3.1160231081034235E-002  0.20539479997960575        0.0000000000000000     
   3.1413889021409222E-002  0.21369743889867396        0.0000000000000000     
   3.1632290268413618E-002  0.22206291579265472        0.0000000000000000     
   3.1815434822047413E-002  0.23049123066154795        0.0000000000000000     
   2.4594535118325149E-002  0.19708563736996026        0.0000000000000000     
   2.4823794447737683E-002  0.20533421032353330        0.0000000000000000     
   2.5024795476525113E-002  0.21364184493661711        0.0000000000000000     
   2.5197538204687439E-002  0.22200854120921168        0.0000000000000000     
   2.5342022632224660E-002  0.23043429914131705        0.0000000000000000     
   5.1957289162391215E-002  0.23071020735593634        0.0000000000000000     
   5.2227250655828825E-002  0.23919402355018718        0.0000000000000000     
   5.2451925934083925E-002  0.24773247916442148        0.0000000000000000     
   5.2631314997156509E-002  0.25632557419863916        0.0000000000000000     
   5.2765417845046611E-002  0.26497330865284030        0.0000000000000000     
   4.5123068087130694E-002  0.23062918476885758        0.0000000000000000     
   4.5351854343640467E-002  0.23910806192552389        0.0000000000000000     
   4.5544931375468618E-002  0.24762401796042544        0.0000000000000000     
   4.5702299182615168E-002  0.25617705287356235        0.0000000000000000     
   4.5823957765080081E-002  0.26476716666493449        0.0000000000000000     
   3.8409116640349419E-002  0.23055619253739476        0.0000000000000000     
   3.8599514405844033E-002  0.23902885469672841        0.0000000000000000     
   3.8762151560680268E-002  0.24752400749157183        0.0000000000000000     
   3.8897028104858143E-002  0.25604165092192505        0.0000000000000000     
   3.9004144038377639E-002  0.26458178498778806        0.0000000000000000     
   3.1815434822047413E-002  0.23049123066154795        0.0000000000000000     
   3.1970230842439530E-002  0.23895640186380088        0.0000000000000000     
   3.2103586489718873E-002  0.24743244775786064        0.0000000000000000     
   3.2215501763885469E-002  0.25591936834372736        0.0000000000000000     
   3.2305976664939298E-002  0.26441716362140094        0.0000000000000000     
   2.5342022632224660E-002  0.23043429914131705        0.0000000000000000     
   2.5464003653426940E-002  0.23889070342674110        0.0000000000000000     
   2.5569236162584427E-002  0.24734933875929183        0.0000000000000000     
   2.5657720159697125E-002  0.25581020513896918        0.0000000000000000     
   2.5729455644765031E-002  0.26427330256577319        0.0000000000000000     
   5.2765417845046611E-002  0.26497330865284030        0.0000000000000000     
   5.2885696589652469E-002  0.27362665464101643        0.0000000000000000     
   5.3023613342872387E-002  0.28223658427715920        0.0000000000000000     
   5.3179168104706361E-002  0.29080309756126854        0.0000000000000000     
   5.3352360875154381E-002  0.29932619449334452        0.0000000000000000     
   4.5823957765080081E-002  0.26476716666493449        0.0000000000000000     
   4.5934513156949033E-002  0.27334462073345206        0.0000000000000000     
   4.6058571392307658E-002  0.28185967647802512        0.0000000000000000     
   4.6196132471155969E-002  0.29031233389865363        0.0000000000000000     
   4.6347196393493939E-002  0.29870259299533775        0.0000000000000000     
   3.9004144038377639E-002  0.26458178498778806        0.0000000000000000     
   3.9102626633772876E-002  0.27309343229041777        0.0000000000000000     
   3.9211603163577941E-002  0.28152561543107107        0.0000000000000000     
   3.9331073627792847E-002  0.28987833440974803        0.0000000000000000     
   3.9461038026417566E-002  0.29815158922644874        0.0000000000000000     
   3.2305976664939298E-002  0.26441716362140094        0.0000000000000000     
   3.2390037020124010E-002  0.27287308931191351        0.0000000000000000     
   3.2482708656683242E-002  0.28123440113629711        0.0000000000000000     
   3.2583991574616993E-002  0.28950109909455179        0.0000000000000000     
   3.2693885773925249E-002  0.29767318318667751        0.0000000000000000     
   2.5729455644765031E-002  0.26427330256577319        0.0000000000000000     
   2.5796744316002419E-002  0.27268359179793933        0.0000000000000000     
   2.5871887871623540E-002  0.28098603359370328        0.0000000000000000     
   2.5954886311628407E-002  0.28918062795306487        0.0000000000000000     
   2.6045739636017008E-002  0.29726737487602412        0.0000000000000000     
   1.3997883485655926E-002   5.5705758081273191E-002   0.0000000000000000     
   1.4783943781235962E-002   6.1288395912316843E-002   0.0000000000000000     
   1.5549079886918799E-002   6.7081747391615099E-002   0.0000000000000000     
   1.6293291802704439E-002   7.3085812519167931E-002   0.0000000000000000     
   1.7016579528592871E-002   7.9300591294975353E-002   0.0000000000000000     
   1.0435655999274995E-002   5.5565022790607141E-002   0.0000000000000000     
   1.1047069646955763E-002   6.1147765847454516E-002   0.0000000000000000     
   1.1636938914138886E-002   6.6939146863569318E-002   0.0000000000000000     
   1.2205263800824363E-002   7.2939165838951547E-002   0.0000000000000000     
   1.2752044307012191E-002   7.9147822773601204E-002   0.0000000000000000     
   6.9163525593563787E-003   5.5460001205053316E-002   0.0000000000000000     
   7.3378927674168353E-003   6.1045230093215795E-002   0.0000000000000000     
   7.7424282492850362E-003   6.6836790417710248E-002   0.0000000000000000     
   8.1299590049609804E-003   7.2834682178536669E-002   0.0000000000000000     
   8.5004850344446662E-003   7.9038905375695079E-002   0.0000000000000000     
   3.4399731659000769E-003   5.5390693324611710E-002   0.0000000000000000     
   3.6564131426191785E-003   6.0980788649600673E-002   0.0000000000000000     
   3.8655478923572497E-003   6.6774678054037875E-002   0.0000000000000000     
   4.0673774151142881E-003   7.2772361537923325E-002   0.0000000000000000     
   4.2619017108902965E-003   7.8973839101256979E-002   0.0000000000000000     
   6.5178189060880604E-006   5.5357099149282316E-002   0.0000000000000000     
   2.6307725627925955E-006   6.0954441516609177E-002   0.0000000000000000     
   6.2978433555265249E-006   6.6752809772552227E-002   0.0000000000000000     
   1.7519031284288954E-005   7.2752203917111471E-002   0.0000000000000000     
   3.6294336349081266E-005   7.8952623950286918E-002   0.0000000000000000     
   1.7016579528592871E-002   7.9300591294975353E-002   0.0000000000000000     
   1.7716719421455397E-002   8.5700750371412615E-002   0.0000000000000000     
   1.8391487838163301E-002   9.2260956400854993E-002   0.0000000000000000     
   1.9040884778716578E-002   9.8981209383302515E-002   0.0000000000000000     
   1.9664910243115237E-002  0.10586150931875513        0.0000000000000000     
   1.2752044307012191E-002   7.9147822773601204E-002   0.0000000000000000     
   1.3276451246580823E-002   8.5543219598927633E-002   0.0000000000000000     
   1.3777655433408708E-002   9.2103458246340239E-002   0.0000000000000000     
   1.4255656867495841E-002   9.8828538715839021E-002   0.0000000000000000     
   1.4710455548842224E-002  0.10571846100742392        0.0000000000000000     
   8.5004850344446662E-003   7.9038905375695079E-002   0.0000000000000000     
   8.8522385847326357E-003   8.5430620221919717E-002   0.0000000000000000     
   9.1834519028214188E-003   9.1990986929944868E-002   0.0000000000000000     
   9.4941249887110207E-003   9.8720005499770475E-002   0.0000000000000000     
   9.7842578424014396E-003  0.10561767593139663        0.0000000000000000     
   4.2619017108902965E-003   7.8973839101256979E-002   0.0000000000000000     
   4.4440814359108273E-003   8.5362952240388840E-002   0.0000000000000000     
   4.6088772464014339E-003   9.1923542451668824E-002   0.0000000000000000     
   4.7562891423621198E-003   9.8655609735096975E-002   0.0000000000000000     
   4.8863171237928816E-003  0.10555915409067326        0.0000000000000000     
   3.6294336349081266E-005   7.8952623950286918E-002   0.0000000000000000     
   5.1979800115402276E-005   8.5340215654334986E-002   0.0000000000000000     
   5.3931464148754000E-005   9.1901124811512178E-002   0.0000000000000000     
   4.2149328449135341E-005   9.8635351421818437E-002   0.0000000000000000     
   1.6633393016547097E-005  0.10554289548525381        0.0000000000000000     
   1.9664910243115237E-002  0.10586150931875513        0.0000000000000000     
   2.0252997462258195E-002  0.11286580829233182        0.0000000000000000     
   2.0794579667044372E-002  0.11995805838915151        0.0000000000000000     
   2.1289656857473780E-002  0.12713825960921421        0.0000000000000000     
   2.1738229033546407E-002  0.13440641195251990        0.0000000000000000     
   1.4710455548842224E-002  0.10571846100742392        0.0000000000000000     
   1.5139140335008225E-002  0.11273404155086755        0.0000000000000000     
   1.5538800083554198E-002  0.11983609677594240        0.0000000000000000     
   1.5909434794480152E-002  0.12702462668264855        0.0000000000000000     
   1.6251044467786083E-002  0.13429963127098588        0.0000000000000000     
   9.7842578424014396E-003  0.10561767593139663        0.0000000000000000     
   1.0057396462489120E-002  0.11264209389922139        0.0000000000000000     
   1.0317086847570505E-002  0.11975135507764288        0.0000000000000000     
   1.0563328997645595E-002  0.12694545946666108        0.0000000000000000     
   1.0796122912714388E-002  0.13422440706627606        0.0000000000000000     
   4.8863171237928816E-003  0.10555915409067326        0.0000000000000000     
   5.0077658447008839E-003  0.11258996533739336        0.0000000000000000     
   5.1294399590932922E-003  0.11970383329425290        0.0000000000000000     
   5.2513394669701065E-003  0.12690075796125194        0.0000000000000000     
   5.3734643683313260E-003  0.13418073933839039        0.0000000000000000     
   1.6633393016547097E-005  0.10554289548525381        0.0000000000000000     
  -9.7515183564865406E-006  0.11257765586538344        0.0000000000000000     
  -2.4140581877440080E-005  0.11969353142577251        0.0000000000000000     
  -2.6533797546313955E-005  0.12689052216642099        0.0000000000000000     
  -1.6931165363107733E-005  0.13416862808732893        0.0000000000000000     
   2.1738229033546407E-002  0.13440641195251990        0.0000000000000000     
   2.2157849049689496E-002  0.14179255153682968        0.0000000000000000     
   2.2566069760330282E-002  0.14932671447990459        0.0000000000000000     
   2.2962891165468763E-002  0.15700890078174451        0.0000000000000000     
   2.3348313265104937E-002  0.16483911044234961        0.0000000000000000     
   1.6251044467786083E-002  0.13429963127098588        0.0000000000000000     
   1.6572201628330389E-002  0.14169189235154722        0.0000000000000000     
   1.6881478800971458E-002  0.14923219173492538        0.0000000000000000     
   1.7178875985709299E-002  0.15692052942112025        0.0000000000000000     
   1.7464393182543905E-002  0.16475690541013194        0.0000000000000000     
   1.0796122912714388E-002  0.13422440706627606        0.0000000000000000     
   1.1016705371686560E-002  0.14162002221927397        0.0000000000000000     
   1.1226313153471777E-002  0.14916412926844111        0.0000000000000000     
   1.1424946258070039E-002  0.15685672821377752        0.0000000000000000     
   1.1612604685481344E-002  0.16469781905528316        0.0000000000000000     
   5.3734643683313260E-003  0.13418073933839039        0.0000000000000000     
   5.4913602797580126E-003  0.14157694114000988        0.0000000000000000     
   5.6005728178312314E-003  0.14912252708045184        0.0000000000000000     
   5.7011019825509773E-003  0.15681749715971635        0.0000000000000000     
   5.7929477739172563E-003  0.16466185137780337        0.0000000000000000     
  -1.6931165363107733E-005  0.13416862808732893        0.0000000000000000     
  -3.8336474552523505E-006  0.14156264911375493        0.0000000000000000     
   4.2577940498252651E-006  0.14910738517095753        0.0000000000000000     
   7.3431591521210210E-006  0.15680283625893671        0.0000000000000000     
   5.4224478516387391E-006  0.16464900237769253        0.0000000000000000     
   2.3348313265104937E-002  0.16483911044234961        0.0000000000000000     
   2.3710993966094968E-002  0.17278268438031602        0.0000000000000000     
   2.4039591175295010E-002  0.18080496351423994        0.0000000000000000     
   2.4334104892705072E-002  0.18890594784412137        0.0000000000000000     
   2.4594535118325149E-002  0.19708563736996026        0.0000000000000000     
   1.7464393182543905E-002  0.16475690541013194        0.0000000000000000     
   1.7731851206739663E-002  0.17270692906799720        0.0000000000000000     
   1.7975070873560962E-002  0.18073620976075294        0.0000000000000000     
   1.8194052183007792E-002  0.18884474748839919        0.0000000000000000     
   1.8388795135080162E-002  0.19703254225093589        0.0000000000000000     
   1.1612604685481344E-002  0.16469781905528316        0.0000000000000000     
   1.1787266904807343E-002  0.17265287705382215        0.0000000000000000     
   1.1946911385149681E-002  0.18068737747025865        0.0000000000000000     
   1.2091538126508351E-002  0.18880132030459262        0.0000000000000000     
   1.2221147128883359E-002  0.19699470555682408        0.0000000000000000     
   5.7929477739172563E-003  0.16466185137780337        0.0000000000000000     
   5.8772410602980071E-003  0.17262052833779093        0.0000000000000000     
   5.9551127100611724E-003  0.18065846664275706        0.0000000000000000     
   6.0265627232067558E-003  0.18877566629270165        0.0000000000000000     
   6.0915910997347538E-003  0.19697212728762487        0.0000000000000000     
   5.4224478516387391E-006  0.16464900237769253        0.0000000000000000     
   1.7736732116537934E-006  0.17260988291990348        0.0000000000000000     
  -3.2515170456017678E-007  0.18064947727824807        0.0000000000000000     
  -8.7402689699926824E-007  0.18876778545272632        0.0000000000000000     
   1.2704763433478428E-007  0.19696480744333822        0.0000000000000000     
   2.4594535118325149E-002  0.19708563736996026        0.0000000000000000     
   2.4823794447737683E-002  0.20533421032353330        0.0000000000000000     
   2.5024795476525113E-002  0.21364184493661711        0.0000000000000000     
   2.5197538204687439E-002  0.22200854120921168        0.0000000000000000     
   2.5342022632224660E-002  0.23043429914131705        0.0000000000000000     
   1.8388795135080162E-002  0.19703254225093589        0.0000000000000000     
   1.8560737690806534E-002  0.20528782133884826        0.0000000000000000     
   1.8711317811215378E-002  0.21359881204262154        0.0000000000000000     
   1.8840535496306696E-002  0.22196551436225570        0.0000000000000000     
   1.8948390746080481E-002  0.23038792829775068        0.0000000000000000     
   1.2221147128883359E-002  0.19699470555682408        0.0000000000000000     
   1.2336028647916419E-002  0.20525453183365130        0.0000000000000000     
   1.2436472939249241E-002  0.21356779774177259        0.0000000000000000     
   1.2522480002881829E-002  0.22193450328118797        0.0000000000000000     
   1.2594049838814181E-002  0.23035464845189740        0.0000000000000000     
   6.0915910997347538E-003  0.19697212728762487        0.0000000000000000     
   6.1496673190673439E-003  0.20523434180794251        0.0000000000000000     
   6.2002608606267088E-003  0.21354880203407045        0.0000000000000000     
   6.2433717244128458E-003  0.22191550796600870        0.0000000000000000     
   6.2789999104257569E-003  0.23033445960375720        0.0000000000000000     
   1.2704763433478428E-007  0.19696480744333822        0.0000000000000000     
   1.6537042593057182E-006  0.20522725126172175        0.0000000000000000     
   2.6815753477754277E-006  0.21354182491951490        0.0000000000000000     
   3.2106608997444278E-006  0.22190852841671771        0.0000000000000000     
   3.2409609152131251E-006  0.23032736175333010        0.0000000000000000     
   2.5342022632224660E-002  0.23043429914131705        0.0000000000000000     
   2.5464003653426940E-002  0.23889070342674110        0.0000000000000000     
   2.5569236162584427E-002  0.24734933875929183        0.0000000000000000     
   2.5657720159697125E-002  0.25581020513896918        0.0000000000000000     
   2.5729455644765031E-002  0.26427330256577319        0.0000000000000000     
   1.8948390746080481E-002  0.23038792829775068        0.0000000000000000     
   1.9039169974910897E-002  0.23883616865617666        0.0000000000000000     
   1.9117159597172098E-002  0.24728035024460374        0.0000000000000000     
   1.9182359612864082E-002  0.25572047306303186        0.0000000000000000     
   1.9234770021986855E-002  0.26415653711146103        0.0000000000000000     
   1.2594049838814181E-002  0.23035464845189740        0.0000000000000000     
   1.2654066942996013E-002  0.23879720682273498        0.0000000000000000     
   1.2705415811377055E-002  0.24723115196253473        0.0000000000000000     
   1.2748096443957302E-002  0.25565648387129669        0.0000000000000000     
   1.2782108840736753E-002  0.26407320254902089        0.0000000000000000     
   6.2789999104257569E-003  0.23033445960375720        0.0000000000000000     
   6.3086945576822911E-003  0.23877381792641597        0.0000000000000000     
   6.3340048051992968E-003  0.24720174391308478        0.0000000000000000     
   6.3549306529767794E-003  0.25561823756376362        0.0000000000000000     
   6.3714721010147335E-003  0.26402329887845261        0.0000000000000000     
   3.2409609152131251E-006  0.23032736175333010        0.0000000000000000     
   3.0528189697250682E-006  0.23876600196721964        0.0000000000000000     
   2.9265786388265160E-006  0.24719212609625385        0.0000000000000000     
   2.8622399225156526E-006  0.25560573414043269        0.0000000000000000     
   2.8598028207925050E-006  0.26400682609975623        0.0000000000000000     
   2.5729455644765031E-002  0.26427330256577319        0.0000000000000000     
   2.5796744316002419E-002  0.27268359179793933        0.0000000000000000     
   2.5871887871623540E-002  0.28098603359370328        0.0000000000000000     
   2.5954886311628407E-002  0.28918062795306487        0.0000000000000000     
   2.6045739636017008E-002  0.29726737487602412        0.0000000000000000     
   1.9234770021986855E-002  0.26415653711146103        0.0000000000000000     
   1.9284394464326365E-002  0.27253128516197611        0.0000000000000000     
   1.9341236579668564E-002  0.28078745998666182        0.0000000000000000     
   1.9405296368013459E-002  0.28892506158551823        0.0000000000000000     
   1.9476573829361049E-002  0.29694408995854527        0.0000000000000000     
   1.2782108840736753E-002  0.26407320254902089        0.0000000000000000     
   1.2814633408014099E-002  0.27242251481750457        0.0000000000000000     
   1.2852850552088017E-002  0.28064562749854538        0.0000000000000000     
   1.2896760272958515E-002  0.28874254059214310        0.0000000000000000     
   1.2946362570625588E-002  0.29671325409829780        0.0000000000000000     
   6.3714721010147335E-003  0.26402329887845261        0.0000000000000000     
   6.3874611470656215E-003  0.27235728076452498        0.0000000000000000     
   6.4067297888818972E-003  0.28056053612935389        0.0000000000000000     
   6.4292780264635649E-003  0.28863306497293939        0.0000000000000000     
   6.4551058598106238E-003  0.29657486729528165        0.0000000000000000     
   2.8598028207925050E-006  0.26400682609975623        0.0000000000000000     
   2.8776814809329705E-006  0.27233558300303695        0.0000000000000000     
   2.8742900502064413E-006  0.28053218587908724        0.0000000000000000     
   2.8496285286149772E-006  0.28859663472790725        0.0000000000000000     
   2.8036969161593372E-006  0.29652892954949689        0.0000000000000000     
   6.5178189060880604E-006   5.5357099149282316E-002   0.0000000000000000     
   2.6307725627925955E-006   6.0954441516609177E-002   0.0000000000000000     
   6.2978433555265249E-006   6.6752809772552227E-002   0.0000000000000000     
   1.7519031284288954E-005   7.2752203917111471E-002   0.0000000000000000     
   3.6294336349081266E-005   7.8952623950286918E-002   0.0000000000000000     
  -3.4282208501256002E-003   5.5371549125481576E-002   0.0000000000000000     
  -3.6517881795502059E-003   6.0974825978707237E-002   0.0000000000000000     
  -3.8541164304836230E-003   6.6776860476168098E-002   0.0000000000000000     
  -4.0352056029258542E-003   7.2777652617864189E-002   0.0000000000000000     
  -4.1950556968768978E-003   7.8977202403795480E-002   0.0000000000000000     
  -6.9084502096950027E-003   5.5446373699625885E-002   0.0000000000000000     
  -7.3351775505177009E-003   6.1050579320360815E-002   0.0000000000000000     
  -7.7344894619236926E-003   6.6852505067800355E-002   0.0000000000000000     
  -8.1063859439129780E-003   7.2852150941944513E-002   0.0000000000000000     
  -8.4508669964855551E-003   7.9049516942793274E-002   0.0000000000000000     
  -1.0434170259802119E-002   5.5581572871715265E-002   0.0000000000000000     
  -1.1047537340339692E-002   6.1181701541569919E-002   0.0000000000000000     
  -1.1634821250964680E-002   6.6979743547448983E-002   0.0000000000000000     
  -1.2196021991677082E-002   7.2975698889352444E-002   0.0000000000000000     
  -1.2731139562476897E-002   7.9169567567280302E-002   0.0000000000000000     
  -1.4005381000446949E-002   5.5777146641749695E-002   0.0000000000000000     
  -1.4788867549016180E-002   6.1368192642334549E-002   0.0000000000000000     
  -1.5555111797606587E-002   6.7158575915113969E-002   0.0000000000000000     
  -1.6304113746218166E-002   7.3148296460087969E-002   0.0000000000000000     
  -1.7035873394850919E-002   7.9337354277256550E-002   0.0000000000000000     
   3.6294336349081266E-005   7.8952623950286918E-002   0.0000000000000000     
   5.1979800115402276E-005   8.5340215654334986E-002   0.0000000000000000     
   5.3931464148754000E-005   9.1901124811512178E-002   0.0000000000000000     
   4.2149328449135341E-005   9.8635351421818437E-002   0.0000000000000000     
   1.6633393016547097E-005  0.10554289548525381        0.0000000000000000     
  -4.1950556968768978E-003   7.8977202403795480E-002   0.0000000000000000     
  -4.3482756878939453E-003   8.5363281657649240E-002   0.0000000000000000     
  -4.5094745515341884E-003   9.1923662203112752E-002   0.0000000000000000     
  -4.6786522877976279E-003   9.8658344040186016E-002   0.0000000000000000     
  -4.8558088966842647E-003  0.10556732716886900        0.0000000000000000     
  -8.4508669964855551E-003   7.9049516942793274E-002   0.0000000000000000     
  -8.7808943933575193E-003   8.5433021444222601E-002   0.0000000000000000     
  -9.1094299082449572E-003   9.1991082820108441E-002   0.0000000000000000     
  -9.4364735411478651E-003   9.8723701070450767E-002   0.0000000000000000     
  -9.7620252920662537E-003  0.10563087619524962        0.0000000000000000     
  -1.2731139562476897E-002   7.9169567567280302E-002   0.0000000000000000     
  -1.3245876316275319E-002   8.5549435014055056E-002   0.0000000000000000     
  -1.3745934605983548E-002   9.2103386662499190E-002   0.0000000000000000     
  -1.4231314431601584E-002   9.8831422512612732E-002   0.0000000000000000     
  -1.4702015793129424E-002  0.10573354256439564        0.0000000000000000     
  -1.7035873394850919E-002   7.9337354277256550E-002   0.0000000000000000     
  -1.7743221456647348E-002   8.5712522367146618E-002   0.0000000000000000     
  -1.8418988644749969E-002   9.2260573730285053E-002   0.0000000000000000     
  -1.9063174959158775E-002   9.8981508366671855E-002   0.0000000000000000     
  -1.9675780399873770E-002  0.10587532627630705        0.0000000000000000     
   1.6633393016547097E-005  0.10554289548525381        0.0000000000000000     
  -9.7515183564865406E-006  0.11257765586538344        0.0000000000000000     
  -2.4140581877440080E-005  0.11969353142577251        0.0000000000000000     
  -2.6533797546313955E-005  0.12689052216642099        0.0000000000000000     
  -1.6931165363107733E-005  0.13416862808732893        0.0000000000000000     
  -4.8558088966842647E-003  0.10556732716886900        0.0000000000000000     
  -5.0259741565637896E-003  0.11260321809960996        0.0000000000000000     
  -5.1741778458058952E-003  0.11971862334285713        0.0000000000000000     
  -5.3004199644105824E-003  0.12691354289861048        0.0000000000000000     
  -5.4047005123778538E-003  0.13418797676687000        0.0000000000000000     
  -9.7620252920662537E-003  0.10563087619524962        0.0000000000000000     
  -1.0071720599801820E-002  0.11266470465649134        0.0000000000000000     
  -1.0351194903156275E-002  0.11977728291616230        0.0000000000000000     
  -1.0600448202129619E-002  0.12696861097426249        0.0000000000000000     
  -1.0819480496721849E-002  0.13423868883079187        0.0000000000000000     
  -1.4702015793129424E-002  0.10573354256439564        0.0000000000000000     
  -1.5146990848070582E-002  0.11276211553602752        0.0000000000000000     
  -1.5555191753928586E-002  0.11986951014568796        0.0000000000000000     
  -1.5926618510703424E-002  0.12705572639337698        0.0000000000000000     
  -1.6261271118395100E-002  0.13432076427909453        0.0000000000000000     
  -1.9675780399873770E-002  0.10587532627630705        0.0000000000000000     
  -2.0251784901370078E-002  0.11289545073821852        0.0000000000000000     
  -2.0786168398122817E-002  0.11999530503143419        0.0000000000000000     
  -2.1278930890131990E-002  0.12717488915595401        0.0000000000000000     
  -2.1730072377397602E-002  0.13443420311177803        0.0000000000000000     
  -1.6931165363107733E-005  0.13416862808732893        0.0000000000000000     
  -3.8336474552523505E-006  0.14156264911375493        0.0000000000000000     
   4.2577940498252651E-006  0.14910738517095753        0.0000000000000000     
   7.3431591521210210E-006  0.15680283625893671        0.0000000000000000     
   5.4224478516387391E-006  0.16464900237769253        0.0000000000000000     
  -5.4047005123778538E-003  0.13418797676687000        0.0000000000000000     
  -5.4982906670876137E-003  0.14157812047387908        0.0000000000000000     
  -5.5924616059197805E-003  0.14912016954588098        0.0000000000000000     
  -5.6872133288743453E-003  0.15681412398287572        0.0000000000000000     
  -5.7825458359513134E-003  0.16465998378486330        0.0000000000000000     
  -1.0819480496721849E-002  0.13423868883079187        0.0000000000000000     
  -1.1021425036273456E-002  0.14162432955375220        0.0000000000000000     
  -1.1219415070124916E-002  0.14916234621114502        0.0000000000000000     
  -1.1413450598276236E-002  0.15685273880297038        0.0000000000000000     
  -1.1603531620727411E-002  0.16469550732922830        0.0000000000000000     
  -1.6261271118395100E-002  0.13432076427909453        0.0000000000000000     
  -1.6573236755012773E-002  0.14170127635337426        0.0000000000000000     
  -1.6876602598565583E-002  0.14923391516674966        0.0000000000000000     
  -1.7171368649053546E-002  0.15691868071922077        0.0000000000000000     
  -1.7457534906476647E-002  0.16475557301078755        0.0000000000000000     
  -2.1730072377397602E-002  0.13443420311177803        0.0000000000000000     
  -2.2153725823305565E-002  0.14180896087274530        0.0000000000000000     
  -2.2564024191241792E-002  0.14933487641269491        0.0000000000000000     
  -2.2960967481206278E-002  0.15701194973162680        0.0000000000000000     
  -2.3344555693199025E-002  0.16484018082954105        0.0000000000000000     
   5.4224478516387391E-006  0.16464900237769253        0.0000000000000000     
   1.7736732116537934E-006  0.17260988291990348        0.0000000000000000     
  -3.2515170456017678E-007  0.18064947727824807        0.0000000000000000     
  -8.7402689699926824E-007  0.18876778545272632        0.0000000000000000     
   1.2704763433478428E-007  0.19696480744333822        0.0000000000000000     
  -5.7825458359513134E-003  0.16465998378486330        0.0000000000000000     
  -5.8735342082031662E-003  0.17262087583995561        0.0000000000000000     
  -5.9552535266823841E-003  0.18065992703626452        0.0000000000000000     
  -6.0277037913889610E-003  0.18877713737379004        0.0000000000000000     
  -6.0908850023229048E-003  0.19697250685253220        0.0000000000000000     
  -1.1603531620727411E-002  0.16469550732922830        0.0000000000000000     
  -1.1783081535697897E-002  0.17265344213774309        0.0000000000000000     
  -1.1945523741407157E-002  0.18068933357633912        0.0000000000000000     
  -1.2090858237855186E-002  0.18880318164501633        0.0000000000000000     
  -1.2219085025041983E-002  0.19699498634377480        0.0000000000000000     
  -1.7457534906476647E-002  0.16475557301078755        0.0000000000000000     
  -1.7726868309272545E-002  0.17270758181326598        0.0000000000000000     
  -1.7971135795878883E-002  0.18073769689847180        0.0000000000000000     
  -1.8190337366295668E-002  0.18884591826640520        0.0000000000000000     
  -1.8384473020522898E-002  0.19703224591706614        0.0000000000000000     
  -2.3344555693199025E-002  0.16484018082954105        0.0000000000000000     
  -2.3704894528927101E-002  0.17278329486652413        0.0000000000000000     
  -2.4032089690097565E-002  0.18080501700266266        0.0000000000000000     
  -2.4326141176710416E-002  0.18890534723795663        0.0000000000000000     
  -2.4587048988765649E-002  0.19708428557240604        0.0000000000000000     
   1.2704763433478428E-007  0.19696480744333822        0.0000000000000000     
   1.6537042593057182E-006  0.20522725126172175        0.0000000000000000     
   2.6815753477754277E-006  0.21354182491951490        0.0000000000000000     
   3.2106608997444278E-006  0.22190852841671771        0.0000000000000000     
   3.2409609152131251E-006  0.23032736175333010        0.0000000000000000     
  -6.0908850023229048E-003  0.19697250685253220        0.0000000000000000     
  -6.1461502320040657E-003  0.20523341050973906        0.0000000000000000     
  -6.1948525529522923E-003  0.21354722338265891        0.0000000000000000     
  -6.2369919651675933E-003  0.22191394547129167        0.0000000000000000     
  -6.2725684686499575E-003  0.23033357677563737        0.0000000000000000     
  -1.2219085025041983E-002  0.19699498634377480        0.0000000000000000     
  -1.2331882525219136E-002  0.20525296986674441        0.0000000000000000     
  -1.2430929160638234E-002  0.21356535440805524        0.0000000000000000     
  -1.2516224931299275E-002  0.22193213996770719        0.0000000000000000     
  -1.2587769837202265E-002  0.23035332654570023        0.0000000000000000     
  -1.8384473020522898E-002  0.19703224591706614        0.0000000000000000     
  -1.8555543175385911E-002  0.20528592933273784        0.0000000000000000     
  -1.8705548247710049E-002  0.21359621799570391        0.0000000000000000     
  -1.8834488237495315E-002  0.22196311190596418        0.0000000000000000     
  -1.8942363144741702E-002  0.23038661106351885        0.0000000000000000     
  -2.4587048988765649E-002  0.19708428557240604        0.0000000000000000     
  -2.4817132182504385E-002  0.20533228890771932        0.0000000000000000     
  -2.5018709814167733E-002  0.21363981414560490        0.0000000000000000     
  -2.5191781883755697E-002  0.22200686128606278        0.0000000000000000     
  -2.5336348391268280E-002  0.23043343032909305        0.0000000000000000     
   3.2409609152131251E-006  0.23032736175333010        0.0000000000000000     
   3.0528189697250682E-006  0.23876600196721964        0.0000000000000000     
   2.9265786388265160E-006  0.24719212609625385        0.0000000000000000     
   2.8622399225156526E-006  0.25560573414043269        0.0000000000000000     
   2.8598028207925050E-006  0.26400682609975623        0.0000000000000000     
  -6.2725684686499575E-003  0.23033357677563737        0.0000000000000000     
  -6.3026145132515539E-003  0.23877377538768968        0.0000000000000000     
  -6.3281625488245492E-003  0.24720219939944238        0.0000000000000000     
  -6.3492125753689364E-003  0.25561884881089553        0.0000000000000000     
  -6.3657645928847147E-003  0.26402372362204896        0.0000000000000000     
  -1.2587769837202265E-002  0.23035332654570023        0.0000000000000000     
  -1.2648063679091430E-002  0.23879715463036971        0.0000000000000000     
  -1.2699606257711016E-002  0.24723186471005082        0.0000000000000000     
  -1.2742397573061018E-002  0.25565745678474350        0.0000000000000000     
  -1.2776437625141442E-002  0.26407393085444786        0.0000000000000000     
  -1.8942363144741702E-002  0.23038661106351885        0.0000000000000000     
  -1.9033294678549896E-002  0.23883613969525974        0.0000000000000000     
  -1.9111404548020575E-002  0.24728112202807911        0.0000000000000000     
  -1.9176692753153736E-002  0.25572155806197677        0.0000000000000000     
  -1.9229159293949385E-002  0.26415744779695299        0.0000000000000000     
  -2.5336348391268280E-002  0.23043343032909305        0.0000000000000000     
  -2.5458307511626956E-002  0.23889073058235977        0.0000000000000000     
  -2.5563557419753229E-002  0.24734997135352724        0.0000000000000000     
  -2.5652098115647091E-002  0.25581115264259541        0.0000000000000000     
  -2.5723929599308547E-002  0.26427427444956431        0.0000000000000000     
   2.8598028207925050E-006  0.26400682609975623        0.0000000000000000     
   2.8776814809329705E-006  0.27233558300303695        0.0000000000000000     
   2.8742900502064413E-006  0.28053218587908724        0.0000000000000000     
   2.8496285286149772E-006  0.28859663472790725        0.0000000000000000     
   2.8036969161593372E-006  0.29652892954949689        0.0000000000000000     
  -6.3657645928847147E-003  0.26402372362204896        0.0000000000000000     
  -6.3817275626827999E-003  0.27235744458058947        0.0000000000000000     
  -6.4010104460740973E-003  0.28056063243420387        0.0000000000000000     
  -6.4236132430586061E-003  0.28863328718289200        0.0000000000000000     
  -6.4495359536363272E-003  0.29657540882665406        0.0000000000000000     
  -1.2776437625141442E-002  0.26407393085444786        0.0000000000000000     
  -1.2808965159368411E-002  0.27242288854473140        0.0000000000000000     
  -1.2847218921158053E-002  0.28064593148116196        0.0000000000000000     
  -1.2891198910510368E-002  0.28874305966373937        0.0000000000000000     
  -1.2940905127425356E-002  0.29671427309246379        0.0000000000000000     
  -1.9229159293949385E-002  0.26415744779695299        0.0000000000000000     
  -1.9278835108575903E-002  0.27253191489546280        0.0000000000000000     
  -1.9335751135201661E-002  0.28078808301996167        0.0000000000000000     
  -1.9399907373826668E-002  0.28892595217044931        0.0000000000000000     
  -1.9471303824450923E-002  0.29694552234692595        0.0000000000000000     
  -2.5723929599308547E-002  0.26427427444956431        0.0000000000000000     
  -2.5791337410305263E-002  0.27268452363278356        0.0000000000000000     
  -2.5866607088204922E-002  0.28098708705060271        0.0000000000000000     
  -2.5949738633007511E-002  0.28918196470302177        0.0000000000000000     
  -2.6040732044713036E-002  0.29726915659004077        0.0000000000000000     
  -1.4005381000446949E-002   5.5777146641749695E-002   0.0000000000000000     
  -1.4788867549016180E-002   6.1368192642334549E-002   0.0000000000000000     
  -1.5555111797606587E-002   6.7158575915113969E-002   0.0000000000000000     
  -1.6304113746218166E-002   7.3148296460087969E-002   0.0000000000000000     
  -1.7035873394850919E-002   7.9337354277256550E-002   0.0000000000000000     
  -1.7636812813326040E-002   5.6034890683348243E-002   0.0000000000000000     
  -1.8588162832944882E-002   6.1614334113687039E-002   0.0000000000000000     
  -1.9531089389628272E-002   6.7394765426605246E-002   0.0000000000000000     
  -2.0465592483376205E-002   7.3376184622102880E-002   0.0000000000000000     
  -2.1391672114188690E-002   7.9558591700179912E-002   0.0000000000000000     
  -2.1343196080135941E-002   5.6356600670129917E-002   0.0000000000000000     
  -2.2474417848523495E-002   6.1924407446659731E-002   0.0000000000000000     
  -2.3598482314808576E-002   6.7694075337732723E-002   0.0000000000000000     
  -2.4715389478991170E-002   7.3665604343348901E-002   0.0000000000000000     
  -2.5825139341071276E-002   7.9838994463508256E-002   0.0000000000000000     
  -2.5124530800876649E-002   5.6742276602094743E-002   0.0000000000000000     
  -2.6447632595752037E-002   6.2298412641252660E-002   0.0000000000000000     
  -2.7757290573147506E-002   6.8056505648496399E-002   0.0000000000000000     
  -2.9053504733063059E-002   7.4016555623826044E-002   0.0000000000000000     
  -3.0336275075498683E-002   8.0178562567241554E-002   0.0000000000000000     
  -2.8980816975548170E-002   5.7191918479242723E-002   0.0000000000000000     
  -3.0507807074630501E-002   6.2736349697465776E-002   0.0000000000000000     
  -3.2007514164645069E-002   6.8482056358896301E-002   0.0000000000000000     
  -3.3479938245591867E-002   7.4429038463534311E-002   0.0000000000000000     
  -3.4925079317470901E-002   8.0577296011379834E-002   0.0000000000000000     
  -1.7035873394850919E-002   7.9337354277256550E-002   0.0000000000000000     
  -1.7743221456647348E-002   8.5712522367146618E-002   0.0000000000000000     
  -1.8418988644749969E-002   9.2260573730285053E-002   0.0000000000000000     
  -1.9063174959158775E-002   9.8981508366671855E-002   0.0000000000000000     
  -1.9675780399873770E-002  0.10587532627630705        0.0000000000000000     
  -2.1391672114188690E-002   7.9558591700179912E-002   0.0000000000000000     
  -2.2290084863242125E-002   8.5927081832107788E-002   0.0000000000000000     
  -2.3141587311712928E-002   9.2466750189157898E-002   0.0000000000000000     
  -2.3946179459601091E-002   9.9177596771330243E-002   0.0000000000000000     
  -2.4703861306906612E-002  0.10605962157862482        0.0000000000000000     
  -2.5825139341071276E-002   7.9838994463508256E-002   0.0000000000000000     
  -2.6903621584828178E-002   8.6197911737549052E-002   0.0000000000000000     
  -2.7926725894041143E-002   9.2726022204809605E-002   0.0000000000000000     
  -2.8894452268710166E-002   9.9423325865289888E-002   0.0000000000000000     
  -2.9806800708835259E-002  0.10628982271898993        0.0000000000000000     
  -3.0336275075498683E-002   8.0178562567241554E-002   0.0000000000000000     
  -3.1583831621405496E-002   8.6525012083470437E-002   0.0000000000000000     
  -3.2774404391734610E-002   9.3038389777240202E-002   0.0000000000000000     
  -3.3907993386486014E-002   9.9718695648550834E-002   0.0000000000000000     
  -3.4984598605659716E-002  0.10656592969740238        0.0000000000000000     
  -3.4925079317470901E-002   8.0577296011379834E-002   0.0000000000000000     
  -3.6330714972974076E-002   8.6908382869871931E-002   0.0000000000000000     
  -3.7684622804793323E-002   9.3403852906449661E-002   0.0000000000000000     
  -3.8986802812928614E-002  0.10006370612111307        0.0000000000000000     
  -4.0237254997379984E-002  0.10688794251386213        0.0000000000000000     
  -1.9675780399873770E-002  0.10587532627630705        0.0000000000000000     
  -2.0251784901370078E-002  0.11289545073821852        0.0000000000000000     
  -2.0786168398122817E-002  0.11999530503143419        0.0000000000000000     
  -2.1278930890131990E-002  0.12717488915595401        0.0000000000000000     
  -2.1730072377397602E-002  0.13443420311177803        0.0000000000000000     
  -2.4703861306906612E-002  0.10605962157862482        0.0000000000000000     
  -2.5414270890066266E-002  0.11306797591217797        0.0000000000000000     
  -2.6077046245516849E-002  0.12015781107312601        0.0000000000000000     
  -2.6692187373258333E-002  0.12732912706146890        0.0000000000000000     
  -2.7259694273290742E-002  0.13458192387720666        0.0000000000000000     
  -2.9806800708835259E-002  0.10628982271898993        0.0000000000000000     
  -3.0662616944525146E-002  0.11328295670701953        0.0000000000000000     
  -3.1460746705888547E-002  0.12036017177048856        0.0000000000000000     
  -3.2201189992925462E-002  0.12752146790939697        0.0000000000000000     
  -3.2883946805635896E-002  0.13476684512374476        0.0000000000000000     
  -3.4984598605659716E-002  0.10656592969740238        0.0000000000000000     
  -3.5996823064746684E-002  0.11354039312274322        0.0000000000000000     
  -3.6937269779237912E-002  0.12060238712352182        0.0000000000000000     
  -3.7805938749133357E-002  0.12775191169973824        0.0000000000000000     
  -3.8602829974433046E-002  0.13498896685139236        0.0000000000000000     
  -4.0237254997379984E-002  0.10688794251386213        0.0000000000000000     
  -4.1416889250730921E-002  0.11384028515934899        0.0000000000000000     
  -4.2506615465564938E-002  0.12088445713222583        0.0000000000000000     
  -4.3506433641882038E-002  0.12802045843249266        0.0000000000000000     
  -4.4416343779682226E-002  0.13524828906014943        0.0000000000000000     
  -2.1730072377397602E-002  0.13443420311177803        0.0000000000000000     
  -2.2153725823305565E-002  0.14180896087274530        0.0000000000000000     
  -2.2564024191241792E-002  0.14933487641269491        0.0000000000000000     
  -2.2960967481206278E-002  0.15701194973162680        0.0000000000000000     
  -2.3344555693199025E-002  0.16484018082954105        0.0000000000000000     
  -2.7259694273290742E-002  0.13458192387720666        0.0000000000000000     
  -2.7794657399010114E-002  0.14195020089970467        0.0000000000000000     
  -2.8312167203812518E-002  0.14946795750832820        0.0000000000000000     
  -2.8812223687697935E-002  0.15713519370307735        0.0000000000000000     
  -2.9294826850666381E-002  0.16495190948395203        0.0000000000000000     
  -3.2883946805635896E-002  0.13476684512374476        0.0000000000000000     
  -3.3527796639984696E-002  0.14212781422209159        0.0000000000000000     
  -3.4151518991936747E-002  0.14963588601299702        0.0000000000000000     
  -3.4755113861492028E-002  0.15729106049646113        0.0000000000000000     
  -3.5338581248650552E-002  0.16509333767248377        0.0000000000000000     
  -3.8602829974433046E-002  0.13498896685139236        0.0000000000000000     
  -3.9353143546229319E-002  0.14234180083990616        0.0000000000000000     
  -4.0082079555614485E-002  0.14983866192670137        0.0000000000000000     
  -4.0789638002588557E-002  0.15747955011177808        0.0000000000000000     
  -4.1475818887151530E-002  0.16526446539513628        0.0000000000000000     
  -4.4416343779682226E-002  0.13524828906014943        0.0000000000000000     
  -4.5270698117743972E-002  0.14259216075314826        0.0000000000000000     
  -4.6103848894845735E-002  0.15007628524944125        0.0000000000000000     
  -4.6915796110987514E-002  0.15770066254902834        0.0000000000000000     
  -4.7706539766169322E-002  0.16546529265190957        0.0000000000000000     
  -2.3344555693199025E-002  0.16484018082954105        0.0000000000000000     
  -2.3704894528927101E-002  0.17278329486652413        0.0000000000000000     
  -2.4032089690097565E-002  0.18080501700266266        0.0000000000000000     
  -2.4326141176710416E-002  0.18890534723795663        0.0000000000000000     
  -2.4587048988765649E-002  0.19708428557240604        0.0000000000000000     
  -2.9294826850666381E-002  0.16495190948395203        0.0000000000000000     
  -2.9748124001883276E-002  0.17288305215403893        0.0000000000000000     
  -3.0160262450514029E-002  0.18089356901642475        0.0000000000000000     
  -3.0531242196558638E-002  0.18898346007110950        0.0000000000000000     
  -3.0861063240017115E-002  0.19715272531809308        0.0000000000000000     
  -3.5338581248650552E-002  0.16509333767248377        0.0000000000000000     
  -3.5887520535362760E-002  0.17300932453233164        0.0000000000000000     
  -3.6387531103579090E-002  0.18100562806727125        0.0000000000000000     
  -3.6838612953299564E-002  0.18908224827730263        0.0000000000000000     
  -3.7240766084524160E-002  0.19723918516242581        0.0000000000000000     
  -4.1475818887151530E-002  0.16526446539513628        0.0000000000000000     
  -4.2123084129365558E-002  0.17316211200140222        0.0000000000000000     
  -4.2713895649292774E-002  0.18114119415520219        0.0000000000000000     
  -4.3248253446933185E-002  0.18920171185653614        0.0000000000000000     
  -4.3726157522286799E-002  0.19734366510540408        0.0000000000000000     
  -4.7706539766169322E-002  0.16546529265190957        0.0000000000000000     
  -4.8454814783891666E-002  0.17334141456125071        0.0000000000000000     
  -4.9139356087655059E-002  0.18130026728021748        0.0000000000000000     
  -4.9760163677459508E-002  0.18934185080880991        0.0000000000000000     
  -5.0317237553305021E-002  0.19746616514702797        0.0000000000000000     
  -2.4587048988765649E-002  0.19708428557240604        0.0000000000000000     
  -2.4817132182504385E-002  0.20533228890771932        0.0000000000000000     
  -2.5018709814167733E-002  0.21363981414560490        0.0000000000000000     
  -2.5191781883755697E-002  0.22200686128606278        0.0000000000000000     
  -2.5336348391268280E-002  0.23043343032909305        0.0000000000000000     
  -3.0861063240017115E-002  0.19715272531809308        0.0000000000000000     
  -3.1152312062409773E-002  0.20539307865861908        0.0000000000000000     
  -3.1407575145256959E-002  0.21369623399393090        0.0000000000000000     
  -3.1626852488558656E-002  0.22206219132402844        0.0000000000000000     
  -3.1810144092314870E-002  0.23049095064891184        0.0000000000000000     
  -3.7240766084524160E-002  0.19723918516242581        0.0000000000000000     
  -3.7596745330937299E-002  0.20546932865236747        0.0000000000000000     
  -3.7909305526223389E-002  0.21376556867685440        0.0000000000000000     
  -3.8178446670382400E-002  0.22212790523588663        0.0000000000000000     
  -3.8404168763414376E-002  0.23055633832946409        0.0000000000000000     
  -4.3726157522286799E-002  0.19734366510540408        0.0000000000000000     
  -4.4150431988086963E-002  0.20556103888896438        0.0000000000000000     
  -4.4523900957066993E-002  0.21384781819437554        0.0000000000000000     
  -4.4846564429226951E-002  0.22220400302163731        0.0000000000000000     
  -4.5118422404566788E-002  0.23062959337074987        0.0000000000000000     
  -5.0317237553305021E-002  0.19746616514702797        0.0000000000000000     
  -5.0813372033858745E-002  0.20566820936840999        0.0000000000000000     
  -5.1251361437787829E-002  0.21394298254649419        0.0000000000000000     
  -5.1631205765092288E-002  0.22229048468128054        0.0000000000000000     
  -5.1952905015772106E-002  0.23071071577276916        0.0000000000000000     
  -2.5336348391268280E-002  0.23043343032909305        0.0000000000000000     
  -2.5458307511626956E-002  0.23889073058235977        0.0000000000000000     
  -2.5563557419753229E-002  0.24734997135352724        0.0000000000000000     
  -2.5652098115647091E-002  0.25581115264259541        0.0000000000000000     
  -2.5723929599308547E-002  0.26427427444956431        0.0000000000000000     
  -3.1810144092314870E-002  0.23049095064891184        0.0000000000000000     
  -3.1964773069741548E-002  0.23895652254401728        0.0000000000000000     
  -3.2098062534054610E-002  0.24743291758478120        0.0000000000000000     
  -3.2210012485254076E-002  0.25592013577120348        0.0000000000000000     
  -3.2300622923339940E-002  0.26441817710328419        0.0000000000000000     
  -3.8404168763414376E-002  0.23055633832946409        0.0000000000000000     
  -3.8594362244312591E-002  0.23902911083257988        0.0000000000000000     
  -3.8756917552070377E-002  0.24752446562022690        0.0000000000000000     
  -3.8891834686687693E-002  0.25604240269240525        0.0000000000000000     
  -3.8999113648164573E-002  0.26458292204911488        0.0000000000000000     
  -4.5118422404566788E-002  0.23062959337074987        0.0000000000000000     
  -4.5347075035340106E-002  0.23910849544804744        0.0000000000000000     
  -4.5540122473800487E-002  0.24762461545986439        0.0000000000000000     
  -4.5697564719947945E-002  0.25617795340620075        0.0000000000000000     
  -4.5819401773782464E-002  0.26476850928705636        0.0000000000000000     
  -5.1952905015772106E-002  0.23071071577276916        0.0000000000000000     
  -5.2222911442824080E-002  0.23919467639042014        0.0000000000000000     
  -5.2447677299244974E-002  0.24773336710369370        0.0000000000000000     
  -5.2627202585034824E-002  0.25632678791258989        0.0000000000000000     
  -5.2761487300193595E-002  0.26497493881710860        0.0000000000000000     
  -2.5723929599308547E-002  0.26427427444956431        0.0000000000000000     
  -2.5791337410305263E-002  0.27268452363278356        0.0000000000000000     
  -2.5866607088204922E-002  0.28098708705060271        0.0000000000000000     
  -2.5949738633007511E-002  0.28918196470302177        0.0000000000000000     
  -2.6040732044713036E-002  0.29726915659004077        0.0000000000000000     
  -3.2300622923339940E-002  0.26441817710328419        0.0000000000000000     
  -3.2384864608256694E-002  0.27287433643963172        0.0000000000000000     
  -3.2477708299948858E-002  0.28123590863885445        0.0000000000000000     
  -3.2579153998416426E-002  0.28950289370095245        0.0000000000000000     
  -3.2689201703659389E-002  0.29767529162592576        0.0000000000000000     
  -3.8999113648164573E-002  0.26458292204911488        0.0000000000000000     
  -3.9097809246130384E-002  0.27309497499894525        0.0000000000000000     
  -3.9206976290214517E-002  0.28152751285048599        0.0000000000000000     
  -3.9326614780416949E-002  0.28988053560373706        0.0000000000000000     
  -3.9456724716737696E-002  0.29815404325869854        0.0000000000000000     
  -4.5819401773782464E-002  0.26476850928705636        0.0000000000000000     
  -4.5930171323926343E-002  0.27334643931072422        0.0000000000000000     
  -4.6054411059001883E-002  0.28186189968549724        0.0000000000000000     
  -4.6192120979009071E-002  0.29031489041137554        0.0000000000000000     
  -4.6343301083947942E-002  0.29870541148835905        0.0000000000000000     
  -5.2761487300193595E-002  0.26497493881710860        0.0000000000000000     
  -5.2881950841644550E-002  0.27362872937496857        0.0000000000000000     
  -5.3020012606310965E-002  0.28223906914388841        0.0000000000000000     
  -5.3175672594192827E-002  0.29080595812386795        0.0000000000000000     
  -5.3348930805290136E-002  0.29932939631490746        0.0000000000000000     
  -2.8980816975548170E-002   5.7191918479242723E-002   0.0000000000000000     
  -3.0507807074630501E-002   6.2736349697465776E-002   0.0000000000000000     
  -3.2007514164645069E-002   6.8482056358896301E-002   0.0000000000000000     
  -3.3479938245591867E-002   7.4429038463534311E-002   0.0000000000000000     
  -3.4925079317470901E-002   8.0577296011379834E-002   0.0000000000000000     
  -3.2951569777873578E-002   5.7696972814665889E-002   0.0000000000000000     
  -3.4683931361479112E-002   6.3230879984500415E-002   0.0000000000000000     
  -3.6373916849892871E-002   6.8963996941074149E-002   0.0000000000000000     
  -3.8021526243114841E-002   7.4896323684387089E-002   0.0000000000000000     
  -3.9626759541145050E-002   8.1027860214439251E-002   0.0000000000000000     
  -3.7076304381575949E-002   5.8248886121456310E-002   0.0000000000000000     
  -3.9004995532618089E-002   6.3774664871557876E-002   0.0000000000000000     
  -4.0881262389482510E-002   6.9495596867171675E-002   0.0000000000000000     
  -4.2705104952169226E-002   7.5411682108297698E-002   0.0000000000000000     
  -4.4476523220678237E-002   8.1522920594935974E-002   0.0000000000000000     
  -4.1355020786655282E-002   5.8847658399613971E-002   0.0000000000000000     
  -4.3470999588047433E-002   6.4367704358638173E-002   0.0000000000000000     
  -4.5529550783414016E-002   7.0076856137188892E-002   0.0000000000000000     
  -4.7530674372755023E-002   7.5975113735266192E-002   0.0000000000000000     
  -4.9474370356070448E-002   8.2062477152869989E-002   0.0000000000000000     
  -4.5787718993111584E-002   5.9493289649138886E-002   0.0000000000000000     
  -4.8081943527767165E-002   6.5009998445741290E-002   0.0000000000000000     
  -5.0318782031687381E-002   7.0707774751125829E-002   0.0000000000000000     
  -5.2498234504872225E-002   7.6586618565292516E-002   0.0000000000000000     
  -5.4620300947321711E-002   8.2646529888241324E-002   0.0000000000000000     
  -3.4925079317470901E-002   8.0577296011379834E-002   0.0000000000000000     
  -3.6330714972974076E-002   8.6908382869871931E-002   0.0000000000000000     
  -3.7684622804793323E-002   9.3403852906449661E-002   0.0000000000000000     
  -3.8986802812928614E-002  0.10006370612111307        0.0000000000000000     
  -4.0237254997379984E-002  0.10688794251386213        0.0000000000000000     
  -3.9626759541145050E-002   8.1027860214439251E-002   0.0000000000000000     
  -4.1188366432713210E-002   8.7340396686729105E-002   0.0000000000000000     
  -4.2705096606549087E-002   9.3815723256755162E-002   0.0000000000000000     
  -4.4176950062652674E-002  0.10045383992451731        0.0000000000000000     
  -4.5603926801023952E-002  0.10725474669001570        0.0000000000000000     
  -4.4476523220678237E-002   8.1522920594935974E-002   0.0000000000000000     
  -4.6200880793802183E-002   8.7813426124017629E-002   0.0000000000000000     
  -4.7883541270333695E-002   9.4267312492473734E-002   0.0000000000000000     
  -4.9524504650272819E-002  0.10088457970030440        0.0000000000000000     
  -5.1123770933619542E-002  0.10766522774750950        0.0000000000000000     
  -4.9474370356070448E-002   8.2062477152869989E-002   0.0000000000000000     
  -5.1368258056240942E-002   8.8327471181737408E-002   0.0000000000000000     
  -5.3219956796147168E-002   9.4758620613605488E-002   0.0000000000000000     
  -5.5029466575789082E-002  0.10135592544847420        0.0000000000000000     
  -5.6796787395166727E-002  0.10811938568634359        0.0000000000000000     
  -5.4620300947321711E-002   8.2646529888241324E-002   0.0000000000000000     
  -5.6690498220029542E-002   8.8882531859888522E-002   0.0000000000000000     
  -5.8714343183989465E-002   9.5289647620150353E-002   0.0000000000000000     
  -6.0691835839201444E-002  0.10186787716902683        0.0000000000000000     
  -6.2622976185665521E-002  0.10861722050651797        0.0000000000000000     
  -4.0237254997379984E-002  0.10688794251386213        0.0000000000000000     
  -4.1416889250730921E-002  0.11384028515934899        0.0000000000000000     
  -4.2506615465564938E-002  0.12088445713222583        0.0000000000000000     
  -4.3506433641882038E-002  0.12802045843249266        0.0000000000000000     
  -4.4416343779682226E-002  0.13524828906014943        0.0000000000000000     
  -4.5603926801023952E-002  0.10725474669001570        0.0000000000000000     
  -4.6953849892073081E-002  0.11418474592729680        0.0000000000000000     
  -4.8194542406210170E-002  0.12121014001040731        0.0000000000000000     
  -4.9326004343435217E-002  0.12833092893934722        0.0000000000000000     
  -5.0348235703748238E-002  0.13554711271411646        0.0000000000000000     
  -5.1123770933619542E-002  0.10766522774750950        0.0000000000000000     
  -5.2638739378368438E-002  0.11457588853704656        0.0000000000000000     
  -5.4026809242514143E-002  0.12158319397187298        0.0000000000000000     
  -5.5287980526056629E-002  0.12868714405198881        0.0000000000000000     
  -5.6422253228995904E-002  0.13588773877739396        0.0000000000000000     
  -5.6796787395166727E-002  0.10811938568634359        0.0000000000000000     
  -5.8471557709617004E-002  0.11501371298859828        0.0000000000000000     
  -6.0003415974476844E-002  0.12200361901662289        0.0000000000000000     
  -6.1392362189746252E-002  0.12908910377041743        0.0000000000000000     
  -6.2638396355425216E-002  0.13627016724998189        0.0000000000000000     
  -6.2622976185665521E-002  0.10861722050651797        0.0000000000000000     
  -6.4452304885818781E-002  0.11549821928195196        0.0000000000000000     
  -6.6124362602098308E-002  0.12247141514465699        0.0000000000000000     
  -6.7639149334504114E-002  0.12953680809463311        0.0000000000000000     
  -6.8996665083036188E-002  0.13669439813188025        0.0000000000000000     
  -4.4416343779682226E-002  0.13524828906014943        0.0000000000000000     
  -4.5270698117743972E-002  0.14259216075314826        0.0000000000000000     
  -4.6103848894845735E-002  0.15007628524944125        0.0000000000000000     
  -4.6915796110987514E-002  0.15770066254902834        0.0000000000000000     
  -4.7706539766169322E-002  0.16546529265190957        0.0000000000000000     
  -5.0348235703748238E-002  0.13554711271411646        0.0000000000000000     
  -5.1305718998154538E-002  0.14287937404350615        0.0000000000000000     
  -5.2242936737659403E-002  0.15034839563630731        0.0000000000000000     
  -5.3159888922262886E-002  0.15795417749251986        0.0000000000000000     
  -5.4056575551964955E-002  0.16569671961214391        0.0000000000000000     
  -5.6422253228995904E-002  0.13588773877739396        0.0000000000000000     
  -5.7483464831086871E-002  0.14320392079266797        0.0000000000000000     
  -5.8525452812084461E-002  0.15065463274239019        0.0000000000000000     
  -5.9548217171988639E-002  0.15823987462656075        0.0000000000000000     
  -6.0551757910799434E-002  0.16595964644517958        0.0000000000000000     
  -6.2638396355425216E-002  0.13627016724998189        0.0000000000000000     
  -6.3803935616541005E-002  0.14356580100063360        0.0000000000000000     
  -6.4951397118120840E-002  0.15099499656768997        0.0000000000000000     
  -6.6080780860164792E-002  0.15855775395115096        0.0000000000000000     
  -6.7192086842672777E-002  0.16625407315101659        0.0000000000000000     
  -6.8996665083036188E-002  0.13669439813188025        0.0000000000000000     
  -7.0267131354516899E-002  0.14396501466740322        0.0000000000000000     
  -7.1520769655768618E-002  0.15136948711220663        0.0000000000000000     
  -7.2757579986791318E-002  0.15890781546629054        0.0000000000000000     
  -7.3977562347584985E-002  0.16657999972965498        0.0000000000000000     
  -4.7706539766169322E-002  0.16546529265190957        0.0000000000000000     
  -4.8454814783891666E-002  0.17334141456125071        0.0000000000000000     
  -4.9139356087655059E-002  0.18130026728021748        0.0000000000000000     
  -4.9760163677459508E-002  0.18934185080880991        0.0000000000000000     
  -5.0317237553305021E-002  0.19746616514702797        0.0000000000000000     
  -5.4056575551964955E-002  0.16569671961214391        0.0000000000000000     
  -5.4907890400971916E-002  0.17354965812729237        0.0000000000000000     
  -5.5688727243490090E-002  0.18148662917007830        0.0000000000000000     
  -5.6399086079519468E-002  0.18950763274050159        0.0000000000000000     
  -5.7038966909060074E-002  0.19761266883856235        0.0000000000000000     
  -6.0551757910799434E-002  0.16595964644517958        0.0000000000000000     
  -6.1507488882637115E-002  0.17378926861494259        0.0000000000000000     
  -6.2386823941621969E-002  0.18170406155254568        0.0000000000000000     
  -6.3189763087753981E-002  0.18970402525798885        0.0000000000000000     
  -6.3916306321033178E-002  0.19778915973127209        0.0000000000000000     
  -6.7192086842672777E-002  0.16625407315101659        0.0000000000000000     
  -6.8253610228887276E-002  0.17406024602420134        0.0000000000000000     
  -6.9233646182050718E-002  0.18195256442761967        0.0000000000000000     
  -7.0132194702163073E-002  0.18993102836127160        0.0000000000000000     
  -7.0949255789224369E-002  0.19799563782515717        0.0000000000000000     
  -7.3977562347584985E-002  0.16657999972965498        0.0000000000000000     
  -7.5146254439722407E-002  0.17436259035506863        0.0000000000000000     
  -7.6229193964776329E-002  0.18223213779530026        0.0000000000000000     
  -7.7226380922746724E-002  0.19018864205034997        0.0000000000000000     
  -7.8137815313633618E-002  0.19823210312021763        0.0000000000000000     
  -5.0317237553305021E-002  0.19746616514702797        0.0000000000000000     
  -5.0813372033858745E-002  0.20566820936840999        0.0000000000000000     
  -5.1251361437787829E-002  0.21394298254649419        0.0000000000000000     
  -5.1631205765092288E-002  0.22229048468128054        0.0000000000000000     
  -5.1952905015772106E-002  0.23071071577276916        0.0000000000000000     
  -5.7038966909060074E-002  0.19761266883856235        0.0000000000000000     
  -5.7611394928877270E-002  0.20579741220819558        0.0000000000000000     
  -5.8119395335736471E-002  0.21405753759333621        0.0000000000000000     
  -5.8562968129637676E-002  0.22239304499398424        0.0000000000000000     
  -5.8942113310580885E-002  0.23080393441013972        0.0000000000000000     
  -6.3916306321033178E-002  0.19778915973127209        0.0000000000000000     
  -6.4570330133767159E-002  0.20595521952581256        0.0000000000000000     
  -6.5155711018263576E-002  0.21419795919502721        0.0000000000000000     
  -6.5672448974522388E-002  0.22251737873891617        0.0000000000000000     
  -6.6120544002543649E-002  0.23091347815747942        0.0000000000000000     
  -7.0949255789224369E-002  0.19799563782515717        0.0000000000000000     
  -7.1690177648528433E-002  0.20614163132126087        0.0000000000000000     
  -7.2360308485369118E-002  0.21436424735156734        0.0000000000000000     
  -7.2959648299746466E-002  0.22266348591607643        0.0000000000000000     
  -7.3488197091660434E-002  0.23103934701478820        0.0000000000000000     
  -7.8137815313633618E-002  0.19823210312021763        0.0000000000000000     
  -7.8970937473161057E-002  0.20635664759454064        0.0000000000000000     
  -7.9733187737053138E-002  0.21455640206295643        0.0000000000000000     
  -8.0424566105309847E-002  0.22283136652546490        0.0000000000000000     
  -8.1045072577931199E-002  0.23118154098206611        0.0000000000000000     
  -5.1952905015772106E-002  0.23071071577276916        0.0000000000000000     
  -5.2222911442824080E-002  0.23919467639042014        0.0000000000000000     
  -5.2447677299244974E-002  0.24773336710369370        0.0000000000000000     
  -5.2627202585034824E-002  0.25632678791258989        0.0000000000000000     
  -5.2761487300193595E-002  0.26497493881710860        0.0000000000000000     
  -5.8942113310580885E-002  0.23080393441013972        0.0000000000000000     
  -5.9260947234429914E-002  0.23928893141955304        0.0000000000000000     
  -5.9523586257048670E-002  0.24784676159997454        0.0000000000000000     
  -5.9730030378437077E-002  0.25647742495140424        0.0000000000000000     
  -5.9880279598595189E-002  0.26518092147384209        0.0000000000000000     
  -6.6120544002543649E-002  0.23091347815747942        0.0000000000000000     
  -6.6500258177823041E-002  0.23939253829530147        0.0000000000000000     
  -6.6811853575856325E-002  0.24796083999696669        0.0000000000000000     
  -6.7055330196643462E-002  0.25661838326247532        0.0000000000000000     
  -6.7230688040184464E-002  0.26536516809182720        0.0000000000000000     
  -7.3488197091660434E-002  0.23103934701478820        0.0000000000000000     
  -7.3940844273003459E-002  0.23950549701766535        0.0000000000000000     
  -7.4312479255667974E-002  0.24807560229467029        0.0000000000000000     
  -7.4603102039653951E-002  0.25674966284580319        0.0000000000000000     
  -7.4812712624961447E-002  0.26552767867106392        0.0000000000000000     
  -8.1045072577931199E-002  0.23118154098206611        0.0000000000000000     
  -8.1582705519971127E-002  0.23962780758664465        0.0000000000000000     
  -8.2025463296483594E-002  0.24819104849308521        0.0000000000000000     
  -8.2373345907468573E-002  0.25687126370138780        0.0000000000000000     
  -8.2626353352926105E-002  0.26566845321155236        0.0000000000000000     
  -5.2761487300193595E-002  0.26497493881710860        0.0000000000000000     
  -5.2881950841644550E-002  0.27362872937496857        0.0000000000000000     
  -5.3020012606310965E-002  0.28223906914388841        0.0000000000000000     
  -5.3175672594192827E-002  0.29080595812386795        0.0000000000000000     
  -5.3348930805290136E-002  0.29932939631490746        0.0000000000000000     
  -5.9880279598595189E-002  0.26518092147384209        0.0000000000000000     
  -6.0011925697652853E-002  0.27391324978543669        0.0000000000000000     
  -6.0162560455739943E-002  0.28263040850433641        0.0000000000000000     
  -6.0332183872856437E-002  0.29133239763054125        0.0000000000000000     
  -6.0520795949002365E-002  0.30001921716405133        0.0000000000000000     
  -6.7230688040184464E-002  0.26536516809182720        0.0000000000000000     
  -6.7378873790319066E-002  0.27417140513588684        0.0000000000000000     
  -6.7540834130886990E-002  0.28300730504551852        0.0000000000000000     
  -6.7716569061888193E-002  0.29187286782072230        0.0000000000000000     
  -6.7906078583322718E-002  0.30076809346149824        0.0000000000000000     
  -7.4812712624961447E-002  0.26552767867106392        0.0000000000000000     
  -7.4982795119643231E-002  0.27440319542631902        0.0000000000000000     
  -7.5154833631752113E-002  0.28336975876743481        0.0000000000000000     
  -7.5328828161288108E-002  0.29242736869441127        0.0000000000000000     
  -7.5504778708251202E-002  0.30157602520724824        0.0000000000000000     
  -8.2626353352926105E-002  0.26566845321155236        0.0000000000000000     
  -8.2823689685625299E-002  0.27460862065673330        0.0000000000000000     
  -8.3004558958335306E-002  0.28371776967008516        0.0000000000000000     
  -8.3168961171056141E-002  0.29299590025160788        0.0000000000000000     
  -8.3316896323787804E-002  0.30244301240130134        0.0000000000000000     
  -4.5787718993111584E-002   5.9493289649138886E-002   0.0000000000000000     
  -4.8081943527767165E-002   6.5009998445741290E-002   0.0000000000000000     
  -5.0318782031687381E-002   7.0707774751125829E-002   0.0000000000000000     
  -5.2498234504872225E-002   7.6586618565292516E-002   0.0000000000000000     
  -5.4620300947321711E-002   8.2646529888241324E-002   0.0000000000000000     
  -5.0388064734841954E-002   6.0209107311474427E-002   0.0000000000000000     
  -5.2863146238195366E-002   6.5708455462842361E-002   0.0000000000000000     
  -5.5280694417093268E-002   7.1386054715659134E-002   0.0000000000000000     
  -5.7640709271535674E-002   7.7241905069924732E-002   0.0000000000000000     
  -5.9943190801522578E-002   8.3276006525639129E-002   0.0000000000000000     
  -5.5169723745743506E-002   6.1018438828063973E-002   0.0000000000000000     
  -5.7839926605750137E-002   6.6469983739916513E-002   0.0000000000000000     
  -6.0447026222422366E-002   7.2109398037465466E-002   0.0000000000000000     
  -6.2991022595760199E-002   7.7936681720710860E-002   0.0000000000000000     
  -6.5471915725763621E-002   8.3951834789652666E-002   0.0000000000000000     
  -6.0132696025816224E-002   6.1921284198907522E-002   0.0000000000000000     
  -6.3012284630431473E-002   6.7294583276963707E-002   0.0000000000000000     
  -6.5817777447674669E-002   7.2877804716544828E-002   0.0000000000000000     
  -6.8549174477545785E-002   7.8670948517650899E-002   0.0000000000000000     
  -7.1206475720044862E-002   8.4674014680281878E-002   0.0000000000000000     
  -6.5276981575060122E-002   6.2917643424005062E-002   0.0000000000000000     
  -6.8380220312239406E-002   6.8182254073983983E-002   0.0000000000000000     
  -7.1392948092850197E-002   7.3691274752897246E-002   0.0000000000000000     
  -7.4315164916892495E-002   7.9444705460744849E-002   0.0000000000000000     
  -7.7146870784366300E-002   8.5442546197526809E-002   0.0000000000000000     
  -5.4620300947321711E-002   8.2646529888241324E-002   0.0000000000000000     
  -5.6690498220029542E-002   8.8882531859888522E-002   0.0000000000000000     
  -5.8714343183989465E-002   9.5289647620150353E-002   0.0000000000000000     
  -6.0691835839201444E-002  0.10186787716902683        0.0000000000000000     
  -6.2622976185665521E-002  0.10861722050651797        0.0000000000000000     
  -5.9943190801522578E-002   8.3276006525639129E-002   0.0000000000000000     
  -6.2190607856130439E-002   8.9486206375553906E-002   0.0000000000000000     
  -6.4385429284435733E-002   9.5870351912420576E-002   0.0000000000000000     
  -6.6527655086438431E-002  0.10242844313623914        0.0000000000000000     
  -6.8617285262138575E-002  0.10916048004700959        0.0000000000000000     
  -6.5471915725763621E-002   8.3951834789652666E-002   0.0000000000000000     
  -6.7891593535506098E-002   9.0146092945816603E-002   0.0000000000000000     
  -7.0251943948061099E-002   9.6510691890728376E-002   0.0000000000000000     
  -7.2552966963428556E-002  0.10304563162438798        0.0000000000000000     
  -7.4794662581608523E-002  0.10975091214679546        0.0000000000000000     
  -7.1206475720044862E-002   8.4674014680281878E-002   0.0000000000000000     
  -7.3793455258156559E-002   9.0862191570676584E-002   0.0000000000000000     
  -7.6313887174865536E-002   9.7210667555073751E-002   0.0000000000000000     
  -7.8767771470171791E-002  0.10371944263347342        0.0000000000000000     
  -8.1155108144075366E-002  0.11038851680587555        0.0000000000000000     
  -7.7146870784366300E-002   8.5442546197526809E-002   0.0000000000000000     
  -7.9896193024081782E-002   9.1634502250133851E-002   0.0000000000000000     
  -8.2571258964849070E-002   9.7970278905456717E-002   0.0000000000000000     
  -8.5172068606668164E-002  0.10444987616349538        0.0000000000000000     
  -8.7698621949539105E-002  0.11107329402424990        0.0000000000000000     
  -6.2622976185665521E-002  0.10861722050651797        0.0000000000000000     
  -6.4452304885818781E-002  0.11549821928195196        0.0000000000000000     
  -6.6124362602098308E-002  0.12247141514465699        0.0000000000000000     
  -6.7639149334504114E-002  0.12953680809463311        0.0000000000000000     
  -6.8996665083036188E-002  0.13669439813188025        0.0000000000000000     
  -6.8617285262138575E-002  0.10916048004700959        0.0000000000000000     
  -7.0595863605088030E-002  0.11602414085687530        0.0000000000000000     
  -7.2404933908838690E-002  0.12297710377797964        0.0000000000000000     
  -7.4044496173390567E-002  0.13001936881032264        0.0000000000000000     
  -7.5514550398743649E-002  0.13715093595390421        0.0000000000000000     
  -7.4794662581608523E-002  0.10975091214679546        0.0000000000000000     
  -7.6917116565539054E-002  0.11658621115313607        0.0000000000000000     
  -7.8860414678158200E-002  0.12351120633859518        0.0000000000000000     
  -8.0624556919466003E-002  0.13052589770317274        0.0000000000000000     
  -8.2209543289462408E-002  0.13763028524686885        0.0000000000000000     
  -8.1155108144075366E-002  0.11038851680587555        0.0000000000000000     
  -8.3416063767171852E-002  0.11718443017073425        0.0000000000000000     
  -8.5490804910056867E-002  0.12407372282650357        0.0000000000000000     
  -8.7379331572730423E-002  0.13105639477318357        0.0000000000000000     
  -8.9081643755192494E-002  0.13813244601077415        0.0000000000000000     
  -8.7698621949539105E-002  0.11107329402424990        0.0000000000000000     
  -9.0092705209986398E-002  0.11781879790966984        0.0000000000000000     
  -9.2296104604534634E-002  0.12466465324170485        0.0000000000000000     
  -9.4308820133183785E-002  0.13161086002035494        0.0000000000000000     
  -9.6130851795933864E-002  0.13865741824562014        0.0000000000000000     
  -6.8996665083036188E-002  0.13669439813188025        0.0000000000000000     
  -7.0267131354516899E-002  0.14396501466740322        0.0000000000000000     
  -7.1520769655768618E-002  0.15136948711220663        0.0000000000000000     
  -7.2757579986791318E-002  0.15890781546629054        0.0000000000000000     
  -7.3977562347584985E-002  0.16657999972965498        0.0000000000000000     
  -7.5514550398743649E-002  0.13715093595390421        0.0000000000000000     
  -7.6891892759844399E-002  0.14439477811790397        0.0000000000000000     
  -7.8253319431639268E-002  0.15177386821150141        0.0000000000000000     
  -7.9598830414128269E-002  0.15928820623469661        0.0000000000000000     
  -8.0928425707311361E-002  0.16693779218748947        0.0000000000000000     
  -8.2209543289462408E-002  0.13763028524686885        0.0000000000000000     
  -8.3697060547353264E-002  0.14484830767706319        0.0000000000000000     
  -8.5168795452344362E-002  0.15220390370113568        0.0000000000000000     
  -8.6624748004435675E-002  0.15969707331908628        0.0000000000000000     
  -8.8064918203627232E-002  0.16732781653091494        0.0000000000000000     
  -8.9081643755192494E-002  0.13813244601077415        0.0000000000000000     
  -9.0682634717043492E-002  0.14532560334488090        0.0000000000000000     
  -9.2267197717883859E-002  0.15265959358110937        0.0000000000000000     
  -9.3835332757713538E-002  0.16013441671945955        0.0000000000000000     
  -9.5387039836532572E-002  0.16775007275993137        0.0000000000000000     
  -9.6130851795933864E-002  0.13865741824562014        0.0000000000000000     
  -9.7848615268915126E-002  0.14582666512135709        0.0000000000000000     
  -9.9548526228257800E-002  0.15314093785142252        0.0000000000000000     
 -0.10123058467396188       0.16060023643581642        0.0000000000000000     
 -0.10289479060602738       0.16820456087453878        0.0000000000000000     
  -7.3977562347584985E-002  0.16657999972965498        0.0000000000000000     
  -7.5146254439722407E-002  0.17436259035506863        0.0000000000000000     
  -7.6229193964776329E-002  0.18223213779530026        0.0000000000000000     
  -7.7226380922746724E-002  0.19018864205034997        0.0000000000000000     
  -7.8137815313633618E-002  0.19823210312021763        0.0000000000000000     
  -8.0928425707311361E-002  0.16693779218748947        0.0000000000000000     
  -8.2205061442842037E-002  0.17469831920505946        0.0000000000000000     
  -8.3391693752373680E-002  0.18254548042258584        0.0000000000000000     
  -8.4488322635906332E-002  0.19047927584006868        0.0000000000000000     
  -8.5494948093439993E-002  0.19849970545750795        0.0000000000000000     
  -8.8064918203627232E-002  0.16732781653091494        0.0000000000000000     
  -8.9449671165945696E-002  0.17506945017168876        0.0000000000000000     
  -9.0739372007417760E-002  0.18289529107647462        0.0000000000000000     
  -9.1934020728043381E-002  0.19080533924527265        0.0000000000000000     
  -9.3033617327822601E-002  0.19879959467808278        0.0000000000000000     
  -9.5387039836532572E-002  0.16775007275993137        0.0000000000000000     
  -9.6880083609033385E-002  0.17547598325495661        0.0000000000000000     
  -9.8272228729908484E-002  0.18328156975696674        0.0000000000000000     
  -9.9563475199157814E-002  0.19116683226596190        0.0000000000000000     
 -0.10075382301678142       0.19913177078194200        0.0000000000000000     
 -0.10289479060602738       0.16820456087453878        0.0000000000000000     
 -0.10449629877210512       0.17591791845486293        0.0000000000000000     
 -0.10599026391984587       0.18370431646406210        0.0000000000000000     
 -0.10737668604924963       0.19156375490213640        0.0000000000000000     
 -0.10865556516031644       0.19949623376908573        0.0000000000000000     
  -7.8137815313633618E-002  0.19823210312021763        0.0000000000000000     
  -7.8970937473161057E-002  0.20635664759454064        0.0000000000000000     
  -7.9733187737053138E-002  0.21455640206295643        0.0000000000000000     
  -8.0424566105309847E-002  0.22283136652546490        0.0000000000000000     
  -8.1045072577931199E-002  0.23118154098206611        0.0000000000000000     
  -8.5494948093439993E-002  0.19849970545750795        0.0000000000000000     
  -8.6421569137081031E-002  0.20660067305822294        0.0000000000000000     
  -8.7278184778935827E-002  0.21477608242553292        0.0000000000000000     
  -8.8064795019004397E-002  0.22302593355943784        0.0000000000000000     
  -8.8781399857286766E-002  0.23135022645993766        0.0000000000000000     
  -9.3033617327822601E-002  0.19879959467808278        0.0000000000000000     
  -9.4051032169704313E-002  0.20687411242487894        0.0000000000000000     
  -9.4999135616637448E-002  0.21502494753563506        0.0000000000000000     
  -9.5877927668621965E-002  0.22325210001035126        0.0000000000000000     
  -9.6687408325657934E-002  0.23155556984902748        0.0000000000000000     
 -0.10075382301678142       0.19913177078194200        0.0000000000000000     
 -0.10185932657103092       0.20717696569450861        0.0000000000000000     
 -0.10289604025015796       0.21530299739326300        0.0000000000000000     
 -0.10386396405416257       0.22350986587820529        0.0000000000000000     
 -0.10476309798304467       0.23179757114933547        0.0000000000000000     
 -0.10865556516031644       0.19949623376908573        0.0000000000000000     
 -0.10984645234106084       0.20750923286711190        0.0000000000000000     
 -0.11096889867949741       0.21561023199841658        0.0000000000000000     
 -0.11202290417562613       0.22379923116299988        0.0000000000000000     
 -0.11300846882944701       0.23207623036086172        0.0000000000000000     
  -8.1045072577931199E-002  0.23118154098206611        0.0000000000000000     
  -8.1582705519971127E-002  0.23962780758664465        0.0000000000000000     
  -8.2025463296483594E-002  0.24819104849308521        0.0000000000000000     
  -8.2373345907468573E-002  0.25687126370138780        0.0000000000000000     
  -8.2626353352926105E-002  0.26566845321155236        0.0000000000000000     
  -8.8781399857286766E-002  0.23135022645993766        0.0000000000000000     
  -8.9412480871154734E-002  0.23977465456595426        0.0000000000000000     
  -8.9942519637980167E-002  0.24832491131640938        0.0000000000000000     
  -9.0371516157763024E-002  0.25700099671130305        0.0000000000000000     
  -9.0699470430503332E-002  0.26580291075063522        0.0000000000000000     
  -9.6687408325657934E-002  0.23155556984902748        0.0000000000000000     
  -9.7416809278982941E-002  0.23996122251930882        0.0000000000000000     
  -9.8055362219834602E-002  0.24849492348884064        0.0000000000000000     
  -9.8603067148213000E-002  0.25715667275762277        0.0000000000000000     
  -9.9059924064118038E-002  0.26594647032565527        0.0000000000000000     
 -0.10476309798304467       0.23179757114933547        0.0000000000000000     
 -0.10559569074345569       0.24018751144670844        0.0000000000000000     
 -0.10636399104204698       0.24870108501037891        0.0000000000000000     
 -0.10706799887881847       0.25733829184034712        0.0000000000000000     
 -0.10770771425377022       0.26609913193661278        0.0000000000000000     
 -0.11300846882944701       0.23207623036086172        0.0000000000000000     
 -0.11394912526457306       0.24045352134815290        0.0000000000000000     
 -0.11486840610461721       0.24894339588102427        0.0000000000000000     
 -0.11576631134957949       0.25754585395947582        0.0000000000000000     
 -0.11664284099945987       0.26626089558350752        0.0000000000000000     
  -8.2626353352926105E-002  0.26566845321155236        0.0000000000000000     
  -8.2823689685625299E-002  0.27460862065673330        0.0000000000000000     
  -8.3004558958335306E-002  0.28371776967008516        0.0000000000000000     
  -8.3168961171056141E-002  0.29299590025160788        0.0000000000000000     
  -8.3316896323787804E-002  0.30244301240130134        0.0000000000000000     
  -9.0699470430503332E-002  0.26580291075063522        0.0000000000000000     
  -9.0956744969804201E-002  0.27479319455785117        0.0000000000000000     
  -9.1173702289268743E-002  0.28403438925639635        0.0000000000000000     
  -9.1350342388896999E-002  0.29352649484627069        0.0000000000000000     
  -9.1486665268688885E-002  0.30326951132747426        0.0000000000000000     
  -9.9059924064118038E-002  0.26594647032565527        0.0000000000000000     
  -9.9437148453718885E-002  0.27496243086039412        0.0000000000000000     
  -9.9745955803184641E-002  0.28430266902929513        0.0000000000000000     
  -9.9986346112515292E-002  0.29396718483235829        0.0000000000000000     
 -0.10015831938171083       0.30395597826958370        0.0000000000000000     
 -0.10770771425377022       0.26609913193661278        0.0000000000000000     
 -0.10826490013736935       0.27511632956436227        0.0000000000000000     
 -0.10872131950008296       0.28452260898878146        0.0000000000000000     
 -0.10907697234191106       0.29431797020987066        0.0000000000000000     
 -0.10933185866285362       0.30450241322762961        0.0000000000000000     
 -0.11664284099945987       0.26626089558350752        0.0000000000000000     
 -0.11744000002075555       0.27525489066975539        0.0000000000000000     
 -0.11809979337996368       0.28469420913485544        0.0000000000000000     
 -0.11862222107708426       0.29457885097880770        0.0000000000000000     
 -0.11900728311211728       0.30490881620161209        0.0000000000000000     
 </DataArray>
 <DataArray  type="Float64" Name="stress" NumberOfComponents="3" format="ascii">
   5803497210.6367569       -796687133.42304540       -230247299.57472622     
   5783536291.1378679       -309829485.70685792       -172932245.92772263     
   5711757168.1593800        4300817.0773370266       -106129498.06694163     
   5588159841.7013130        145703774.92959952       -29839055.992387101     
   5412744311.7636499        114379387.84987307        55939080.295947388     
   5455874231.3857222       -494486191.84133697        103443513.85293932     
   5415070412.7530441       -151267090.10035920        118259631.51393478     
   5336743470.3760166        66874932.492784023        140702412.39097974     
   5220893404.2546425        159939875.93809366        170771856.48406905     
   5067520214.3889132        127927740.23554134        208467963.79321554     
   5138386548.4970541       -183244661.35092521        375954886.06258202     
   5071422599.3085136        14740724.988243580        364949660.76201701     
   4981230606.1108532        135299297.96368098        359710067.67977357     
   4867810568.9040804        178431057.57541060        360236106.81584954     
   4731162487.6881952        144136003.82343245        366527778.17023748     
   4851034161.9707518        137037458.04820299        587286817.05421007     
   4752592850.8042564        188193959.55892062        567137841.81653404     
   4645218575.3638773        209573913.49003983        550893467.79944599     
   4528911335.6496229        201177319.84157038        538553695.00294173     
   4403671131.6614952        163004178.61351347        530118523.42702568     
   4593817071.8068237        466360166.35604048        737439306.82782423     
   4458581167.2402830        369092613.61167586        724824174.67747498     
   4328707378.1351013        289698779.07185507        714252612.74998653     
   4204195704.4912777        228178662.73656082        705724621.04535544     
   4085046146.3088202        184532264.60581231        699240199.56357861     
   5412744311.7636499        114379387.84987307        55939080.295947388     
   5227579738.3760920        23431180.841846704        20400813.263120856     
   5056849341.9450588       -19403102.977765322       -427566.36158397957     
   4900553122.4705496       -14123463.608958006       -6546058.5781799229     
   4758691079.9525614        39270098.948246956        2045336.6133407117     
   5067520214.3889132        127927740.23554134        208467963.79321554     
   4921611375.5244780        58932985.471079588        189111377.76154375     
   4787365050.9347429        28813278.288945913        180175441.89872032     
   4664781240.6197109        37568618.689155579        181660156.20475131     
   4553859944.5793791        85199006.671706915        193565520.67962614     
   4731162487.6881952        144136003.82343245        366527778.17023748     
   4612254419.8061247        93418212.240295649        360119266.67759848     
   4502237203.5169306        72336592.633421183        359842168.11453635     
   4401110838.8206234        80891145.002827406        365696482.48106539     
   4308875325.7171831        119081869.34846616        377682209.77717161     
   4403671131.6614952        163004178.61351347        530118523.42702568     
   4299508871.2210312        126886861.14948726        533424480.01129067     
   4201465799.6916194        111166840.05563712        538572612.28586578     
   4109541917.0732722        115844115.33199739        545562920.25076735     
   4023737223.3659759        140918686.97853351        554395403.90598071     
   4085046146.3088202        184532264.60581231        699240199.56357861     
   3983374729.7691984        159338932.19865370        709027017.76261795     
   3885050839.4588118        145304020.55560875        716366774.41271126     
   3790074475.3776593        142427529.67668819        721259469.51385546     
   3698445637.5257473        150709459.56188464        723705103.06605279     
   4758691079.9525614        39270098.948246956        2045336.6133407117     
   4401705304.0425768        41880450.781869411       -754193.26129951747     
   4039353862.7985139        26605251.501916647       -7589407.9153358508     
   3671636756.2203550       -6555498.8916866779       -18460307.348765086     
   3298553984.3081307       -57601800.398863554       -33366891.561584018     
   4553859944.5793791        85199006.671706915        193565520.67962614     
   4186653464.5835166        67612084.601700783        173702052.82963845     
   3815477818.7530408        36794609.749654531        154673099.05535755     
   3440333007.0879407       -7253417.8844702244        136478659.35678405     
   3061219029.5882158       -64531998.300688148        119118733.73393013     
   4308875325.7171831        119081869.34846616        377682209.77717161     
   3945362995.5071726        85472129.536363125        342384053.36787003     
   3579277998.9619946        43286835.273720741        312790609.88938290     
   3210620336.0816636       -7474013.4394323826        288901879.34170860     
   2839390006.8661737       -66810416.603130579        270717861.72484809     
   4023737223.3659759        140918686.97853351        554395403.90598071     
   3677833896.8135328        95460585.585835695        505291808.35341144     
   3330754403.4253783        46081928.074122429        466763124.58675444     
   2982498743.2015357       -7217285.5565532446        438809352.60601556     
   2633066916.1419969       -64437055.306230426        421430492.41118753     
   3698445637.5257473        150709459.56188464        723705103.06605279     
   3384066168.5025835        97577452.750100136        662425317.78625357     
   3069907032.1431813        45179888.150846004        616590643.14746583     
   2755968228.4475574       -6483234.2358152866        586201079.14969516     
   2442249757.4156857       -57411914.409957170        571256625.79294682     
   3298553984.3081307       -57601800.398863554       -33366891.561584018     
   3276705621.3137069       -16157639.904027224       -16219953.201242091     
   3251730707.8247752        14864685.609126568        4252639.2574353358     
   3223629243.8413754        35465176.140719175        28050885.814439297     
   3192401229.3634706        45643831.690618634        55174786.469796695     
   3061219029.5882158       -64531998.300688148        119118733.73393013     
   3046036412.3026104       -22528397.995435953        137551191.51138267     
   3028297316.4497995        10953607.085784554        157656390.39488611     
   3008001742.0297756        35914016.942960739        179434330.38443530     
   2985149689.0425425        52352831.576119900        202885011.48002771     
   2839390006.8661737       -66810416.603130579        270717861.72484809     
   2826150526.7400041       -25664159.052248001        291100922.83458197     
   2810924639.9738932        8860743.0321648121        311503812.05806732     
   2793712346.5678592        36764289.650167942        331926529.39530838     
   2774513646.5218849        58046480.801708817        352369074.84630543     
   2633066916.1419969       -64437055.306230426        421430492.41118753     
   2617047964.6258535       -25564923.074548125        444429240.76834965     
   2599612678.3970518        8586093.4482772350        465794904.24697685     
   2580761057.4555936        38015994.262246847        485527482.84707028     
   2560493101.8014836        62724779.367364883        503626976.56862617     
   2442249757.4156857       -57411914.409957170        571256625.79294682     
   2418728725.9601693       -22230690.062304735        597536145.31269884     
   2394361431.7192740        10129658.334093809        620529666.96162355     
   2369147874.6930022        39669130.779234171        640237190.73972547     
   2343088054.8813491        66387727.273100853        656658716.64700389     
   3192401229.3634706        45643831.690618634        55174786.469796695     
   2972295694.6691408        1924915.8631432056        29190989.651094712     
   2757140238.8346815       -25293737.098083854        7922864.0802880405     
   2546934861.8601022       -36012127.193046927       -8629590.2426527850     
   2341679563.7454185       -30230254.421700954       -20466373.317721359     
   2985149689.0425425        52352831.576119900        202885011.48002771     
   2779156849.5762219        15881435.552227616        180753048.41459814     
   2577060285.5694556       -7602375.6064811945        163088828.93739620     
   2378859997.0222378       -18098601.900029302        149892353.04841164     
   2184555983.9345336       -15607243.328508973        141163620.74765468     
   2774513646.5218849        58046480.801708817        352369074.84630543     
   2581925137.5417237        28610095.158901215        332859508.23374534     
   2392179100.6207590        8648616.3800806999        317569757.54975736     
   2205275535.7590122       -1837955.5346730947        306499822.79434401     
   2021214442.9564676       -2849620.5854380131        299649703.96749640     
   2560493101.8014836        62724779.367364883        503626976.56862617     
   2380600558.5656090        40110894.683045149        485510369.10854948     
   2202496683.9886017        23459238.861617446        471365649.91738272     
   2026181478.0704660        12769811.903086782        461192818.99513090     
   1851654940.8112044        8042613.8074636459        454991876.34181237     
   2343088054.8813491        66387727.273100853        656658716.64700389     
   2175183112.6478930        50383834.124705076        638705631.03900063     
   2008013035.6729851        36829491.838131428        624476506.04026425     
   1841577823.9565930        25724700.413269043        613971341.65079606     
   1675877477.4987347        17069459.850197017        607190137.87058949     
   2341679563.7454185       -30230254.421700954       -20466373.317721359     
   2220127888.3251700       -363969.53946876526       -15979872.260025045     
   2092949205.6731153        10745624.570076585       -12037913.942559024     
   1960143515.7892520        3098527.9069316387       -8640498.3653258607     
   1821710818.6735852       -23305259.528901100       -5787625.5283076167     
   2184555983.9345336       -15607243.328508973        141163620.74765468     
   2059545843.7669849        7629524.0350564718        137881451.98666814     
   1930611239.2932556        17784743.711340785        134013357.12616445     
   1797752170.5133536        14858415.700400710        129559336.16610524     
   1660968637.4272547       -1149459.9978734255        124519389.10649560     
   2021214442.9564676       -2849620.5854380131        299649703.96749640     
   1892627599.8721235        13722157.808555126        290585165.46775323     
   1761818835.4072301        22887531.600726962        280893317.50915807     
   1628788149.5617943        24646500.791091204        270574160.09169334     
   1493535542.3358088        18999065.379606128        259627693.21537346     
   1851654940.8112044        8042613.8074636459        454991876.34181237     
   1719373156.6405964        17913931.781079412        442131268.18320233     
   1586571994.0150661        26053988.238299012        428601967.20642006     
   1453251452.9346175        32462783.179116607        414403973.41145742     
   1319411533.3992581        37140316.603567839        399537286.79831564     
   1675877477.4987347        17069459.850197017        607190137.87058949     
   1539782514.0723777        20204845.952569366        592519760.13302732     
   1404870715.1167452        27284113.624012351        577139306.21795571     
   1271142080.6318200        38307262.864479423        561048776.12539887     
   1138596610.6176040        53274293.673978388        544248169.85534024     
   1821710818.6735852       -23305259.528901100       -5787625.5283076167     
   1782729644.2511461       -14423510.061965108       -4837766.6668653060     
   1752968936.4636631        25193128.188159466       -41448139.584481917     
   1732428695.3111420        95544655.221495926       -115618744.28113183     
   1721108920.7935891        196631071.03804767       -227349580.75682530     
   1660968637.4272547       -1149459.9978734255        124519389.10649560     
   1533867276.0638154       -12639414.030981779        137434226.38248238     
   1411754073.6098566       -7502171.6991610527        124825698.59830377     
   1294629030.0653534        14262266.997509658        86693805.753948256     
   1182492145.4303412        52653902.059162617        23038547.849422250     
   1493535542.3358088        18999065.379606128        259627693.21537346     
   1312705041.7995546       -2545277.8230841756        279569816.55952770     
   1132630392.4472969       -21570117.079124153        286025441.56236529     
   953311594.27899551       -38075452.388634861        278994568.22387761     
   774748647.29470360       -52061283.751452953        258477196.54409435     
   1319411533.3992581        37140316.603567839        399537286.79831564     
   1119242941.4583757        15858898.561761260        421569003.86423129     
   915597892.97598004       -17010707.951732755        442151089.30767936     
   708476387.95207834       -61468502.936913460        461283543.12868536     
   497878426.38667011       -117514486.39380717        478966365.32723522     
   1138596610.6176040        53274293.673978388        544248169.85534024     
   953480975.04025865        42573115.123505294        563431788.29659605     
   760656575.19591582        6176055.6830410659        593202641.83426344     
   560123411.08456874       -55916884.647431374        633560730.46834099     
   351881482.70623803       -143705705.86786094        684506054.19882762     
   1721108920.7935891        196631071.03804767       -227349580.75682530     
   1454000042.7911701        184942828.86811763       -97634368.045596004     
   1153909427.6432366        63315462.879803717        60583731.485726215     
   820837075.34973860       -168251026.92708510        247304717.83712339     
   454782985.91071808       -509756640.55232680        462528591.00861859     
   1182492145.4303412        52653902.059162617        23038547.849422250     
   976875551.73497117        12366610.015674770        155383178.15434039     
   732885075.35850036       -155833624.29811460        313126459.53848791     
   450520716.30092895       -451946800.88227808        496268392.00184566     
   129782474.56224638       -875972919.73676801        704808975.54445064     
   774748647.29470360       -52061283.751452953        258477196.54409435     
   621755092.93248987       -123608399.16062608        387160407.98454022     
   424995510.35360801       -341042275.29202664        538138034.76335073     
   184469899.55804861       -704362912.14569235        711410076.88052905     
  -99821739.454200745       -1213570309.7216554        906976534.33606803     
   497878426.38667011       -117514486.39380717        478966365.32723522     
   388638666.38373208       -222982198.66080987        597697321.44503200     
   230240732.62854329       -492310490.10200363        735618457.16033828     
   22684625.121099293       -925499360.71735382        892729772.47314203     
  -234029656.13859153       -1522548810.5068989        1069031267.3834515     
   351881482.70623803       -143705705.86786094        684506054.19882762     
   277526272.08867931       -285754788.48490882        786993918.53580463     
   148620742.18330017       -609638268.72803581        905567726.72943199     
  -34835107.009898424       -1115356146.5972137        1040227478.7797079     
  -272841275.49093652       -1802908422.0925288        1190973174.6866176     
   4593817071.8068237        466360166.35604048        737439306.82782423     
   4458581167.2402830        369092613.61167586        724824174.67747498     
   4328707378.1351013        289698779.07185507        714252612.74998653     
   4204195704.4912777        228178662.73656082        705724621.04535544     
   4085046146.3088202        184532264.60581231        699240199.56357861     
   4185462667.3397708        270718763.38411570        822133912.30587709     
   4065588469.8263531        202124090.88654065        810761765.58648551     
   3951234233.7190242        151929289.74262333        802545927.85892308     
   3842399959.0177989        120134359.95236850        797486399.12317765     
   3739085645.7226725        106739301.51577640        795583179.37925577     
   3760933228.2264066        70224850.018294334        915991967.18700433     
   3659599991.3917227        31256833.855191469        906046959.50077164     
   3563944561.9078684        11214842.194870234        900370999.57531881     
   3473966939.7748523        10098875.037338018        898964087.41065729     
   3389667124.9926744        27908932.382586718        901826223.00678432     
   3320228754.4667344       -135121573.74141788        1019013471.4712129     
   3240615731.9363995       -143509157.48236203        1010679756.4203209     
   3166838362.7016363       -132444563.57140160        1007727827.8991830     
   3098896646.7624378       -101927792.00854039        1010157685.9077967     
   3036790584.1188235       -51958842.793757677        1017969330.4461613     
   2863349246.0607510       -345320507.89502347        1131198425.1584976     
   2808635691.4603796       -322173883.12612808        1124660156.3451457     
   2759915636.1003137       -279048927.55621147        1124616412.8305078     
   2717189079.9805627       -215945641.18524659        1131067194.6145902     
   2680456023.1011171       -132864024.01326215        1144012501.6973920     
   4085046146.3088202        184532264.60581231        699240199.56357861     
   3983374729.7691984        159338932.19865370        709027017.76261795     
   3885050839.4588118        145304020.55560875        716366774.41271126     
   3790074475.3776593        142427529.67668819        721259469.51385546     
   3698445637.5257473        150709459.56188464        723705103.06605279     
   3739085645.7226725        106739301.51577640        795583179.37925577     
   3640251467.2354813        104274365.27633190        807495190.89944994     
   3542217820.8068681        104477869.23216510        818791740.27790534     
   3444984706.4368405        107349813.38327217        829472827.51463318     
   3348552124.1253910        112890197.72965097        839538452.60962045     
   3389667124.9926744        27908932.382586718        901826223.00678432     
   3298903325.7213745        49742334.659900069        912891934.64903545     
   3206393064.3380046        65754196.563638806        925173783.55676448     
   3112136340.8425694        75944518.093820453        938671769.72997594     
   3016133155.2350597        80313299.250429869        953385893.16865981     
   3036790584.1188235       -51958842.793757677        1017969330.4461613     
   2959330305.2268872       -4257159.6506526470        1025217249.0113772     
   2877576570.0522261        29133002.550043106        1035512904.2492833     
   2791529378.5948434        48211643.808331251        1048856296.1598812     
   2701188730.8547373        52978764.124207377        1065247424.7431748     
   2680456023.1011171       -132864024.01326215        1144012501.6973920     
   2621532405.7520123       -57724117.655313373        1144471133.9864731     
   2555768337.9495254       -5385712.8086349964        1149809102.3554587     
   2483163819.6936646        24151190.526800632        1160026406.8043501     
   2403718850.9844322        30886592.350990057        1175123047.3331532     
   3698445637.5257473        150709459.56188464        723705103.06605279     
   3384066168.5025835        97577452.750100136        662425317.78625357     
   3069907032.1431813        45179888.150846004        616590643.14746583     
   2755968228.4475574       -6483234.2358152866        586201079.14969516     
   2442249757.4156857       -57411914.409957170        571256625.79294682     
   3348552124.1253910        112890197.72965097        839538452.60962045     
   3073109291.4287643        66373800.156096935        783436677.13982391     
   2797951394.7146101        20807189.190799236        740314370.68674552     
   2523078433.9829426       -23809635.166221142        710171533.25039554     
   2248490409.2337480       -67476672.914989471        693008164.83076406     
   3016133155.2350597        80313299.250429869        953385893.16865981     
   2772582268.5098391        38299103.808566213        902537498.04736221     
   2529380921.0858111       -2549960.6293219328        862202930.31849647     
   2286529112.9629788       -42233894.063228369        832382189.98205662     
   2044026844.1413412       -80752696.493149161        813075277.03805447     
   2701188730.8547373        52978764.124207377        1065247424.7431748     
   2482485099.7458038        13353363.707500458        1019727780.5088745     
   2264195611.2567749       -24891561.309512854        982256322.04271305     
   2046320265.3876600       -61756010.926826954        952833049.34469199     
   1828859062.1384435       -97239985.144466162        931457962.41480649     
   2403718850.9844322        30886592.350990057        1175123047.3331532     
   2202817785.1366615       -8463420.1470960379        1135007524.5243554     
   2002395465.2275133       -46217612.849770784        1100474545.8594034     
   1802451891.2569804       -82375985.757061124        1071524111.3382983     
   1602987063.2250788       -116938538.86890996        1048156220.9610307     
   2442249757.4156857       -57411914.409957170        571256625.79294682     
   2418728725.9601693       -22230690.062304735        597536145.31269884     
   2394361431.7192740        10129658.334093809        620529666.96162355     
   2369147874.6930022        39669130.779234171        640237190.73972547     
   2343088054.8813491        66387727.273100853        656658716.64700389     
   2248490409.2337480       -67476672.914989471        693008164.83076406     
   2216902619.2127438       -37784873.299399734        715874584.89322662     
   2185332376.9098501       -8034581.2901202440        737088594.25277054     
   2153779682.3250618        21774203.112855673        756650192.90939021     
   2122244535.4583764        51641479.909513235        774559380.86309183     
   2044026844.1413412       -80752696.493149161        813075277.03805447     
   2009039687.4631410       -55150104.037149429        833536376.56395984     
   1974933889.0065413       -26609650.842505336        853978652.55485141     
   1941709448.7715359        4868663.0907917023        874402105.01072776     
   1909366366.7581205        39284837.762733817        894806733.93159080     
   1828859062.1384435       -97239985.144466162        931457962.41480649     
   1795139930.7113574       -74326382.275565982        950521520.32489097     
   1763165968.0093589       -45595550.323046565        971199841.86786568     
   1732937174.0324347       -11047489.286943197        993492927.04373550     
   1704453548.7805955        29317800.832777202        1017400775.8524892     
   1602987063.2250788       -116938538.86890996        1048156220.9610307     
   1575203348.9574037       -95313708.014616847        1066830016.1760304     
   1550028613.9182956       -64992279.731756985        1088752162.1918228     
   1527462858.1077566       -25974254.020344138        1113922659.0084133     
   1507506081.5257816        21740369.119627237        1142341506.6257915     
   2343088054.8813491        66387727.273100853        656658716.64700389     
   2175183112.6478930        50383834.124705076        638705631.03900063     
   2008013035.6729851        36829491.838131428        624476506.04026425     
   1841577823.9565930        25724700.413269043        613971341.65079606     
   1675877477.4987347        17069459.850197017        607190137.87058949     
   2122244535.4583764        51641479.909513235        774559380.86309183     
   1966664105.3485975        44386083.390504599        759854363.70458519     
   1811126069.2727504        37272000.317929983        748886896.04054523     
   1655630427.2308414        30299230.691818416        741656977.87097895     
   1500177179.2228587        23467774.512128472        738164609.19588447     
   1909366366.7581205        39284837.762733817        894806733.93159080     
   1766149274.1583171        40789585.488990188        882541902.12720597     
   1622282104.3678529        40127409.246375382        874028208.70249939     
   1477764857.3867111        37298309.034847319        869265653.65746832     
   1332597533.2149072        32302284.854433954        868254236.99211967     
   1704453548.7805955        29317800.832777202        1017400775.8524892     
   1573638619.0770602        39594340.420182109        1006768246.3068672     
   1441481140.9582698        45395718.623392284        999900444.02612054     
   1307981114.4242067        46721935.442360699        996797369.01026905     
   1173138539.4748821        43572990.877122402        997459021.25929141     
   1507506081.5257816        21740369.119627237        1142341506.6257915     
   1389132140.1048281        40800348.184087992        1132533396.2435651     
   1268723179.0440130        53076928.449013650        1126503602.0114274     
   1146279198.3433330        58570109.914388299        1124252123.9293733     
   1021800198.0027789        57279892.580187440        1125778961.9974093     
   1675877477.4987347        17069459.850197017        607190137.87058949     
   1539782514.0723777        20204845.952569366        592519760.13302732     
   1404870715.1167452        27284113.624012351        577139306.21795571     
   1271142080.6318200        38307262.864479423        561048776.12539887     
   1138596610.6176040        53274293.673978388        544248169.85534024     
   1500177179.2228587        23467774.512128472        738164609.19588447     
   1363226454.1447310        22880339.805282176        728079042.72983956     
   1226690432.5671222        23675250.100153744        718904386.74204981     
   1090569114.4900053        25852505.396678209        710640641.23253238     
   954862499.91340959        29412105.694925368        703287806.20126247     
   1332597533.2149072        32302284.854433954        868254236.99211967     
   1199422436.9300199        29381446.471875548        861856943.99903274     
   1065893583.1754380        25281416.523669362        857991548.13995242     
   932010971.95115376        20002195.009778917        856658049.41488767     
   797774603.25717127        13543781.930242538        857856447.82383573     
   1173138539.4748821        43572990.877122402        997459021.25929141     
   1048370462.4282408        39708165.952348590        993853463.94058156     
   922480166.94170558        32102612.894577503        994400790.41164374     
   795467653.01525700        20756331.703769565        999101000.67247593     
   667332920.64890790        5669322.3799505532        1007954094.7230631     
   1021800198.0027789        57279892.580187440        1125778961.9974093     
   910070530.63940263        53860498.246707201        1124068602.5545118     
   796450183.86591542        44138839.212859958        1128132113.5571346     
   680939157.68231463        28114915.478632778        1137969495.0052783     
   563537452.08861649        5788727.0440701246        1153580746.8989453     
   1138596610.6176040        53274293.673978388        544248169.85534024     
   953480975.04025865        42573115.123505294        563431788.29659605     
   760656575.19591582        6176055.6830410659        593202641.83426344     
   560123411.08456874       -55916884.647431374        633560730.46834099     
   351881482.70623803       -143705705.86786094        684506054.19882762     
   954862499.91340959        29412105.694925368        703287806.20126247     
   794579806.11885428        12887923.947552770        721805861.26325619     
   625501557.21046984       -32954774.845917225        750182714.10720503     
   447627753.18825352       -108115990.68549335        788418364.73308742     
   260958394.05220556       -212595723.57117510        836512813.14091992     
   797774603.25717127        13543781.930242538        857856447.82383573     
   660243601.77551365       -9427777.8549840152        874441016.85193074     
   512830254.33319169       -65340490.842431843        900155946.34750986     
   355534560.93020546       -154194357.03209513        935001236.31056499     
   188356521.56655228       -275989376.42397219        978976886.74110365     
   667332920.64890790        5669322.3799505532        1007954094.7230631     
   550472362.01025164       -24373990.284088880        1021337255.0626208     
   422642666.56408548       -90981092.306498230        1043122338.5551990     
   283843834.31042725       -194151983.68720597        1073309345.2007897     
   134075865.24926649       -333886664.42626739        1111898274.9994013     
   563537452.08861649        5788727.0440701246        1153580746.8989453     
   465266086.82305110       -31950713.339788586        1162494575.8953180     
   354938793.90315247       -109876579.23810261        1179081890.7302589     
   232555573.32892561       -227988870.65084136        1203342691.4037402     
   98116425.100360513       -386287587.57803524        1235276977.9157770     
   351881482.70623803       -143705705.86786094        684506054.19882762     
   277526272.08867931       -285754788.48490882        786993918.53580463     
   148620742.18330017       -609638268.72803581        905567726.72943199     
  -34835107.009898424       -1115356146.5972137        1040227478.7797079     
  -272841275.49093652       -1802908422.0925288        1190973174.6866176     
   260958394.05220556       -212595723.57117510        836512813.14091992     
   222640604.72445229       -352746508.28442377        885441268.31276906     
   140254729.12368032       -639790913.90773749        945566804.18080938     
   13800767.249895811       -1073728940.4410973        1016889420.7450242     
  -156721280.89691412       -1654560587.8845415        1099409118.0054121     
   188356521.56655228       -275989376.42397219        978976886.74110365     
   172107973.07013205       -418432317.37097996        986575204.59845185     
   122273571.31550199       -672828102.51201248        1000481739.9914984     
   38853316.302648604       -1039176731.8470998        1020696492.9202639     
  -78152791.968401313       -1517478205.3762074        1047219463.3847502     
   134075865.24926649       -333886664.42626739        1111898274.9994013     
   125928377.12571710       -482812215.74454463        1090395727.3928275     
   94677268.758757919       -708749834.54086101        1070312534.1615039     
   40322540.148397624       -1011699520.8151801        1051648695.3054341     
  -37135808.705373406       -1391661274.5675185        1034404210.8246057     
   98116425.100360513       -386287587.57803524        1235276977.9157770     
   84101816.891201824       -545886203.40517271        1196902836.6959097     
   57465821.453446269       -747556109.99428308        1155059186.6908236     
   18208438.787091911       -991297307.34539783        1109746027.9005203     
  -33670331.107853234       -1277109795.4584823        1060963360.3250163     
   2863349246.0607510       -345320507.89502347        1131198425.1584976     
   2808635691.4603796       -322173883.12612808        1124660156.3451457     
   2759915636.1003137       -279048927.55621147        1124616412.8305078     
   2717189079.9805627       -215945641.18524659        1131067194.6145902     
   2680456023.1011171       -132864024.01326215        1144012501.6973920     
   2508130702.4048491       -226928979.31012058        1202408792.9745443     
   2465377274.1830659       -210605326.35185075        1208734164.9871542     
   2426808773.5015469       -180331914.92603469        1219339640.8716419     
   2392425200.3602834       -136108745.03269875        1234225220.6280136     
   2362226554.7592816       -77935816.671826482        1253390904.2562604     
   2175864832.7986217       -101651648.51031208        1270669926.4396374     
   2138744612.5930319       -94049042.871380448        1287748938.9614880     
   2104000748.2276528       -78525251.098413944        1306893633.9283834     
   2071633239.7024839       -55080273.191410065        1328104011.3403158     
   2041642087.0175266       -23714109.150369763        1351380071.1972866     
   1866551637.2420673        30511484.504397631        1335981825.5537944     
   1828737706.6902699        27494967.315266728        1361704478.2681637     
   1791491560.2786396        26371063.926676750        1387278392.0007303     
   1754813198.0071676        27139774.338626862        1412703566.7515001     
   1718702619.8758583        29801098.551109493        1437980002.5204709     
   1580191115.7351840        169560419.73400676        1398344490.3170025     
   1535356556.4747875        154026704.20809788        1430600782.9071591     
   1489281209.6545036        134357030.14923060        1460493915.0886829     
   1441965075.2743318        110551397.55740541        1488023886.8615673     
   1393408153.3342724        82609806.432620227        1513190698.2258136     
   2680456023.1011171       -132864024.01326215        1144012501.6973920     
   2621532405.7520123       -57724117.655313373        1144471133.9864731     
   2555768337.9495254       -5385712.8086349964        1149809102.3554587     
   2483163819.6936646        24151190.526800632        1160026406.8043501     
   2403718850.9844322        30886592.350990057        1175123047.3331532     
   2362226554.7592816       -77935816.671826482        1253390904.2562604     
   2307519321.4035616       -27280388.821896672        1246097866.0873549     
   2248518419.2870078        9062809.8252459764        1242819128.4122307     
   2185223848.4096289        31093779.269642591        1243554691.2308850     
   2117635608.7714162        38812519.511258364        1248304554.5433176     
   2041642087.0175266       -23714109.150369763        1351380071.1972866     
   1988679707.4091218        1715381.1177171469        1339306607.8783610     
   1933970440.7324297        21321914.491514921        1330382409.4670939     
   1877514286.9874506        35105490.971022010        1324607475.9634771     
   1819311246.1741872        43066110.556247830        1321981807.3675213     
   1718702619.8758583        29801098.551109493        1437980002.5204709     
   1665013563.7686963        29263192.163541853        1424097359.3594971     
   1612124402.2857926        31391601.190166235        1412498945.5200517     
   1560035135.4271457        36186325.630980074        1403184761.0021374     
   1508745763.1927576        43647365.485986292        1396154805.8057466     
   1393408153.3342724        82609806.432620227        1513190698.2258136     
   1336520890.4822788        55363044.315560520        1500470120.5307570     
   1282980303.9470925        39271869.921193004        1489168736.5711057     
   1232786393.7287030        34336283.249480247        1479286546.3468566     
   1185939159.8271201        40556284.300458968        1470823549.8580110     
   2403718850.9844322        30886592.350990057        1175123047.3331532     
   2202817785.1366615       -8463420.1470960379        1135007524.5243554     
   2002395465.2275133       -46217612.849770784        1100474545.8594034     
   1802451891.2569804       -82375985.757061124        1071524111.3382983     
   1602987063.2250788       -116938538.86890996        1048156220.9610307     
   2117635608.7714162        38812519.511258364        1248304554.5433176     
   1935806372.2977374        5955727.4640468359        1205267784.8003743     
   1754114826.6256614       -26442095.244485497        1169820673.4049883     
   1572560971.7551787       -58380948.614372015        1141963220.3571687     
   1391144807.6862996       -89860832.645588398        1121695425.6569114     
   1819311246.1741872        43066110.556247830        1321981807.3675213     
   1662288451.0852368        18422922.563132465        1275625893.0305593     
   1505062291.6608579       -6898146.5480762124        1238866751.2448819     
   1347632767.9010520       -32897096.777373850        1211704382.0104849     
   1189999879.8058205       -59573928.124760091        1194138785.3273716     
   1508745763.1927576        43647365.485986292        1396154805.8057466     
   1382264021.4991524        28938165.150126934        1346081849.2149150     
   1255237860.3330989        12414233.239441574        1307612779.3790846     
   1127667279.6945930       -5924430.2460819483        1280747596.2982507     
   999552279.58363771       -26077825.306444705        1265486299.9724200     
   1185939159.8271201        40556284.300458968        1470823549.8580110     
   1095733083.5394931        37501455.225068748        1416635653.3534439     
   1004641532.6423855        31495044.118074775        1376058757.8075905     
   912664507.13580716        22537050.979512274        1349092863.2204580     
   819802007.01974964        10627475.809352487        1335737969.5920470     
   1602987063.2250788       -116938538.86890996        1048156220.9610307     
   1575203348.9574037       -95313708.014616847        1066830016.1760304     
   1550028613.9182956       -64992279.731756985        1088752162.1918228     
   1527462858.1077566       -25974254.020344138        1113922659.0084133     
   1507506081.5257816        21740369.119627237        1142341506.6257915     
   1391144807.6862996       -89860832.645588398        1121695425.6569114     
   1369890839.8047163       -70164564.242726684        1146243369.1670184     
   1350561264.7992573       -44053652.919449985        1173010896.5851948     
   1333156082.6699233       -11528098.675752640        1201998007.9114339     
   1317675293.4167209        27412098.488374352        1233204703.1457491     
   1189999879.8058205       -59573928.124760091        1194138785.3273716     
   1172336324.3310997       -42688022.367130280        1223762193.0547464     
   1155912575.3800712       -21669428.197188199        1254576417.7974582     
   1140728632.9527245        3481854.3850221634        1286581459.5555151     
   1126784497.0490706        32765825.379547894        1319777318.3289096     
   999552279.58363771       -26077825.306444705        1265486299.9724200     
   982539802.53655934       -12884082.387800157        1299386487.8392138     
   966082545.66073143        2160394.4350145459        1333448725.8286211     
   950180508.95615172        19055605.161988378        1367673013.9406395     
   934833692.42282951        37801549.793155968        1402059352.1752751     
   819802007.01974964        10627475.809352487        1335737969.5920470     
   800501274.42109418        19247255.695252568        1373116253.5204198     
   781071175.64125109        27435814.977193505        1409627820.6786749     
   761511710.68021262        35193153.655147642        1445272671.0668168     
   741822879.53799331        42519271.729165494        1480050804.6848395     
   1507506081.5257816        21740369.119627237        1142341506.6257915     
   1389132140.1048281        40800348.184087992        1132533396.2435651     
   1268723179.0440130        53076928.449013650        1126503602.0114274     
   1146279198.3433330        58570109.914388299        1124252123.9293733     
   1021800198.0027789        57279892.580187440        1125778961.9974093     
   1317675293.4167209        27412098.488374352        1233204703.1457491     
   1208060910.5473971        38892461.311133206        1221481342.2556283     
   1097036581.2262156        45673002.627702773        1214466929.3878372     
   984602305.45318067        47753722.438096285        1212161464.5423765     
   870758083.22828472        45134620.742278725        1214564947.7192423     
   1126784497.0490706        32765825.379547894        1319777318.3289096     
   1028588620.9377831        37464256.422536850        1306867958.9835734     
   929607871.56264257        39546443.252685785        1299598179.5328052     
   829842248.92365479        39012385.870008916        1297967979.9766076     
   729291753.02081394        35862084.274486989        1301977360.3149796     
   934833692.42282951        37801549.793155968        1402059352.1752751     
   850715271.27597547        36515733.518275768        1388693246.4273944     
   766437050.05327606        34697250.323914111        1381897352.4463272     
   681999028.75474000        32346100.210099787        1381671670.2320700     
   597401207.38035440        29462283.176777035        1388016199.7846222     
   741822879.53799331        42519271.729165494        1480050804.6848395     
   674440861.56198251        36046892.598365724        1466957204.5871010     
   607524116.69812918        31125423.841425002        1461364448.1284049     
   541072644.94644213        27754865.458368301        1463272535.3087640     
   475086446.30692011        25935217.449201271        1472681466.1281734     
   1021800198.0027789        57279892.580187440        1125778961.9974093     
   910070530.63940263        53860498.246707201        1124068602.5545118     
   796450183.86591542        44138839.212859958        1128132113.5571346     
   680939157.68231463        28114915.478632778        1137969495.0052783     
   563537452.08861649        5788727.0440701246        1153580746.8989453     
   870758083.22828472        45134620.742278725        1214564947.7192423     
   774029192.05718613        42427674.182349026        1213830506.2856688     
   675266877.54876494        32942649.831357718        1218696841.9913502     
   574471139.70301235        16679547.689255148        1229163954.8362939     
   471641978.51994318       -6361632.2439031005        1245231844.8204944     
   729291753.02081394        35862084.274486989        1301977360.3149796     
   647069085.73837960        33719219.797032118        1302052302.3089800     
   562670251.19140923        24322464.437781394        1307554928.1359720     
   476095249.37990403        7671818.1967492104        1318485237.7959607     
   387344080.30385745       -16232718.926086709        1334843231.2889414     
   597401207.38035440        29462283.176777035        1388016199.7846222     
   529190211.68298692        27735135.090733528        1388733990.6244452     
   458660304.79385912        18278283.032156333        1394706371.9909999     
   385811486.71297812        1091727.0010711998        1405933343.8842821     
   310643757.44035012       -23824533.002510101        1422414906.3042984     
   475086446.30692011        25935217.449201271        1472681466.1281734     
   420392569.89099610        24475420.063442156        1473875571.2320673     
   363237038.35610604        14810105.614468724        1480151173.5564291     
   303619851.70225060       -3060725.8977226764        1491508273.1012535     
   241541009.92942765       -29137074.473144695        1507946869.8665533     
   563537452.08861649        5788727.0440701246        1153580746.8989453     
   465266086.82305110       -31950713.339788586        1162494575.8953180     
   354938793.90315247       -109876579.23810261        1179081890.7302589     
   232555573.32892561       -227988870.65084136        1203342691.4037402     
   98116425.100360513       -386287587.57803524        1235276977.9157770     
   471641978.51994318       -6361632.2439031005        1245231844.8204944     
   392769370.33877468       -40731288.218792692        1243235793.8152971     
   303722201.79672146       -109016145.39662020        1247710735.2497783     
   204500472.89377841       -211216203.77741966        1258656669.1239369     
   95104183.629942700       -347331463.36119443        1276073595.4377894     
   387344080.30385745       -16232718.926086709        1334843231.2889414     
   324434533.78173852       -48263299.119584709        1324132228.7911825     
   253231794.19217503       -107937856.20457742        1318689725.3342352     
   173735861.53516722       -195256390.18104345        1318515720.9180965     
   85946735.810713992       -310218901.04899698        1323610215.5427659     
   310643757.44035012       -23824533.002510101        1422414906.3042984     
   260261577.15193942       -54546746.042218983        1405183880.8229959     
   203467571.08951986       -106641711.66195142        1392018860.9836273     
   140261739.25309393       -180109429.86170939        1382919846.7861962     
   70644081.642668054       -274949900.64146459        1377886838.2307041     
   241541009.92942765       -29137074.473144695        1507946869.8665533     
   200250500.44936353       -59581628.986706227        1486390749.9107196     
   154429532.48874888       -105127711.76876682        1467698142.1979501     
   104078106.04756187       -165775322.81940466        1451869046.7282500     
   49196221.125823215       -241524462.13854522        1438903463.5016139     
   98116425.100360513       -386287587.57803524        1235276977.9157770     
   84101816.891201824       -545886203.40517271        1196902836.6959097     
   57465821.453446269       -747556109.99428308        1155059186.6908236     
   18208438.787091911       -991297307.34539783        1109746027.9005203     
  -33670331.107853234       -1277109795.4584823        1060963360.3250163     
   95104183.629942700       -347331463.36119443        1276073595.4377894     
   78748401.281370729       -488268936.19034666        1221947024.2009978     
   50984081.280518860       -667234867.86043191        1165182640.9503365     
   11811223.627393067       -884229258.37144578        1105780445.6858177     
  -38770171.678011656       -1139252107.7233644        1043740438.4074204     
   85946735.810713992       -310218901.04899698        1323610215.5427659     
   69626055.812291890       -431782347.93331170        1255146205.4614275     
   43109687.737912089       -587331421.73748958        1184876080.1375754     
   6397631.5875799358       -776866122.46151769        1112799839.5711987     
  -40510112.638716459       -1000386450.1054101        1038917483.7623028     
   70644081.642668054       -274949900.64146459        1377886838.2307041     
   56734780.483963519       -376426438.63406318        1296500380.4771972     
   33842640.825617254       -507845771.62546444        1214139504.2525096     
   1967662.6676428914       -669207899.61563849        1130804209.5566602     
  -38890153.989981502       -860512822.60462403        1046494496.3896419     
   49196221.125823215       -241524462.13854522        1438903463.5016139     
   40074575.296405584       -322201208.29254359        1346009549.2483041     
   23182940.543650806       -428777917.52432412        1252972913.2951643     
  -1478683.1324112713       -561254589.83379710        1159793555.6422057     
  -33910295.731791079       -719631225.22100139        1066471476.2894297     
   1580191115.7351840        169560419.73400676        1398344490.3170025     
   1535356556.4747875        154026704.20809788        1430600782.9071591     
   1489281209.6545036        134357030.14923060        1460493915.0886829     
   1441965075.2743318        110551397.55740541        1488023886.8615673     
   1393408153.3342724        82609806.432620227        1513190698.2258136     
   1234965745.5752630        134563122.50149634        1430886361.1548688     
   1190329497.1079481        123659662.79537889        1450365437.2220442     
   1144306350.8013866        108133210.29177231        1471291699.8879721     
   1096896306.6555789        87983764.990682364        1493665149.1526489     
   1048099364.6705252        63211326.892104030        1517485785.0160716     
   852170165.29006195        88294762.231398553        1465271448.5974422     
   818618933.35121536        85287570.065683544        1471802846.1490521     
   783534693.29376423        77170350.837954164        1483591777.3067975     
   746917445.11771214        63943104.548220217        1500638242.0706780     
   708767188.82305551        45605831.196472764        1522942240.4406900     
   431804374.87958181        30755338.923718691        1501499752.6447151     
   420224865.20459276        38910426.019022897        1494913009.6881742     
   406966237.13164347        41468451.787793964        1497394147.3451550     
   392028490.66073370        38429416.230028704        1508943165.6156542     
   375411625.79186296        29793319.345727190        1529560064.4996786     
  -26131625.656177867       -38055147.421545006        1539571273.2966876     
  -4852707.3319193497       -15471769.344601264        1519695927.8394125     
   14600982.315019200        1027513.1412752159        1512698810.0030468     
   32229443.284642491        11442700.036099795        1518579919.7875857     
   48032675.576946132        15773791.339860955        1537339257.1930335     
   1393408153.3342724        82609806.432620227        1513190698.2258136     
   1336520890.4822788        55363044.315560520        1500470120.5307570     
   1282980303.9470925        39271869.921193004        1489168736.5711057     
   1232786393.7287030        34336283.249480247        1479286546.3468566     
   1185939159.8271201        40556284.300458968        1470823549.8580110     
   1048099364.6705252        63211326.892104030        1517485785.0160716     
   996471646.46890020        39616550.427482545        1510580173.2983181     
   947567240.06185806        25099479.944808066        1505458405.5025797     
   901386145.44940209        19660115.444084227        1502120481.6288469     
   857928362.63152778        23298456.925299942        1500566401.6771243     
   708767188.82305551        45605831.196472764        1522942240.4406900     
   663440872.94780731        25975597.687082738        1521124336.0909944     
   620214504.34492970        13345188.418927878        1521454925.8499107     
   579088083.01441157        7714603.3919711709        1523934009.7174392     
   540061608.95626175        9083842.6062421501        1528561587.6935813     
   375411625.79186296        29793319.345727190        1529560064.4996786     
   337428569.91900814        14440186.094384775        1532102608.9087808     
   300922096.79629964        4008995.3435307145        1537158297.6130991     
   265892206.42373571       -1500252.9068407416        1544727130.6126330     
   232338898.80131930       -2087558.6567236185        1554809107.9073873     
   48032675.576946132        15773791.339860955        1537339257.1930335     
   18434737.382491987        5010315.6493550930        1543514991.7516766     
  -10309982.584029455       -2909099.2813761500        1552568520.7921429     
  -38201484.322628371       -7984453.4523657998        1564499844.3144295     
  -65239767.833296478       -10215746.863584729        1579308962.3185370     
   1185939159.8271201        40556284.300458968        1470823549.8580110     
   1095733083.5394931        37501455.225068748        1416635653.3534439     
   1004641532.6423855        31495044.118074775        1376058757.8075905     
   912664507.13580716        22537050.979512274        1349092863.2204580     
   819802007.01974964        10627475.809352487        1335737969.5920470     
   857928362.63152778        23298456.925299942        1500566401.6771243     
   803056052.86559629        26150998.473671615        1448135914.6151698     
   747200139.97644854        25724862.944654346        1407911007.6210847     
   690360623.96408129        22020050.338239342        1379891680.6948693     
   632537504.82849813        15036560.654438078        1364077933.8365233     
   540061608.95626175        9083842.6062421501        1528561587.6935813     
   516507577.45245731        16639108.300516814        1477774026.8082125     
   491871814.31168985        20588601.871579856        1437786625.0998638     
   466154319.53396577        20932323.319455951        1408599382.5685339     
   439355093.11927921        17670272.644123495        1390212299.2142262     
   232338898.80131930       -2087558.6567236185        1554809107.9073873     
   236087657.30006549        8965784.7055686861        1505549989.9325700     
   238656555.64811492        16086260.898870960        1465685610.2439222     
   240045593.84545913        19273869.923155323        1435215968.8414445     
   240254771.89210114        18528611.778432809        1414141065.7251356     
  -65239767.833296478       -10215746.863584729        1579308962.3185370     
  -38203707.591566883        3131027.6888700593        1531463803.9882405     
  -12445636.014281381        12217840.026509788        1491607963.0532641     
   12034446.898558253        17044690.149329975        1459741439.5136070     
   35236541.146952733        17611578.057334363        1435864233.3692658     
   819802007.01974964        10627475.809352487        1335737969.5920470     
   800501274.42109418        19247255.695252568        1373116253.5204198     
   781071175.64125109        27435814.977193505        1409627820.6786749     
   761511710.68021262        35193153.655147642        1445272671.0668168     
   741822879.53799331        42519271.729165494        1480050804.6848395     
   632537504.82849813        15036560.654438078        1364077933.8365233     
   610470897.14496160        17513124.290004969        1399907736.3457994     
   588552573.82669365        20483969.143130362        1435894324.6945927     
   566782534.87367880        23949095.213770211        1472037698.8828914     
   545160780.28593075        27908502.501963854        1508337858.9107137     
   439355093.11927921        17670272.644123495        1390212299.2142262     
   417446903.52123928        14880907.980497062        1424817545.9419253     
   395964648.83490700        13511326.355895951        1460603081.1187668     
   374908329.06028688        13561527.770335495        1497568904.7447546     
   354277944.19737554        15031512.223804444        1535715016.8198862     
   240254771.89210114        18528611.778432809        1414141065.7251356     
   221429293.54992035        11350606.766705193        1447845682.3087888     
   203307400.66589960        6517886.6155098975        1483754089.9512126     
   185889093.24003536        4030451.3248361722        1521866288.6524062     
   169174371.27233031        3888300.8946930394        1562182278.4123750     
   35236541.146952733        17611578.057334363        1435864233.3692658     
   22418067.231005527        6922220.6486345613        1468992145.4463944     
   10580829.319657825       -496350.07806896558        1505347351.1919186     
  -275172.58707124507       -4644134.1227086550        1544929850.6058474     
  -10149938.489200626       -5521131.4853507644        1587739643.6881762     
   741822879.53799331        42519271.729165494        1480050804.6848395     
   674440861.56198251        36046892.598365724        1466957204.5871010     
   607524116.69812918        31125423.841425002        1461364448.1284049     
   541072644.94644213        27754865.458368301        1463272535.3087640     
   475086446.30692011        25935217.449201271        1472681466.1281734     
   545160780.28593075        27908502.501963854        1508337858.9107137     
   497655025.65509295        24681474.262403369        1497443922.2154176     
   450382589.61624944        22232174.662823722        1493589648.0947640     
   403343472.16940200        20560603.703233987        1496775036.5487494     
   356537673.31455237        19666761.383634001        1507000087.5773823     
   354277944.19737554        15031512.223804444        1535715016.8198862     
   325330792.72768319        14654536.820274979        1526750129.9201837     
   296385005.32982093        14282108.322844520        1524363724.5307105     
   267440582.00378719        13914226.731510550        1528555800.6514716     
   238497522.74958822        13550892.046291128        1539326358.2824640     
   169174371.27233031        3888300.8946930394        1562182278.4123750     
   157468162.77975518        5966080.2719827741        1554875827.7013996     
   145531363.83884907        7275224.8215023279        1553686677.4362478     
   133363974.44960165        7815734.5432175770        1558614827.6169193     
   120965994.61202434        7587609.4371666908        1569660278.2434113     
  -10149938.489200626       -5521131.4853507644        1587739643.6881762     
  -5932864.1886822209       -1383895.3824389274        1581821015.5590680     
  -2178334.8566627521        1211524.1588097936        1581558506.8113787     
   1113649.5068491809        2265127.1383674215        1586952117.4450963     
   3943088.9018651070        1776913.5562703055        1598001847.4602337     
   475086446.30692011        25935217.449201271        1472681466.1281734     
   420392569.89099610        24475420.063442156        1473875571.2320673     
   363237038.35610604        14810105.614468724        1480151173.5564291     
   303619851.70225060       -3060725.8977226764        1491508273.1012535     
   241541009.92942765       -29137074.473144695        1507946869.8665533     
   356537673.31455237        19666761.383634001        1507000087.5773823     
   315026773.63054872        18016681.802468657        1505909166.2268453     
   271736594.68674397        10435671.355300948        1509921410.2639480     
   226667136.48316038       -3076269.9577975273        1519036819.6886969     
   179818399.01976800       -22519142.136923984        1533255394.5010858     
   238497522.74958822        13550892.046291128        1539326358.2824640     
   210231508.84657508        11729102.984427266        1536746515.6465287     
   180868591.54293951        6250969.2538212761        1539291506.5654135     
   150408770.83868486       -2883509.1455143988        1546961331.0391185     
   118852046.73380512       -15674332.213600889        1559755989.0676427     
   120965994.61202434        7587609.4371666908        1569660278.2434113     
   106006775.53907356        5612683.6093191765        1566387619.4911194     
   90633028.924677834        2255999.3099873587        1568261462.4608142     
   74844754.768838674       -2482443.4608225860        1575281807.1525116     
   58641953.071540423       -8602644.7031616867        1587448653.5661955     
   3943088.9018651070        1776913.5562703055        1598001847.4602337     
   2352573.7080577407       -332576.32281654910        1594832477.7606103     
   1029906.8319735947       -1549238.4761593351        1596831277.9501584     
  -24911.726387993898       -1873072.9037599175        1603998248.0288746     
  -811881.96702503541       -1304079.6056127029        1616333387.9967635     
   241541009.92942765       -29137074.473144695        1507946869.8665533     
   200250500.44936353       -59581628.986706227        1486390749.9107196     
   154429532.48874888       -105127711.76876682        1467698142.1979501     
   104078106.04756187       -165775322.81940466        1451869046.7282500     
   49196221.125823215       -241524462.13854522        1438903463.5016139     
   179818399.01976800       -22519142.136923984        1533255394.5010858     
   148451730.87272790       -45221220.584081464        1507379164.2174027     
   113653027.43847364       -79363416.655286103        1484486420.5468915     
   75422288.717022792       -124945730.35047811        1464577163.4895434     
   33759514.708361156       -181968161.66970882        1447651393.0453546     
   118852046.73380512       -15674332.213600889        1559755989.0676427     
   97752003.834360853       -30531099.419999421        1530841142.1816809     
   74318348.841063797       -53166573.605905779        1505029756.2789896     
   48551081.753912568       -83580754.771329582        1482321831.3595707     
   20450202.572903171       -121773642.91627783        1462717367.4234173     
   58641953.071540423       -8602644.7031616867        1587448653.5661955     
   48151319.334269002       -15511265.494433157        1556776683.8035433     
   36425496.696503706       -26537182.620683879        1529328149.3942618     
   23464485.158232212       -41680396.081955411        1505103050.3383570     
   9268284.7194567993       -60940905.878240012        1484101386.6358228     
  -811881.96702503541       -1304079.6056127029        1616333387.9967635     
  -350322.62753875594       -161718.80735835715        1585185789.0830023     
  -25528.995209558780        524756.30037376913        1557381599.8927059     
   162498.92999094469        755345.71767587529        1532920820.4258852     
   213761.14802224192        530049.44441465475        1511803450.6825430     
   49196221.125823215       -241524462.13854522        1438903463.5016139     
   40074575.296405584       -322201208.29254359        1346009549.2483041     
   23182940.543650806       -428777917.52432412        1252972913.2951643     
  -1478683.1324112713       -561254589.83379710        1159793555.6422057     
  -33910295.731791079       -719631225.22100139        1066471476.2894297     
   33759514.708361156       -181968161.66970882        1447651393.0453546     
   29689807.702465430       -241726958.90659347        1347253649.4322934     
   19811947.400161818       -320846267.13150585        1246057515.3255048     
   4125933.8014652431       -419326086.34439814        1144062990.7249975     
  -17368233.093654662       -537166416.54536271        1041270075.6307667     
   20450202.572903171       -121773642.91627783        1462717367.4234173     
   19559094.979405634       -161176493.05935919        1357104602.6820042     
   14821669.716410100       -213400402.10076797        1250037778.6529675     
   6237926.7839288116       -278445370.04046005        1141516895.3363118     
  -6192133.8180497736       -356311396.87848347        1031541952.7320436     
   9268284.7194567993       -60940905.878240012        1484101386.6358228     
   9682437.1272201352       -80549810.750859305        1375562408.9974427     
   8212107.4923993126       -106440322.43209367        1264913703.2775617     
   4857295.8149971440       -138612440.92193535        1152155269.4761438     
  -381997.90498468280       -177066166.22036621        1037287107.5932348     
   213761.14802224192        530049.44441465475        1511803450.6825430     
   59834.145912105727        153088.01891714404        1402627068.3786170     
  -16739.271882077341        33971.874472810567        1290685289.1992807     
  -15959.105326726043        172701.01119497939        1175978113.1445143     
   62174.645551624068        569275.42899242311        1058505540.2143503     
  -26131625.656177867       -38055147.421545006        1539571273.2966876     
  -4852707.3319193497       -15471769.344601264        1519695927.8394125     
   14600982.315019200        1027513.1412752159        1512698810.0030468     
   32229443.284642491        11442700.036099795        1518579919.7875857     
   48032675.576946132        15773791.339860955        1537339257.1930335     
  -465854634.44817007       -54052822.004627526        1511198043.1809349     
  -418870406.22332752       -33368830.265419334        1501847271.7314632     
  -372932397.15292478       -16172235.707675025        1499829907.8933189     
  -328040607.23695326       -2463038.3313689381        1505145951.6664989     
  -284195036.47541881        7758761.8634795249        1517795403.0510077     
  -862800513.96078694       -57217357.803894073        1478673860.3404582     
  -805953318.71987796       -43185455.267785907        1480756507.3421488     
  -749373333.11052179       -30044251.503520787        1484627741.9455898     
  -693060557.13271785       -17793746.511096537        1490287564.1507773     
  -637014990.78646672       -6433940.2905151248        1497735973.9577110     
  -1216969264.1940322       -47548754.819350064        1441998724.7752526     
  -1166101444.8215680       -44921644.351694822        1456423634.6714728     
  -1114721825.5577745       -40588534.246268451        1467092312.1598601     
  -1062830406.4026488       -34549424.503071606        1474004757.2404175     
  -1010427187.3561921       -26804315.122107208        1477160969.9131391     
  -1528360885.1479020       -25047013.050994873        1401172636.4853210     
  -1499314784.5283980       -38577397.517142296        1428848653.7194343     
  -1468977874.4946773       -47805083.935904443        1447223618.5361342     
  -1437350155.0467451       -52730072.307295382        1456297530.9354212     
  -1404431626.1846011       -53352362.631311059        1456070390.9172988     
   48032675.576946132        15773791.339860955        1537339257.1930335     
   18434737.382491987        5010315.6493550930        1543514991.7516766     
  -10309982.584029455       -2909099.2813761500        1552568520.7921429     
  -38201484.322628371       -7984453.4523657998        1564499844.3144295     
  -65239767.833296478       -10215746.863584729        1579308962.3185370     
  -284195036.47541881        7758761.8634795249        1517795403.0510077     
  -302323113.16854048       -1603375.6584692150        1518862377.5425289     
  -320058933.44155622       -9657991.7800670415        1525551142.2066677     
  -337402497.29446703       -16405086.501314282        1537861697.0434158     
  -354353804.72726840       -21844659.822196186        1555794042.0527799     
  -637014990.78646672       -6433940.2905151248        1497735973.9577110     
  -635833218.29027462       -12042743.337504059        1493156399.6063161     
  -634720151.18180287       -17880564.343560576        1496942611.1183281     
  -633675789.46104884       -23947403.308675677        1509094608.4937482     
  -632700133.12801242       -30243260.232849300        1529612391.7325716     
  -1010427187.3561921       -26804315.122107208        1477160969.9131391     
  -982095577.98271227       -26307787.387753248        1466397057.9430380     
  -954293635.80477583       -27576816.971880317        1466742927.5271332     
  -927021360.82237685       -30611403.874462664        1478198578.6654272     
  -900278753.03552175       -35411548.095526993        1500764011.3579211     
  -1404431626.1846011       -53352362.631311059        1456070390.9172988     
  -1341110192.2458508       -44398507.809207678        1438584352.5526922     
  -1278779387.3104718       -38746749.665011227        1434952091.4330764     
  -1217439211.3784528       -36397088.198680043        1445173607.5584521     
  -1157089664.4497995       -37349523.410235226        1469248900.9288156     
  -65239767.833296478       -10215746.863584729        1579308962.3185370     
  -38203707.591566883        3131027.6888700593        1531463803.9882405     
  -12445636.014281381        12217840.026509788        1491607963.0532641     
   12034446.898558253        17044690.149329975        1459741439.5136070     
   35236541.146952733        17611578.057334363        1435864233.3692658     
  -354353804.72726840       -21844659.822196186        1555794042.0527799     
  -308312241.00844795       -8926832.8389380574        1509905388.0157993     
  -263019281.64908004        1495646.2794764042        1470746022.5433855     
  -218474926.64916128        9422777.5330609083        1438315945.6355374     
  -174679176.00869790        14854560.921793796        1412615157.2922540     
  -632700133.12801242       -30243260.232849300        1529612391.7325716     
  -571253148.30568206       -18834405.530866206        1486297857.0113993     
  -510025383.53780770       -8156284.3437361121        1448452582.0240390     
  -449016838.82439446        1791103.3285243511        1416076566.7704949     
  -388227514.16543818        11007757.485927999        1389169811.2507591     
  -900278753.03552175       -35411548.095526993        1500764011.3579211     
  -827026429.48326302       -26591690.386894703        1460641210.9750450     
  -753463941.68046343       -16737951.843123466        1424727641.4952328     
  -679591289.62713850       -5850332.4642688334        1393023302.9184799     
  -605408473.32327008        6071167.7497305274        1365528195.2447832     
  -1157089664.4497995       -37349523.410235226        1469248900.9288156     
  -1075632084.5411906       -32198687.407018840        1432935449.9067364     
  -993334956.07704973       -24249356.218696654        1399571200.9569604     
  -910198279.05738676       -13501529.845298171        1369156154.0794928     
  -826222053.48219073        44791.713206470013        1341690309.2743323     
   35236541.146952733        17611578.057334363        1435864233.3692658     
   22418067.231005527        6922220.6486345613        1468992145.4463944     
   10580829.319657825       -496350.07806896558        1505347351.1919186     
  -275172.58707124507       -4644134.1227086550        1544929850.6058474     
  -10149938.489200626       -5521131.4853507644        1587739643.6881762     
  -174679176.00869790        14854560.921793796        1412615157.2922540     
  -178556794.59455121        5646184.0189931169        1445391282.5327063     
  -181908764.55083913       -1810030.7852599621        1481475930.3957779     
  -184735085.87755528       -7514083.4909369349        1520869100.8814688     
  -187035758.57470611       -11465974.098066352        1563570793.9897740     
  -388227514.16543818        11007757.485927999        1389169811.2507591     
  -382932194.69486374        3349985.9069282860        1421062631.0503287     
  -377566813.96976405       -4074248.1569864452        1456345202.4267354     
  -372131371.99013323       -11264944.705796823        1495017525.3799744     
  -366625868.75597173       -18222103.739506647        1537079599.9100463     
  -605408473.32327008        6071167.7497305274        1365528195.2447832     
  -590708133.06993616        33626.312430471182        1396006190.9992602     
  -576393318.93711770       -7289002.1932512820        1429955167.2847817     
  -562464030.92479777       -15896717.767264336        1467375124.1013572     
  -548920269.03299820       -25789520.409676820        1508266061.4489865     
  -826222053.48219073        44791.713206470013        1341690309.2743323     
  -801884609.71976399       -4302894.7644873261        1370221962.3794959     
  -778388279.45288861       -11454292.894019693        1402305824.9699275     
  -755733062.68156362       -21409402.675385088        1437941897.0456278     
  -733918959.40578341       -34168224.108568043        1477130178.6065910     
  -10149938.489200626       -5521131.4853507644        1587739643.6881762     
  -5932864.1886822209       -1383895.3824389274        1581821015.5590680     
  -2178334.8566627521        1211524.1588097936        1581558506.8113787     
   1113649.5068491809        2265127.1383674215        1586952117.4450963     
   3943088.9018651070        1776913.5562703055        1598001847.4602337     
  -187035758.57470611       -11465974.098066352        1563570793.9897740     
  -168411349.85056394       -8706555.8291307390        1556340200.3046200     
  -150026578.03092265       -6745927.2418641075        1554854010.1409879     
  -131881443.11579210       -5584088.3363014683        1559112223.4988804     
  -113975945.10516495       -5221039.1124144010        1569114840.3782978     
  -366625868.75597173       -18222103.739506647        1537079599.9100463     
  -333341885.20789415       -16764831.184455410        1528797100.0768375     
  -300074630.50032306       -15363321.431092650        1526347287.9052608     
  -266824104.63326198       -14017574.479432061        1529730163.3953145     
  -233590307.60670766       -12727590.329456240        1538945726.5470028     
  -548920269.03299820       -25789520.409676820        1508266061.4489865     
  -500724470.26067078       -25558721.448411584        1499191714.8757207     
  -452322492.26485515       -24640658.408851117        1496038340.1041987     
  -403714335.04555184       -23035331.290998742        1498805937.1344109     
  -354899998.60276037       -20742740.094852731        1507494505.9663734     
  -733918959.40578341       -34168224.108568043        1477130178.6065910     
  -670559105.00889671       -35088226.621002436        1467524044.7012682     
  -606770163.32452476       -34577938.175154179        1463927166.7377927     
  -542552134.35266662       -32637358.771018773        1466339544.7161694     
  -477905018.09332252       -29266488.408595413        1474761178.6363959     
   3943088.9018651070        1776913.5562703055        1598001847.4602337     
   2352573.7080577407       -332576.32281654910        1594832477.7606103     
   1029906.8319735947       -1549238.4761593351        1596831277.9501584     
  -24911.726387993898       -1873072.9037599175        1603998248.0288746     
  -811881.96702503541       -1304079.6056127029        1616333387.9967635     
  -113975945.10516495       -5221039.1124144010        1569114840.3782978     
  -101540538.85458590       -5772300.8345775232        1565974264.8547513     
  -88386341.909193456       -3927593.5740286000        1568095098.6707366     
  -74513354.268993184        313082.66921444610        1575477341.8262482     
  -59921575.933982626        6949727.8951577768        1588120994.3212879     
  -233590307.60670766       -12727590.329456240        1538945726.5470028     
  -206862581.48214680       -11640704.365813673        1536360044.6394751     
  -178965122.28568524       -6654708.1625019535        1539129011.5218346     
  -149897930.01733047        2230398.2804558650        1547252627.1940780     
  -119661004.67707393        15014614.963084802        1560730891.6562109     
  -354899998.60276037       -20742740.094852731        1507494505.9663734     
  -313613554.17461926       -17937786.916509941        1505989817.1147940     
  -270706434.29749167       -9730582.2415497154        1509933016.5034566     
  -226178638.97139344        3878873.9299795628        1519324104.1323657     
  -180030168.19629794        22890581.598170355        1534163080.0015213     
  -477905018.09332252       -29266488.408595413        1474761178.6363959     
  -421793456.93201673       -24663548.486713737        1474863582.2806962     
  -363610277.94462907       -13155215.811225057        1480507113.6156034     
  -303355481.13118011        5258509.6178007275        1491691772.6411095     
  -241029066.49165428        30577627.800416201        1508417559.3572216     
  -811881.96702503541       -1304079.6056127029        1616333387.9967635     
  -350322.62753875594       -161718.80735835715        1585185789.0830023     
  -25528.995209558780        524756.30037376913        1557381599.8927059     
   162498.92999094469        755345.71767587529        1532920820.4258852     
   213761.14802224192        530049.44441465475        1511803450.6825430     
  -59921575.933982626        6949727.8951577768        1588120994.3212879     
  -48789395.582834430        15269737.949242700        1557233031.0438979     
  -36581778.966111995        27174535.555240065        1529553447.4545012     
  -23298726.083792392        42664120.713229194        1505082243.5531015     
  -8940236.9358829558        61738493.423183724        1483819419.3396995     
  -119661004.67707393        15014614.963084802        1560730891.6562109     
  -98244003.415629059        30396534.242579080        1531516799.6500463     
  -74539363.915866792        53403914.316463143        1505376057.2964053     
  -48547086.177780986        84036755.184760690        1482308664.5952864     
  -20267170.201370716        122295056.84747139        1462314621.5466805     
  -180030168.19629794        22890581.598170355        1534163080.0015213     
  -148714146.12591606        45218670.072675250        1508037094.9014466     
  -113898283.84448558        79212892.584007457        1484849429.4184084     
  -75582581.351993680        124873249.13221174        1464600083.5524178     
  -33767038.648442410        182199739.71728051        1447289057.3034744     
  -241029066.49165428        30577627.800416201        1508417559.3572216     
  -200199823.71369803        59736145.439522922        1486793916.7980843     
  -154658538.75194919        104601470.35793328        1467973563.8205178     
  -104405211.60642600        165173602.55559230        1451956500.4245174     
  -49439842.277094588        241452542.03261551        1438742726.6100838     
   213761.14802224192        530049.44441465475        1511803450.6825430     
   59834.145912105727        153088.01891714404        1402627068.3786170     
  -16739.271882077341        33971.874472810567        1290685289.1992807     
  -15959.105326726043        172701.01119497939        1175978113.1445143     
   62174.645551624068        569275.42899242311        1058505540.2143503     
  -8940236.9358829558        61738493.423183724        1483819419.3396995     
  -9551673.6854739599        80947817.921105504        1375408974.0205145     
  -8188483.2563238144        106739233.01483248        1264892082.8655844     
  -4850665.6484350488        139112738.70435315        1152268745.8749089     
   461779.13818731159        178068334.98965177        1037538963.0484924     
  -20267170.201370716        122295056.84747139        1462314621.5466805     
  -19453399.442228630        161655482.44572324        1356883599.0723729     
  -14767727.909949094        213922243.95443043        1250005081.8019907     
  -6210155.6045236588        279095341.37362057        1141679069.7355428     
   6219317.4740393013        357174774.70327598        1031905562.8730042     
  -33767038.648442410        182199739.71728051        1447289057.3034744     
  -29645343.124369487        242276081.59271181        1347050943.5341799     
  -19754473.232762024        321583004.69325542        1246024286.0084858     
  -4094428.9735997021        420120509.01898336        1144209084.7263784     
   17334789.653108895        537888594.56986547        1041605339.6878754     
  -49439842.277094588        241452542.03261551        1438742726.6100838     
  -40127504.731891856        322809615.36208594        1345911007.4059465     
  -23148719.224747777        429721515.23135859        1252949695.4850667     
   1496514.2443498969        562188241.64047801        1159858790.8474562     
   33808195.675394475        720209794.58941984        1066638293.4931111     
  -1528360885.1479020       -25047013.050994873        1401172636.4853210     
  -1499314784.5283980       -38577397.517142296        1428848653.7194343     
  -1468977874.4946773       -47805083.935904443        1447223618.5361342     
  -1437350155.0467451       -52730072.307295382        1456297530.9354212     
  -1404431626.1846011       -53352362.631311059        1456070390.9172988     
  -1832742639.4645081        6453075.4056606293        1336646362.4895473     
  -1822324889.6752563       -12731254.750393748        1356673640.7691166     
  -1811108385.3844705       -29253069.901334524        1372977227.5251155     
  -1799093126.5921514       -43112370.047160029        1385557122.7575388     
  -1786279113.2982948       -54309155.187867165        1394413326.4663882     
  -2170428198.5972557        27962022.417473555        1272381951.1258504     
  -2162703482.7987194        7904341.6233685017        1284186426.3860843     
  -2154672067.4113250       -11131007.207879663        1297844571.0165858     
  -2146333952.4350765       -29144024.076276898        1313356385.0173552     
  -2137689137.8699687       -46134708.981815815        1330721868.3883870     
  -2541417562.5461354        39479827.984448671        1208379402.3942263     
  -2520450563.8987737        23329391.604155898        1211387010.5703356     
  -2499668920.5752358        6561104.1444599628        1221825649.0105512     
  -2479072632.5755210       -10825034.394646049        1239695317.7148695     
  -2458661699.8996243       -28829024.013159752        1264996016.6832967     
  -2945710731.3111577        41006492.106577754        1144638716.2946792     
  -2895566132.9754333        33543895.191961527        1138275393.3218708     
  -2846098944.8762093        23823264.155673265        1144920461.5070081     
  -2797309167.0134859        11844598.997721672        1164573920.8500872     
  -2749196799.3872633       -2392100.2819019556        1197235771.3511097     
  -1404431626.1846011       -53352362.631311059        1456070390.9172988     
  -1341110192.2458508       -44398507.809207678        1438584352.5526922     
  -1278779387.3104718       -38746749.665011227        1434952091.4330764     
  -1217439211.3784528       -36397088.198680043        1445173607.5584521     
  -1157089664.4497995       -37349523.410235226        1469248900.9288156     
  -1786279113.2982948       -54309155.187867165        1394413326.4663882     
  -1692446649.3927088       -41760199.231467068        1383787702.4481792     
  -1599782034.9906926       -33104074.953633010        1381948685.5130894     
  -1508285270.0922427       -28340782.354355812        1388896275.6611249     
  -1417956354.6973591       -27470321.433632731        1404630472.8922801     
  -2137689137.8699687       -46134708.981815815        1330721868.3883870     
  -2027823273.0314543       -34333940.601283669        1326749901.4663358     
  -1919302478.1967123       -27016738.900000811        1326497371.4655383     
  -1812126753.3657365       -24183103.877939343        1329964278.3859973     
  -1706296098.5385358       -25833035.535125375        1337150622.2277095     
  -2458661699.8996243       -28829024.013159752        1264996016.6832967     
  -2347240063.1620889       -22119731.918668270        1267470949.6071649     
  -2237340716.9285293       -20484741.504107952        1268598149.2904210     
  -2128963661.1989400       -23924052.769439220        1268377615.7330620     
  -2022108895.9733295       -32437665.714702964        1266809348.9350901     
  -2749196799.3872633       -2392100.2819019556        1197235771.3511097     
  -2650697019.7846146       -5117573.1836266518        1205950846.8706641     
  -2553896751.1861429       -13508082.765945554        1208251018.9877353     
  -2458795993.5918512       -27563629.028857589        1204136287.7023265     
  -2365394747.0017343       -47284211.972357512        1193606653.0144362     
  -1157089664.4497995       -37349523.410235226        1469248900.9288156     
  -1075632084.5411906       -32198687.407018840        1432935449.9067364     
  -993334956.07704973       -24249356.218696654        1399571200.9569604     
  -910198279.05738676       -13501529.845298171        1369156154.0794928     
  -826222053.48219073        44791.713206470013        1341690309.2743323     
  -1417956354.6973591       -27470321.433632731        1404630472.8922801     
  -1325995408.8473945       -25792892.605228961        1361485828.1893303     
  -1232657365.9524419       -19525140.293530822        1324273049.1785331     
  -1137942226.0124938       -8667064.4985143542        1292992135.8598897     
  -1041849989.0275581        6781334.7797940969        1267643088.2334003     
  -1706296098.5385358       -25833035.535125375        1337150622.2277095     
  -1595309890.6905093       -25072445.064526737        1287801923.7482572     
  -1482409037.3080256       -17929702.812409043        1247367754.5808108     
  -1367593538.3910892       -4404808.7787803411        1215848114.7253649     
  -1250863393.9396994        15502237.036359489        1193243004.1819210     
  -2022108895.9733295       -32437665.714702964        1266809348.9350901     
  -1883575530.0705242       -30037344.784883976        1211883736.5835185     
  -1742589970.1438067       -19463043.775353074        1168855317.1637933     
  -1599152216.1931701       -714762.68609368801        1137724090.6759191     
  -1453262268.2186208        26207498.482875884        1118490057.1198997     
  -2365394747.0017343       -47284211.972357512        1193606653.0144362     
  -2190792326.9874482       -40687591.766320467        1133731266.6951082     
  -2013200164.4597833       -24125163.182355165        1088735736.9274826     
  -1832618259.4187376        2403073.7795522213        1058620063.7115535     
  -1649046611.8643129        38897119.119381070        1043384247.0473263     
  -826222053.48219073        44791.713206470013        1341690309.2743323     
  -801884609.71976399       -4302894.7644873261        1370221962.3794959     
  -778388279.45288861       -11454292.894019693        1402305824.9699275     
  -755733062.68156362       -21409402.675385088        1437941897.0456278     
  -733918959.40578341       -34168224.108568043        1477130178.6065910     
  -1041849989.0275581        6781334.7797940969        1267643088.2334003     
  -1009389284.2738154        3282430.0902877450        1296724731.4864287     
  -978211947.53109312       -4494367.9692826271        1328306954.8348513     
  -948317978.79938793       -16549059.398909569        1362389758.2786629     
  -919707378.07869875       -32881644.198588371        1398973141.8178737     
  -1250863393.9396994        15502237.036359489        1193243004.1819210     
  -1213284083.5942848        11950717.515127301        1222358673.9814351     
  -1177430395.7753496        2647122.9056280851        1252923294.4864705     
  -1143302330.4828949       -12408546.792135775        1284936865.6970291     
  -1110899887.7169244       -33216291.578185320        1318399387.6131048     
  -1453262268.2186208        26207498.482875884        1118490057.1198997     
  -1413569007.6811607        21701967.510053337        1147123789.8645220     
  -1376043624.1856494        9970179.7307345271        1176154843.9247906     
  -1340686117.7320850       -8987864.8550717831        1205583219.3007121     
  -1307496488.3204691       -35172166.247376144        1235408915.9922798     
  -1649046611.8643129        38897119.119381070        1043384247.0473263     
  -1610244056.5344493        32536180.075052261        1071020079.1356786     
  -1574051632.7619979        17474802.506024778        1098001603.1498079     
  -1540469340.5469573       -6287013.5877112746        1124328819.0897157     
  -1509497179.8893366       -38749268.206177235        1150001726.9554007     
  -733918959.40578341       -34168224.108568043        1477130178.6065910     
  -670559105.00889671       -35088226.621002436        1467524044.7012682     
  -606770163.32452476       -34577938.175154179        1463927166.7377927     
  -542552134.35266662       -32637358.771018773        1466339544.7161694     
  -477905018.09332252       -29266488.408595413        1474761178.6363959     
  -919707378.07869875       -32881644.198588371        1398973141.8178737     
  -841452342.96832263       -35447223.715288222        1387950840.3829257     
  -762656571.73744476       -36210349.496982008        1382756862.8636351     
  -683320064.38605225       -35171021.543629527        1383391209.2600107     
  -603442820.91416359       -32329239.855284005        1389853879.5720496     
  -1110899887.7169244       -33216291.578185320        1318399387.6131048     
  -1018266620.5393127       -37582532.693039894        1306091175.6203866     
  -924980968.40817642       -39774157.296146691        1299430355.5171437     
  -831042931.32350898       -39791165.387481660        1298416927.3033772     
  -736452509.28531373       -37633556.967058659        1303050890.9790900     
  -1307496488.3204691       -35172166.247376144        1235408915.9922798     
  -1201001937.7218699       -41494153.554260075        1221945050.4136517     
  -1093743353.3367257       -45269361.572656631        1213947644.6983116     
  -985720735.16502810       -46497790.302545726        1211416698.8462670     
  -876934083.20678377       -45179439.743942618        1214352212.8575025     
  -1509497179.8893366       -38749268.206177235        1150001726.9554007     
  -1389658294.5159960       -47182086.298960865        1135512464.7627220     
  -1268943726.5230925       -52695962.326523483        1126308730.4071486     
  -1147353475.9106102       -55290896.288830042        1122390523.8886762     
  -1024887542.6785569       -54966888.185897529        1123757845.2073081     
  -477905018.09332252       -29266488.408595413        1474761178.6363959     
  -421793456.93201673       -24663548.486713737        1474863582.2806962     
  -363610277.94462907       -13155215.811225057        1480507113.6156034     
  -303355481.13118011        5258509.6178007275        1491691772.6411095     
  -241029066.49165428        30577627.800416201        1508417559.3572216     
  -603442820.91416359       -32329239.855284005        1389853879.5720496     
  -533169211.61713147       -28392608.622931451        1389746040.8879402     
  -460814839.67370194       -17520101.902592510        1395144721.2382913     
  -386379705.08389747        288280.30566696823        1406049920.6231065     
  -309863807.84769481        25032538.001917988        1422461639.0423930     
  -736452509.28531373       -37633556.967058659        1303050890.9790900     
  -652115733.72724497       -34392898.986653775        1302743478.9236035     
  -565689050.70246863       -24185882.783887237        1307907977.2464409     
  -477172460.21098971       -7012508.3587790728        1318544385.9475987     
  -386565962.25279969        17127224.288697124        1334652705.0270877     
  -876934083.20678377       -45179439.743942618        1214352212.8575025     
  -778633023.26236188       -42664419.577881217        1213855896.3876848     
  -678232911.03092146       -33152558.455091536        1218796881.6400447     
  -575733746.51244545       -16643856.375517637        1229175168.6145859     
  -471135529.70696169        6861686.6607507765        1244990757.3113084     
  -1024887542.6785569       -54966888.185897529        1123757845.2073081     
  -912721080.22247267       -53207170.396596938        1123083293.2801847     
  -798446420.65905213       -44420128.916172534        1127811434.4191036     
  -682063563.98828995       -28605763.744609445        1137942268.6240661     
  -563572510.21018314       -5764074.8819000423        1153475795.8950682     
  -241029066.49165428        30577627.800416201        1508417559.3572216     
  -200199823.71369803        59736145.439522922        1486793916.7980843     
  -154658538.75194919        104601470.35793328        1467973563.8205178     
  -104405211.60642600        165173602.55559230        1451956500.4245174     
  -49439842.277094588        241452542.03261551        1438742726.6100838     
  -309863807.84769481        25032538.001917988        1422461639.0423930     
  -259943068.13930160        54862119.769504160        1405259890.4062984     
  -203489549.54123273        106467631.16933005        1392093450.4131818     
  -140503252.05350211        179849072.20136493        1382962319.0630329     
  -70984175.676091015        275006442.86567432        1377866496.3558464     
  -386565962.25279969        17127224.288697124        1334652705.0270877     
  -324033671.15281504        48683886.523125708        1323997043.1375701     
  -253147864.45728412        108085600.74270894        1318608708.9524233     
  -173908542.16620040        195332366.94747066        1318487702.4716451     
  -86315704.279566020        310424185.13739616        1323634023.6952360     
  -471135529.70696169        6861686.6607507765        1244990757.3113084     
  -392471632.75424385        41201445.700372666        1243005374.9918938     
  -303633483.50010210        109455379.07807162        1247519339.4382505     
  -204621081.94453150        211623486.79386330        1258532650.6503770     
  -95434428.087531820        347705768.84776086        1276045308.6282713     
  -563572510.21018314       -5764074.8819000423        1153475795.8950682     
  -465256952.94359469        32414797.301233083        1162284885.9692798     
  -354946406.66970074        110576966.17537341        1178825341.8706603     
  -232640871.38848573        228722431.74058571        1203097163.5992076     
  -98340347.099971533        386851193.99680334        1235100351.1549265     
  -49439842.277094588        241452542.03261551        1438742726.6100838     
  -40127504.731891856        322809615.36208594        1345911007.4059465     
  -23148719.224747777        429721515.23135859        1252949695.4850667     
   1496514.2443498969        562188241.64047801        1159858790.8474562     
   33808195.675394475        720209794.58941984        1066638293.4931111     
  -70984175.676091015        275006442.86567432        1377866496.3558464     
  -56914250.648346722        376959036.32073212        1296465119.9059029     
  -33928773.831807286        508630135.73843497        1214100206.5149004     
  -2027745.2264844775        670019741.11874938        1130771756.1828401     
   38788835.167627513        861127852.46169364        1046479768.9097044     
  -86315704.279566020        310424185.13739616        1323634023.6952360     
  -69870889.553071767        432257489.38289058        1255120277.7974765     
  -43261419.210942209        587972979.01384699        1184809050.7343285     
  -6487293.2531804740        777570654.03023171        1112700342.5057995     
   40451488.320213795        1001050514.4320734        1038794153.1118721     
  -95434428.087531820        347705768.84776086        1276045308.6282713     
  -78997421.446067899        488704974.54859108        1221876481.0806730     
  -51146655.362135679        667750045.05764902        1165076228.1433599     
  -11882129.835720897        884840980.37498260        1105644549.8163357     
   38796155.133168280        1139977780.5005636        1043581446.0995889     
  -98340347.099971533        386851193.99680334        1235100351.1549265     
  -84293846.327344328        546301491.81778085        1196733729.7554793     
  -57584482.285384327        747961333.86985946        1154901738.7419899     
  -18212254.974115670        991830720.15296674        1109604378.1144562     
   33822835.606476128        1277909650.6671598        1060841647.8728890     
  -2945710731.3111577        41006492.106577754        1144638716.2946792     
  -2895566132.9754333        33543895.191961527        1138275393.3218708     
  -2846098944.8762093        23823264.155673265        1144920461.5070081     
  -2797309167.0134859        11844598.997721672        1164573920.8500872     
  -2749196799.3872633       -2392100.2819019556        1197235771.3511097     
  -3365284187.8562789        5103680.1681597233        1023920177.3176780     
  -3281778482.4175696        12249022.403156519        1022708554.4937837     
  -3200210351.6340618        12935782.454142332        1030779867.7104872     
  -3120579795.5057597        7163960.3211207390        1048134116.9677860     
  -3042886814.0326533       -5066443.9958999157        1074771302.2656832     
  -3760458114.2268877       -23479272.717904806        905705813.87416196     
  -3654235459.1633306       -4919238.5767457485        908175699.37736905     
  -3551210543.1736755        2981665.3180737495        916203065.80381906     
  -3451383366.2579193        223438.96655750275        929787913.15352178     
  -3354753928.4160738       -13193917.631311893        948930241.42647457     
  -4131232510.4229765       -44742366.551613808        789995625.96414506     
  -4012937063.2127051       -17960887.747724056        794676827.97262633     
  -3899099519.4950323       -6039087.2525148392        801190055.78701138     
  -3789719879.2699661       -8976965.0659768581        809535309.40729618     
  -3684798142.5375009       -26774521.188123465        819712588.83348739     
  -4477607376.4445534       -58685601.332967997        676789613.58761263     
  -4357883294.5656986       -26875925.109791279        682211940.27955425     
  -4243877280.5981474       -14126475.257629156        685740837.66005421     
  -4135589334.5418978       -20437251.776470184        687376305.72910726     
  -4033019456.3969564       -45808254.666343689        687118344.48671842     
  -2749196799.3872633       -2392100.2819019556        1197235771.3511097     
  -2650697019.7846146       -5117573.1836266518        1205950846.8706641     
  -2553896751.1861429       -13508082.765945554        1208251018.9877353     
  -2458795993.5918512       -27563629.028857589        1204136287.7023265     
  -2365394747.0017343       -47284211.972357512        1193606653.0144362     
  -3042886814.0326533       -5066443.9958999157        1074771302.2656832     
  -2961045192.9603534       -19472033.908245206        1077303589.4724162     
  -2879520795.5680685       -34935036.087308884        1076132223.5992000     
  -2798313621.8557963       -51455450.533077359        1071257204.6460299     
  -2717423671.8235421       -69033277.245579600        1062678532.6129160     
  -3354753928.4160738       -13193917.631311893        948930241.42647457     
  -3281824036.3811679       -36955695.706386328        946892408.86524355     
  -3207829080.7021213       -57167261.634306788        943862173.54659486     
  -3132769061.3789220       -73828615.415068269        939839535.47052634     
  -3056643978.4115791       -86939757.048668385        934824494.63703859     
  -3684798142.5375009       -26774521.188123465        819712588.83348739     
  -3613033550.0470572       -57568558.578059912        814717305.04914916     
  -3538821606.5882978       -80204759.406943560        811440868.82992518     
  -3462162312.1612291       -94683123.674805284        809883280.17580938     
  -3383055666.7658525       -101003651.38163078        810044539.08681083     
  -4033019456.3969564       -45808254.666343689        687118344.48671842     
  -3954673733.9580150       -81310622.523232698        680778278.02413046     
  -3872498373.2266021       -104047529.40522099        678868309.44918823     
  -3786493374.2027125       -114018975.31228876        681388438.76188517     
  -3696658736.8863544       -111224960.24445868        688338665.96222842     
  -2365394747.0017343       -47284211.972357512        1193606653.0144362     
  -2190792326.9874482       -40687591.766320467        1133731266.6951082     
  -2013200164.4597833       -24125163.182355165        1088735736.9274826     
  -1832618259.4187376        2403073.7795522213        1058620063.7115535     
  -1649046611.8643129        38897119.119381070        1043384247.0473263     
  -2717423671.8235421       -69033277.245579600        1062678532.6129160     
  -2500150778.2438016       -43865990.883474231        1009308255.7861295     
  -2281353915.9222794       -13618808.715418458        969596025.26813066     
  -2061033084.8589671        21708269.258601904        943541841.05891705     
  -1839188285.0538659        62115243.038580298        931145703.15848982     
  -3056643978.4115791       -86939757.048668385        934824494.63703859     
  -2800191497.6747127       -44249070.452991962        886249257.90260565     
  -2543680821.9676547       -1364400.6233394146        850110257.23404408     
  -2287111951.2904000        41714252.440297008        826407492.63135493     
  -2030484885.6429541        84986888.737912297        815140964.09454000     
  -3383055666.7658525       -101003651.38163078        810044539.08681083     
  -3090914485.2801828       -41836830.474883914        764554273.04453826     
  -2800180882.5959134        12638061.093873262        730278432.82522058     
  -2510854858.7130489        62421023.324617386        707217018.42886674     
  -2222936413.6315694        107512056.21739304        695370029.85546303     
  -3696658736.8863544       -111224960.24445868        688338665.96222842     
  -3372319741.0602083       -36629270.949134350        644223301.21192181     
  -3050854097.8070526        28388576.436224341        610100552.04166102     
  -2732261807.1268921        83828581.911599278        585970418.45144832     
  -2416542869.0197201        129690745.47700977        571832900.44127703     
  -1649046611.8643129        38897119.119381070        1043384247.0473263     
  -1610244056.5344493        32536180.075052261        1071020079.1356786     
  -1574051632.7619979        17474802.506024778        1098001603.1498079     
  -1540469340.5469573       -6287013.5877112746        1124328819.0897157     
  -1509497179.8893366       -38749268.206177235        1150001726.9554007     
  -1839188285.0538659        62115243.038580298        931145703.15848982     
  -1805193517.7726007        45731582.607101321        955759830.95923221     
  -1773009944.1480422        23310609.986598253        979642904.03999972     
  -1742637564.1801939       -5147674.8229403496        1002794922.4007968     
  -1714076377.8690529       -39643271.821501374        1025215886.0416279     
  -2030484885.6429541        84986888.737912297        815140964.09454000     
  -2001517182.5409918        58514724.080076694        837665481.82515049     
  -1973561735.1950300        28668373.568882942        859382198.19004571     
  -1946618543.6050735       -4552162.7956554890        880291113.18922353     
  -1920687607.7711263       -41146885.013549209        900392226.82268250     
  -2222936413.6315694        107512056.21739304        695370029.85546303     
  -2199215050.8396173        70885604.493975997        716737031.73344111     
  -2175707005.9029651        33548093.252886295        737219485.59995198     
  -2152412278.8216138       -4500477.5058755875        756817391.45499563     
  -2129330869.5955632       -43260107.782304406        775530749.29858053     
  -2416542869.0197201        129690745.47700977        571832900.44127703     
  -2398287122.6684785        82844223.848814607        592974480.68409932     
  -2379445756.2718396        37949769.038605332        613154766.26971197     
  -2360018769.8297944       -4992618.9535802603        632373757.19810998     
  -2340006163.3423462       -45982940.127756953        650631453.46930289     
  -1509497179.8893366       -38749268.206177235        1150001726.9554007     
  -1389658294.5159960       -47182086.298960865        1135512464.7627220     
  -1268943726.5230925       -52695962.326523483        1126308730.4071486     
  -1147353475.9106102       -55290896.288830042        1122390523.8886762     
  -1024887542.6785569       -54966888.185897529        1123757845.2073081     
  -1714076377.8690529       -39643271.821501374        1025215886.0416279     
  -1580091930.1108387       -44087687.489031732        1010671554.1620630     
  -1445335275.7968519       -45958081.303979635        1000802495.7202443     
  -1309806414.9270847       -45254453.266330183        995608710.71616209     
  -1173505347.5015466       -41976803.376110315        995090199.14982677     
  -1920687607.7711263       -41146885.013549209        900392226.82268250     
  -1774301181.6262119       -42125973.455260158        885672103.18180704     
  -1627246024.9893143       -40875960.257054150        875016998.57930863     
  -1479522137.8604403       -37396845.418911397        868426913.01519370     
  -1331129520.2395899       -31688628.940852523        865901846.48945856     
  -2129330869.5955632       -43260107.782304406        775530749.29858053     
  -1972286049.0621090       -41296944.197649837        760514111.82194877     
  -1814675974.1004765       -37449599.185721517        748952238.98434532     
  -1656500644.7106659       -31718072.746548533        740845130.78576064     
  -1497760060.8926764       -24102364.880104303        736192787.22619832     
  -2340006163.3423462       -45982940.127756953        650631453.46930289     
  -2174046532.4185328       -41600599.716187716        635197580.08249795     
  -2007625123.1303442       -35678998.090023994        622608216.93535447     
  -1840741935.4777699       -28218135.249245048        612863364.02787352     
  -1673396969.4608128       -19218011.193864524        605963021.36004615     
  -1024887542.6785569       -54966888.185897529        1123757845.2073081     
  -912721080.22247267       -53207170.396596938        1123083293.2801847     
  -798446420.65905213       -44420128.916172534        1127811434.4191036     
  -682063563.98828995       -28605763.744609445        1137942268.6240661     
  -563572510.21018314       -5764074.8819000423        1153475795.8950682     
  -1173505347.5015466       -41976803.376110315        995090199.14982677     
  -1048958642.0631022       -39157841.512495995        992459318.71952581     
  -923161536.21151125       -32170878.271741390        993704568.11554110     
  -796114029.94678187       -21015913.653858244        998825947.33788061     
  -667816123.26891017       -5692947.6588311791        1007823456.3865358     
  -1331129520.2395899       -31688628.940852523        865901846.48945856     
  -1198564181.0751235       -29118905.779810786        860313874.74607801     
  -1065606238.1917156       -25240503.555640459        857075469.58929300     
  -932255691.58936656       -20053422.268328249        856186631.01910520     
  -798512541.26808178       -13557661.917885721        857647359.03551531     
  -1497760060.8926764       -24102364.880104303        736192787.22619832     
  -1361537697.2585385       -23090363.198537886        726646961.35983741     
  -1225780526.5996671       -23629004.767860293        717924138.84035027     
  -1090488548.9160492       -25718289.588027537        710024319.66773820     
  -955661764.20769429       -29358217.659070849        702947503.84200203     
  -1673396969.4608128       -19218011.193864524        605963021.36004615     
  -1537879190.6133575       -21072213.768696308        591458578.56081235     
  -1403684401.4353633       -27336381.908401906        576250575.86871803     
  -1270812601.9268289       -38010515.612975657        560339013.28378439     
  -1139263792.0877528       -53094614.882403076        543723890.80600178     
  -563572510.21018314       -5764074.8819000423        1153475795.8950682     
  -465256952.94359469        32414797.301233083        1162284885.9692798     
  -354946406.66970074        110576966.17537341        1178825341.8706603     
  -232640871.38848573        228722431.74058571        1203097163.5992076     
  -98340347.099971533        386851193.99680334        1235100351.1549265     
  -667816123.26891017       -5692947.6588311791        1007823456.3865358     
  -550801978.02555001        24706835.278391987        1021100475.6316947     
  -422865521.96069592        91514320.953911304        1042824832.7039503     
  -284006755.07434165        194729509.36776447        1072996527.6033094     
  -134225677.36649162        334352400.51994270        1111615560.3297544     
  -798512541.26808178       -13557661.917885721        857647359.03551531     
  -660754173.76243901        9676722.0590490997        874140849.56817174     
  -513146173.62111169        65743214.821602970        899797649.92785895     
  -355688540.84409541        154641816.36978722        934617760.11457157     
  -188381275.43139613        276372526.70357668        978601180.12831104     
  -955661764.20769429       -29358217.659070849        702947503.84200203     
  -795113540.15425670       -12675542.356748194        721406007.77871251     
  -625788361.65094388        33263647.778479755        749743793.54238021     
  -447686228.69775093        108459352.74665278        787960861.13301015     
  -260807141.29470220        212911572.54767865        836057210.55059075     
  -1139263792.0877528       -53094614.882403076        543723890.80600178     
  -953880077.20100439       -42349957.969047785        562895950.26331592     
  -760792086.05019367       -5924380.1754737794        592663263.54752111     
  -559999818.63531876        56182118.498303413        633025830.65860903     
  -351503274.95638502        143969538.05228752        683983651.59658945     
  -98340347.099971533        386851193.99680334        1235100351.1549265     
  -84293846.327344328        546301491.81778085        1196733729.7554793     
  -57584482.285384327        747961333.86985946        1154901738.7419899     
  -18212254.974115670        991830720.15296674        1109604378.1144562     
   33822835.606476128        1277909650.6671598        1060841647.8728890     
  -134225677.36649162        334352400.51994270        1111615560.3297544     
  -126042861.22473142        483155872.11410201        1090177507.1334488     
  -94720778.599950820        709090231.98498189        1070151256.8105549     
  -40259429.492185175        1012155480.1325024        1051536809.3610526     
   37341186.098599255        1392351616.5567188        1034334164.7849762     
  -188381275.43139613        276372526.70357668        978601180.12831104     
  -172127365.38493571        418709605.63159788        986314165.55110991     
  -122257785.64178532        673098916.88191807        1000316126.3347669     
  -38772536.201935112        1039540460.4545473        1020607062.4792820     
   78328382.934586167        1518034236.3494503        1047186973.9846442     
  -260807141.29470220        212911572.54767865        836057210.55059075     
  -222547358.80797070        352962692.37023461        885143705.00846159     
  -140195503.41087693        639987388.56068659        945396347.31463993     
  -13751575.103405714        1073985661.1190495        1016815137.4691083     
   156784426.11443913        1654957510.0453417        1099400075.4719017     
  -351503274.95638502        143969538.05228752        683983651.59658945     
  -277302841.49383831        285915132.33002818        786666125.50550592     
  -148533931.90723842        609755647.02126241        905391919.75016522     
   34803453.803436041        1115491082.1260788        1040161034.3305717     
   272709315.63815385        1803121437.6443784        1190973469.2467375     
  -4477607376.4445534       -58685601.332967997        676789613.58761263     
  -4357883294.5656986       -26875925.109791279        682211940.27955425     
  -4243877280.5981474       -14126475.257629156        685740837.66005421     
  -4135589334.5418978       -20437251.776470184        687376305.72910726     
  -4033019456.3969564       -45808254.666343689        687118344.48671842     
  -4800159905.9180193        24095239.992673874        531116473.34959143     
  -4699394209.0536213       -8232380.3078823090        523925289.67448640     
  -4596475830.2647076       -33384394.193368912        518845076.80518192     
  -4491404769.5512648       -51360801.663770199        515875834.74167252     
  -4384181026.9133015       -62161602.719099283        515017563.48396236     
  -5158529298.0582657        96131022.518281698        358371377.36654109     
  -5065280843.0162210        3098448.6516211033        347749224.79952204     
  -4962008956.2138186       -56522686.013870001        343242443.15554422     
  -4848713637.6510735       -82732381.478202581        344851032.43460459     
  -4725394887.3279715       -75530637.741358757        352574992.63670397     
  -5552715552.8653221        157421746.24384761        158554325.63846189     
  -5455543196.4534988        7116561.7687258720        153683745.65466180     
  -5340476658.4454918       -83541350.719133139        158932936.71114647     
  -5207515938.8413143       -114551991.21975088        174301898.80790913     
  -5056661037.6409550       -85915359.733095884        199790631.94494984     
  -5982718670.3391647        207967411.16937804       -68334681.834640697     
  -5870181269.3654432        3821959.0434303284       -58271147.760089114     
  -5731878936.9597206       -114440388.30918503       -34083442.528017782     
  -5567811673.1220007       -146819630.88844943        4228433.8615752226     
  -5377979477.8522635       -93315768.694350719        56664481.408693112     
  -4033019456.3969564       -45808254.666343689        687118344.48671842     
  -3954673733.9580150       -81310622.523232698        680778278.02413046     
  -3872498373.2266021       -104047529.40522099        678868309.44918823     
  -3786493374.2027125       -114018975.31228876        681388438.76188517     
  -3696658736.8863544       -111224960.24445868        688338665.96222842     
  -4384181026.9133015       -62161602.719099283        515017563.48396236     
  -4286421264.6696033       -72907736.909914732        514430795.55872232     
  -4188906144.1419902       -84469343.487689972        518634829.51886809     
  -4091635665.3304658       -96846422.452431917        527629665.36439854     
  -3994609828.2350297       -110038973.80412197        541415303.09531128     
  -4725394887.3279715       -75530637.741358757        352574992.63670397     
  -4607190502.4288254       -61211363.410889149        352988196.57216197     
  -4493305039.2543221       -61288494.829239607        358552906.39074117     
  -4383738497.8044739       -75762031.996441364        369269122.09244686     
  -4278490878.0792708       -104631974.91245508        385136843.67727613     
  -5056661037.6409550       -85915359.733095884        199790631.94494984     
  -4916981447.2356710       -46221502.026129484        196450481.06444591     
  -4785695058.5636034       -34504983.429886818        198622540.06480509     
  -4662801871.6247387       -50765803.944319248        206306808.94603485     
  -4548301886.4190884       -95003963.569470882        219503287.70812204     
  -5377979477.8522635       -93315768.694350719        56664481.408693112     
  -5215794099.0901623       -27938152.755700111        44817649.035575695     
  -5066076202.0698195       -4118809.2895894051        38843730.541058041     
  -4928825786.7912655       -21857738.296102285        38742725.925157346     
  -4804042853.2544670       -81154939.775135279        44514635.187850803     
  -3696658736.8863544       -111224960.24445868        688338665.96222842     
  -3372319741.0602083       -36629270.949134350        644223301.21192181     
  -3050854097.8070526        28388576.436224341        610100552.04166102     
  -2732261807.1268921        83828581.911599278        585970418.45144832     
  -2416542869.0197201        129690745.47700977        571832900.44127703     
  -3994609828.2350297       -110038973.80412197        541415303.09531128     
  -3651429716.4077873       -50956718.585578203        499130603.53838205     
  -3309041100.7870760        5487215.9445254803        464926477.80457944     
  -2967443981.3728952        59292829.786209702        438802925.89391220     
  -2626638358.1652389        110460122.93946600        420759947.80637830     
  -4278490878.0792708       -104631974.91245508        385136843.67727613     
  -3921932626.6992579       -62702046.705191851        347111641.74125654     
  -3564084015.1593113       -16470917.964816093        315254971.87145644     
  -3204945043.4594426        34061411.308646917        289566834.06787783     
  -2844515711.5996261        88894941.115253687        270047228.33051056     
  -4548301886.4190884       -95003963.569470882        219503287.70812204     
  -4183828471.9346237       -71865255.307974577        188166415.82055256     
  -3815982840.9237680       -37485825.291835070        161086034.24229047     
  -3444764993.3865213        8134326.4789464474        138262142.97333223     
  -3070174929.3228760        64995200.004376531        119694742.01368251     
  -4804042853.2544670       -81154939.775135279        44514635.187850803     
  -4437117252.1138821       -78446344.393921614        22294925.776275776     
  -4064737578.0804467       -57557506.036531687        2419664.9170842981     
  -3686903831.1541529       -18488424.702943325       -15111147.389702497     
  -3303616011.3349929        38760899.606852531       -30297511.144112147     
  -2416542869.0197201        129690745.47700977        571832900.44127703     
  -2398287122.6684785        82844223.848814607        592974480.68409932     
  -2379445756.2718396        37949769.038605332        613154766.26971197     
  -2360018769.8297944       -4992618.9535802603        632373757.19810998     
  -2340006163.3423462       -45982940.127756953        650631453.46930289     
  -2626638358.1652389        110460122.93946600        420759947.80637830     
  -2609703170.1073732        65050338.241396904        440493439.29632127     
  -2591591396.1548748        23562506.525434494        459840856.69546866     
  -2572303036.3077483       -14003372.208441377        478802200.00382054     
  -2551838090.5659938       -47647297.960206985        497377469.22136533     
  -2844515711.5996261        88894941.115253687        270047228.33051056     
  -2827257594.5025220        45414939.547111273        289062091.22501278     
  -2808231925.6615658        7826777.1251498461        308266100.59512192     
  -2787438705.0767503       -23869546.150610566        327659256.44084859     
  -2764877932.7480807       -49674030.280192018        347241558.76219362     
  -3070174929.3228760        64995200.004376531        119694742.01368251     
  -3050950395.8539290        23938027.765947104        138680436.47016340     
  -3029367344.7919083       -9257419.1622316837        158430497.96867982     
  -3005425776.1367970       -34591140.780112982        178944926.50921431     
  -2979125689.8886046       -52063137.087720275        200223722.09177378     
  -3303616011.3349929        38760899.606852531       -30297511.144112147     
  -3280781574.1616073        619602.89788198471       -10651524.968210766     
  -3254997653.5458946       -27690082.336688042        10334048.816127941     
  -3226264249.4878778       -46168156.096899509        32659210.208907172     
  -3194581361.9875522       -54814618.382748246        56323959.210127570     
  -2340006163.3423462       -45982940.127756953        650631453.46930289     
  -2174046532.4185328       -41600599.716187716        635197580.08249795     
  -2007625123.1303442       -35678998.090023994        622608216.93535447     
  -1840741935.4777699       -28218135.249245048        612863364.02787352     
  -1673396969.4608128       -19218011.193864524        605963021.36004615     
  -2551838090.5659938       -47647297.960206985        497377469.22136533     
  -2374902962.7178426       -33885464.860028267        481577172.50697505     
  -2198838022.3775043       -23024256.785872102        469210557.18196428     
  -2023643269.5449562       -15063673.737696171        460277623.24633420     
  -1849318704.2202086       -10003715.715515494        454778370.70008230     
  -2764877932.7480807       -49674030.280192018        347241558.76219362     
  -2575283961.8335357       -26027700.648792028        329520878.53599858     
  -2387892144.2989812       -9721882.2840151787        315823050.84891260     
  -2202702480.1444035       -756575.18582892418        306148075.70092320     
  -2019714969.3698101        868220.64574515820        300495953.09203517     
  -2979125689.8886046       -52063137.087720275        200223722.09177378     
  -2775189529.7656031       -18027307.082453966        179028698.16957453     
  -2574787488.8947802        4228125.4155551195        162445697.93619609     
  -2377919567.2761164        14703160.406360388        150474721.39163870     
  -2184585764.9096165        13397797.889961004        143115768.53590310     
  -3194581361.9875522       -54814618.382748246        56323959.210127570     
  -2974619666.5140505       -9884284.1610565186        30100631.407703470     
  -2759524056.1649017        18825766.312815189        9078498.4438220840     
  -2549294530.9400954        31315533.038874984       -6742439.6815185100     
  -2343931090.8396292        27585016.017121553       -17362182.968315110     
  -1673396969.4608128       -19218011.193864524        605963021.36004615     
  -1537879190.6133575       -21072213.768696308        591458578.56081235     
  -1403684401.4353633       -27336381.908401906        576250575.86871803     
  -1270812601.9268289       -38010515.612975657        560339013.28378439     
  -1139263792.0877528       -53094614.882403076        543723890.80600178     
  -1849318704.2202086       -10003715.715515494        454778370.70008230     
  -1717447633.9984355       -18468053.074782372        441704223.31631929     
  -1585226099.4670215       -25764176.068570375        428053891.06359279     
  -1452654100.6259573       -31892084.696858108        413827373.94189835     
  -1319731637.4752481       -36851778.959659994        399024671.95124286     
  -2019714969.3698101        868220.64574515820        300495953.09203517     
  -1891126679.1340489       -14097072.906023979        290804464.09936947     
  -1760514470.6095533       -22315972.161988378        280664165.26161700     
  -1627878343.7963016       -23788477.122105658        270075056.57878953     
  -1493218298.6943026       -18514587.786397934        259037138.05087373     
  -2184585764.9096165        13397797.889961004        143115768.53590310     
  -2058916326.0202103       -7959273.2624192238        138759300.90995240     
  -1929549514.8629661       -16991770.188667059        134081398.46280049     
  -1796485331.4378648       -13699692.888731837        129082061.19445974     
  -1659723775.7449069        1916958.6374025345        123761289.10490519     
  -2343931090.8396292        27585016.017121553       -17362182.968315110     
  -2220816574.6569152       -54654.143990755081       -14431266.251931405     
  -2092331232.2272725       -9791570.1486536264       -11694409.332852356     
  -1958475063.5506394       -1625731.9966934919       -9151612.2111051865     
  -1819248068.6270635        24442860.311743736       -6802874.8866645936     
  -1139263792.0877528       -53094614.882403076        543723890.80600178     
  -953880077.20100439       -42349957.969047785        562895950.26331592     
  -760792086.05019367       -5924380.1754737794        592663263.54752111     
  -559999818.63531876        56182118.498303413        633025830.65860903     
  -351503274.95638502        143969538.05228752        683983651.59658945     
  -1319731637.4752481       -36851778.959659994        399024671.95124286     
  -1119397240.5036993       -15740836.793501198        421137635.98519748     
  -915558105.89714634        17052564.156014323        441763651.19915777     
  -708214233.65558362        61528423.888900489        460902717.59312350     
  -497365623.77900660        117686742.40514785        478554835.16709042     
  -1493218298.6943026       -18514587.786397934        259037138.05087373     
  -1312453798.6290524        2606465.9352198243        279191544.92757398     
  -1132384099.5578389        21411516.343386233        285776800.33739239     
  -953009201.48067546        37900563.438049138        278792904.28034246     
  -774329104.39755905        52073607.219212264        258239856.75640520     
  -1659723775.7449069        1916958.6374025345        123761289.10490519     
  -1533049751.5770431        12691950.217183530        137057677.09045032     
  -1411270067.0322773        7152476.3866114616        124702710.96223813     
  -1294384722.1105978       -14701462.854237854        86696390.720258608     
  -1182393716.8120399       -52869867.505486846        23038716.364515636     
  -1819248068.6270635        24442860.311743736       -6802874.8866645936     
  -1781185099.3476765        14515616.052334666       -5263967.5261726500     
  -1752216008.3204448       -25724555.714248776       -41458616.926324114     
  -1732340795.5453615       -96277654.987999022       -115386823.08713228     
  -1721559461.0224469       -197143681.76897717       -227048586.00856367     
  -351503274.95638502        143969538.05228752        683983651.59658945     
  -277302841.49383831        285915132.33002818        786666125.50550592     
  -148533931.90723842        609755647.02126241        905391919.75016522     
   34803453.803436041        1115491082.1260788        1040161034.3305717     
   272709315.63815385        1803121437.6443784        1190973469.2467375     
  -497365623.77900660        117686742.40514785        478554835.16709042     
  -388313456.87966168        223163758.45048907        597422672.36956990     
  -230112644.91932684        492469591.36578542        735472040.70284855     
  -22763187.897998631        925604241.15108335        892702940.16693306     
   233734914.18433699        1522567707.8063476        1069115370.7618144     
  -774329104.39755905        52073607.219212264        258239856.75640520     
  -621458887.50412953        123771939.99933991        386969921.01219648     
  -424859856.61276346        341232986.10591632        538019727.19384968     
  -184532011.72347739        704456745.53888428        711389275.30135489     
   99524647.163732708        1213443218.2982669        907078565.33470511     
  -1182393716.8120399       -52869867.505486846        23038716.364515636     
  -976739133.36722302       -12260323.023361921        155307871.43338782     
  -732775566.98753333        156045831.24166107        313034979.22317117     
  -450503017.67302167        452048595.28944749        496220039.73384541     
  -129921485.42361253        875747969.12019062        704863052.96544063     
  -1721559461.0224469       -197143681.76897717       -227048586.00856367     
  -1454154194.4689503       -184933030.61765391       -97563476.366872519     
  -1153859776.0436721       -63091873.227058172        60517796.790788367     
  -820676205.74659133        168379790.40287960        247195233.46440667     
  -454603483.57774401        509481960.27203858        462468833.65396941     
 </DataArray>
 <DataArray  type="Float64" Name="VM" NumberOfComponents="1" format="ascii">
   6252831620.6248226     
   5952051167.5234404     
   5712566291.3752689     
   5516993305.2681561     
   5357346805.0930138     
   5721978362.0823336     
   5496084722.1439362     
   5309218423.8776789     
   5151288066.1096087     
   5017791037.5105896     
   5272779443.4929256     
   5103366809.1354809     
   4954309361.1172009     
   4821634468.4263391     
   4703803849.5033646     
   4890936079.2706251     
   4763725695.2963686     
   4643157443.0400057     
   4528853740.5277452     
   4420876604.1380444     
   4561767639.1870852     
   4466056007.1349936     
   4370135248.4988909     
   4273424972.1162033     
   4175481041.4864321     
   5357346805.0930138     
   5216023308.4837933     
   5066578812.6209116     
   4907643193.5011196     
   4739179382.1001530     
   5017791037.5105896     
   4903363714.4695883     
   4783214841.9262972     
   4656752867.9657898     
   4524303013.0805826     
   4703803849.5033646     
   4608666498.2184210     
   4509784371.6408482     
   4406984326.0198641     
   4300628987.7589426     
   4420876604.1380444     
   4337043999.2825823     
   4250622381.7067089     
   4161562816.9347439     
   4070056798.6692190     
   4175481041.4864321     
   4094644599.0881271     
   4011204786.9661741     
   3925020363.3090310     
   3836022674.6326318     
   4739179382.1001530     
   4380915413.4580622     
   4026138626.5533977     
   3675057986.4435282     
   3328230618.7178001     
   4524303013.0805826     
   4164143065.2319837     
   3806653006.7853274     
   3452068547.7075019     
   3100861287.6606145     
   4300628987.7589426     
   3948120640.7893219     
   3598844679.0221987     
   3253079757.7895827     
   2911385332.4639611     
   4070056798.6692190     
   3735029605.4035416     
   3405314126.2743049     
   3081320712.1808701     
   2763995581.9936323     
   3836022674.6326318     
   3528121106.2492366     
   3229276144.2157235     
   2940096190.8921986     
   2662160144.8993835     
   3328230618.7178001     
   3284934381.1136250     
   3244332266.4692459     
   3206411897.7616901     
   3171266042.9861088     
   3100861287.6606145     
   3066631485.0749745     
   3035144222.5500512     
   3006314173.1863227     
   2980111647.1895189     
   2911385332.4639611     
   2883493621.8590717     
   2857896575.8476949     
   2834430648.5077295     
   2812958675.5366392     
   2763995581.9936323     
   2740264639.4996209     
   2717836264.3405695     
   2696455722.5636091     
   2675887395.2430205     
   2662160144.8993835     
   2641147704.4805045     
   2619921070.4121604     
   2598107818.4789586     
   2575367679.1754026     
   3171266042.9861088     
   2971763840.6084023     
   2769907717.8503776     
   2565174071.1975641     
   2357206659.1289353     
   2980111647.1895189     
   2788878449.7856956     
   2596282571.3311996     
   2402032397.2404194     
   2205992935.9048891     
   2812958675.5366392     
   2631667377.5767055     
   2450399612.5915775     
   2269167950.8562312     
   2088167970.8062191     
   2675887395.2430205     
   2506100724.3452725     
   2338039736.7951756     
   2172049019.4038916     
   2008693948.9342082     
   2575367679.1754026     
   2418305334.0126333     
   2264824801.8295546     
   2115556434.8881087     
   1971367533.7980490     
   2357206659.1289353     
   2220482402.7382922     
   2087701255.8512743     
   1958653266.5626602     
   1833501943.0689611     
   2205992935.9048891     
   2069567061.5141704     
   1935747754.2184904     
   1804377664.1241770     
   1675482792.3831530     
   2088167970.8062191     
   1951813467.0055256     
   1816840370.2835939     
   1683165317.5090854     
   1550758916.9638915     
   2008693948.9342082     
   1874087618.6053009     
   1740014917.5522666     
   1606551894.7312500     
   1473808999.2024157     
   1971367533.7980490     
   1842136356.6223938     
   1713284807.9568734     
   1585213818.1632533     
   1458492603.0113354     
   1833501943.0689611     
   1790004595.8194954     
   1741989052.6674685     
   1698533704.4571614     
   1678546901.4820449     
   1675482792.3831530     
   1558512193.9469304     
   1431936253.2889175     
   1296283472.3649981     
   1157751962.1474710     
   1550758916.9638915     
   1400364256.6238592     
   1246266225.8447933     
   1086307697.3749871     
   918537770.76044583     
   1473808999.2024157     
   1329799827.5870976     
   1200281880.0155287     
   1089776891.6418426     
   1004204584.1766514     
   1458492603.0113354     
   1350078488.3723915     
   1276560548.7112420     
   1245946582.8735845     
   1265181765.3322368     
   1678546901.4820449     
   1381307533.7408729     
   1128479805.3457706     
   1011764529.7161033     
   1157715913.5299644     
   1157751962.1474710     
   1007367824.4805425     
   984762574.74660242     
   1161758655.5768447     
   1545355964.1754603     
   918537770.76044583     
   963531072.75798845     
   1144836270.6404181     
   1475941361.9675844     
   1956884227.1703205     
   1004204584.1766514     
   1165824533.2942183     
   1425529335.0515363     
   1808025886.1345568     
   2333470963.5394168     
   1265181765.3322368     
   1447777391.5413318     
   1715957621.4896069     
   2110118217.1946855     
   2662379502.4481349     
   4561767639.1870852     
   4466056007.1349936     
   4370135248.4988909     
   4273424972.1162033     
   4175481041.4864321     
   4299536675.0779867     
   4209526612.6169090     
   4119134152.5893536     
   4028004359.4940281     
   3935975754.5415497     
   4050007797.1171770     
   3967622065.6977067     
   3885081897.1823277     
   3802351169.9051776     
   3719662853.7651081     
   3821776644.6094899     
   3748554914.0812626     
   3675919399.0231619     
   3604257072.7075181     
   3534313168.1957703     
   3625688624.9736438     
   3562538550.9674115     
   3501348361.5293064     
   3443029647.0710845     
   3388941918.3862729     
   4175481041.4864321     
   4094644599.0881271     
   4011204786.9661741     
   3925020363.3090310     
   3836022674.6326318     
   3935975754.5415497     
   3852124663.9677768     
   3768209002.5327563     
   3684250352.4364743     
   3600277941.1537127     
   3719662853.7651081     
   3636104694.8783045     
   3555599230.3590732     
   3478235839.1917500     
   3404130992.6834717     
   3534313168.1957703     
   3453036858.1036439     
   3378509157.5128512     
   3310691016.0959120     
   3249673506.1054564     
   3388941918.3862729     
   3310065316.9958315     
   3242210411.5895581     
   3184917309.1888976     
   3138043680.5450773     
   3836022674.6326318     
   3528121106.2492366     
   3229276144.2157235     
   2940096190.8921986     
   2662160144.8993835     
   3600277941.1537127     
   3329527194.3189607     
   3068377998.9803901     
   2817728886.8312216     
   2579295218.3235035     
   3404130992.6834717     
   3166419689.0230827     
   2938435952.5378208     
   2721240240.2511892     
   2516525707.2642131     
   3249673506.1054564     
   3041265410.2152195     
   2842189854.0230961     
   2653542061.0688272     
   2476865179.8489752     
   3138043680.5450773     
   2955646703.9547873     
   2781618644.5195255     
   2616980920.4855270     
   2463044356.5549102     
   2662160144.8993835     
   2641147704.4805045     
   2619921070.4121604     
   2598107818.4789586     
   2575367679.1754026     
   2579295218.3235035     
   2556810428.6776495     
   2534403119.0849953     
   2511951978.6300869     
   2489341191.0861650     
   2516525707.2642131     
   2496883942.1810908     
   2478197501.7633595     
   2460598074.0348988     
   2444228169.8535018     
   2476865179.8489752     
   2464133015.9849248     
   2453754899.3553524     
   2446103532.0047112     
   2441590387.3992271     
   2463044356.5549102     
   2460664059.9258437     
   2462457391.6497149     
   2469000450.3464317     
   2480948577.4808941     
   2575367679.1754026     
   2418305334.0126333     
   2264824801.8295546     
   2115556434.8881087     
   1971367533.7980490     
   2489341191.0861650     
   2348314560.0210662     
   2212816598.4918509     
   2083754075.0223322     
   1962278638.8633242     
   2444228169.8535018     
   2320678172.2420359     
   2204560587.9705539     
   2096885866.5025182     
   1998852155.1598938     
   2441590387.3992271     
   2335882261.0263128     
   2239172675.9280357     
   2152371043.8377714     
   2076489581.1758189     
   2480948577.4808941     
   2392189661.5684824     
   2313475055.4124341     
   2245457030.1320825     
   2188826817.9507480     
   1971367533.7980490     
   1842136356.6223938     
   1713284807.9568734     
   1585213818.1632533     
   1458492603.0113354     
   1962278638.8633242     
   1848787729.3281777     
   1739758110.7336199     
   1636106892.7521670     
   1538955543.2126281     
   1998852155.1598938     
   1905945660.6205111     
   1821611778.3624012     
   1746994938.5479865     
   1683322880.9690371     
   2076489581.1758189     
   2005557932.3454459     
   1946505845.9627361     
   1900341298.4166877     
   1868019382.6465254     
   2188826817.9507480     
   2138387977.3175735     
   2102182899.4683268     
   2080924735.0062535     
   2075232860.0968747     
   1458492603.0113354     
   1350078488.3723915     
   1276560548.7112420     
   1245946582.8735845     
   1265181765.3322368     
   1538955543.2126281     
   1477935650.4347563     
   1449577107.9446816     
   1457829189.0361249     
   1505999974.5549016     
   1683322880.9690371     
   1654139172.6658359     
   1652759817.1768029     
   1681571908.2122393     
   1743221141.5560553     
   1868019382.6465254     
   1856453739.3857565     
   1868065714.5281632     
   1905085302.5574782     
   1970577607.6044593     
   2075232860.0968747     
   2070396068.3780944     
   2085127378.7803934     
   2122070215.9019628     
   2185056916.1583266     
   1265181765.3322368     
   1447777391.5413318     
   1715957621.4896069     
   2110118217.1946855     
   2662379502.4481349     
   1505999974.5549016     
   1613862866.7863266     
   1789141483.3356538     
   2066420785.7993021     
   2475667318.2138805     
   1743221141.5560553     
   1787935736.9911110     
   1884889575.7887216     
   2060882654.2130241     
   2340995219.4864545     
   1970577607.6044593     
   1968922009.0121539     
   2003771287.8715792     
   2093764804.6570880     
   2257519860.0807710     
   2185056916.1583266     
   2156085361.4054518     
   2146528955.8832111     
   2166947303.1102657     
   2228468569.9006839     
   3625688624.9736438     
   3562538550.9674115     
   3501348361.5293064     
   3443029647.0710845     
   3388941918.3862729     
   3353914822.7909999     
   3320357832.7911339     
   3289364524.5507169     
   3261562448.7508693     
   3237785758.7950792     
   3132045220.1905665     
   3123957844.3875890     
   3118030702.5229921     
   3114544113.6617379     
   3113834418.2437110     
   2963534548.2129078     
   2976150827.5004354     
   2989400929.2562957     
   3003277342.4357872     
   3017775180.1342564     
   2850248896.1745996     
   2878265774.9250588     
   2904314439.0075045     
   2928262095.3603311     
   2950006737.5618076     
   3388941918.3862729     
   3310065316.9958315     
   3242210411.5895581     
   3184917309.1888976     
   3138043680.5450773     
   3237785758.7950792     
   3169640253.7463670     
   3109555833.1398911     
   3057369462.9562311     
   3013053101.5076876     
   3113834418.2437110     
   3054941103.7356935     
   3001535007.8845272     
   2953664863.9653602     
   2911409476.1991916     
   3017775180.1342564     
   2967922296.3012266     
   2921435121.3146749     
   2878428313.3420925     
   2839033430.2430997     
   2950006737.5618076     
   2910256181.1462131     
   2872292861.5337205     
   2836102612.5155039     
   2801778892.3698959     
   3138043680.5450773     
   2955646703.9547873     
   2781618644.5195255     
   2616980920.4855270     
   2463044356.5549102     
   3013053101.5076876     
   2844971695.0743790     
   2688762113.7767825     
   2545663751.6135664     
   2417223647.0307226     
   2911409476.1991916     
   2759453269.0707455     
   2622978213.4964895     
   2503240306.0499935     
   2401758532.8312039     
   2839033430.2430997     
   2703201822.3498554     
   2586454508.7856989     
   2489837865.1988816     
   2414584371.8078809     
   2801778892.3698959     
   2679834973.9102216     
   2580555837.8646889     
   2504605820.3846984     
   2452766523.3746319     
   2463044356.5549102     
   2460664059.9258437     
   2462457391.6497149     
   2469000450.3464317     
   2480948577.4808941     
   2417223647.0307226     
   2432953628.1995420     
   2452206618.9537220     
   2475319055.3460493     
   2502654765.7813144     
   2401758532.8312039     
   2432903853.2759781     
   2466482794.3602433     
   2502634140.7747521     
   2541502191.2165613     
   2414584371.8078809     
   2458337918.4420748     
   2503095992.2106352     
   2548860190.4108815     
   2595634047.4631014     
   2452766523.3746319     
   2506413778.9946609     
   2559403711.7258558     
   2611661908.8467345     
   2663121938.2200947     
   2480948577.4808941     
   2392189661.5684824     
   2313475055.4124341     
   2245457030.1320825     
   2188826817.9507480     
   2502654765.7813144     
   2426930022.3431087     
   2362257415.4377561     
   2309266104.4298143     
   2268580938.4584236     
   2541502191.2165613     
   2478825205.7048197     
   2428134740.0504994     
   2389968332.3126602     
   2364832714.6171350     
   2595634047.4631014     
   2545465021.8476505     
   2508178077.9652972     
   2484181706.2082138     
   2473847678.7710958     
   2663121938.2200947     
   2624452071.8008547     
   2599596709.0135245     
   2588824458.8942437     
   2592379292.9872003     
   2188826817.9507480     
   2138387977.3175735     
   2102182899.4683268     
   2080924735.0062535     
   2075232860.0968747     
   2268580938.4584236     
   2233435589.6900549     
   2211445561.5822053     
   2203008275.6309414     
   2208459662.5590196     
   2364832714.6171350     
   2341802151.4680724     
   2330794614.9232736     
   2332012648.7514153     
   2345635509.1205320     
   2473847678.7710958     
   2460057041.2079787     
   2457221487.8139200     
   2465436309.5945253     
   2484805946.5259266     
   2592379292.9872003     
   2585336974.6884379     
   2588305120.3639631     
   2601329365.0982256     
   2624488543.3170066     
   2075232860.0968747     
   2070396068.3780944     
   2085127378.7803934     
   2122070215.9019628     
   2185056916.1583266     
   2208459662.5590196     
   2192904588.8076658     
   2192621389.1379571     
   2209587376.3890228     
   2246732758.7804222     
   2345635509.1205320     
   2320177551.7557325     
   2306499077.4951577     
   2306010269.6177988     
   2320800921.6570072     
   2484805946.5259266     
   2451230930.5679851     
   2426441667.3809433     
   2411384899.1849413     
   2407431833.7744613     
   2624488543.3170066     
   2585276362.1565800     
   2552165482.3895016     
   2525735235.1316605     
   2506783986.8368912     
   2185056916.1583266     
   2156085361.4054518     
   2146528955.8832111     
   2166947303.1102657     
   2228468569.9006839     
   2246732758.7804222     
   2182320291.0512910     
   2134191149.4720762     
   2112035960.4077721     
   2126831398.9745030     
   2320800921.6570072     
   2224302829.3700047     
   2141011511.9198601     
   2079303357.8609354     
   2049374774.2190723     
   2407431833.7744613     
   2282325980.2482429     
   2167635509.3740816     
   2070100079.9619575     
   1998494803.2667799     
   2506783986.8368912     
   2356598562.9282608     
   2214531925.3989677     
   2085555623.4600661     
   1976537459.8072984     
   2850248896.1745996     
   2878265774.9250588     
   2904314439.0075045     
   2928262095.3603311     
   2950006737.5618076     
   2742147719.4694829     
   2756022493.3996892     
   2773353582.7334909     
   2794194037.1012654     
   2818607017.9597850     
   2664546687.1022458     
   2665746379.8739095     
   2676294063.9147344     
   2696286255.3618650     
   2725833103.1403446     
   2633937193.7682405     
   2620314208.1943469     
   2622409691.1782460     
   2640232217.5623980     
   2673817260.9475007     
   2666828777.7656727     
   2632226240.9834080     
   2620109217.4030681     
   2630409815.7688146     
   2663087356.4595571     
   2950006737.5618076     
   2910256181.1462131     
   2872292861.5337205     
   2836102612.5155039     
   2801778892.3698959     
   2818607017.9597850     
   2792956466.5311656     
   2770188666.0458283     
   2750319976.2309127     
   2733439968.9818778     
   2725833103.1403446     
   2713863111.4912362     
   2705742508.1134386     
   2701492122.1476374     
   2701174708.3682785     
   2673817260.9475007     
   2674174496.9437041     
   2679166042.0476975     
   2688800019.6934462     
   2703102815.0945606     
   2663087356.4595571     
   2673497366.4169941     
   2689143321.0412369     
   2710017965.9012637     
   2736118511.9099398     
   2801778892.3698959     
   2679834973.9102216     
   2580555837.8646889     
   2504605820.3846984     
   2452766523.3746319     
   2733439968.9818778     
   2629805137.7901411     
   2546838905.9190764     
   2484790544.3715935     
   2443960808.4731169     
   2701174708.3682785     
   2609580605.1736460     
   2536518471.6916127     
   2482022759.8803048     
   2446150511.0605278     
   2703102815.0945606     
   2617965502.5755610     
   2549133098.1242318     
   2496577936.5538516     
   2460284320.7210264     
   2736118511.9099398     
   2652872611.3880424     
   2583629070.6276488     
   2528391867.7008333     
   2487177014.2927341     
   2452766523.3746319     
   2506413778.9946609     
   2559403711.7258558     
   2611661908.8467345     
   2663121938.2200947     
   2443960808.4731169     
   2498302460.4576406     
   2553455573.8173571     
   2609392081.0992575     
   2666085863.1603279     
   2446150511.0605278     
   2501716708.0618186     
   2559629784.4008508     
   2619884293.9896359     
   2682475594.2065783     
   2460284320.7210264     
   2517025580.0883079     
   2577717953.1063280     
   2642357429.3027258     
   2710944060.4477797     
   2487177014.2927341     
   2544446712.7882233     
   2607360618.5814662     
   2675900800.7850962     
   2750059816.3342586     
   2663121938.2200947     
   2624452071.8008547     
   2599596709.0135245     
   2588824458.8942437     
   2592379292.9872003     
   2666085863.1603279     
   2638750033.7402091     
   2624072383.3213434     
   2622178910.7124782     
   2633180917.5454001     
   2682475594.2065783     
   2663491164.9373527     
   2656100401.1984439     
   2660346847.4671936     
   2676267877.6158247     
   2710944060.4477797     
   2697556091.6158824     
   2694809902.0701170     
   2702710720.8444405     
   2721263064.8712931     
   2750059816.3342586     
   2739799642.1953044     
   2739341304.6645274     
   2748682396.6491437     
   2767822503.7568274     
   2592379292.9872003     
   2585336974.6884379     
   2588305120.3639631     
   2601329365.0982256     
   2624488543.3170066     
   2633180917.5454001     
   2626247890.5399585     
   2628821394.0569701     
   2640928496.2320666     
   2662612896.9069118     
   2676267877.6158247     
   2669576481.8049574     
   2672054816.9099908     
   2683716247.5245848     
   2704579571.1099110     
   2721263064.8712931     
   2715029369.9463201     
   2717783473.9606147     
   2729529632.2903414     
   2750272176.1982555     
   2767822503.7568274     
   2762332044.4835229     
   2765793818.6240559     
   2778207083.9662609     
   2799571782.3403845     
   2624488543.3170066     
   2585276362.1565800     
   2552165482.3895016     
   2525735235.1316605     
   2506783986.8368912     
   2662612896.9069118     
   2616748340.5571070     
   2576690756.2771735     
   2542770625.4323869     
   2515448059.6672249     
   2704579571.1099110     
   2654033889.4259315     
   2609146384.4221096     
   2570065158.9679885     
   2536998939.1890430     
   2750272176.1982555     
   2697029285.4383402     
   2649439834.1003985     
   2607541260.0628247     
   2571387814.0453176     
   2799571782.3403845     
   2745622342.9228683     
   2697464111.4332733     
   2655096834.2596645     
   2618520428.3772922     
   2506783986.8368912     
   2356598562.9282608     
   2214531925.3989677     
   2085555623.4600661     
   1976537459.8072984     
   2515448059.6672249     
   2347715362.2183371     
   2183499352.9326882     
   2025887924.3265176     
   1879428076.3744717     
   2536998939.1890430     
   2356843565.9393187     
   2176397414.9879370     
   1997120458.2282772     
   1821270498.0191884     
   2571387814.0453176     
   2384088455.4100485     
   2193693486.0039859     
   2000573812.3536220     
   1805319518.8041520     
   2618520428.3772922     
   2429421350.1781359     
   2235532497.9228659     
   2036853848.6158702     
   1833385455.5273213     
   2666828777.7656727     
   2632226240.9834080     
   2620109217.4030681     
   2630409815.7688146     
   2663087356.4595571     
   2654415202.5463734     
   2632341992.1006126     
   2623314358.0703535     
   2627394476.9330873     
   2644643770.9684129     
   2694023114.7796111     
   2682263927.4719272     
   2674379794.4568305     
   2670428520.1040163     
   2670462529.3609009     
   2768301043.5413904     
   2770006633.6117187     
   2766963463.7434402     
   2759012872.3375106     
   2746017362.7681322     
   2861483486.7218094     
   2883820175.0397115     
   2893669870.1409049     
   2890566008.0610042     
   2874155157.9086590     
   2663087356.4595571     
   2673497366.4169941     
   2689143321.0412369     
   2710017965.9012637     
   2736118511.9099398     
   2644643770.9684129     
   2647970140.2756042     
   2661082248.5591946     
   2683957945.3839340     
   2716576590.7898221     
   2670462529.3609009     
   2661826409.4322567     
   2667274221.6239052     
   2686827721.8183980     
   2720520429.1274276     
   2746017362.7681322     
   2718515781.9925208     
   2709081927.4419103     
   2717929607.2741137     
   2745314808.8888774     
   2874155157.9086590     
   2819499831.9074779     
   2786483806.0443368     
   2775743505.2663984     
   2788030080.4702611     
   2736118511.9099398     
   2652872611.3880424     
   2583629070.6276488     
   2528391867.7008333     
   2487177014.2927341     
   2716576590.7898221     
   2632836249.5111480     
   2561026425.4334798     
   2501227099.1154542     
   2453522570.2667799     
   2720520429.1274276     
   2634989495.2532382     
   2559311851.2390871     
   2493640329.7234154     
   2438133216.4745741     
   2745314808.8888774     
   2657650474.3669372     
   2577774851.4164095     
   2505881976.4235930     
   2442178038.3652492     
   2788030080.4702611     
   2698758826.9996123     
   2615265430.6382642     
   2537739122.1397448     
   2466389780.5435886     
   2487177014.2927341     
   2544446712.7882233     
   2607360618.5814662     
   2675900800.7850962     
   2750059816.3342586     
   2453522570.2667799     
   2510057858.2324758     
   2572368094.0709124     
   2640440089.1885290     
   2714264205.9751372     
   2438133216.4745741     
   2491222212.0272584     
   2550266465.1968184     
   2615272226.9869938     
   2686244026.0465150     
   2442178038.3652492     
   2489067258.8073478     
   2542124386.5782323     
   2601393169.8727345     
   2666912392.0731297     
   2466389780.5435886     
   2504418434.6233430     
   2548821003.3878355     
   2599700315.2164402     
   2657154209.4282966     
   2750059816.3342586     
   2739799642.1953044     
   2739341304.6645274     
   2748682396.6491437     
   2767822503.7568274     
   2714264205.9751372     
   2700658505.1253405     
   2697082570.4499321     
   2703549562.3057184     
   2720071111.0798178     
   2686244026.0465150     
   2667858911.4075022     
   2659864433.0869274     
   2662306234.6117115     
   2675222463.5336566     
   2666912392.0731297     
   2642216448.3550782     
   2628392934.8973207     
   2625542593.2409358     
   2633750506.1035304     
   2657154209.4282966     
   2624544233.2808037     
   2603388763.1804390     
   2593872689.2838440     
   2596155760.7410898     
   2767822503.7568274     
   2762332044.4835229     
   2765793818.6240559     
   2778207083.9662609     
   2799571782.3403845     
   2720071111.0798178     
   2714145145.8079333     
   2717397126.1529698     
   2729828241.9684801     
   2751443295.8794785     
   2675222463.5336566     
   2668656247.5811753     
   2671635488.1981783     
   2684172269.6694140     
   2706285943.3408198     
   2633750506.1035304     
   2626226509.6927452     
   2628770752.5686331     
   2641417487.0718541     
   2664211872.8736992     
   2596155760.7410898     
   2587234594.4215689     
   2589074364.0636678     
   2601745650.7634249     
   2625332493.1199846     
   2799571782.3403845     
   2745622342.9228683     
   2697464111.4332733     
   2655096834.2596645     
   2618520428.3772922     
   2751443295.8794785     
   2697829258.9091187     
   2649843772.8756776     
   2607522724.1717334     
   2570914960.4362087     
   2706285943.3408198     
   2655219997.2028689     
   2609762443.2666049     
   2570061413.0400028     
   2536323632.9413576     
   2664211872.8736992     
   2617902389.3350744     
   2577324814.2347989     
   2542814289.6580429     
   2514841177.8631349     
   2625332493.1199846     
   2585976797.1419740     
   2552621670.7523518     
   2525858426.2569866     
   2506516088.8719921     
   2618520428.3772922     
   2429421350.1781359     
   2235532497.9228659     
   2036853848.6158702     
   1833385455.5273213     
   2570914960.4362087     
   2383834412.9337525     
   2193670506.5786605     
   2000804953.1551940     
   1805848170.9310205     
   2536323632.9413576     
   2356492092.6498880     
   2176391065.8085165     
   1997488246.7549493     
   1822053343.9889557     
   2514841177.8631349     
   2347423616.8786187     
   2183549434.9676266     
   2026297472.9152308     
   1880192942.3481705     
   2506516088.8719921     
   2356522677.2394190     
   2214676672.7456560     
   2085913176.5249591     
   1977030069.5973833     
   2861483486.7218094     
   2883820175.0397115     
   2893669870.1409049     
   2890566008.0610042     
   2874155157.9086590     
   2954773180.1637111     
   2969767618.6264482     
   2980467790.0322475     
   2986693356.7495193     
   2988293295.5871606     
   3103078711.6283364     
   3105132511.4118857     
   3109976453.0688586     
   3117653121.0715222     
   3128207740.5907850     
   3307754367.0341492     
   3288524190.5648160     
   3277706835.3396235     
   3275609209.7093372     
   3282622795.3674545     
   3567951776.7664084     
   3517039892.2035351     
   3478674849.4864721     
   3453535742.8455057     
   3442620061.2432055     
   2874155157.9086590     
   2819499831.9074779     
   2786483806.0443368     
   2775743505.2663984     
   2788030080.4702611     
   2988293295.5871606     
   2922336031.7310572     
   2869980077.1147795     
   2831974622.9424005     
   2809157066.0389681     
   3128207740.5907850     
   3053591129.3822303     
   2985194205.1706138     
   2923521898.0894842     
   2869137548.7134891     
   3282622795.3674545     
   3205862239.7105088     
   3128626784.2564898     
   3050978616.8227777     
   2973012256.3779025     
   3442620061.2432055     
   3372774537.3013263     
   3296617116.0726490     
   3213797869.9987020     
   3124031498.8153830     
   2788030080.4702611     
   2698758826.9996123     
   2615265430.6382642     
   2537739122.1397448     
   2466389780.5435886     
   2809157066.0389681     
   2699195958.3363056     
   2599395108.7278070     
   2510101790.6187425     
   2431731793.8337231     
   2869137548.7134891     
   2735131685.9833970     
   2615159234.1870904     
   2509814219.1822486     
   2419871346.0784898     
   2973012256.3779025     
   2810367944.7581191     
   2664911024.1495137     
   2537596032.9849091     
   2429774566.8111787     
   3124031498.8153830     
   2927136517.4026051     
   2749731742.8764253     
   2593246747.6666489     
   2459870512.3301926     
   2466389780.5435886     
   2504418434.6233430     
   2548821003.3878355     
   2599700315.2164402     
   2657154209.4282966     
   2431731793.8337231     
   2463062288.9117661     
   2499143947.0306168     
   2540119022.8232851     
   2586132039.8672833     
   2419871346.0784898     
   2443191127.6185379     
   2469598447.6684275     
   2499259033.5812874     
   2532357151.6962085     
   2429774566.8111787     
   2444791302.2112656     
   2461165478.6014590     
   2479064912.0854707     
   2498700108.7632513     
   2459870512.3301926     
   2467303739.9035349     
   2474322677.8855629     
   2481077637.7083774     
   2487790836.6262598     
   2657154209.4282966     
   2624544233.2808037     
   2603388763.1804390     
   2593872689.2838440     
   2596155760.7410898     
   2586132039.8672833     
   2541396074.5362105     
   2508264300.3092136     
   2487055278.8422070     
   2478055889.1700997     
   2532357151.6962085     
   2473384886.3069930     
   2426095460.5066075     
   2390984540.9674029     
   2368520240.3663568     
   2498700108.7632513     
   2423580404.9090967     
   2360046064.5803728     
   2308801600.5987802     
   2270548186.6961970     
   2487790836.6262598     
   2394989565.7604117     
   2313404612.9664783     
   2243951947.8363771     
   2187595949.6597896     
   2596155760.7410898     
   2587234594.4215689     
   2589074364.0636678     
   2601745650.7634249     
   2625332493.1199846     
   2478055889.1700997     
   2462543331.2282486     
   2458428385.5915093     
   2465832492.9156222     
   2484872276.1058707     
   2368520240.3663568     
   2344233641.6730223     
   2332118607.7841125     
   2332396717.8276668     
   2345259242.8195472     
   2270548186.6961970     
   2234996224.4255342     
   2212467250.2875533     
   2203356240.0249534     
   2207997851.4136834     
   2187595949.6597896     
   2138054189.7153411     
   2102355497.1501081     
   2081166948.1407356     
   2075070591.5271659     
   2625332493.1199846     
   2585976797.1419740     
   2552621670.7523518     
   2525858426.2569866     
   2506516088.8719921     
   2484872276.1058707     
   2451348069.3999686     
   2426557423.1030483     
   2411454034.3902483     
   2407433622.7207360     
   2345259242.8195472     
   2319924065.5751925     
   2306363969.4006071     
   2305991835.7392888     
   2320911274.4221740     
   2207997851.4136834     
   2192507474.8074770     
   2192332455.8939910     
   2209450205.9179268     
   2246789937.2134876     
   2075070591.5271659     
   2070100101.3542700     
   2084790318.8978276     
   2121785631.6860380     
   2184899627.7008352     
   2506516088.8719921     
   2356522677.2394190     
   2214676672.7456560     
   2085913176.5249591     
   1977030069.5973833     
   2407433622.7207360     
   2282379703.1751571     
   2167770953.7432942     
   2070319658.4860311     
   1998750441.1265266     
   2320911274.4221740     
   2224390125.1464281     
   2141106671.8121097     
   2079425087.0079660     
   2049518077.4459591     
   2246789937.2134876     
   2182344148.5327506     
   2134213470.2522416     
   2112095677.8964531     
   2126973067.7179179     
   2184899627.7008352     
   2155948859.8512859     
   2146445241.3683071     
   2166976918.5271192     
   2228705798.6704483     
   3567951776.7664084     
   3517039892.2035351     
   3478674849.4864721     
   3453535742.8455057     
   3442620061.2432055     
   3806254935.6698813     
   3734731179.9735227     
   3670208748.9843802     
   3613333734.0654917     
   3564992184.1093864     
   4063768294.0037794     
   3976158225.8122354     
   3891012452.6856308     
   3808718295.5265293     
   3729837994.0637932     
   4330880058.6458778     
   4233963195.0943737     
   4135841274.4897194     
   4036592550.3822174     
   3936442773.0080919     
   4600410120.7560959     
   4502331215.4619770     
   4400166405.0333014     
   4293769358.2441220     
   4183179844.0336671     
   3442620061.2432055     
   3372774537.3013263     
   3296617116.0726490     
   3213797869.9987020     
   3124031498.8153830     
   3564992184.1093864     
   3491741584.6719565     
   3415617951.9896154     
   3336464340.7394466     
   3254139108.0979514     
   3729837994.0637932     
   3652433208.2412934     
   3575287416.4775410     
   3498328130.9034853     
   3421487623.0330358     
   3936442773.0080919     
   3852352696.8038197     
   3771096615.3056316     
   3692621996.6033325     
   3616916210.3608913     
   4183179844.0336671     
   4088383050.5099006     
   3998341180.4623728     
   3913013023.0417099     
   3832483065.1821623     
   3124031498.8153830     
   2927136517.4026051     
   2749731742.8764253     
   2593246747.6666489     
   2459870512.3301926     
   3254139108.0979514     
   3033004453.2538419     
   2827373550.7885938     
   2638917146.1948237     
   2470184292.7499375     
   3421487623.0330358     
   3174183008.9681320     
   2938521011.3762388     
   2716040197.3312383     
   2509187240.7568374     
   3616916210.3608913     
   3343623531.3889627     
   3078389403.7728505     
   2822319324.3930640     
   2577327305.7985644     
   3832483065.1821623     
   3534887199.2448931     
   3242189706.4999366     
   2954895504.1477842     
   2674113118.6832790     
   2459870512.3301926     
   2467303739.9035349     
   2474322677.8855629     
   2481077637.7083774     
   2487790836.6262598     
   2470184292.7499375     
   2466536019.2305017     
   2462628321.1650023     
   2458583863.9980907     
   2454563232.3032722     
   2509187240.7568374     
   2496330028.0497770     
   2483537777.2550173     
   2470874437.0893254     
   2458418623.2243094     
   2577327305.7985644     
   2557068676.2441840     
   2537379550.1394572     
   2518239401.1098027     
   2499629999.7275386     
   2674113118.6832790     
   2648053006.9570680     
   2623238077.4718776     
   2599542373.5977945     
   2576840463.9570026     
   2487790836.6262598     
   2394989565.7604117     
   2313404612.9664783     
   2243951947.8363771     
   2187595949.6597896     
   2454563232.3032722     
   2343788088.4900703     
   2242654292.3292775     
   2152225906.2407961     
   2073699679.9767418     
   2458418623.2243094     
   2329897066.2551508     
   2209083400.3117156     
   2097033793.1302598     
   1995015369.0335085     
   2499629999.7275386     
   2354848923.5736861     
   2215689699.4871945     
   2083029989.5918164     
   1957985195.1430073     
   2576840463.9570026     
   2418304197.7150574     
   2263432028.6638718     
   2112815500.7458193     
   1967241962.0960178     
   2187595949.6597896     
   2138054189.7153411     
   2102355497.1501081     
   2081166948.1407356     
   2075070591.5271659     
   2073699679.9767418     
   2003920934.3163695     
   1945741394.9504287     
   1900123146.7510388     
   1867975722.4450696     
   1995015369.0335085     
   1903397756.2801065     
   1820162734.9124508     
   1746417630.0666122     
   1683346994.2555420     
   1957985195.1430073     
   1845786305.4403071     
   1737923319.0042875     
   1635293493.2304406     
   1538993296.2504170     
   1967241962.0960178     
   1839179076.2509248     
   1711402846.2928824     
   1584312044.9236100     
   1458478406.4568672     
   2075070591.5271659     
   2070100101.3542700     
   2084790318.8978276     
   2121785631.6860380     
   2184899627.7008352     
   1867975722.4450696     
   1856216680.3620317     
   1867709631.2895823     
   1904691197.9545407     
   1970216789.9849358     
   1683346994.2555420     
   1653919685.5453539     
   1652357248.7120988     
   1681060327.3055775     
   1742674237.1337981     
   1538993296.2504170     
   1477689953.9252753     
   1449096551.4254355     
   1457185336.5973771     
   1505275901.3551848     
   1458478406.4568672     
   1349755345.2061317     
   1275963050.7194207     
   1245143891.4130411     
   1264273883.0117483     
   2184899627.7008352     
   2155948859.8512859     
   2146445241.3683071     
   2166976918.5271192     
   2228705798.6704483     
   1970216789.9849358     
   1968676138.7648175     
   2003651092.1879499     
   2093804509.5319870     
   2257783608.0552831     
   1742674237.1337981     
   1787586038.3605611     
   1884727502.5768821     
   2060914754.8042109     
   2341251756.3856649     
   1505275901.3551848     
   1613412234.8645785     
   1788933970.6531441     
   2066432280.9966385     
   2475890896.3672328     
   1264273883.0117483     
   1447224995.1098106     
   1715703140.6404552     
   2110098012.9779451     
   2662544401.4710641     
   4600410120.7560959     
   4502331215.4619770     
   4400166405.0333014     
   4293769358.2441220     
   4183179844.0336671     
   4899390863.4338846     
   4782173107.6267138     
   4667210586.2217493     
   4554454546.5890884     
   4443884437.5665817     
   5244125334.2073689     
   5102505531.7613621     
   4969678837.2791710     
   4844841552.0276289     
   4727692566.7075291     
   5639766681.2099895     
   5465590819.3896408     
   5306345116.7696819     
   5160034549.0761986     
   5026182083.4880028     
   6090516606.3629436     
   5872960489.8170967     
   5675831158.7216568     
   5495877765.7097158     
   5332837274.6830416     
   4183179844.0336671     
   4088383050.5099006     
   3998341180.4623728     
   3913013023.0417099     
   3832483065.1821623     
   4443884437.5665817     
   4342824731.9827490     
   4243486993.2241726     
   4146056025.0071063     
   4050783267.5444736     
   4727692566.7075291     
   4617547048.5195303     
   4505978152.7173347     
   4393160732.3069048     
   4279457472.4883451     
   5026182083.4880028     
   4905848661.1711597     
   4780929846.6941290     
   4651373460.9772701     
   4517578353.0915155     
   5332837274.6830416     
   5202460459.9358301     
   5064464962.2889395     
   4918391140.3571320     
   4764607718.3709373     
   3832483065.1821623     
   3534887199.2448931     
   3242189706.4999366     
   2954895504.1477842     
   2674113118.6832790     
   4050783267.5444736     
   3727849884.6797233     
   3408285555.6155515     
   3092382834.7177691     
   2780770774.5046716     
   4279457472.4883451     
   3937135170.1195350     
   3597557437.3021951     
   3260911638.9222732     
   2927594834.9052758     
   4517578353.0915155     
   4161145659.1087017     
   3807614882.6417117     
   3457143637.5375977     
   3110100577.1587615     
   4764607718.3709373     
   4398588285.0098610     
   4036268803.2151785     
   3677787606.4944501     
   3323580314.0268459     
   2674113118.6832790     
   2648053006.9570680     
   2623238077.4718776     
   2599542373.5977945     
   2576840463.9570026     
   2780770774.5046716     
   2750754017.8446035     
   2722558793.8518720     
   2696047612.4071779     
   2671088309.3387523     
   2927594834.9052758     
   2893876022.3780890     
   2862392561.9088798     
   2833007440.5081730     
   2805602424.1727495     
   3110100577.1587615     
   3072393508.7813396     
   3037171176.3174987     
   3004310802.3191566     
   2973729381.4112105     
   3323580314.0268459     
   3281143286.7202215     
   3241290744.4275165     
   3203929104.5082707     
   3169031733.4542446     
   2576840463.9570026     
   2418304197.7150574     
   2263432028.6638718     
   2112815500.7458193     
   1967241962.0960178     
   2671088309.3387523     
   2501317120.1199284     
   2333509758.8629932     
   2168050268.3404388     
   2005504870.3237517     
   2805602424.1727495     
   2625164420.2615705     
   2445023762.6265874     
   2265262062.3601608     
   2086119920.5732594     
   2973729381.4112105     
   2783545677.7931733     
   2592219286.3970828     
   2399501721.0923867     
   2205291244.5743866     
   3169031733.4542446     
   2970147474.0261755     
   2769029584.2493253     
   2565122251.7998328     
   2358036387.4608536     
   1967241962.0960178     
   1839179076.2509248     
   1711402846.2928824     
   1584312044.9236100     
   1458478406.4568672     
   2005504870.3237517     
   1871779205.2322230     
   1738520617.0272484     
   1605818221.2785676     
   1473796884.3950899     
   2086119920.5732594     
   1950282339.1363566     
   1815747430.9243207     
   1682453760.3345652     
   1550386426.9625616     
   2205291244.5743866     
   2068954987.5933096     
   1935096135.3067365     
   1803586001.8040395     
   1674460772.4200909     
   2358036387.4608536     
   2220929910.8179893     
   2087550940.6464872     
   1957726875.2297530     
   1831629725.7790811     
   1458478406.4568672     
   1349755345.2061317     
   1275963050.7194207     
   1245143891.4130411     
   1264273883.0117483     
   1473796884.3950899     
   1329567009.2364635     
   1199839747.2663043     
   1089138374.3699930     
   1003394371.0661700     
   1550386426.9625616     
   1399930851.7192247     
   1245794285.3663471     
   1085798796.7136102     
   917977561.26141536     
   1674460772.4200909     
   1557631034.0021224     
   1431251457.3663583     
   1295826911.8304117     
   1157553226.7047763     
   1831629725.7790811     
   1788510326.5931096     
   1740977933.5201299     
   1698066743.7271113     
   1678657564.7798479     
   1264273883.0117483     
   1447224995.1098106     
   1715703140.6404552     
   2110098012.9779451     
   2662544401.4710641     
   1003394371.0661700     
   1165327611.7716184     
   1425327673.1861031     
   1808061585.0597346     
   2333664549.6808214     
   917977561.26141536     
   963165081.08934522     
   1144691105.3491752     
   1475984516.5697961     
   1957027506.7923195     
   1157553226.7047763     
   1007251764.7909381     
   984697720.18508542     
   1161745730.0325167     
   1545344086.3137596     
   1678657564.7798479     
   1381448298.2359216     
   1128521600.9063082     
   1011614020.4393909     
   1157359380.3944972     
 </DataArray>
 <DataArray  type="Float64" Name="strain" NumberOfComponents="3" format="ascii">
  0.10070838917772784       -4.2295604943567877E-002  -9.9773829815714699E-003
   9.7941418947498748E-002  -3.4081506217470303E-002  -7.4937306568679807E-003
   9.5174448717269655E-002  -2.8487105556174619E-002  -4.5989449162341378E-003
   9.2407478487040562E-002  -2.5512402959679908E-002  -1.2930257596701078E-003
   8.9640508256811469E-002  -2.5157398427987032E-002   2.4240268128243869E-003
   9.3403668148968721E-002  -3.5520807687617562E-002   4.4825522669607043E-003
   9.1007508996385877E-002  -2.9596470232104544E-002   5.1245840322705072E-003
   8.8611349843803033E-002  -2.5569135143667016E-002   6.0971045369424548E-003
   8.6215190691220245E-002  -2.3438802422304984E-002   7.4001137809763251E-003
   8.3819031538637512E-002  -2.3205472068018873E-002   9.0336117643726732E-003
   8.6555999115038862E-002  -2.8746010431667357E-002   1.6291378396045220E-002
   8.4450006363534003E-002  -2.5111434246738507E-002   1.5814485299687403E-002
   8.2344013612029143E-002  -2.2651164731159579E-002   1.5587436266123522E-002
   8.0238020860524284E-002  -2.1365201884930227E-002   1.5610231295353480E-002
   7.8132028109019425E-002  -2.1253545708050436E-002   1.5882870387376957E-002
   8.0165382075938180E-002  -2.1971213175717041E-002   2.5449095405682437E-002
   7.8268911048943013E-002  -2.0626398261372608E-002   2.4575973145383144E-002
   7.6372440021947763E-002  -1.9733194318652059E-002   2.3872050271309328E-002
   7.4475968994952527E-002  -1.9291601347555275E-002   2.3337326783460809E-002
   7.2579497967957346E-002  -1.9301619348082250E-002   2.2971802681837780E-002
   7.4231817031666869E-002  -1.5196415919766781E-002   3.1955703295872384E-002
   7.2464223052613019E-002  -1.6141362276006821E-002   3.1409047569357251E-002
   7.0696629073559086E-002  -1.6815223906144594E-002   3.0950946552499414E-002
   6.8929035094505167E-002  -1.7218000810180378E-002   3.0581400245298734E-002
   6.7161441115451276E-002  -1.7349692988113896E-002   3.0300408647755073E-002
   8.9640508256811469E-002  -2.5157398427987032E-002   2.4240268128243869E-003
   8.7009173068725632E-002  -2.5747379011183014E-002   8.8403524140190370E-004
   8.4377837880639794E-002  -2.5607631759354710E-002  -1.8527875668639116E-005
   8.1746502692553957E-002  -2.4738156672502051E-002  -2.8366253838779665E-004
   7.9115167504468120E-002  -2.3138953750625357E-002   8.8631253244764174E-005
   8.3819031538637512E-002  -2.3205472068018873E-002   9.0336117643726732E-003
   8.1732191331385901E-002  -2.3625840453104396E-002   8.1948263696668966E-003
   7.9645351124134317E-002  -2.3456603949857949E-002   7.8076024822778811E-003
   7.7558510916882747E-002  -2.2697762558279298E-002   7.8719401022058905E-003
   7.5471670709631122E-002  -2.1349316278368446E-002   8.3878392294504667E-003
   7.8132028109019425E-002  -2.1253545708050436E-002   1.5882870387376957E-002
   7.6403815935567262E-002  -2.1504301895025696E-002   1.5605168222695934E-002
   7.4675603762115073E-002  -2.1305576140360966E-002   1.5593160618296575E-002
   7.2947391588662910E-002  -2.0657368444055989E-002   1.5846847574179500E-002
   7.1219179415210720E-002  -1.9559678806111480E-002   1.6366229090344103E-002
   7.2579497967957346E-002  -1.9301619348082250E-002   2.2971802681837780E-002
   7.1024046881269759E-002  -1.9382763336947037E-002   2.3115060800489261E-002
   6.9468595794582144E-002  -1.9154548330864149E-002   2.3338146532387520E-002
   6.7913144707894543E-002  -1.8616974329833069E-002   2.3641059877533250E-002
   6.6357693621206928E-002  -1.7770041333854319E-002   2.4023800835925833E-002
   6.7161441115451276E-002  -1.7349692988113896E-002   3.0300408647755073E-002
   6.5592884168493376E-002  -1.7261224778868434E-002   3.0724504103046779E-002
   6.4024327221535490E-002  -1.7003520521367249E-002   3.1042560224550819E-002
   6.2455770274577542E-002  -1.6576580215610155E-002   3.1254577012267068E-002
   6.0887213327619705E-002  -1.5980403861597325E-002   3.1360554466195623E-002
   7.9115167504468120E-002  -2.3138953750625357E-002   8.8631253244764174E-005
   7.3152352813466937E-002  -2.1310519007181727E-002  -3.2681707989645759E-005
   6.7189538122465642E-002  -1.9753348455627290E-002  -3.2887434299788687E-004
   6.1226723431464347E-002  -1.8467442095963217E-002  -7.9994665177982038E-004
   5.5263908740463163E-002  -1.7452799928188378E-002  -1.4458986343353075E-003
   7.5471670709631122E-002  -2.1349316278368446E-002   8.3878392294504667E-003
   6.9439497320050114E-002  -1.9806399246222572E-002   7.5270889559510001E-003
   6.3407323930469078E-002  -1.8464145597937631E-002   6.7025009590654938E-003
   5.7375150540888029E-002  -1.7322555333514206E-002   5.9140752387939755E-003
   5.1342977151307034E-002  -1.6381628452952546E-002   5.1618117951369724E-003
   7.1219179415210720E-002  -1.9559678806111480E-002   1.6366229090344103E-002
   6.5328689277437721E-002  -1.8302279485263140E-002   1.4836642312607701E-002
   5.9438199139664638E-002  -1.7174942740247959E-002   1.3554259761873258E-002
   5.3547709001891555E-002  -1.6177668571065524E-002   1.2519081438140706E-002
   4.7657218864118556E-002  -1.5310456977716380E-002   1.1731107341410085E-002
   6.6357693621206928E-002  -1.7770041333854319E-002   2.4023800835925833E-002
   6.0819928685629701E-002  -1.6798159724303735E-002   2.1895978361981164E-002
   5.5282163750052356E-002  -1.5885739882558182E-002   2.0226402065426027E-002
   4.9744398814475024E-002  -1.5032781808616899E-002   1.9015071946260675E-002
   4.4206633878897769E-002  -1.4239285502480492E-002   1.8261988004484794E-002
   6.0887213327619705E-002  -1.5980403861597325E-002   3.1360554466195623E-002
   5.5913215544625888E-002  -1.5294039963344580E-002   2.8705097104070987E-002
   5.0939217761632127E-002  -1.4596537024868475E-002   2.6718927869723519E-002
   4.5965219978638366E-002  -1.3887895046168042E-002   2.5402046763153455E-002
   4.0991222195644550E-002  -1.3168114027244382E-002   2.4754453784361030E-002
   5.5263908740463163E-002  -1.7452799928188378E-002  -1.4458986343353075E-003
   5.4692548554748588E-002  -1.6652822104968990E-002  -7.0286463872049065E-004
   5.4121188369033957E-002  -1.6010908778971766E-002   1.8428103448886457E-004
   5.3549828183319326E-002  -1.5527059950194891E-002   1.2155383852923696E-003
   5.2978467997604750E-002  -1.5201275618640375E-002   2.3909074136911901E-003
   5.1342977151307034E-002  -1.6381628452952546E-002   5.1618117951369724E-003
   5.0879915528354025E-002  -1.5605655361436988E-002   5.9605516321599161E-003
   5.0416853905401071E-002  -1.4958926464152589E-002   6.8317769171117315E-003
   4.9953792282448117E-002  -1.4441441761099530E-002   7.7754876499921965E-003
   4.9490730659495108E-002  -1.4053201252277381E-002   8.7916838308012002E-003
   4.7657218864118556E-002  -1.5310456977716380E-002   1.1731107341410085E-002
   4.7230829574261307E-002  -1.4558488617904153E-002   1.2614373322831884E-002
   4.6804440284404059E-002  -1.3906944149333383E-002   1.3498498522516250E-002
   4.6378050994546810E-002  -1.3355823572003163E-002   1.4383482940463363E-002
   4.5951661704689534E-002  -1.2905126885914275E-002   1.5269326576673237E-002
   4.4206633878897769E-002  -1.4239285502480492E-002   1.8261988004484794E-002
   4.3745290692470296E-002  -1.3511321874371734E-002   1.9258600433295150E-002
   4.3283947506042808E-002  -1.2854961834513970E-002   2.0184445850702330E-002
   4.2822604319615327E-002  -1.2270205382907188E-002   2.1039524256706379E-002
   4.2361261133187902E-002  -1.1757052519551336E-002   2.1823835651307133E-002
   4.0991222195644550E-002  -1.3168114027244382E-002   2.4754453784361030E-002
   4.0423298882981018E-002  -1.2464155130839261E-002   2.5893232963550283E-002
   3.9855375570317431E-002  -1.1802979519694806E-002   2.6889618901670354E-002
   3.9287452257653871E-002  -1.1184587193811109E-002   2.7743611598721435E-002
   3.8719528944990311E-002  -1.0608978153188398E-002   2.8455211054703500E-002
   5.2978467997604750E-002  -1.5201275618640375E-002   2.3909074136911901E-003
   4.9528636998503295E-002  -1.4829396542293316E-002   1.2649428848807709E-003
   4.6078805999401784E-002  -1.4207263479141474E-002   3.4332411014581510E-004
   4.2628975000300273E-002  -1.3334876429184628E-002  -3.7394891051495405E-004
   3.9179144001198818E-002  -1.2212235392422111E-002  -8.8687617710125899E-004
   4.9490730659495108E-002  -1.4053201252277381E-002   8.7916838308012002E-003
   4.6239873648509233E-002  -1.3631093655343984E-002   7.8326320979659192E-003
   4.2989016637523331E-002  -1.3012007687955296E-002   7.0671825872871685E-003
   3.9738159626537442E-002  -1.2195943350111677E-002   6.4953352987645041E-003
   3.6487302615551442E-002  -1.1182900641814486E-002   6.1170902323983700E-003
   4.5951661704689534E-002  -1.2905126885914275E-002   1.5269326576673237E-002
   4.2889035149900889E-002  -1.2432790768393598E-002   1.4423912023462299E-002
   3.9826408595112245E-002  -1.1816751896769118E-002   1.3761356160489485E-002
   3.6763782040323573E-002  -1.1057010271039613E-002   1.3281658987754907E-002
   3.3701155485534984E-002  -1.0153565891206306E-002   1.2984820505258177E-002
   4.2361261133187902E-002  -1.1757052519551336E-002   2.1823835651307133E-002
   3.9476121502678263E-002  -1.1234487881443961E-002   2.1038782661370478E-002
   3.6590981872168603E-002  -1.0621496105582717E-002   2.0425844829753251E-002
   3.3705842241658998E-002  -9.9180771919675503E-003   1.9985022156455673E-002
   3.0820702611149421E-002  -9.1242311405982934E-003   1.9716314641478536E-002
   3.8719528944990311E-002  -1.0608978153188398E-002   2.8455211054703500E-002
   3.6001132706841354E-002  -1.0036184994494379E-002   2.7677244011690028E-002
   3.3282736468692425E-002  -9.4262403143960671E-003   2.7060648595078118E-002
   3.0564340230543538E-002  -8.7791441128951472E-003   2.6605424804867828E-002
   2.7845943992394595E-002  -8.0948963899903914E-003   2.6311572641058878E-002
   3.9179144001198818E-002  -1.2212235392422111E-002  -8.8687617710125899E-004
   3.7003951319783512E-002  -1.1106705600616995E-002  -6.9246113126775199E-004
   3.4828758638368207E-002  -1.0285652285530966E-002  -5.2164293751089108E-004
   3.2653565956952874E-002  -9.7490754471640656E-003  -3.7442159583078727E-004
   3.0478373275537596E-002  -9.4969750855162793E-003  -2.5079710622666340E-004
   3.6487302615551442E-002  -1.1182900641814486E-002   6.1170902323983700E-003
   3.4287616442607805E-002  -1.0170570484917318E-002   5.9748629194222858E-003
   3.2087930269664222E-002  -9.3566438012772646E-003   5.8072454754671265E-003
   2.9888244096720556E-002  -8.7411205908934225E-003   5.6142379005312271E-003
   2.7688557923776946E-002  -8.3240008537674992E-003   5.3958401946148093E-003
   3.3701155485534984E-002  -1.0153565891206306E-002   1.2984820505258177E-002
   3.1475182542159280E-002  -9.2344353692180303E-003   1.2592023836935973E-002
   2.9249209598783535E-002  -8.4276353170240348E-003   1.2172043758730183E-002
   2.7023236655407783E-002  -7.7331657346241187E-003   1.1724880270640045E-002
   2.4797263712032114E-002  -7.1510266220189411E-003   1.1250533372666183E-002
   3.0820702611149421E-002  -9.1242311405982934E-003   1.9716314641478536E-002
   2.8566649618437877E-002  -8.2983002535183259E-003   1.9159021621272102E-002
   2.6312596625726273E-002  -7.4986268327703470E-003   1.8572751912278203E-002
   2.4058543633014712E-002  -6.7252108783544783E-003   1.7957505514496489E-002
   2.1804490640303133E-002  -5.9780523902701610E-003   1.7313282427927013E-002
   2.7845943992394595E-002  -8.0948963899903914E-003   2.6311572641058878E-002
   2.5562017671443449E-002  -7.3621651378190656E-003   2.5675856272431186E-002
   2.3278091350492358E-002  -6.5696183485168536E-003   2.5009369936111414E-002
   2.0994165029541267E-002  -5.7172560220844423E-003   2.4312113632100618E-002
   1.8710238708590177E-002  -4.8050781585217139E-003   2.3584087360398076E-002
   3.0478373275537596E-002  -9.4969750855162793E-003  -2.5079710622666340E-004
   2.9784278287828925E-002  -9.1540400556218149E-003  -2.0963655556416327E-004
   2.9090183300120254E-002  -8.3449592125156569E-003  -1.7960860486608832E-003
   2.8396088312411555E-002  -7.0697325561974445E-003  -5.0101455855157129E-003
   2.7701993324702912E-002  -5.3283600866671499E-003  -9.8518151661290965E-003
   2.7688557923776946E-002  -8.3240008537674992E-003   5.3958401946148093E-003
   2.5627651671218499E-002  -7.8799932808354400E-003   5.9554831432409028E-003
   2.3566745418660079E-002  -7.1838065630352999E-003   5.4091136059264966E-003
   2.1505839166101673E-002  -6.2354407003682721E-003   3.7567315826710912E-003
   1.9444932913543211E-002  -5.0348956928323307E-003   9.9833707347496414E-004
   2.4797263712032114E-002  -7.1510266220189411E-003   1.1250533372666183E-002
   2.1891143752441333E-002  -6.6059465060491762E-003   1.2114692050912867E-002
   1.8985023792850567E-002  -6.0226539135552204E-003   1.2394435801035830E-002
   1.6078903833259765E-002  -5.4011488445388917E-003   1.2089764623034696E-002
   1.3172783873668992E-002  -4.7414312989977336E-003   1.1200678516910756E-002
   2.1804490640303133E-002  -5.9780523902701610E-003   1.7313282427927013E-002
   1.8574754531497456E-002  -5.3318997312625238E-003   1.8267990167450024E-002
   1.5345018422691665E-002  -4.8615012640754462E-003   1.9159880536666105E-002
   1.2115282313885872E-002  -4.5668569887089491E-003   1.9988953535576365E-002
   8.8855462050802039E-003  -4.4479669051634696E-003   2.0755209164180194E-002
   1.8710238708590177E-002  -4.8050781585217139E-003   2.3584087360398076E-002
   1.5678484008386784E-002  -4.0578529564762045E-003   2.4415377492852497E-002
   1.2646729308183391E-002  -3.7003486145955611E-003   2.5705447812818083E-002
   9.6149746079799703E-003  -3.7325651328800336E-003   2.7454298320294779E-002
   6.5832199077766052E-003  -4.1545025113288725E-003   2.9661929015282529E-002
   2.7701993324702912E-002  -5.3283600866671499E-003  -9.8518151661290965E-003
   2.3308619902178918E-002  -4.1876197328205578E-003  -4.2308226153091599E-003
   1.8915246479654924E-002  -4.7142894235527866E-003   2.6252950310481360E-003
   1.4521873057131068E-002  -6.9083691588667784E-003   1.0716537772942014E-002
   1.0128499634606936E-002  -1.0769858938759036E-002   2.0042905610373474E-002
   1.9444932913543211E-002  -5.0348956928323307E-003   9.9833707347496414E-004
   1.6219426145504479E-002  -4.6782675917469430E-003   6.7332710533547502E-003
   1.2993919377465579E-002  -6.2616524484277458E-003   1.3568813246667810E-002
   9.7684126094268742E-003  -9.7850502628759467E-003   2.1504963653413312E-002
   6.5429058413879471E-003  -1.5248461035090699E-002   3.0541722273592864E-002
   1.3172783873668992E-002  -4.7414312989977336E-003   1.1200678516910756E-002
   1.0980626878011296E-002  -5.1689154506728840E-003   1.6776951012663410E-002
   8.7884698823536000E-003  -7.8090154733018169E-003   2.3319314839745198E-002
   6.5963128866959389E-003  -1.2661731366885115E-002   3.0827769998156257E-002
   4.4041558910382639E-003  -1.9727063131423250E-002   3.9302316487896283E-002
   8.8855462050802039E-003  -4.4479669051634696E-003   2.0755209164180194E-002
   7.5922220996995846E-003  -5.6595633095988251E-003   2.5900217262618055E-002
   6.2988979943190727E-003  -9.3563784981761100E-003   3.1876799810281325E-002
   5.0055738889384239E-003  -1.5538412470894727E-002   3.8684956807169490E-002
   3.7122497835579693E-003  -2.4205665227755357E-002   4.6324688253282897E-002
   6.5832199077766052E-003  -4.1545025113288725E-003   2.9661929015282529E-002
   6.0542118105691989E-003  -6.1502111685252103E-003   3.4103069803218200E-002
   5.5252037133618481E-003  -1.0903741523050431E-002   3.9241268158275389E-002
   4.9961956161544280E-003  -1.8415093574904069E-002   4.5076524080454011E-002
   4.4671875189470356E-003  -2.8684267324087465E-002   5.1608837569753430E-002
   7.4231817031666869E-002  -1.5196415919766781E-002   3.1955703295872384E-002
   7.2464223052613019E-002  -1.6141362276006821E-002   3.1409047569357251E-002
   7.0696629073559086E-002  -1.6815223906144594E-002   3.0950946552499414E-002
   6.8929035094505167E-002  -1.7218000810180378E-002   3.0581400245298734E-002
   6.7161441115451276E-002  -1.7349692988113896E-002   3.0300408647755073E-002
   6.8404117305408935E-002  -1.6415333946963595E-002   3.5625802866588008E-002
   6.6749187376006519E-002  -1.6959207501022755E-002   3.5133009842081037E-002
   6.5094257446603951E-002  -1.7224016339551396E-002   3.4776990207219999E-002
   6.3439327517201466E-002  -1.7209760462549517E-002   3.4557743962004367E-002
   6.1784397587798995E-002  -1.6916439870017091E-002   3.4475271106434419E-002
   6.2331096220348645E-002  -1.7634251974160464E-002   3.9692985244770190E-002
   6.0837049020586093E-002  -1.7777052726038758E-002   3.9262034911700106E-002
   5.9343001820823450E-002  -1.7632808772958170E-002   3.9016076648263814E-002
   5.7848954621060850E-002  -1.7201520114918628E-002   3.8955110454461817E-002
   5.6354907421298304E-002  -1.6483186751920259E-002   3.9079136330293987E-002
   5.6012753776485999E-002  -1.8853170001357306E-002   4.4157250430419223E-002
   5.4727807986351802E-002  -1.8594897951054699E-002   4.3796122778213903E-002
   5.3442862196217612E-002  -1.8041601206364874E-002   4.3668205875631264E-002
   5.2157916406083339E-002  -1.7193279767287864E-002   4.3773499722671194E-002
   5.0872970615949184E-002  -1.6049933633823413E-002   4.4112004319333653E-002
   4.9449089973820970E-002  -2.0072088028554147E-002   4.9018598423534898E-002
   4.8421464273303627E-002  -1.9412743176070696E-002   4.8735273441622984E-002
   4.7393838572786284E-002  -1.8450393639771759E-002   4.8733377889321999E-002
   4.6366212872268942E-002  -1.7185039419656923E-002   4.9012911766632236E-002
   4.5338587171751599E-002  -1.5616680515726622E-002   4.9573875073553653E-002
   6.7161441115451276E-002  -1.7349692988113896E-002   3.0300408647755073E-002
   6.5592884168493376E-002  -1.7261224778868434E-002   3.0724504103046779E-002
   6.4024327221535490E-002  -1.7003520521367249E-002   3.1042560224550819E-002
   6.2455770274577542E-002  -1.6576580215610155E-002   3.1254577012267068E-002
   6.0887213327619705E-002  -1.5980403861597325E-002   3.1360554466195623E-002
   6.1784397587798995E-002  -1.6916439870017091E-002   3.4475271106434419E-002
   6.0149485960876367E-002  -1.6463351248238542E-002   3.4991458272309497E-002
   5.8514574333953642E-002  -1.5969791283498257E-002   3.5480975412042565E-002
   5.6879662707030980E-002  -1.5435759975796331E-002   3.5943822525634106E-002
   5.5244751080108262E-002  -1.4861257325132771E-002   3.6379999613083552E-002
   5.6354907421298304E-002  -1.6483186751920259E-002   3.9079136330293987E-002
   5.4733010422056742E-002  -1.5665477717608539E-002   3.9558650501458202E-002
   5.3111113422815215E-002  -1.4936062045629375E-002   4.0090863954126463E-002
   5.1489216423573722E-002  -1.4294939735982507E-002   4.0675776688298956E-002
   4.9867319424332174E-002  -1.3742110788668133E-002   4.1313388703975260E-002
   5.0872970615949184E-002  -1.6049933633823413E-002   4.4112004319333653E-002
   4.9343457552034717E-002  -1.4867604186978647E-002   4.4426080790493011E-002
   4.7813944488120215E-002  -1.3902332807760411E-002   4.4872225850802278E-002
   4.6284431424205734E-002  -1.3154119496168697E-002   4.5450439500261522E-002
   4.4754918360291253E-002  -1.2622964252203564E-002   4.6160721738870911E-002
   4.5338587171751599E-002  -1.5616680515726622E-002   4.9573875073553653E-002
   4.3980827350810103E-002  -1.4069730656348617E-002   4.9593749139413834E-002
   4.2623067529868594E-002  -1.2868603569891543E-002   4.9825061102069884E-002
   4.1265307708927078E-002  -1.2013299256354980E-002   5.0267810961521844E-002
   3.9907547887985589E-002  -1.1503817715738995E-002   5.0921998717769978E-002
   6.0887213327619705E-002  -1.5980403861597325E-002   3.1360554466195623E-002
   5.5913215544625888E-002  -1.5294039963344580E-002   2.8705097104070987E-002
   5.0939217761632127E-002  -1.4596537024868475E-002   2.6718927869723519E-002
   4.5965219978638366E-002  -1.3887895046168042E-002   2.5402046763153455E-002
   4.0991222195644550E-002  -1.3168114027244382E-002   2.4754453784361030E-002
   5.5244751080108262E-002  -1.4861257325132771E-002   3.6379999613083552E-002
   5.0886619189698917E-002  -1.4259316454542204E-002   3.3948922676059035E-002
   4.6528487299289503E-002  -1.3642970487059730E-002   3.2080289396425640E-002
   4.2170355408880152E-002  -1.3012219422685066E-002   3.0774099774183807E-002
   3.7812223518470744E-002  -1.2367063261418565E-002   3.0030353809333110E-002
   4.9867319424332174E-002  -1.3742110788668133E-002   4.1313388703975260E-002
   4.6018208956121152E-002  -1.3224592945739758E-002   3.9109958248719032E-002
   4.2169098487910131E-002  -1.2689403949251089E-002   3.7362126980468181E-002
   3.8319988019699124E-002  -1.2136543799202032E-002   3.6069894899222452E-002
   3.4470877551488102E-002  -1.1566012495592526E-002   3.5233262004982363E-002
   4.4754918360291253E-002  -1.2622964252203564E-002   4.6160721738870911E-002
   4.1307984843892566E-002  -1.2189869436937346E-002   4.4188203822051228E-002
   3.7861051327493817E-002  -1.1735837411442424E-002   4.2564440621850899E-002
   3.4414117811095137E-002  -1.1260868175718749E-002   4.1289432138269987E-002
   3.0967184294696387E-002  -1.0764961729766653E-002   4.0363178371308282E-002
   3.9907547887985589E-002  -1.1503817715738995E-002   5.0921998717769978E-002
   3.6755946853013172E-002  -1.1155145928134907E-002   4.9183659396055401E-002
   3.3604345818040740E-002  -1.0782270873633745E-002   4.7687230320574148E-002
   3.0452744783068315E-002  -1.0385192552235922E-002   4.6432711491326259E-002
   2.7301143748095863E-002  -9.9639109639405588E-003   4.5420102908311333E-002
   4.0991222195644550E-002  -1.3168114027244382E-002   2.4754453784361030E-002
   4.0423298882981018E-002  -1.2464155130839261E-002   2.5893232963550283E-002
   3.9855375570317431E-002  -1.1802979519694806E-002   2.6889618901670354E-002
   3.9287452257653871E-002  -1.1184587193811109E-002   2.7743611598721435E-002
   3.8719528944990311E-002  -1.0608978153188398E-002   2.8455211054703500E-002
   3.7812223518470744E-002  -1.2367063261418565E-002   3.0030353809333110E-002
   3.7137301353376062E-002  -1.1714260984387048E-002   3.1021232012039823E-002
   3.6462379188281435E-002  -1.1060571572717920E-002   3.1940505750953391E-002
   3.5787457023186753E-002  -1.0405995026411048E-002   3.2788175026073577E-002
   3.5112534858092043E-002  -9.7505313454666620E-003   3.3564239837400645E-002
   3.4470877551488102E-002  -1.1566012495592526E-002   3.5233262004982363E-002
   3.3759745311238099E-002  -1.0964366837934864E-002   3.6119909651104926E-002
   3.3048613070988220E-002  -1.0318163625741131E-002   3.7005741610710227E-002
   3.2337480830738306E-002  -9.6274028590111506E-003   3.7890757883798205E-002
   3.1626348590488337E-002  -8.8920845377450375E-003   3.8774958470368937E-002
   3.0967184294696387E-002  -1.0764961729766653E-002   4.0363178371308282E-002
   3.0290630756567120E-002  -1.0214472691482887E-002   4.1189265880745278E-002
   2.9614077218437881E-002  -9.5757556787642376E-003   4.2085326480940849E-002
   2.8937523680308629E-002  -8.8488106916112270E-003   4.3051360171895203E-002
   2.8260970142179372E-002  -8.0336377300233575E-003   4.4087366953607869E-002
   2.7301143748095863E-002  -9.9639109639405588E-003   4.5420102908311333E-002
   2.6729957689363149E-002  -9.4645785450306330E-003   4.6229300700961318E-002
   2.6158771630630379E-002  -8.8333477317874276E-003   4.7179260361645659E-002
   2.5587585571897664E-002  -8.0702185242111854E-003   4.8269981890364577E-002
   2.5016399513164894E-002  -7.1751909223017885E-003   4.9501465287117630E-002
   3.8719528944990311E-002  -1.0608978153188398E-002   2.8455211054703500E-002
   3.6001132706841354E-002  -1.0036184994494379E-002   2.7677244011690028E-002
   3.3282736468692425E-002  -9.4262403143960671E-003   2.7060648595078118E-002
   3.0564340230543538E-002  -8.7791441128951472E-003   2.6605424804867828E-002
   2.7845943992394595E-002  -8.0948963899903914E-003   2.6311572641058878E-002
   3.5112534858092043E-002  -9.7505313454666620E-003   3.3564239837400645E-002
   3.2555804672190769E-002  -9.0935524702345782E-003   3.2927022427198693E-002
   2.9999074486289523E-002  -8.4344303410649191E-003   3.2451765495090296E-002
   2.7442344300388263E-002  -7.7731649579572334E-003   3.2138469041075757E-002
   2.4885614114487004E-002  -7.1097563209121528E-003   3.1987133065154993E-002
   3.1626348590488337E-002  -8.8920845377450375E-003   3.8774958470368937E-002
   2.9231873308527001E-002  -8.1509199459750825E-003   3.8243482425512260E-002
   2.6837398026565672E-002  -7.4426203677330077E-003   3.7874555710441640E-002
   2.4442922744604283E-002  -6.7671858030194341E-003   3.7668178325156960E-002
   2.2048447462642951E-002  -6.1246162518339697E-003   3.7624350269658519E-002
   2.8260970142179372E-002  -8.0336377300233575E-003   4.4087366953607869E-002
   2.6029338615850096E-002  -7.2082874217156007E-003   4.3626624006630914E-002
   2.3797707089520871E-002  -6.4508103944014780E-003   4.3329019241131889E-002
   2.1566075563191643E-002  -5.7612066480816886E-003   4.3194552657111661E-002
   1.9334444036862422E-002  -5.1394761827557034E-003   4.3223224254569294E-002
   2.5016399513164894E-002  -7.1751909223017885E-003   4.9501465287117630E-002
   2.2948200594160029E-002  -6.2656548974560078E-003   4.9076447170554482E-002
   2.0880001675155149E-002  -5.4590004210698373E-003   4.8815156087161859E-002
   1.8811802756150277E-002  -4.7552274931435268E-003   4.8717592036939511E-002
   1.6743603837145377E-002  -4.1543361136774370E-003   4.8783755019887742E-002
   2.7845943992394595E-002  -8.0948963899903914E-003   2.6311572641058878E-002
   2.5562017671443449E-002  -7.3621651378190656E-003   2.5675856272431186E-002
   2.3278091350492358E-002  -6.5696183485168536E-003   2.5009369936111414E-002
   2.0994165029541267E-002  -5.7172560220844423E-003   2.4312113632100618E-002
   1.8710238708590177E-002  -4.8050781585217139E-003   2.3584087360398076E-002
   2.4885614114487004E-002  -7.1097563209121528E-003   3.1987133065154993E-002
   2.2606039203385775E-002  -6.4347932739689528E-003   3.1550091851626383E-002
   2.0326464292284602E-002  -5.7388646611663818E-003   3.1152523425488826E-002
   1.8046889381183366E-002  -5.0219704825053904E-003   3.0794427786743073E-002
   1.5767314470082200E-002  -4.2841107379849586E-003   3.0475804935388040E-002
   2.2048447462642951E-002  -6.1246162518339697E-003   3.7624350269658519E-002
   1.9843466716474287E-002  -5.5074214101188401E-003   3.7347134239958085E-002
   1.7638485970305623E-002  -4.9081109738160350E-003   3.7179633752731270E-002
   1.5433505224137001E-002  -4.3266849429261199E-003   3.7121848807978468E-002
   1.3228524477968309E-002  -3.7631433174484807E-003   3.7173779405699547E-002
   1.9334444036862422E-002  -5.1394761827557034E-003   4.3223224254569294E-002
   1.7274300210708936E-002  -4.5800495462687274E-003   4.3066983437425203E-002
   1.5214156384555540E-002  -4.0773572864655702E-003   4.3090700917837899E-002
   1.3154012558402102E-002  -3.6313994033467922E-003   4.3294376695807289E-002
   1.1093868732248713E-002  -3.2421758969120307E-003   4.3678010771332737E-002
   1.6743603837145377E-002  -4.1543361136774370E-003   4.8783755019887742E-002
   1.4898539686089840E-002  -3.6526776824185592E-003   4.8709639444028840E-002
   1.3053475535034290E-002  -3.2466035991152442E-003   4.8885724920809170E-002
   1.1208411383978746E-002  -2.9361138637676934E-003   4.9312011450228732E-002
   9.3633472329232581E-003  -2.7212084763752475E-003   4.9988499032287637E-002
   1.8710238708590177E-002  -4.8050781585217139E-003   2.3584087360398076E-002
   1.5678484008386784E-002  -4.0578529564762045E-003   2.4415377492852497E-002
   1.2646729308183391E-002  -3.7003486145955611E-003   2.5705447812818083E-002
   9.6149746079799703E-003  -3.7325651328800336E-003   2.7454298320294779E-002
   6.5832199077766052E-003  -4.1545025113288725E-003   2.9661929015282529E-002
   1.5767314470082200E-002  -4.2841107379849586E-003   3.0475804935388040E-002
   1.3178557148909809E-002  -3.7581002981350586E-003   3.1278253988074434E-002
   1.0589799827737417E-002  -3.6767540334843030E-003   3.2507917611312220E-002
   8.0010425065650259E-003  -4.0400719440328234E-003   3.4164795805100456E-002
   5.4122851853926346E-003  -4.8480540297806130E-003   3.6248888569439863E-002
   1.3228524477968309E-002  -3.7631433174484807E-003   3.7173779405699547E-002
   1.1051198918866814E-002  -3.4583476397939683E-003   3.7892444063583663E-002
   8.8738733597653538E-003  -3.6531594523731559E-003   3.9006757675058762E-002
   6.6965478006639004E-003  -4.3475787551859463E-003   4.0516720240124482E-002
   4.5192222415623984E-003  -5.5416055482322979E-003   4.2422331758781157E-002
   1.1093868732248713E-002  -3.2421758969120307E-003   4.3678010771332737E-002
   9.2964093182579706E-003  -3.1585949814527392E-003   4.4257947719380235E-002
   7.4989499042672492E-003  -3.6295648712620643E-003   4.5201968004058624E-002
   5.7014904902764844E-003  -4.6550855663389026E-003   4.6510071625367556E-002
   3.9040310762857786E-003  -6.2351570666841216E-003   4.8182258583307387E-002
   9.3633472329232581E-003  -2.7212084763752475E-003   4.9988499032287637E-002
   7.9141883470831287E-003  -2.8588423231117321E-003   5.0374764955463780E-002
   6.4650294612430548E-003  -3.6059702901508062E-003   5.1093548598311223E-002
   5.0158705754029670E-003  -4.9625923774919839E-003   5.2144849960828743E-002
   3.5667116895628515E-003  -6.9287085851357233E-003   5.3528669043017008E-002
   6.5832199077766052E-003  -4.1545025113288725E-003   2.9661929015282529E-002
   6.0542118105691989E-003  -6.1502111685252103E-003   3.4103069803218200E-002
   5.5252037133618481E-003  -1.0903741523050431E-002   3.9241268158275389E-002
   4.9961956161544280E-003  -1.8415093574904069E-002   4.5076524080454011E-002
   4.4671875189470356E-003  -2.8684267324087465E-002   5.1608837569753430E-002
   5.4122851853926346E-003  -4.8480540297806130E-003   3.6248888569439863E-002
   5.4744092868296568E-003  -6.9923114950293241E-003   3.8369121626886660E-002
   5.5365333882666928E-003  -1.1364455544080693E-002   4.0974561514501739E-002
   5.5986574897037497E-003  -1.7964486176934434E-002   4.4065208232284381E-002
   5.6607815911408066E-003  -2.6792403393591124E-002   4.7641061780234528E-002
   4.5192222415623984E-003  -5.5416055482322979E-003   4.2422331758781157E-002
   4.9606278046904345E-003  -7.8344118215336600E-003   4.2751592199266247E-002
   5.4020333678184290E-003  -1.1825169565111052E-002   4.3354208732964930E-002
   5.8434389309463090E-003  -1.7513878778964907E-002   4.4230181359878100E-002
   6.2848444940743486E-003  -2.4900539463094784E-002   4.5379510080005847E-002
   3.9040310762857786E-003  -6.2351570666841216E-003   4.8182258583307387E-002
   4.5128673641513413E-003  -8.6765121480376628E-003   4.7250481520355860E-002
   5.1217036520169370E-003  -1.2285883586141473E-002   4.6380209813665169E-002
   5.7305399398825283E-003  -1.7063271380994990E-002   4.5571443463235481E-002
   6.3393762277480364E-003  -2.3008675532598444E-002   4.4824182469066248E-002
   3.5667116895628515E-003  -6.9287085851357233E-003   5.3528669043017008E-002
   4.1311279652125610E-003  -9.5186124745422207E-003   5.1865789590156086E-002
   4.6955442408621872E-003  -1.2746597607171950E-002   5.0052564756602358E-002
   5.2599605165118551E-003  -1.6612663983025425E-002   4.8088994542355878E-002
   5.8243767921615230E-003  -2.1116811602102104E-002   4.5975078947417369E-002
   4.9449089973820970E-002  -2.0072088028554147E-002   4.9018598423534898E-002
   4.8421464273303627E-002  -1.9412743176070696E-002   4.8735273441622984E-002
   4.7393838572786284E-002  -1.8450393639771759E-002   4.8733377889321999E-002
   4.6366212872268942E-002  -1.7185039419656923E-002   4.9012911766632236E-002
   4.5338587171751599E-002  -1.5616680515726622E-002   4.9573875073553653E-002
   4.2936823269964758E-002  -1.6322803167192923E-002   5.2104381028896918E-002
   4.2142647868143687E-002  -1.5836975143446175E-002   5.2378480482776685E-002
   4.1348472466322617E-002  -1.5139575782941644E-002   5.2838051104437816E-002
   4.0554297064501546E-002  -1.4230605085679728E-002   5.3483092893880591E-002
   3.9760121662680489E-002  -1.3110063051660181E-002   5.4313605851104618E-002
   3.6772672122528591E-002  -1.2573518305831644E-002   5.5062363479050955E-002
   3.6115988757574102E-002  -1.2261207110821501E-002   5.5802454021664477E-002
   3.5459305392619614E-002  -1.1828757926111828E-002   5.6632057470229945E-002
   3.4802622027665112E-002  -1.1276170751702586E-002   5.7551173824747018E-002
   3.4145938662710630E-002  -1.0603445587593796E-002   5.8559803085215759E-002
   3.0956636531512469E-002  -8.8242334444703779E-003   5.7892545773997758E-002
   3.0341486941594834E-002  -8.6854390781969035E-003   5.9007194058287089E-002
   2.9726337351677276E-002  -8.5179400692819186E-003   6.0115396986698315E-002
   2.9111187761759656E-002  -8.3217364177253887E-003   6.1217154559231671E-002
   2.8496038171842090E-002  -8.0968281235274664E-003   6.2312466775887074E-002
   2.5488716496916364E-002  -5.0749485831091401E-003   6.0594927913736774E-002
   2.4819142420205970E-002  -5.1096710455723060E-003   6.1992700592643557E-002
   2.4149568343495575E-002  -5.2071222124520089E-003   6.3288069653842927E-002
   2.3479994266785167E-002  -5.3673020837482349E-003   6.4481035097334577E-002
   2.2810420190074773E-002  -5.5902106594610257E-003   6.5571596923118591E-002
   4.5338587171751599E-002  -1.5616680515726622E-002   4.9573875073553653E-002
   4.3980827350810103E-002  -1.4069730656348617E-002   4.9593749139413834E-002
   4.2623067529868594E-002  -1.2868603569891543E-002   4.9825061102069884E-002
   4.1265307708927078E-002  -1.2013299256354980E-002   5.0267810961521844E-002
   3.9907547887985589E-002  -1.1503817715738995E-002   5.0921998717769978E-002
   3.9760121662680489E-002  -1.3110063051660181E-002   5.4313605851104618E-002
   3.8595057300835511E-002  -1.1992269754049420E-002   5.3997574197118717E-002
   3.7429992938990568E-002  -1.1091545266014274E-002   5.3855495564529995E-002
   3.6264928577145597E-002  -1.0407889587554099E-002   5.3887369953338350E-002
   3.5099864215300647E-002  -9.9413027186694425E-003   5.4093197363543760E-002
   3.4145938662710630E-002  -1.0603445587593796E-002   5.8559803085215759E-002
   3.3136084884563440E-002  -9.9148088517503202E-003   5.8036619674728979E-002
   3.2126231106416256E-002  -9.3144869621369017E-003   5.7649904410240739E-002
   3.1116377328269065E-002  -8.8024799187535526E-003   5.7399657291750672E-002
   3.0106523550121882E-002  -8.3787877216001394E-003   5.7285878319259256E-002
   2.8496038171842090E-002  -8.0968281235274664E-003   6.2312466775887074E-002
   2.7603910101993895E-002  -7.8373479494511164E-003   6.1710885572244877E-002
   2.6711782032145713E-002  -7.5374286582595255E-003   6.1208287639202240E-002
   2.5819653962297528E-002  -7.1970702499527276E-003   6.0804672976759289E-002
   2.4927525892449363E-002  -6.8162727245306837E-003   6.0500041584915690E-002
   2.2810420190074773E-002  -5.5902106594610257E-003   6.5571596923118591E-002
   2.1998532953126843E-002  -5.7598870471520514E-003   6.5020371889666140E-002
   2.1186645716178912E-002  -5.7603703543822465E-003   6.4530645251414581E-002
   2.0374758479230981E-002  -5.5916605811521768E-003   6.4102417008363791E-002
   1.9562871242283036E-002  -5.2537577274612834E-003   6.3735687160513810E-002
   3.9907547887985589E-002  -1.1503817715738995E-002   5.0921998717769978E-002
   3.6755946853013172E-002  -1.1155145928134907E-002   4.9183659396055401E-002
   3.3604345818040740E-002  -1.0782270873633745E-002   4.7687230320574148E-002
   3.0452744783068315E-002  -1.0385192552235922E-002   4.6432711491326259E-002
   2.7301143748095863E-002  -9.9639109639405588E-003   4.5420102908311333E-002
   3.5099864215300647E-002  -9.9413027186694425E-003   5.4093197363543760E-002
   3.2233660900975389E-002  -9.5797697370879065E-003   5.2228270674682886E-002
   2.9367457586650117E-002  -9.2112757205363993E-003   5.0692229180882828E-002
   2.6501254272324838E-002  -8.8358206690154276E-003   4.9485072882143981E-002
   2.3635050957999601E-002  -8.4534045825246373E-003   4.8606801778466158E-002
   3.0106523550121882E-002  -8.3787877216001394E-003   5.7285878319259256E-002
   2.7612692905271616E-002  -8.0043935460406418E-003   5.5277122031324233E-002
   2.5118862260421346E-002  -7.6402805674388938E-003   5.3684225887278218E-002
   2.2625031615571070E-002  -7.2864487857948242E-003   5.2507189887121011E-002
   2.0131200970720811E-002  -6.9428982011084384E-003   5.1746014030852772E-002
   2.4927525892449363E-002  -6.8162727245306837E-003   6.0500041584915690E-002
   2.2893042865901908E-002  -6.4290173549936477E-003   5.8330213465979656E-002
   2.0858559839354439E-002  -6.0692854143414680E-003   5.6663220439760333E-002
   1.8824076812806959E-002  -5.7370769025743311E-003   5.5499062506257531E-002
   1.6789593786259518E-002  -5.4323918196922671E-003   5.4837739665471529E-002
   1.9562871242283036E-002  -5.2537577274612834E-003   6.3735687160513810E-002
   1.8074710782866210E-002  -4.8536411639463206E-003   6.1387544978649233E-002
   1.6586550323449384E-002  -4.4982902612440145E-003   5.9629212838328921E-002
   1.5098389864032558E-002  -4.1877050193538309E-003   5.8460690739553178E-002
   1.3610229404615731E-002  -3.9218854382762069E-003   5.7881978682322033E-002
   2.7301143748095863E-002  -9.9639109639405588E-003   4.5420102908311333E-002
   2.6729957689363149E-002  -9.4645785450306330E-003   4.6229300700961318E-002
   2.6158771630630379E-002  -8.8333477317874276E-003   4.7179260361645659E-002
   2.5587585571897664E-002  -8.0702185242111854E-003   4.8269981890364577E-002
   2.5016399513164894E-002  -7.1751909223017885E-003   4.9501465287117630E-002
   2.3635050957999601E-002  -8.4534045825246373E-003   4.8606801778466158E-002
   2.3182336817958907E-002  -8.0188636030690263E-003   4.9670545997237470E-002
   2.2729622677918206E-002  -7.4870338726537866E-003   5.0830472185358438E-002
   2.2276908537877487E-002  -6.8579153912788279E-003   5.2086580342828800E-002
   2.1824194397836810E-002  -6.1315081589440323E-003   5.3438870469649125E-002
   2.0131200970720811E-002  -6.9428982011084384E-003   5.1746014030852772E-002
   1.9752378850687313E-002  -6.5731486611076695E-003   5.3029695032372343E-002
   1.9373556730653795E-002  -6.1407200135201595E-003   5.4364978104556524E-002
   1.8994734610620293E-002  -5.6456122583465849E-003   5.5751863247405657E-002
   1.8615912490586771E-002  -5.0878253955862207E-003   5.7190350460919415E-002
   1.6789593786259518E-002  -5.4323918196922671E-003   5.4837739665471529E-002
   1.6440083787548323E-002  -5.1274337191461322E-003   5.6306747806365930E-002
   1.6090573788837118E-002  -4.7944061543867475E-003   5.7782778119240250E-002
   1.5741063790125919E-002  -4.4333091254142847E-003   5.9265830604094377E-002
   1.5391553791414712E-002  -4.0441426322282148E-003   6.0755905260928583E-002
   1.3610229404615731E-002  -3.9218854382762069E-003   5.7881978682322033E-002
   1.3245451628541974E-002  -3.6817187771845949E-003   5.9501704319218196E-002
   1.2880673852468216E-002  -3.4480922952530302E-003   6.1083872229409253E-002
   1.2515896076394473E-002  -3.2210059924819359E-003   6.2628482412895398E-002
   1.2151118300320729E-002  -3.0004598688705419E-003   6.4135534869676381E-002
   2.5016399513164894E-002  -7.1751909223017885E-003   4.9501465287117630E-002
   2.2948200594160029E-002  -6.2656548974560078E-003   4.9076447170554482E-002
   2.0880001675155149E-002  -5.4590004210698373E-003   4.8815156087161859E-002
   1.8811802756150277E-002  -4.7552274931435268E-003   4.8717592036939511E-002
   1.6743603837145377E-002  -4.1543361136774370E-003   4.8783755019887742E-002
   2.1824194397836810E-002  -6.1315081589440323E-003   5.3438870469649125E-002
   1.9939886202567619E-002  -5.3920968642180989E-003   5.2930858164410566E-002
   1.8055578007298415E-002  -4.7239661956693657E-003   5.2626900273472943E-002
   1.6171269812029196E-002  -4.1271161532976317E-003   5.2526996796836312E-002
   1.4286961616760019E-002  -3.6015467371034449E-003   5.2631147734500505E-002
   1.8615912490586771E-002  -5.0878253955862207E-003   5.7190350460919415E-002
   1.6955822400183701E-002  -4.5185388309799679E-003   5.6630944889288187E-002
   1.5295732309780614E-002  -3.9889319702684500E-003   5.6315921113088224E-002
   1.3635642219377535E-002  -3.4990048134514590E-003   5.6245279132319664E-002
   1.1975552128974463E-002  -3.0487573605292861E-003   5.6419018946982452E-002
   1.5391553791414712E-002  -4.0441426322282148E-003   6.0755905260928583E-002
   1.3996009187008211E-002  -3.6449807977419479E-003   6.0176707345187090E-002
   1.2600464582601698E-002  -3.2538977448678119E-003   5.9882218606007509E-002
   1.1204919978195166E-002  -2.8708934736053696E-003   5.9872439043389701E-002
   9.8093753737886879E-003  -2.4959679839554882E-003   6.0147368657333632E-002
   1.2151118300320729E-002  -3.0004598688705419E-003   6.4135534869676381E-002
   1.1060446563041212E-002  -2.7714227645038170E-003   6.3568145532107712E-002
   9.9697748257616958E-003  -2.5188635194668962E-003   6.3325792752230881E-002
   8.8791030884821931E-003  -2.2427821337594050E-003   6.3408476530046443E-002
   7.7884313512026626E-003  -1.9431786073812463E-003   6.3816196865554176E-002
   1.6743603837145377E-002  -4.1543361136774370E-003   4.8783755019887742E-002
   1.4898539686089840E-002  -3.6526776824185592E-003   4.8709639444028840E-002
   1.3053475535034290E-002  -3.2466035991152442E-003   4.8885724920809170E-002
   1.1208411383978746E-002  -2.9361138637676934E-003   4.9312011450228732E-002
   9.3633472329232581E-003  -2.7212084763752475E-003   4.9988499032287637E-002
   1.4286961616760019E-002  -3.6015467371034449E-003   5.2631147734500505E-002
   1.2688348163374691E-002  -3.1630180572467803E-003   5.2599321939045651E-002
   1.1089734709989293E-002  -2.8272902238878628E-003   5.2810196486291844E-002
   9.4911212566039307E-003  -2.5943632370274763E-003   5.3263771376239402E-002
   7.8925078032185680E-003  -2.4642370966647675E-003   5.3960046608888090E-002
   1.1975552128974463E-002  -3.0487573605292861E-003   5.6419018946982452E-002
   1.0615888663321166E-002  -2.6733584320746961E-003   5.6422266433389129E-002
   9.2562251976679132E-003  -2.4079768486606895E-003   5.6660713552558792E-002
   7.8965617320146553E-003  -2.2526126102870338E-003   5.7134360304491628E-002
   6.5368982663613906E-003  -2.2072657169540655E-003   5.7843206689187465E-002
   9.8093753737886879E-003  -2.4959679839554882E-003   6.0147368657333632E-002
   8.6811611859294487E-003  -2.1836988069027091E-003   6.0178472927059294E-002
   7.5529469980702034E-003  -1.9886634734333566E-003   6.0437276119610001E-002
   6.4247328102109459E-003  -1.9108619835470370E-003   6.0923778234985557E-002
   5.2965186223517188E-003  -1.9502943372435855E-003   6.1637979273186261E-002
   7.7884313512026626E-003  -1.9431786073812463E-003   6.3816196865554176E-002
   6.8841657311993903E-003  -1.6940391817309441E-003   6.3867941420056251E-002
   5.9799001111960903E-003  -1.5693500982060515E-003   6.4139884187445262E-002
   5.0756344911927903E-003  -1.5691113568066309E-003   6.4632025167720986E-002
   4.1713688711895180E-003  -1.6933229575328834E-003   6.5344364360883977E-002
   9.3633472329232581E-003  -2.7212084763752475E-003   4.9988499032287637E-002
   7.9141883470831287E-003  -2.8588423231117321E-003   5.0374764955463780E-002
   6.4650294612430548E-003  -3.6059702901508062E-003   5.1093548598311223E-002
   5.0158705754029670E-003  -4.9625923774919839E-003   5.2144849960828743E-002
   3.5667116895628515E-003  -6.9287085851357233E-003   5.3528669043017008E-002
   7.8925078032185680E-003  -2.4642370966647675E-003   5.3960046608888090E-002
   6.7498126134068748E-003  -2.6427016553404181E-003   5.3873551065329539E-002
   5.6071174235951260E-003  -3.3355467655939441E-003   5.4067465194157061E-002
   4.4644222337834050E-003  -4.5427724274258868E-003   5.4541788995370599E-002
   3.3217270439716839E-003  -6.2643786408362878E-003   5.5296522468970877E-002
   6.5368982663613906E-003  -2.2072657169540655E-003   5.7843206689187465E-002
   5.6485587252935662E-003  -2.4265609875684380E-003   5.7379063247617906E-002
   4.7602191842258043E-003  -3.0651232410371654E-003   5.7143221431150193E-002
   3.8718796431580042E-003  -4.1229524773598938E-003   5.7135681239784186E-002
   2.9835401020902180E-003  -5.6000486965368523E-003   5.7356442673519858E-002
   5.2965186223517188E-003  -1.9502943372435855E-003   6.1637979273186261E-002
   4.6104266827434182E-003  -2.2104203197966799E-003   6.0891301502329825E-002
   3.9243347431350880E-003  -2.7946997164801229E-003   6.0320817309290516E-002
   3.2382428035267795E-003  -3.7031325272939598E-003   5.9926526694068505E-002
   2.5521508639184572E-003  -4.9357187522377499E-003   5.9708429656663842E-002
   4.1713688711895180E-003  -1.6933229575328834E-003   6.5344364360883977E-002
   3.6354164857562571E-003  -1.9942796520252548E-003   6.4410265829464519E-002
   3.0994641003229823E-003  -2.5242761919231915E-003   6.3600252828577841E-002
   2.5635117148897213E-003  -3.2833125772278871E-003   6.2914325358224166E-002
   2.0275593294564465E-003  -4.2713888079382034E-003   6.2352483418403271E-002
   3.5667116895628515E-003  -6.9287085851357233E-003   5.3528669043017008E-002
   4.1311279652125610E-003  -9.5186124745422207E-003   5.1865789590156086E-002
   4.6955442408621872E-003  -1.2746597607171950E-002   5.0052564756602358E-002
   5.2599605165118551E-003  -1.6612663983025425E-002   4.8088994542355878E-002
   5.8243767921615230E-003  -2.1116811602102104E-002   4.5975078947417369E-002
   3.3217270439716839E-003  -6.2643786408362878E-003   5.5296522468970877E-002
   3.7538180356412459E-003  -8.5315576095792989E-003   5.2951037715376570E-002
   4.1859090273108079E-003  -1.1375501537409793E-002   5.0491247774514580E-002
   4.6180000189804463E-003  -1.4796210424327730E-002   4.7917152646385436E-002
   5.0500910106499597E-003  -1.8793684270332678E-002   4.5228752330988220E-002
   2.9835401020902180E-003  -5.6000486965368523E-003   5.7356442673519858E-002
   3.3193460032047567E-003  -7.5445027446166546E-003   5.4389668903328525E-002
   3.6551519043193162E-003  -1.0004405467647720E-002   5.1344630139294939E-002
   3.9909578054339208E-003  -1.2979756865629861E-002   4.8221326381418614E-002
   4.3267637065484421E-003  -1.6470556938563252E-002   4.5019757629699786E-002
   2.5521508639184572E-003  -4.9357187522377499E-003   5.9708429656663842E-002
   2.8277118679030412E-003  -6.5574478796542046E-003   5.6181683154011883E-002
   3.1032728718876097E-003  -8.6333093978858272E-003   5.2612711850942080E-002
   3.3788338758722414E-003  -1.1163303306932191E-002   4.9001515747455274E-002
   3.6543948798567621E-003  -1.4147429606793827E-002   4.5348094843551151E-002
   2.0275593294564465E-003  -4.2713888079382034E-003   6.2352483418403271E-002
   2.2789156297361446E-003  -5.5703930146910885E-003   5.8327080467426518E-002
   2.5302719300158011E-003  -7.2622133281236567E-003   5.4295492909457121E-002
   2.7816282302954645E-003  -9.3468497482345619E-003   5.0257720744495582E-002
   3.0329845305751557E-003  -1.1824302275024401E-002   4.6213763972541955E-002
   2.5488716496916364E-002  -5.0749485831091401E-003   6.0594927913736774E-002
   2.4819142420205970E-002  -5.1096710455723060E-003   6.1992700592643557E-002
   2.4149568343495575E-002  -5.2071222124520089E-003   6.3288069653842927E-002
   2.3479994266785167E-002  -5.3673020837482349E-003   6.4481035097334577E-002
   2.2810420190074773E-002  -5.5902106594610257E-003   6.5571596923118591E-002
   1.9909946813746901E-002  -3.9321100195180425E-003   6.2005075650044317E-002
   1.9220526637822241E-002  -3.8906531056167593E-003   6.2849168946288586E-002
   1.8531106461897581E-002  -3.9193115824773944E-003   6.3755973661812126E-002
   1.7841686285972901E-002  -4.0180854500998543E-003   6.4725489796614785E-002
   1.7152266110048234E-002  -4.1869747084842257E-003   6.5757717350696437E-002
   1.3761362277010705E-002  -2.7892714559270004E-003   6.3495096105889159E-002
   1.3217211038858506E-002  -2.6716351656613513E-003   6.3778123333125589E-002
   1.2673059800706300E-002  -2.6315009525029187E-003   6.4288977016627891E-002
   1.2128908562554101E-002  -2.6688688164515570E-003   6.5027657156396051E-002
   1.1584757324401895E-002  -2.7837387575073980E-003   6.5994163752429905E-002
   7.0429628867077695E-003  -1.6464328923359306E-003   6.5064989281270982E-002
   6.8091956233147649E-003  -1.4526172257059156E-003   6.4779563753154218E-002
   6.5754283599217551E-003  -1.3436903225283181E-003   6.4887079718290053E-002
   6.3416610965287522E-003  -1.3196521828031903E-003   6.5387537176678348E-002
   6.1078938331357475E-003  -1.3805028065305286E-003   6.6280936128319409E-002
  -2.4525135716190610E-004  -5.0359432874486076E-004   6.6714755176189799E-002
  -3.5196088089828326E-006  -2.3359928575042432E-004   6.5853490206374543E-002
   2.3821213954394391E-004  -5.5879692553842397E-005   6.5550281766798696E-002
   4.7994388789687585E-004   2.9564450845117468E-005   6.5805129857462050E-002
   7.2167563624979739E-004   2.2733144446285269E-005   6.6618034478364785E-002
   2.2810420190074773E-002  -5.5902106594610257E-003   6.5571596923118591E-002
   2.1998532953126843E-002  -5.7598870471520514E-003   6.5020371889666140E-002
   2.1186645716178912E-002  -5.7603703543822465E-003   6.4530645251414581E-002
   2.0374758479230981E-002  -5.5916605811521768E-003   6.4102417008363791E-002
   1.9562871242283036E-002  -5.2537577274612834E-003   6.3735687160513810E-002
   1.7152266110048234E-002  -4.1869747084842257E-003   6.5757717350696437E-002
   1.6409778022344258E-002  -4.3220823918864587E-003   6.5458474176260453E-002
   1.5667289934640262E-002  -4.3195115345624896E-003   6.5236530905111792E-002
   1.4924801846936279E-002  -4.1792621365122733E-003   6.5091887537250037E-002
   1.4182313759232297E-002  -3.9013341977359728E-003   6.5024544072675383E-002
   1.1584757324401895E-002  -2.7837387575073980E-003   6.5994163752429905E-002
   1.0927469894028041E-002  -2.8842777366209910E-003   6.5915387897276426E-002
   1.0270182463654191E-002  -2.8786527147425175E-003   6.5929713453496130E-002
   9.6128950332803366E-003  -2.7668636918725380E-003   6.6037140421089033E-002
   8.9556076029064860E-003  -2.5489106680106066E-003   6.6237668800055188E-002
   6.1078938331357475E-003  -1.3805028065305286E-003   6.6280936128319409E-002
   5.5516085681782115E-003  -1.4464730813552942E-003   6.6391113052713835E-002
   4.9953233032206737E-003  -1.4377938949226531E-003   6.6610192896567624E-002
   4.4390380382631324E-003  -1.3544652472326909E-003   6.6938175659880764E-002
   3.8827527733056068E-003  -1.1964871382853237E-003   6.7375061342653447E-002
   7.2167563624979739E-004   2.2733144446285269E-005   6.6618034478364785E-002
   2.8219404479475768E-004  -8.6684260898750587E-006   6.6885649642572653E-002
  -1.5728754666027682E-004   3.0649248972114407E-006   6.7277969234326190E-002
  -5.9676913811531045E-004   5.7933197407045167E-005   6.7794993253625285E-002
  -1.0362507295703510E-003   1.5593639144007021E-004   6.8436721700469938E-002
   1.9562871242283036E-002  -5.2537577274612834E-003   6.3735687160513810E-002
   1.8074710782866210E-002  -4.8536411639463206E-003   6.1387544978649233E-002
   1.6586550323449384E-002  -4.4982902612440145E-003   5.9629212838328921E-002
   1.5098389864032558E-002  -4.1877050193538309E-003   5.8460690739553178E-002
   1.3610229404615731E-002  -3.9218854382762069E-003   5.7881978682322033E-002
   1.4182313759232297E-002  -3.9013341977359728E-003   6.5024544072675383E-002
   1.3253512555391582E-002  -3.5794302897667885E-003   6.2752556299990686E-002
   1.2324711351550870E-002  -3.3072529841380038E-003   6.1009476996913670E-002
   1.1395910147710157E-002  -3.0848022808497508E-003   5.9795306163444334E-002
   1.0467108943869444E-002  -2.9120781799018558E-003   5.9110043799582679E-002
   8.9556076029064860E-003  -2.5489106680106066E-003   6.6237668800055188E-002
   8.5252640827050384E-003  -2.3052194155870065E-003   6.4036874495022544E-002
   8.0949205625035978E-003  -2.1162157070321180E-003   6.2304087087660762E-002
   7.6645770423021502E-003  -1.9818995423455631E-003   6.1039306577969805E-002
   7.2342335221007026E-003  -1.9022709215276712E-003   6.0242532965949808E-002
   3.8827527733056068E-003  -1.1964871382853237E-003   6.7375061342653447E-002
   3.8899653648065812E-003  -1.0310085414075160E-003   6.5240499563744697E-002
   3.8971779563075609E-003  -9.2517842992605875E-004   6.3513043110569961E-002
   3.9043905478085422E-003  -8.7899680384137362E-004   6.2192691983129267E-002
   3.9116031393095219E-003  -8.9246366315329229E-004   6.1279446181422538E-002
  -1.0362507295703510E-003   1.5593639144007021E-004   6.8436721700469938E-002
  -6.5238359830379830E-004   2.4320233277233538E-004   6.6363431506157089E-002
  -2.6851646703723864E-004   2.6585884717990338E-004   6.4636345065641448E-002
   1.1535066422932103E-004   2.2390593466270828E-004   6.3255462378922975E-002
   4.9921779549587375E-004   1.1734359522080906E-004   6.2220783446001515E-002
   1.3610229404615731E-002  -3.9218854382762069E-003   5.7881978682322033E-002
   1.3245451628541974E-002  -3.6817187771845949E-003   5.9501704319218196E-002
   1.2880673852468216E-002  -3.4480922952530302E-003   6.1083872229409253E-002
   1.2515896076394473E-002  -3.2210059924819359E-003   6.2628482412895398E-002
   1.2151118300320729E-002  -3.0004598688705419E-003   6.4135534869676381E-002
   1.0467108943869444E-002  -2.9120781799018558E-003   5.9110043799582679E-002
   1.0086949330966002E-002  -2.7604690808913923E-003   6.0662668574984646E-002
   9.7067897180625751E-003  -2.6013633834146288E-003   6.2222087403432352E-002
   9.3266301051591304E-003  -2.4347610874722245E-003   6.3788300284925298E-002
   8.9464704922556926E-003  -2.2606621930635895E-003   6.5361307219464260E-002
   7.2342335221007026E-003  -1.9022709215276712E-003   6.0242532965949808E-002
   6.8830438521181696E-003  -1.8392193845979121E-003   6.1742093657483427E-002
   6.5318541821356366E-003  -1.7546344715762691E-003   6.3292800181813227E-002
   6.1806645121531036E-003  -1.6485161824625096E-003   6.4894652538939362E-002
   5.8294748421705705E-003  -1.5208645172568036E-003   6.6547650728861735E-002
   3.9116031393095219E-003  -8.9246366315329229E-004   6.1279446181422538E-002
   3.6337351919984795E-003  -9.1796968830451520E-004   6.2739979566714177E-002
   3.3558672446874441E-003  -9.0790555973766646E-004   6.4296010564552544E-002
   3.0779992973764088E-003  -8.6227127745290739E-004   6.5947539174937606E-002
   2.8001313500653734E-003  -7.8106684145010097E-004   6.7694565397869583E-002
   4.9921779549587375E-004   1.1734359522080906E-004   6.2220783446001515E-002
   3.3902335060691929E-004   3.2800079888817280E-006   6.3656326302677091E-002
   1.7882890571797525E-004  -6.1176647899438552E-005   6.5231718551649803E-002
   1.8634460829022523E-005  -7.6026372443121354E-005   6.6946960192920055E-002
  -1.4155998405992326E-004  -4.1269165643176287E-005   6.8802051226487637E-002
   1.2151118300320729E-002  -3.0004598688705419E-003   6.4135534869676381E-002
   1.1060446563041212E-002  -2.7714227645038170E-003   6.3568145532107712E-002
   9.9697748257616958E-003  -2.5188635194668962E-003   6.3325792752230881E-002
   8.8791030884821931E-003  -2.2427821337594050E-003   6.3408476530046443E-002
   7.7884313512026626E-003  -1.9431786073812463E-003   6.3816196865554176E-002
   8.9464704922556926E-003  -2.2606621930635895E-003   6.5361307219464260E-002
   8.1708430562728654E-003  -2.0769172239020750E-003   6.4889236629334768E-002
   7.3952156202900382E-003  -1.8813767037008516E-003   6.4722218084106442E-002
   6.6195881843071971E-003  -1.6740406324597772E-003   6.4860251583779144E-002
   5.8439607483243700E-003  -1.4549090101788620E-003   6.5303337128353234E-002
   5.8294748421705705E-003  -1.5208645172568036E-003   6.6547650728861735E-002
   5.3489071946933447E-003  -1.3824116833004996E-003   6.6159172296541294E-002
   4.8683395472161259E-003  -1.2438898879350291E-003   6.6055761396330792E-002
   4.3877718997389001E-003  -1.1052991311604268E-003   6.6237418028230438E-002
   3.9072042522616812E-003  -9.6663941297642220E-004   6.6704142192240107E-002
   2.8001313500653734E-003  -7.8106684145010097E-004   6.7694565397869583E-002
   2.5946389783026722E-003  -6.8790614269906292E-004   6.7377952533727317E-002
   2.3891466065399727E-003  -6.0640307216920653E-004   6.7326422688904070E-002
   2.1836542347772733E-003  -5.3655762986104874E-004   6.7539975863399840E-002
   1.9781618630145721E-003  -4.7836981577401017E-004   6.8018612057214489E-002
  -1.4155998405992326E-004  -4.1269165643176287E-005   6.8802051226487637E-002
  -9.1961592899175715E-005   6.5993979027623162E-006   6.8545577340892949E-002
  -4.2363201738428169E-005   3.1083743596810320E-005   6.8534201961826413E-002
   7.2351894223159074E-006   3.2183871438544454E-005   6.8767925089287502E-002
   5.6833580583066923E-005   9.8997814285128882E-006   6.9246746723276797E-002
   7.7884313512026626E-003  -1.9431786073812463E-003   6.3816196865554176E-002
   6.8841657311993903E-003  -1.6940391817309441E-003   6.3867941420056251E-002
   5.9799001111960903E-003  -1.5693500982060515E-003   6.4139884187445262E-002
   5.0756344911927903E-003  -1.5691113568066309E-003   6.4632025167720986E-002
   4.1713688711895180E-003  -1.6933229575328834E-003   6.5344364360883977E-002
   5.8439607483243700E-003  -1.4549090101788620E-003   6.5303337128353234E-002
   5.1603628181634692E-003  -1.2748558381115993E-003   6.5256063869829961E-002
   4.4767648880025615E-003  -1.1847551175120374E-003   6.5429927778104413E-002
   3.7931669578416607E-003  -1.1846068483790939E-003   6.5824928853176867E-002
   3.1095690276807531E-003  -1.2744110307142398E-003   6.6441067095047046E-002
   3.9072042522616812E-003  -9.6663941297642220E-004   6.6704142192240107E-002
   3.4452129658541150E-003  -8.5567249449242100E-004   6.6592349011349583E-002
   2.9832216794465523E-003  -8.0016013681767639E-004   6.6702631951167921E-002
   2.5212303930389861E-003  -8.0010233995199756E-004   6.7034991011695133E-002
   2.0592391066314233E-003  -8.5549910389570716E-004   6.7589426192931179E-002
   1.9781618630145721E-003  -4.7836981577401017E-004   6.8018612057214489E-002
   1.7387161742712966E-003  -4.3648915087338147E-004   6.7876796844615173E-002
   1.4992704855280271E-003  -4.1556515612359984E-004   6.7957996706635285E-002
   1.2598247967847576E-003  -4.1559783152456987E-004   6.8262211643275506E-002
   1.0203791080414821E-003  -4.3658717707706352E-004   6.8789441654535141E-002
   5.6833580583066923E-005   9.8997814285128882E-006   6.9246746723276797E-002
   4.0872443415045090E-005  -1.7305807253897854E-005   6.9109407369626452E-002
   2.4911306247023257E-005  -3.0970175429190228E-005   6.9196022044506866E-002
   8.9501690789996896E-006  -3.1093323097391989E-005   6.9506590747917901E-002
  -7.0109680890204085E-006  -1.7675250258419872E-005   7.0041113479859751E-002
   4.1713688711895180E-003  -1.6933229575328834E-003   6.5344364360883977E-002
   3.6354164857562571E-003  -1.9942796520252548E-003   6.4410265829464519E-002
   3.0994641003229823E-003  -2.5242761919231915E-003   6.3600252828577841E-002
   2.5635117148897213E-003  -3.2833125772278871E-003   6.2914325358224166E-002
   2.0275593294564465E-003  -4.2713888079382034E-003   6.2352483418403271E-002
   3.1095690276807531E-003  -1.2744110307142398E-003   6.6441067095047046E-002
   2.7003016174658723E-003  -1.4959456640983304E-003   6.5319763782754114E-002
   2.2910342072509915E-003  -1.8909887481138032E-003   6.4327744890365302E-002
   1.8817667970361038E-003  -2.4595402827597493E-003   6.3465010417880219E-002
   1.4724993868212299E-003  -3.2016002680369526E-003   6.2731560365298700E-002
   2.0592391066314233E-003  -8.5549910389570716E-004   6.7589426192931179E-002
   1.7818555610060113E-003  -9.9761167617179458E-004   6.6336449494539512E-002
   1.5044720153805924E-003  -1.2577013043037488E-003   6.5217956105422886E-002
   1.2270884697551908E-003  -1.6357679882917225E-003   6.4233946025581398E-002
   9.4970492412977531E-004  -2.1318117281358129E-003   6.3384419255014757E-002
   1.0203791080414821E-003  -4.3658717707706352E-004   6.8789441654535141E-002
   8.8007831637664912E-004  -4.9927768824523100E-004   6.7460322964820213E-002
   7.3977752471181442E-004  -6.2441386049391645E-004   6.6270886473751345E-002
   5.9947673304698058E-004  -8.1199569382375131E-004   6.5221132181328800E-002
   4.5917594138214675E-004  -1.0620231882346176E-003   6.4311060087552316E-002
  -7.0109680890204085E-006  -1.7675250258419872E-005   7.0041113479859751E-002
  -5.0301164221874806E-006  -9.4370031827883949E-007   6.8691384193596772E-002
  -3.0492647553614916E-006   8.8735833156106114E-006   6.7486535995350594E-002
  -1.0684130885302984E-006   1.1776600644643198E-005   6.6426568885121690E-002
   9.1243857829742536E-007   7.7653516667997025E-006   6.5511482862910198E-002
   2.0275593294564465E-003  -4.2713888079382034E-003   6.2352483418403271E-002
   2.2789156297361446E-003  -5.5703930146910885E-003   5.8327080467426518E-002
   2.5302719300158011E-003  -7.2622133281236567E-003   5.4295492909457121E-002
   2.7816282302954645E-003  -9.3468497482345619E-003   5.0257720744495582E-002
   3.0329845305751557E-003  -1.1824302275024401E-002   4.6213763972541955E-002
   1.4724993868212299E-003  -3.2016002680369526E-003   6.2731560365298700E-002
   1.7034649229073912E-003  -4.1772316869555515E-003   5.8380991475399380E-002
   1.9344304589935593E-003  -5.4464975225259060E-003   5.3995825664105213E-002
   2.1653959950797448E-003  -7.0093977747472946E-003   4.9576062931416559E-002
   2.3963615311659026E-003  -8.8659324436211051E-003   4.5121703277333225E-002
   9.4970492412977531E-004  -2.1318117281358129E-003   6.3384419255014757E-002
   1.1318673816202232E-003  -2.7840703592196814E-003   5.8807866116220187E-002
   1.3140298391106746E-003  -3.6307817169281831E-003   5.4168303741628593E-002
   1.4961922966011138E-003  -4.6719458012606449E-003   4.9465732131240184E-002
   1.6783547540915877E-003  -5.9075626122178093E-003   4.4700151285055223E-002
   4.5917594138214675E-004  -1.0620231882346176E-003   6.4311060087552316E-002
   5.6412300587463209E-004  -1.3909090314837558E-003   5.9607704389889188E-002
   6.6907007036712349E-004  -1.8150659113302242E-003   5.4812927142027672E-002
   7.7401713485962921E-004  -2.3344938277739084E-003   4.9926728343966234E-002
   8.7896419935208636E-004  -2.9491927808145135E-003   4.4949107995706838E-002
   9.1243857829742536E-007   7.7653516667997025E-006   6.5511482862910198E-002
   2.3179567061604178E-007   2.2522962523918721E-006   6.0780506296406744E-002
  -4.4884723706534180E-007   6.4989426729056277E-007   5.5929695865302165E-002
  -1.1294901447536643E-006   2.9581457132166200E-006   5.0959051569595626E-002
  -1.8101330524350479E-006   9.1770505887822651E-006   4.5868573409288516E-002
  -2.4525135716190610E-004  -5.0359432874486076E-004   6.6714755176189799E-002
  -3.5196088089828326E-006  -2.3359928575042432E-004   6.5853490206374543E-002
   2.3821213954394391E-004  -5.5879692553842397E-005   6.5550281766798696E-002
   4.7994388789687585E-004   2.9564450845117468E-005   6.5805129857462050E-002
   7.2167563624979739E-004   2.2733144446285269E-005   6.6618034478364785E-002
  -7.4939797974463637E-003   1.4283928054970585E-003   6.5485248537840518E-002
  -6.8143292857283620E-003   1.5382048600263154E-003   6.5080048441696736E-002
  -6.1346787740103707E-003   1.5951247239700400E-003   6.4992629342043820E-002
  -5.4550282622923768E-003   1.5991523973286174E-003   6.5222991238881617E-002
  -4.7753777505743777E-003   1.5502878801017528E-003   6.5771134132210335E-002
  -1.4093921776993645E-002   3.3603799397390333E-003   6.4075867281419854E-002
  -1.3216628035659036E-002   3.3100090058029580E-003   6.4166115318159786E-002
  -1.2339334294324426E-002   3.2461291404939294E-003   6.4333868817642220E-002
  -1.1462040552989815E-002   3.1687403438119804E-003   6.4579127779867018E-002
  -1.0584746811655204E-002   3.0778426157570815E-003   6.4901892204834138E-002
  -2.0045077295803789E-002   5.2923670739809942E-003   6.2486611406927614E-002
  -1.9210415858600994E-002   5.0818131515795936E-003   6.3111690835763817E-002
  -1.8375754421398233E-002   4.8971335570177320E-003   6.3574000193593938E-002
  -1.7541092984195455E-002   4.7383282902953841E-003   6.3873539480418087E-002
  -1.6706431546992667E-002   4.6053973514125074E-003   6.4010308696236029E-002
  -2.5347446353876722E-002   7.2243542082229273E-003   6.0717480914363908E-002
  -2.4795692754554254E-002   6.8536172973562848E-003   6.1916774994508816E-002
  -2.4243939155231767E-002   6.5481379735416456E-003   6.2713023469899154E-002
  -2.3692185555909274E-002   6.3079162367788016E-003   6.3106226340534921E-002
  -2.3140431956586799E-002   6.1329520870678222E-003   6.3096383606416284E-002
   7.2167563624979739E-004   2.2733144446285269E-005   6.6618034478364785E-002
   2.8219404479475768E-004  -8.6684260898750587E-006   6.6885649642572653E-002
  -1.5728754666027682E-004   3.0649248972114407E-006   6.7277969234326190E-002
  -5.9676913811531045E-004   5.7933197407045167E-005   6.7794993253625285E-002
  -1.0362507295703510E-003   1.5593639144007021E-004   6.8436721700469938E-002
  -4.7753777505743777E-003   1.5502878801017528E-003   6.5771134132210335E-002
  -5.0307016745166615E-003   1.4848926382015487E-003   6.5817369693509584E-002
  -5.2860255984589349E-003   1.4393281375399969E-003   6.6107216162288929E-002
  -5.5413495224012127E-003   1.4135943781170973E-003   6.6640673538548023E-002
  -5.7966734463434921E-003   1.4076913599330720E-003   6.7417741822287131E-002
  -1.0584746811655204E-002   3.0778426157570815E-003   6.4901892204834138E-002
  -1.0537006588150391E-002   2.9784537024929725E-003   6.4703443982940367E-002
  -1.0489266364645578E-002   2.8755913501830044E-003   6.4867513148460884E-002
  -1.0441526141140769E-002   2.7692555588273160E-003   6.5394099701395758E-002
  -1.0393785917635961E-002   2.6594463284259073E-003   6.6283203641744767E-002
  -1.6706431546992667E-002   4.6053973514125074E-003   6.4010308696236029E-002
  -1.6236720696106439E-002   4.4720147667843407E-003   6.3543872510864977E-002
  -1.5767009845220194E-002   4.3118545628258731E-003   6.3558860192842445E-002
  -1.5297298994333968E-002   4.1249167395375069E-003   6.4055271742168518E-002
  -1.4827588143447727E-002   3.9112012969188259E-003   6.5033107158843251E-002
  -2.3140431956586799E-002   6.1329520870678222E-003   6.3096383606416284E-002
  -2.2129843998384809E-002   5.9655758310757923E-003   6.2338655277283328E-002
  -2.1119256040182808E-002   5.7481177754688390E-003   6.2181257295433306E-002
  -2.0108668081980814E-002   5.4805779202475972E-003   6.2624189660866261E-002
  -1.9098080123778817E-002   5.1629562654117445E-003   6.3667452373582012E-002
  -1.0362507295703510E-003   1.5593639144007021E-004   6.8436721700469938E-002
  -6.5238359830379830E-004   2.4320233277233538E-004   6.6363431506157089E-002
  -2.6851646703723864E-004   2.6585884717990338E-004   6.4636345065641448E-002
   1.1535066422932103E-004   2.2390593466270828E-004   6.3255462378922975E-002
   4.9921779549587375E-004   1.1734359522080906E-004   6.2220783446001515E-002
  -5.7966734463434921E-003   1.4076913599330720E-003   6.7417741822287131E-002
  -5.0939031859461095E-003   1.3927806577266055E-003   6.5429233480684634E-002
  -4.3911329255487165E-003   1.3400238462366737E-003   6.3732327643546707E-002
  -3.6883626651513261E-003   1.2494209254634882E-003   6.2327024310873287E-002
  -2.9855924047539339E-003   1.1209718954067194E-003   6.1213323482664339E-002
  -1.0393785917635961E-002   2.6594463284259073E-003   6.6283203641744767E-002
  -9.4267137774403688E-003   2.5423589826806398E-003   6.4406240470493967E-002
  -8.4596416372447816E-003   2.4141888452934371E-003   6.2766278554375027E-002
  -7.4925694970491953E-003   2.2749359162640443E-003   6.1363317893388114E-002
  -6.5254973568536091E-003   2.1246001955926574E-003   6.0197358487532895E-002
  -1.4827588143447727E-002   3.9112012969188259E-003   6.5033107158843251E-002
  -1.3650815372786576E-002   3.6919373076347364E-003   6.3294452475585281E-002
  -1.2474042602125441E-002   3.4883538443502594E-003   6.1738197798126754E-002
  -1.1297269831464299E-002   3.3004509070645458E-003   6.0364343126467462E-002
  -1.0120497060803155E-002   3.1282284957785261E-003   5.9172888460607267E-002
  -1.9098080123778817E-002   5.1629562654117445E-003   6.3667452373582012E-002
  -1.7766207971984749E-002   4.8415156325889719E-003   6.2093869495958576E-002
  -1.6434335820190677E-002   4.5625188434069708E-003   6.0648085374801625E-002
  -1.5102463668396621E-002   4.3259658978652971E-003   5.9330100010111353E-002
  -1.3770591516602544E-002   4.1318567959643948E-003   5.8139913401887733E-002
   4.9921779549587375E-004   1.1734359522080906E-004   6.2220783446001515E-002
   3.3902335060691929E-004   3.2800079888817280E-006   6.3656326302677091E-002
   1.7882890571797525E-004  -6.1176647899438552E-005   6.5231718551649803E-002
   1.8634460829022523E-005  -7.6026372443121354E-005   6.6946960192920055E-002
  -1.4155998405992326E-004  -4.1269165643176287E-005   6.8802051226487637E-002
  -2.9855924047539339E-003   1.1209718954067194E-003   6.1213323482664339E-002
  -3.0041774966708193E-003   9.8688703995597482E-004   6.2633622243083942E-002
  -3.0227625885876856E-003   8.7937664299986285E-004   6.4197290317150379E-002
  -3.0413476805045700E-003   7.9844070453882754E-004   6.5904327704863652E-002
  -3.0599327724214372E-003   7.4407922457242481E-004   6.7754734406223538E-002
  -6.5254973568536091E-003   2.1246001955926574E-003   6.0197358487532895E-002
  -6.3989531744490374E-003   1.9704940719231234E-003   6.1579380678847578E-002
  -6.2724089920444693E-003   1.8199299338990463E-003   6.3108292105158531E-002
  -6.1458648096399029E-003   1.6729077815207192E-003   6.4784092766465559E-002
  -6.0193206272353295E-003   1.5294276147880814E-003   6.6606782662768677E-002
  -1.0120497060803155E-002   3.1282284957785261E-003   5.9172888460607267E-002
  -9.8453036827277560E-003   2.9541011038901888E-003   6.0493601609967945E-002
  -9.5701103046523708E-003   2.7604832247980667E-003   6.1964723915673876E-002
  -9.2949169265769752E-003   2.5473748585029170E-003   6.3586255377725484E-002
  -9.0197235485015848E-003   2.3147760050037103E-003   6.5358195996122748E-002
  -1.3770591516602544E-002   4.1318567959643948E-003   5.8139913401887733E-002
  -1.3343229021506964E-002   3.9377081358573651E-003   5.9376285036444820E-002
  -1.2915866526411378E-002   3.7010365156974478E-003   6.0766585748696866E-002
  -1.2488504031315802E-002   3.4218419354847332E-003   6.2310815538643871E-002
  -1.2061141536220218E-002   3.1001243952194502E-003   6.4008974406285613E-002
  -1.4155998405992326E-004  -4.1269165643176287E-005   6.8802051226487637E-002
  -9.1961592899175715E-005   6.5993979027623162E-006   6.8545577340892949E-002
  -4.2363201738428169E-005   3.1083743596810320E-005   6.8534201961826413E-002
   7.2351894223159074E-006   3.2183871438544454E-005   6.8767925089287502E-002
   5.6833580583066923E-005   9.8997814285128882E-006   6.9246746723276797E-002
  -3.0599327724214372E-003   7.4407922457242481E-004   6.7754734406223538E-002
  -2.7633230516970787E-003   6.9694748543397411E-004   6.7441408679866865E-002
  -2.4667133309727238E-003   6.3770076945687815E-004   6.7377007106109471E-002
  -2.1701036102483610E-003   5.6633907664060262E-004   6.7561529684951480E-002
  -1.8734938895240104E-003   4.8286240698558469E-004   6.7994976416392905E-002
  -6.0193206272353295E-003   1.5294276147880814E-003   6.6606782662768677E-002
  -5.4718739308759583E-003   1.3872955729652137E-003   6.6247874336662960E-002
  -4.9244272345165879E-003   1.2443177953167378E-003   6.6141715809227966E-002
  -4.3769805381572062E-003   1.1004942818424422E-003   6.6288307080463627E-002
  -3.8295338417978463E-003   9.5582503254260098E-004   6.6687648150370121E-002
  -9.0197235485015848E-003   2.3147760050037103E-003   6.5358195996122748E-002
  -8.2176142304357901E-003   2.0776436604964948E-003   6.4964974311281232E-002
  -7.4155049123699971E-003   1.8509348211767571E-003   6.4828328071181940E-002
  -6.6133955943042033E-003   1.6346494870444466E-003   6.4948257275824470E-002
  -5.8112862762384086E-003   1.4287876580995895E-003   6.5324761925209515E-002
  -1.2061141536220218E-002   3.1001243952194502E-003   6.4008974406285613E-002
  -1.1000543950376598E-002   2.7679917480277760E-003   6.3592708603721626E-002
  -9.9399463645329748E-003   2.4575518470367208E-003   6.3436843891971018E-002
  -8.8793487786893496E-003   2.1688046922463539E-003   6.3541380271034009E-002
  -7.8187511928457312E-003   1.9017502836566891E-003   6.3906317740910490E-002
   5.6833580583066923E-005   9.8997814285128882E-006   6.9246746723276797E-002
   4.0872443415045090E-005  -1.7305807253897854E-005   6.9109407369626452E-002
   2.4911306247023257E-005  -3.0970175429190228E-005   6.9196022044506866E-002
   8.9501690789996896E-006  -3.1093323097391989E-005   6.9506590747917901E-002
  -7.0109680890204085E-006  -1.7675250258419872E-005   7.0041113479859751E-002
  -1.8734938895240104E-003   4.8286240698558469E-004   6.7994976416392905E-002
  -1.6634808100702107E-003   4.1149768036330414E-004   6.7858884810372555E-002
  -1.4534677306164145E-003   3.7647181664549056E-004   6.7950787609065255E-002
  -1.2434546511626253E-003   3.7778481583187334E-004   6.8270684812470755E-002
  -1.0334415717088326E-003   4.1543667792254269E-004   6.8818576420589139E-002
  -3.8295338417978463E-003   9.5582503254260098E-004   6.6687648150370121E-002
  -3.3895061695400448E-003   8.4030116798050614E-004   6.6575601934377254E-002
  -2.9494784972822442E-003   7.8391380872006033E-004   6.6695590499279506E-002
  -2.5094508250244536E-003   7.8666295476091663E-004   6.7047613845076709E-002
  -2.0694231527666560E-003   8.4854860610344973E-004   6.7631671971769142E-002
  -5.8112862762384086E-003   1.4287876580995895E-003   6.5324761925209515E-002
  -5.1372036349944371E-003   1.2691046555979302E-003   6.5259558741641077E-002
  -4.4631209937504466E-003   1.1913558007949632E-003   6.5430430715149784E-002
  -3.7890383525064552E-003   1.1955410936899599E-003   6.5837377845735845E-002
  -3.1149557112624842E-003   1.2816605342843290E-003   6.6480400133399259E-002
  -7.8187511928457312E-003   1.9017502836566891E-003   6.3906317740910490E-002
  -6.9065732064333765E-003   1.6979081432148546E-003   6.3910755232163496E-002
  -5.9943952200210253E-003   1.5987977928693942E-003   6.4155308256676147E-002
  -5.0822172336086723E-003   1.6044192326192461E-003   6.4639976814448080E-002
  -4.1700392471963194E-003   1.7147724624652083E-003   6.5364760905479602E-002
  -7.0109680890204085E-006  -1.7675250258419872E-005   7.0041113479859751E-002
  -5.0301164221874806E-006  -9.4370031827883949E-007   6.8691384193596772E-002
  -3.0492647553614916E-006   8.8735833156106114E-006   6.7486535995350594E-002
  -1.0684130885302984E-006   1.1776600644643198E-005   6.6426568885121690E-002
   9.1243857829742536E-007   7.7653516667997025E-006   6.5511482862910198E-002
  -1.0334415717088326E-003   4.1543667792254269E-004   6.8818576420589139E-002
  -8.8950528279345409E-004   4.9844261040155047E-004   6.7480098011902245E-002
  -7.4556899387806692E-004   6.3581782075122772E-004   6.6280649389695051E-002
  -6.0163270496268583E-004   8.2756230897278182E-004   6.5220230553967737E-002
  -4.5769641604730127E-004   1.0736760750658103E-003   6.4298841504720317E-002
  -2.0694231527666560E-003   8.4854860610344973E-004   6.7631671971769142E-002
  -1.7893827281400465E-003   9.9782892112112997E-004   6.6365727984835338E-002
  -1.5093423035134291E-003   1.2627620581870530E-003   6.5232962482844228E-002
  -1.2293018788868200E-003   1.6433480173015831E-003   6.4233375465795745E-002
  -9.4926145426020223E-004   2.1395867984647099E-003   6.3366966933689484E-002
  -3.1149557112624842E-003   1.2816605342843290E-003   6.6480400133399259E-002
  -2.7046624524619772E-003   1.4972152318408344E-003   6.5348274112396021E-002
  -2.2943691936614637E-003   1.8897062956225522E-003   6.4343475274797696E-002
  -1.8840759348609532E-003   2.4591337256301641E-003   6.3466003620604769E-002
  -1.4737826760604427E-003   3.2054975218635540E-003   6.2715859149817227E-002
  -4.1700392471963194E-003   1.7147724624652083E-003   6.5364760905479602E-002
  -3.6353444557592485E-003   1.9966015425605388E-003   6.4427736394583657E-002
  -3.1006496643221533E-003   2.5166505330586342E-003   6.3612187765555772E-002
  -2.5659548728850616E-003   3.2749194339586687E-003   6.2918115018395754E-002
  -2.0312600814479873E-003   4.2714082452623980E-003   6.2345518153103630E-002
   9.1243857829742536E-007   7.7653516667997025E-006   6.5511482862910198E-002
   2.3179567061604178E-007   2.2522962523918721E-006   6.0780506296406744E-002
  -4.4884723706534180E-007   6.4989426729056277E-007   5.5929695865302165E-002
  -1.1294901447536643E-006   2.9581457132166200E-006   5.0959051569595626E-002
  -1.8101330524350479E-006   9.1770505887822651E-006   4.5868573409288516E-002
  -4.5769641604730127E-004   1.0736760750658103E-003   6.4298841504720317E-002
  -5.6393365103009352E-004   1.3968886671124614E-003   5.9601055540888959E-002
  -6.7017088601289271E-004   1.8199296331954939E-003   5.4811990257508658E-002
  -7.7640812099568322E-004   2.3427989733147275E-003   4.9931645654579387E-002
  -8.8264535597847027E-004   2.9654966874699262E-003   4.4960021732101341E-002
  -9.4926145426020223E-004   2.1395867984647099E-003   6.3366966933689484E-002
  -1.1325007362657600E-003   2.7915250379731971E-003   5.8798289293136158E-002
  -1.3157400182713039E-003   3.6392093721235863E-003   5.4166886878086268E-002
  -1.4989793002768304E-003   4.6826398009162939E-003   4.9472759688540188E-002
  -1.6822185822823917E-003   5.9218163243510702E-003   4.4715907724496851E-002
  -1.4737826760604427E-003   3.2054975218635540E-003   6.2715859149817227E-002
  -1.7054694600363838E-003   4.1861614088337107E-003   5.8372207553147801E-002
  -1.9371562440123110E-003   5.4584891110514011E-003   5.3994385727034383E-002
  -2.1688430279882451E-003   7.0224806285177216E-003   4.9582393671476405E-002
  -2.4005298119641793E-003   8.8781359612322142E-003   4.5136231386474601E-002
  -2.0312600814479873E-003   4.2714082452623980E-003   6.2345518153103630E-002
  -2.2828398223419602E-003   5.5807977796942243E-003   5.8322810320924345E-002
  -2.5344195632359227E-003   7.2777688499797155E-003   5.4294486804352893E-002
  -2.7859993041298922E-003   9.3623214561195517E-003   5.0260547603389771E-002
  -3.0375790450238582E-003   1.1834455598113358E-002   4.6220992718034815E-002
  -2.5347446353876722E-002   7.2243542082229273E-003   6.0717480914363908E-002
  -2.4795692754554254E-002   6.8536172973562848E-003   6.1916774994508816E-002
  -2.4243939155231767E-002   6.5481379735416456E-003   6.2713023469899154E-002
  -2.3692185555909274E-002   6.3079162367788016E-003   6.3106226340534921E-002
  -2.3140431956586799E-002   6.1329520870678222E-003   6.3096383606416284E-002
  -3.0577976034770103E-002   9.2712644540835498E-003   5.7921342374547047E-002
  -3.0308425220835638E-002   8.8994368692030534E-003   5.8789191099995058E-002
  -3.0038874406901169E-002   8.5679907619001100E-003   5.9495679859421668E-002
  -2.9769323592966725E-002   8.2769261321747577E-003   6.0040808652826683E-002
  -2.9499772779032242E-002   8.0262429800270207E-003   6.0424577480210157E-002
  -3.6313613422041632E-002   1.1318174699944172E-002   5.5136551215453522E-002
  -3.6084579754762168E-002   1.0945256441049739E-002   5.5648078476730325E-002
  -3.5855546087482683E-002   1.0587843550258630E-002   5.6239931410718716E-002
  -3.5626512420203225E-002   1.0245936027570769E-002   5.6912110017418721E-002
  -3.5397478752923733E-002   9.9195338729862470E-003   5.7664614296830105E-002
  -4.2554358515691171E-002   1.3365084945804823E-002   5.2363107437083140E-002
  -4.2124156356333674E-002   1.2991076012896466E-002   5.2493437124714548E-002
  -4.1693954196976232E-002   1.2607696338617178E-002   5.2945778123790553E-002
  -4.1263752037618784E-002   1.2214945922966836E-002   5.3720130434311009E-002
  -4.0833549878261273E-002   1.1812824765945459E-002   5.4816494056276185E-002
  -4.9300211315718850E-002   1.5411995191665417E-002   4.9601011039436094E-002
  -4.8427155025550367E-002   1.5036895584743193E-002   4.9325267043947740E-002
  -4.7554098735381856E-002   1.4627549126975600E-002   4.9613219998637020E-002
  -4.6681042445213372E-002   1.4183955818362789E-002   5.0464869903503781E-002
  -4.5807986155044875E-002   1.3706115658904616E-002   5.1880216758548092E-002
  -2.3140431956586799E-002   6.1329520870678222E-003   6.3096383606416284E-002
  -2.2129843998384809E-002   5.9655758310757923E-003   6.2338655277283328E-002
  -2.1119256040182808E-002   5.7481177754688390E-003   6.2181257295433306E-002
  -2.0108668081980814E-002   5.4805779202475972E-003   6.2624189660866261E-002
  -1.9098080123778817E-002   5.1629562654117445E-003   6.3667452373582012E-002
  -2.9499772779032242E-002   8.0262429800270207E-003   6.0424577480210157E-002
  -2.7998643160387811E-002   7.7662299264390916E-003   5.9964133772754433E-002
  -2.6497513541743380E-002   7.4471755923929128E-003   5.9884443038900545E-002
  -2.4996383923098931E-002   7.0690799778886163E-003   6.0185505278648750E-002
  -2.3495254304454490E-002   6.6319430829262505E-003   6.0867320491998805E-002
  -3.5397478752923733E-002   9.9195338729862470E-003   5.7664614296830105E-002
  -3.3625384847517821E-002   9.5668840218025436E-003   5.7492495730207885E-002
  -3.1853290942111867E-002   9.1462334093168826E-003   5.7481552763506659E-002
  -3.0081197036705910E-002   8.6575820355296925E-003   5.7631785396726545E-002
  -2.8309103131299973E-002   8.1009299004405899E-003   5.7943193629867412E-002
  -4.0833549878261273E-002   1.1812824765945459E-002   5.4816494056276185E-002
  -3.9010069059774811E-002   1.1367538117165975E-002   5.4923741149643816E-002
  -3.7186588241288288E-002   1.0845291226240849E-002   5.4972586469251579E-002
  -3.5363107422801805E-002   1.0246084093170713E-002   5.4963030015099355E-002
  -3.3539626604315309E-002   9.5699167179549294E-003   5.4895071787187236E-002
  -4.5807986155044875E-002   1.3706115658904616E-002   5.1880216758548092E-002
  -4.4152695797158775E-002   1.3168192212529295E-002   5.2257870031062109E-002
  -4.2497405439272655E-002   1.2544349043164954E-002   5.2357544156135194E-002
  -4.0842115081386562E-002   1.1834586150811628E-002   5.2179239133767485E-002
  -3.9186824723500449E-002   1.1038903535469380E-002   5.1722954963958900E-002
  -1.9098080123778817E-002   5.1629562654117445E-003   6.3667452373582012E-002
  -1.7766207971984749E-002   4.8415156325889719E-003   6.2093869495958576E-002
  -1.6434335820190677E-002   4.5625188434069708E-003   6.0648085374801625E-002
  -1.5102463668396621E-002   4.3259658978652971E-003   5.9330100010111353E-002
  -1.3770591516602544E-002   4.1318567959643948E-003   5.8139913401887733E-002
  -2.3495254304454490E-002   6.6319430829262505E-003   6.0867320491998805E-002
  -2.1970959017763761E-002   6.2000955008164882E-003   5.8997719221537653E-002
  -2.0446663731073046E-002   5.8378678248700300E-003   5.7385165464403101E-002
  -1.8922368444382325E-002   5.5452600550872297E-003   5.6029659220595225E-002
  -1.7398073157691606E-002   5.3222721914676918E-003   5.4931200490114018E-002
  -2.8309103131299973E-002   8.1009299004405899E-003   5.7943193629867412E-002
  -2.6463135952852525E-002   7.5586753690437686E-003   5.5804750029091146E-002
  -2.4617168774405049E-002   7.1132168063333112E-003   5.4052602698501803E-002
  -2.2771201595957583E-002   6.7645542123091068E-003   5.2686751638099147E-002
  -2.0925234417510121E-002   6.5126875869711554E-003   5.1707196847883247E-002
  -3.3539626604315309E-002   9.5699167179549294E-003   5.4895071787187236E-002
  -3.1242738777250985E-002   8.9172552372712224E-003   5.2514961918619131E-002
  -2.8945850950186681E-002   8.3885657877964814E-003   5.0650397077097710E-002
  -2.6648963123122368E-002   7.9838483695309562E-003   4.9301377262623160E-002
  -2.4352075296058061E-002   7.7031029824743691E-003   4.8467902475195661E-002
  -3.9186824723500449E-002   1.1038903535469380E-002   5.1722954963958900E-002
  -3.6309767490959197E-002   1.0275835105498565E-002   4.9128354890121351E-002
  -3.3432710258417951E-002   9.6639147692596655E-003   4.7178548600190912E-002
  -3.0555653025876723E-002   9.2031425267528923E-003   4.5873536094167319E-002
  -2.7678595793335453E-002   8.8935183779779159E-003   4.5213317372050810E-002
  -1.3770591516602544E-002   4.1318567959643948E-003   5.8139913401887733E-002
  -1.3343229021506964E-002   3.9377081358573651E-003   5.9376285036444820E-002
  -1.2915866526411378E-002   3.7010365156974478E-003   6.0766585748696866E-002
  -1.2488504031315802E-002   3.4218419354847332E-003   6.2310815538643871E-002
  -1.2061141536220218E-002   3.1001243952194502E-003   6.4008974406285613E-002
  -1.7398073157691606E-002   5.3222721914676918E-003   5.4931200490114018E-002
  -1.6839566888348360E-002   5.1016535895405390E-003   5.6191405031078584E-002
  -1.6281060619005139E-002   4.8161536048340892E-003   5.7559968042843551E-002
  -1.5722554349661917E-002   4.4657722373484462E-003   5.9036889525408726E-002
  -1.5164048080318702E-002   4.0505094870836866E-003   6.0622169478774524E-002
  -2.0925234417510121E-002   6.5126875869711554E-003   5.1707196847883247E-002
  -2.0281154980813718E-002   6.2655990432235464E-003   5.2968875872528853E-002
  -1.9637075544117304E-002   5.9312706939705501E-003   5.4293342761080388E-002
  -1.8992996107420900E-002   5.5097025392122113E-003   5.5680597513537926E-002
  -1.8348916670724483E-002   5.0008945789482007E-003   5.7130640129901211E-002
  -2.4352075296058061E-002   7.7031029824743691E-003   4.8467902475195661E-002
  -2.3667993298902946E-002   7.4295444969066926E-003   4.9708697560795954E-002
  -2.2983911301747831E-002   7.0463877831071567E-003   5.0966709903407598E-002
  -2.2299829304592723E-002   6.5536328410758949E-003   5.2241939503030854E-002
  -2.1615747307437604E-002   5.9512796708127425E-003   5.3534386359665453E-002
  -2.7678595793335453E-002   8.8935183779779159E-003   4.5213317372050810E-002
  -2.7000081842616083E-002   8.5934899505897833E-003   4.6410870095879408E-002
  -2.6321567891896755E-002   8.1615048722437356E-003   4.7580069469825015E-002
  -2.5643053941177399E-002   7.5975631429395993E-003   4.8720915493887684E-002
  -2.4964539990458057E-002   6.9016647626770622E-003   4.9833408168067361E-002
  -1.2061141536220218E-002   3.1001243952194502E-003   6.4008974406285613E-002
  -1.1000543950376598E-002   2.7679917480277760E-003   6.3592708603721626E-002
  -9.9399463645329748E-003   2.4575518470367208E-003   6.3436843891971018E-002
  -8.8793487786893496E-003   2.1688046922463539E-003   6.3541380271034009E-002
  -7.8187511928457312E-003   1.9017502836566891E-003   6.3906317740910490E-002
  -1.5164048080318702E-002   4.0505094870836866E-003   6.0622169478774524E-002
  -1.3846969597562271E-002   3.6164746529201430E-003   6.0144536416593453E-002
  -1.2529891114805836E-002   3.2097770337375237E-003   5.9919464057424182E-002
  -1.1212812632049389E-002   2.8304166295364357E-003   5.9946952401267128E-002
  -9.8957341492929736E-003   2.4783934403160846E-003   6.0227001448122153E-002
  -1.8348916670724483E-002   5.0008945789482007E-003   5.7130640129901211E-002
  -1.6783197678856679E-002   4.4649575578125655E-003   5.6597284276883417E-002
  -1.5217478686988875E-002   3.9620022204384375E-003   5.6308648739076234E-002
  -1.3651759695121075E-002   3.4920285668261844E-003   5.6264733516479676E-002
  -1.2086040703253269E-002   3.0550365969755910E-003   5.6465538609093896E-002
  -2.1615747307437604E-002   5.9512796708127425E-003   5.3534386359665453E-002
  -1.9809228194259867E-002   5.3134404627050158E-003   5.2950952184591574E-002
  -1.8002709081082147E-002   4.7142274071393514E-003   5.2604397936926832E-002
  -1.6196189967904406E-002   4.1536405041160442E-003   5.2494723616671568E-002
  -1.4389670854726682E-002   3.6316797536348755E-003   5.2621929223825102E-002
  -2.4964539990458057E-002   6.9016647626770622E-003   4.9833408168067361E-002
  -2.2925061143771797E-002   6.1619233675972995E-003   4.9205540139717951E-002
  -2.0885582297085592E-002   5.4664525938400710E-003   4.8806711650976442E-002
  -1.8846103450399353E-002   4.8152524414058831E-003   4.8636922701842639E-002
  -1.6806624603713127E-002   4.2083229102944930E-003   4.8696173292316680E-002
  -7.8187511928457312E-003   1.9017502836566891E-003   6.3906317740910490E-002
  -6.9065732064333765E-003   1.6979081432148546E-003   6.3910755232163496E-002
  -5.9943952200210253E-003   1.5987977928693942E-003   6.4155308256676147E-002
  -5.0822172336086723E-003   1.6044192326192461E-003   6.4639976814448080E-002
  -4.1700392471963194E-003   1.7147724624652083E-003   6.5364760905479602E-002
  -9.8957341492929736E-003   2.4783934403160846E-003   6.0227001448122153E-002
  -8.7441904838375349E-003   2.1926359143701335E-003   6.0222328438477413E-002
  -7.5926468183820702E-003   2.0120724999919681E-003   6.0456271253659294E-002
  -6.4411031529266255E-003   1.9367031971806031E-003   6.0928829893667949E-002
  -5.2895594874711703E-003   1.9665280059371071E-003   6.1640004358503697E-002
  -1.2086040703253269E-002   3.0550365969755910E-003   5.6465538609093896E-002
  -1.0696631067187481E-002   2.6873636855253291E-003   5.6452217420022821E-002
  -9.3072214311217087E-003   2.4253472071142229E-003   5.6676012347345775E-002
  -7.9178117950559328E-003   2.2689871617419637E-003   5.7136923391062612E-002
  -6.5284021589901466E-003   2.2182835494089503E-003   5.7834950551173797E-002
  -1.4389670854726682E-002   3.6316797536348755E-003   5.2621929223825102E-002
  -1.2763894956483291E-002   3.1820914566804553E-003   5.2600422176799680E-002
  -1.1138119058239901E-002   2.8386219142364152E-003   5.2814531537735271E-002
  -9.5123431599965017E-003   2.6012711263036000E-003   5.3264257306632055E-002
  -7.8865672617531163E-003   2.4700390928806548E-003   5.3949599483490034E-002
  -1.6806624603713127E-002   4.2083229102944930E-003   4.8696173292316680E-002
  -1.4945982151724893E-002   3.6768192278357481E-003   4.8666942708808003E-002
  -1.3085339699736673E-002   3.2518966213590517E-003   4.8871828824827823E-002
  -1.1224697247748452E-002   2.9335550908646257E-003   4.9310831640376196E-002
  -9.3640547957602183E-003   2.7217946363525813E-003   4.9983951155452955E-002
  -4.1700392471963194E-003   1.7147724624652083E-003   6.5364760905479602E-002
  -3.6353444557592485E-003   1.9966015425605388E-003   6.4427736394583657E-002
  -3.1006496643221533E-003   2.5166505330586342E-003   6.3612187765555772E-002
  -2.5659548728850616E-003   3.2749194339586687E-003   6.2918115018395754E-002
  -2.0312600814479873E-003   4.2714082452623980E-003   6.2345518153103630E-002
  -5.2895594874711703E-003   1.9665280059371071E-003   6.1640004358503697E-002
  -4.6066950678358802E-003   2.2140840035215770E-003   6.0894595250939598E-002
  -3.9238306482005294E-003   2.7919082671949980E-003   6.0324049517904543E-002
  -3.2409662285651933E-003   3.7000007969569260E-003   5.9928367159398088E-002
  -2.5581018089298885E-003   4.9383615928083602E-003   5.9707548175420011E-002
  -6.5284021589901466E-003   2.2182835494089503E-003   5.7834950551173797E-002
  -5.6439806184958793E-003   2.4315664644828372E-003   5.7373205202628036E-002
  -4.7595590780016139E-003   3.0671660013315699E-003   5.7139710721271678E-002
  -3.8751375375073597E-003   4.1250821599555128E-003   5.7134467107104618E-002
  -2.9907159970130812E-003   5.6053149403544333E-003   5.7357474360126892E-002
  -7.8865672617531163E-003   2.4700390928806548E-003   5.3949599483490034E-002
  -6.7472011077392615E-003   2.6490489254440974E-003   5.3863566249648734E-002
  -5.6078349537253928E-003   3.3424237354683708E-003   5.4059171375657522E-002
  -4.4684687997115086E-003   4.5501635229537127E-003   5.4536414861516343E-002
  -3.3291026456976677E-003   6.2722682879003400E-003   5.5295296707225092E-002
  -9.3640547957602183E-003   2.7217946363525813E-003   4.9983951155452955E-002
  -7.9163565355660770E-003   2.8665313864051911E-003   5.0365678392002122E-002
  -6.4686582753718802E-003   3.6176814696047277E-003   5.1082431481061952E-002
  -5.0209600151776904E-003   4.9752448859521903E-003   5.2134210422632332E-002
  -3.5732617549835421E-003   6.9392216354465797E-003   5.3521015216713486E-002
  -2.0312600814479873E-003   4.2714082452623980E-003   6.2345518153103630E-002
  -2.2828398223419602E-003   5.5807977796942243E-003   5.8322810320924345E-002
  -2.5344195632359227E-003   7.2777688499797155E-003   5.4294486804352893E-002
  -2.7859993041298922E-003   9.3623214561195517E-003   5.0260547603389771E-002
  -3.0375790450238582E-003   1.1834455598113358E-002   4.6220992718034815E-002
  -2.5581018089298885E-003   4.9383615928083602E-003   5.9707548175420011E-002
  -2.8333660257427729E-003   6.5672218585872688E-003   5.6180155195922454E-002
  -3.1086302425556295E-003   8.6468127981329523E-003   5.2611008948979021E-002
  -3.3838944593684878E-003   1.1177134411444911E-002   4.9000109434589739E-002
  -3.6591586761813427E-003   1.4158186698523423E-002   4.5347456652753859E-002
  -2.9907159970130812E-003   5.6053149403544333E-003   5.7357474360126892E-002
  -3.3258022727989823E-003   7.5536459374802023E-003   5.4388545371223979E-002
  -3.6608885485849389E-003   1.0015856746285495E-002   5.1341725531820898E-002
  -3.9959748243708331E-003   1.2991947366769764E-002   4.8217014841917982E-002
  -4.3310611001568036E-003   1.6481917798933488E-002   4.5014413301514455E-002
  -3.3291026456976677E-003   6.2722682879003400E-003   5.5295296707225092E-002
  -3.7601485635107537E-003   8.5400700163735244E-003   5.2947980846829168E-002
  -4.1911944813238398E-003   1.1384900694438163E-002   5.0486636552878932E-002
  -4.6222403991369281E-003   1.4806760322094981E-002   4.7911263825374542E-002
  -5.0532863169500128E-003   1.8805648899343552E-002   4.5221862664315521E-002
  -3.5732617549835421E-003   6.9392216354465797E-003   5.3521015216713486E-002
  -4.1364048978779766E-003   9.5264940952664023E-003   5.1858461622737440E-002
  -4.6995480407723694E-003   1.2753944642591247E-002   5.0045742012152894E-002
  -5.2626911836667623E-003   1.6621573277420025E-002   4.8082856384959766E-002
  -5.8258343265611967E-003   2.1129379999753617E-002   4.5969804741158526E-002
  -4.9300211315718850E-002   1.5411995191665417E-002   4.9601011039436094E-002
  -4.8427155025550367E-002   1.5036895584743193E-002   4.9325267043947740E-002
  -4.7554098735381856E-002   1.4627549126975600E-002   4.9613219998637020E-002
  -4.6681042445213372E-002   1.4183955818362789E-002   5.0464869903503781E-002
  -4.5807986155044875E-002   1.3706115658904616E-002   5.1880216758548092E-002
  -5.6113588198445447E-002   1.6911482275417389E-002   4.4369874350432714E-002
  -5.4757553152308611E-002   1.6613042785473792E-002   4.4317370694730629E-002
  -5.3401518106171747E-002   1.6216648132406017E-002   4.4667127600787782E-002
  -5.2045483060034932E-002   1.5722298316214144E-002   4.5419145068604061E-002
  -5.0689448013898054E-002   1.5129993336898268E-002   4.6573423098179606E-002
  -6.2556905540191943E-002   1.8410969359169360E-002   3.9247251934547020E-002
  -6.0879328126505115E-002   1.8189189986204224E-002   3.9354280306352657E-002
  -5.9201750712818288E-002   1.7805747137836274E-002   3.9702132851498824E-002
  -5.7524173299131447E-002   1.7260640814065559E-002   4.0290809569985944E-002
  -5.5846595885444675E-002   1.6553871014891836E-002   4.1120310461813900E-002
  -6.8630163340958200E-002   1.9910456442921318E-002   3.4233143791779622E-002
  -6.6792479948139805E-002   1.9765337186934795E-002   3.4435995878813810E-002
  -6.4954796555321298E-002   1.9394846143266583E-002   3.4718235750770494E-002
  -6.3117113162502889E-002   1.8798983311916886E-002   3.5079863407649500E-002
  -6.1279429769684396E-002   1.7977748692885445E-002   3.5520878849451119E-002
  -7.4333361600744385E-002   2.1409943526673303E-002   2.9327549922129881E-002
  -7.2497008617212699E-002   2.1341484387665310E-002   2.9562517412114020E-002
  -7.0660655633680985E-002   2.0983945148696920E-002   2.9715436298602349E-002
  -6.8824302650149272E-002   2.0337325809768318E-002   2.9786306581594646E-002
  -6.6987949666617558E-002   1.9401626370879055E-002   2.9775128261091133E-002
  -4.5807986155044875E-002   1.3706115658904616E-002   5.1880216758548092E-002
  -4.4152695797158775E-002   1.3168192212529295E-002   5.2257870031062109E-002
  -4.2497405439272655E-002   1.2544349043164954E-002   5.2357544156135194E-002
  -4.0842115081386562E-002   1.1834586150811628E-002   5.2179239133767485E-002
  -3.9186824723500449E-002   1.1038903535469380E-002   5.1722954963958900E-002
  -5.0689448013898054E-002   1.5129993336898268E-002   4.6573423098179606E-002
  -4.9253393046464665E-002   1.4480692066331013E-002   4.6683155543804700E-002
  -4.7817338079031269E-002   1.3815353376385196E-002   4.6632396355965333E-002
  -4.6381283111597879E-002   1.3133977267061022E-002   4.6421145534661298E-002
  -4.4945228144164476E-002   1.2436563738358053E-002   4.6049403079893025E-002
  -5.5846595885444675E-002   1.6553871014891836E-002   4.1120310461813900E-002
  -5.4512288794487530E-002   1.5793191920132732E-002   4.1032004384160554E-002
  -5.3177981703530490E-002   1.5086357709605494E-002   4.0900694187019110E-002
  -5.1843674612573359E-002   1.4433368383310139E-002   4.0726379870389476E-002
  -5.0509367521616305E-002   1.3834223941246754E-002   4.0509061434271673E-002
  -6.1279429769684396E-002   1.7977748692885445E-002   3.5520878849451119E-002
  -5.9929383041227316E-002   1.7105691773934284E-002   3.5304416552129798E-002
  -5.8579336312770250E-002   1.6357362042825764E-002   3.5162437649296760E-002
  -5.7229289584313128E-002   1.5732759499559393E-002   3.5094942140951740E-002
  -5.5879242855856048E-002   1.5231884144135413E-002   3.5101930027095135E-002
  -6.6987949666617558E-002   1.9401626370879055E-002   2.9775128261091133E-002
  -6.5504675786684091E-002   1.8418191627736197E-002   2.9500392047712320E-002
  -6.4021401906750597E-002   1.7628366376045992E-002   2.9417626742798159E-002
  -6.2538128026817102E-002   1.7032150615808751E-002   2.9526832346348356E-002
  -6.1054854146883608E-002   1.6629544347024128E-002   2.9828008858363231E-002
  -3.9186824723500449E-002   1.1038903535469380E-002   5.1722954963958900E-002
  -3.6309767490959197E-002   1.0275835105498565E-002   4.9128354890121351E-002
  -3.3432710258417951E-002   9.6639147692596655E-003   4.7178548600190912E-002
  -3.0555653025876723E-002   9.2031425267528923E-003   4.5873536094167319E-002
  -2.7678595793335453E-002   8.8935183779779159E-003   4.5213317372050810E-002
  -4.4945228144164476E-002   1.2436563738358053E-002   4.6049403079893025E-002
  -4.1449849682979323E-002   1.1769654043161104E-002   4.3736691084065610E-002
  -3.7954471221794232E-002   1.1179789434354423E-002   4.2015827761618996E-002
  -3.4459092760609128E-002   1.0666969911938200E-002   4.0886813112553072E-002
  -3.0963714299424003E-002   1.0231195475912336E-002   4.0349647136867894E-002
  -5.0509367521616305E-002   1.3834223941246754E-002   4.0509061434271673E-002
  -4.6448612942313589E-002   1.3263472980823698E-002   3.8404134509112911E-002
  -4.2387858363010886E-002   1.2695664099449284E-002   3.6838111146808579E-002
  -3.8327103783708155E-002   1.2130797297123618E-002   3.5810991347358712E-002
  -3.4266349204405466E-002   1.1568872573846645E-002   3.5322775110763399E-002
  -5.5879242855856048E-002   1.5231884144135413E-002   3.5101930027095135E-002
  -5.1306057268961959E-002   1.4757291918486182E-002   3.3130685165263324E-002
  -4.6732871682067925E-002   1.4211538764544122E-002   3.1645398755759557E-002
  -4.2159686095173905E-002   1.3594624682308869E-002   3.0646070798584224E-002
  -3.7586500508279788E-002   1.2906549671781065E-002   3.0132701293736734E-002
  -6.1054854146883608E-002   1.6629544347024128E-002   2.9828008858363231E-002
  -5.6022182662924469E-002   1.6251110856148804E-002   2.7916343052516612E-002
  -5.0989511178965330E-002   1.5727413429639001E-002   2.6437690588471979E-002
  -4.5956839695006205E-002   1.5058452067494451E-002   2.5392051466229429E-002
  -4.0924168211047052E-002   1.4244226769715429E-002   2.4779425685788670E-002
  -2.7678595793335453E-002   8.8935183779779159E-003   4.5213317372050810E-002
  -2.7000081842616083E-002   8.5934899505897833E-003   4.6410870095879408E-002
  -2.6321567891896755E-002   8.1615048722437356E-003   4.7580069469825015E-002
  -2.5643053941177399E-002   7.5975631429395993E-003   4.8720915493887684E-002
  -2.4964539990458057E-002   6.9016647626770622E-003   4.9833408168067361E-002
  -3.0963714299424003E-002   1.0231195475912336E-002   4.0349647136867894E-002
  -3.0315216542578849E-002   9.7881606323146908E-003   4.1416259341566730E-002
  -2.9666718785733695E-002   9.2535598871835156E-003   4.2451192508399987E-002
  -2.9018221028888527E-002   8.6273932405186299E-003   4.3454446637367861E-002
  -2.8369723272043373E-002   7.9096606923202417E-003   4.4426021728470544E-002
  -3.4266349204405466E-002   1.1568872573846645E-002   3.5322775110763399E-002
  -3.3651193329416913E-002   1.0982831314039571E-002   3.6298837545756524E-002
  -3.3036037454428249E-002   1.0345614902123199E-002   3.7239895254901983E-002
  -3.2420881579439613E-002   9.6572233380977750E-003   3.8145948238199688E-002
  -3.1805725704451025E-002   8.9176566219631437E-003   3.9016996495649575E-002
  -3.7586500508279788E-002   1.2906549671781065E-002   3.0132701293736734E-002
  -3.7008012203130172E-002   1.2177501995764353E-002   3.1058604708449115E-002
  -3.6429523897980515E-002   1.1437669917062930E-002   3.1946177709331253E-002
  -3.5851035592830850E-002   1.0687053435676807E-002   3.2795420296383146E-002
  -3.5272547287681193E-002   9.9256525516060734E-003   3.3606332469605156E-002
  -4.0924168211047052E-002   1.4244226769715429E-002   2.4779425685788670E-002
  -4.0385673163718716E-002   1.3372172677489302E-002   2.5695560829644304E-002
  -3.9847178116390353E-002   1.2529724932002620E-002   2.6570039871687517E-002
  -3.9308683069062003E-002   1.1716883533255968E-002   2.7402862811918102E-002
  -3.8770188021733654E-002   1.0933648481249114E-002   2.8194029650336461E-002
  -2.4964539990458057E-002   6.9016647626770622E-003   4.9833408168067361E-002
  -2.2925061143771797E-002   6.1619233675972995E-003   4.9205540139717951E-002
  -2.0885582297085592E-002   5.4664525938400710E-003   4.8806711650976442E-002
  -1.8846103450399353E-002   4.8152524414058831E-003   4.8636922701842639E-002
  -1.6806624603713127E-002   4.2083229102944930E-003   4.8696173292316680E-002
  -2.8369723272043373E-002   7.9096606923202417E-003   4.4426021728470544E-002
  -2.6114427064402153E-002   7.1656648590703309E-003   4.3795767347022729E-002
  -2.3859130856760967E-002   6.4607083572512658E-003   4.3368108147877255E-002
  -2.1603834649119764E-002   5.7947911868632546E-003   4.3143044131033689E-002
  -1.9348538441478561E-002   5.1679133479058947E-003   4.3120575296492492E-002
  -3.1805725704451025E-002   8.9176566219631437E-003   3.9016996495649575E-002
  -2.9361056493160564E-002   8.1694063505433900E-003   3.8379124471211640E-002
  -2.6916387281869968E-002   7.4549641206623357E-003   3.7917403271770039E-002
  -2.4471718070579448E-002   6.7743299323203450E-003   3.7631832897325058E-002
  -2.2027048859288904E-002   6.1275037855170744E-003   3.7522413347876538E-002
  -3.5272547287681193E-002   9.9256525516060734E-003   3.3606332469605156E-002
  -3.2664949430046900E-002   9.1731478420163798E-003   3.2955611512284447E-002
  -3.0057351572412665E-002   8.4492198840736901E-003   3.2454597022654963E-002
  -2.7449753714778355E-002   7.7538686777775204E-003   3.2103289000716295E-002
  -2.4842155857144083E-002   7.0870942231283096E-003   3.1901687446468596E-002
  -3.8770188021733654E-002   1.0933648481249114E-002   2.8194029650336461E-002
  -3.6026105875061276E-002   1.0176889333489536E-002   2.7525228470241581E-002
  -3.3282023728388954E-002   9.4434756474846560E-003   2.6979689400532025E-002
  -3.0537941581716604E-002   8.7334074232347653E-003   2.6557412441207850E-002
  -2.7793859435044227E-002   8.0466846607396558E-003   2.6258397592268667E-002
  -1.6806624603713127E-002   4.2083229102944930E-003   4.8696173292316680E-002
  -1.4945982151724893E-002   3.6768192278357481E-003   4.8666942708808003E-002
  -1.3085339699736673E-002   3.2518966213590517E-003   4.8871828824827823E-002
  -1.1224697247748452E-002   2.9335550908646257E-003   4.9310831640376196E-002
  -9.3640547957602183E-003   2.7217946363525813E-003   4.9983951155452955E-002
  -1.9348538441478561E-002   5.1679133479058947E-003   4.3120575296492492E-002
  -1.7286854826822559E-002   4.5921625184405790E-003   4.3006570477846118E-002
  -1.5225171212166481E-002   4.0796263765285334E-003   4.3060531285006781E-002
  -1.3163487597510407E-002   3.6303049221696054E-003   4.3282457717974829E-002
  -1.1101803982854347E-002   3.2441981553640309E-003   4.3672349776749886E-002
  -2.2027048859288904E-002   6.1275037855170744E-003   3.7522413347876538E-002
  -1.9830475155686339E-002   5.5075058090454376E-003   3.7280267905663383E-002
  -1.7633901452083725E-002   4.9073561316979042E-003   3.7139937015536029E-002
  -1.5437327748481135E-002   4.3270547534746961E-003   3.7101420677494557E-002
  -1.3240754044878601E-002   3.7666016743756470E-003   3.7164718891538995E-002
  -2.4842155857144083E-002   7.0870942231283096E-003   3.1901687446468596E-002
  -2.2576843138316285E-002   6.4228490996503934E-003   3.1488034992259620E-002
  -2.0311530419488483E-002   5.7350858868673305E-003   3.1110046016415177E-002
  -1.8046217700660682E-002   5.0238045847797869E-003   3.0767720518935324E-002
  -1.5780904981832884E-002   4.2890051933872908E-003   3.0461058499820087E-002
  -2.7793859435044227E-002   8.0466846607396558E-003   2.6258397592268667E-002
  -2.5525958774712476E-002   7.3381923902551827E-003   2.5629871737635201E-002
  -2.3258058114380711E-002   6.5628156420367845E-003   2.4970858287644448E-002
  -2.0990157454048940E-002   5.7205544160845515E-003   2.4281357242297325E-002
  -1.8722256793717196E-002   4.8114087123987126E-003   2.3561368601593413E-002
  -9.3640547957602183E-003   2.7217946363525813E-003   4.9983951155452955E-002
  -7.9163565355660770E-003   2.8665313864051911E-003   5.0365678392002122E-002
  -6.4686582753718802E-003   3.6176814696047277E-003   5.1082431481061952E-002
  -5.0209600151776904E-003   4.9752448859521903E-003   5.2134210422632332E-002
  -3.5732617549835421E-003   6.9392216354465797E-003   5.3521015216713486E-002
  -1.1101803982854347E-002   3.2441981553640309E-003   4.3672349776749886E-002
  -9.3035671434844591E-003   3.1657904781009494E-003   4.4247687277373438E-002
  -7.5053303041144881E-003   3.6395662923686678E-003   4.5189076083837848E-002
  -5.7070934647445171E-003   4.6655255981677829E-003   4.6496516196143409E-002
  -3.9088566253745738E-003   6.2436683954981698E-003   4.8170007614289356E-002
  -1.3240754044878601E-002   3.7666016743756470E-003   3.7164718891538995E-002
  -1.1060953173002562E-002   3.4650495697963468E-003   3.7879436814620776E-002
  -8.8811523011265436E-003   3.6614511151322748E-003   3.8991231496873890E-002
  -6.7013514292505270E-003   4.3558063103835976E-003   4.0500102938298102E-002
  -4.5215505573744860E-003   5.5481151555499264E-003   4.2406051138893480E-002
  -1.5780904981832884E-002   4.2890051933872908E-003   3.0461058499820087E-002
  -1.3188514624120537E-002   3.7643086614921467E-003   3.1260927003744207E-002
  -1.0596124266408130E-002   3.6833359378960484E-003   3.2488897720169808E-002
  -8.0037339086957791E-003   4.0460870225996343E-003   3.4144970649097106E-002
  -5.4113435509834298E-003   4.8525619156014888E-003   3.6229145790525601E-002
  -1.8722256793717196E-002   4.8114087123987126E-003   2.3561368601593413E-002
  -1.5686251496838166E-002   4.0635677531875580E-003   2.4392157844743689E-002
  -1.2650246199959192E-002   3.7052207606597387E-003   2.5682074753725914E-002
  -9.6142409030801623E-003   3.7363677348149840E-003   2.7431119328539727E-002
  -6.5782356062011882E-003   4.1570086756533842E-003   2.9639291569185544E-002
  -3.5732617549835421E-003   6.9392216354465797E-003   5.3521015216713486E-002
  -4.1364048978779766E-003   9.5264940952664023E-003   5.1858461622737440E-002
  -4.6995480407723694E-003   1.2753944642591247E-002   5.0045742012152894E-002
  -5.2626911836667623E-003   1.6621573277420025E-002   4.8082856384959766E-002
  -5.8258343265611967E-003   2.1129379999753617E-002   4.5969804741158526E-002
  -3.9088566253745738E-003   6.2436683954981698E-003   4.8170007614289356E-002
  -4.5164937143160333E-003   8.6828121746920228E-003   4.7241025309116114E-002
  -5.1241308032574234E-003   1.2291774426082785E-002   4.6373221128457376E-002
  -5.7317678921989315E-003   1.7070555149669299E-002   4.5566595072312283E-002
  -6.3394049811402731E-003   2.3019154345452320E-002   4.4821147140682305E-002
  -4.5215505573744860E-003   5.5481151555499264E-003   4.2406051138893480E-002
  -4.9623374512402507E-003   7.8391302541179764E-003   4.2740280507214762E-002
  -5.4031243451060119E-003   1.1829604209574227E-002   4.3347032141173233E-002
  -5.8439112389716552E-003   1.7519537021918798E-002   4.4226306040768888E-002
  -6.2846981328374824E-003   2.4908928691151244E-002   4.5378102206001247E-002
  -5.4113435509834298E-003   4.8525619156014888E-003   3.6229145790525601E-002
  -5.4739361086506844E-003   6.9954483335437634E-003   3.8356227217033335E-002
  -5.5365286663180482E-003   1.1367433993065827E-002   4.0967175050301063E-002
  -5.5991212239853427E-003   1.7968518894167854E-002   4.4061989290328028E-002
  -5.6617137816527240E-003   2.6798703036850169E-002   4.7640669937115743E-002
  -6.5782356062011882E-003   4.1570086756533842E-003   2.9639291569185544E-002
  -6.0512896865474453E-003   6.1517664129696614E-003   3.4088865438571925E-002
  -5.5243437668936191E-003   1.0905263776557234E-002   3.9233649855840491E-002
  -4.9973978472397929E-003   1.8417500766417468E-002   4.5073644820991438E-002
  -4.4704519275859944E-003   2.8688477382548871E-002   5.1608850334025291E-002
  -7.4333361600744385E-002   2.1409943526673303E-002   2.9327549922129881E-002
  -7.2497008617212699E-002   2.1341484387665310E-002   2.9562517412114020E-002
  -7.0660655633680985E-002   2.0983945148696920E-002   2.9715436298602349E-002
  -6.8824302650149272E-002   2.0337325809768318E-002   2.9786306581594646E-002
  -6.6987949666617558E-002   1.9401626370879055E-002   2.9775128261091133E-002
  -8.0123141298597017E-002   2.4402386862801329E-002   2.3015047178482295E-002
  -7.8282074916020933E-002   2.3359764706803399E-002   2.2703429219227744E-002
  -7.6441008533444946E-002   2.2425972581434056E-002   2.2483286661557883E-002
  -7.4599942150868903E-002   2.1601010486693488E-002   2.2354619505472476E-002
  -7.2758875768292874E-002   2.0884878422581521E-002   2.2317427750971702E-002
  -8.6456143413562503E-002   2.7394830198929354E-002   1.5529426352550113E-002
  -8.4436839626861798E-002   2.5378045025941459E-002   1.5069133074645955E-002
  -8.2417535840160969E-002   2.3868000014171262E-002   1.4873839203406916E-002
  -8.0398232053460222E-002   2.2864695163618661E-002   1.4943544738832866E-002
  -7.8378928266759393E-002   2.2368130474283876E-002   1.5278249680923839E-002
  -9.3332367945641273E-002   3.0387273535057407E-002   6.8706874443333482E-003
  -9.0961302749735268E-002   2.7396325345079589E-002   6.6596289783686785E-003
  -8.8590237553829193E-002   2.5310027446908571E-002   6.8870939241496808E-003
  -8.6219172357923146E-002   2.4128379840544056E-002   7.5530822816760618E-003
  -8.3848107162017099E-002   2.3851382525986509E-002   8.6575940509478269E-003
 -0.10075181489483298        3.3379716871185461E-002  -2.9611695461677634E-003
  -9.7855464284641203E-002   2.9414605664217719E-002  -2.5250830696038618E-003
  -9.4959113674449425E-002   2.6752054879645520E-002  -1.4769491762141040E-003
  -9.2062763064257758E-002   2.5392064517469178E-002   1.8323213400159299E-004
  -8.9166412454065980E-002   2.5334634577688808E-002   2.4554608610433681E-003
  -6.6987949666617558E-002   1.9401626370879055E-002   2.9775128261091133E-002
  -6.5504675786684091E-002   1.8418191627736197E-002   2.9500392047712320E-002
  -6.4021401906750597E-002   1.7628366376045992E-002   2.9417626742798159E-002
  -6.2538128026817102E-002   1.7032150615808751E-002   2.9526832346348356E-002
  -6.1054854146883608E-002   1.6629544347024128E-002   2.9828008858363231E-002
  -7.2758875768292874E-002   2.0884878422581521E-002   2.2317427750971702E-002
  -7.1075815726610481E-002   2.0216977374849440E-002   2.2292001140877968E-002
  -6.9392755684928045E-002   1.9536708329248448E-002   2.2474175945817618E-002
  -6.7709695643245610E-002   1.8844071285778467E-002   2.2863952165790603E-002
  -6.6026635601563216E-002   1.8139066244439783E-002   2.3461329800796821E-002
  -7.8378928266759393E-002   2.2368130474283876E-002   1.5278249680923839E-002
  -7.6480451556759310E-002   2.2015763121962642E-002   1.5296155184793686E-002
  -7.4581974846759172E-002   2.1445050282450952E-002   1.5537292610265450E-002
  -7.2683498136759034E-002   2.0655991955748347E-002   1.6001661957339364E-002
  -7.0785021426758910E-002   1.9648588141855439E-002   1.6689263226015300E-002
  -8.3848107162017099E-002   2.3851382525986509E-002   8.6575940509478269E-003
  -8.1718583277130538E-002   2.3814548869076198E-002   8.5128541794593227E-003
  -7.9589059392243949E-002   2.3353392235653237E-002   8.6069767361415545E-003
  -7.7459535507357374E-002   2.2467912625718369E-002   8.9399617209948434E-003
  -7.5330011622470786E-002   2.1158110039270928E-002   9.5118091340186221E-003
  -8.9166412454065980E-002   2.5334634577688808E-002   2.4554608610433681E-003
  -8.6790210887724206E-002   2.5613334616189143E-002   1.9420981248749469E-003
  -8.4414009321382377E-002   2.5261734188855939E-002   1.6832283234458484E-003
  -8.2037807755040576E-002   2.4279833295687954E-002   1.6788514567568184E-003
  -7.9661606188698775E-002   2.2667631936686750E-002   1.9289675248068683E-003
  -6.1054854146883608E-002   1.6629544347024128E-002   2.9828008858363231E-002
  -5.6022182662924469E-002   1.6251110856148804E-002   2.7916343052516612E-002
  -5.0989511178965330E-002   1.5727413429639001E-002   2.6437690588471979E-002
  -4.5956839695006205E-002   1.5058452067494451E-002   2.5392051466229429E-002
  -4.0924168211047052E-002   1.4244226769715429E-002   2.4779425685788670E-002
  -6.6026635601563216E-002   1.8139066244439783E-002   2.3461329800796821E-002
  -6.0602378347201905E-002   1.7407869938945969E-002   2.1628992819996556E-002
  -5.5178121092840565E-002   1.6636659103010806E-002   2.0146814038198443E-002
  -4.9753863838479302E-002   1.5825433736634639E-002   1.9014793455402863E-002
  -4.4329606584117984E-002   1.4974193839817296E-002   1.8232931071609726E-002
  -7.0785021426758910E-002   1.9648588141855439E-002   1.6689263226015300E-002
  -6.5052033544795010E-002   1.8564629021743093E-002   1.5041504475454451E-002
  -5.9319045662831103E-002   1.7545904776382952E-002   1.3661048781096446E-002
  -5.3586057780867280E-002   1.6592415405774663E-002   1.2547896142941373E-002
  -4.7853069898903366E-002   1.5704160909919024E-002   1.1702046560988791E-002
  -7.5330011622470786E-002   2.1158110039270928E-002   9.5118091340186221E-003
  -6.9371148255703854E-002   1.9721388104540209E-002   8.1538780188906111E-003
  -6.3412284888936965E-002   1.8455150449754928E-002   6.9803948171659209E-003
  -5.7453421522170083E-002   1.7359397074915045E-002   5.9913595288443961E-003
  -5.1494558155403145E-002   1.6434127980020655E-002   5.1867721539262425E-003
  -7.9661606188698775E-002   2.2667631936686750E-002   1.9289675248068683E-003
  -7.3559722479928424E-002   2.0878147187337381E-002   9.6611345030528373E-004
  -6.7457838771158130E-002   1.9364396123126709E-002   1.0485214640698626E-004
  -6.1355955062387835E-002   1.8126378744055045E-002  -6.5481638688710819E-004
  -5.5254071353617484E-002   1.7164095050122508E-002  -1.3128921495781931E-003
  -4.0924168211047052E-002   1.4244226769715429E-002   2.4779425685788670E-002
  -4.0385673163718716E-002   1.3372172677489302E-002   2.5695560829644304E-002
  -3.9847178116390353E-002   1.2529724932002620E-002   2.6570039871687517E-002
  -3.9308683069062003E-002   1.1716883533255968E-002   2.7402862811918102E-002
  -3.8770188021733654E-002   1.0933648481249114E-002   2.8194029650336461E-002
  -4.4329606584117984E-002   1.4974193839817296E-002   1.8232931071609726E-002
  -4.3820304526329873E-002   1.4132688154560147E-002   1.9088049036173921E-002
  -4.3311002468541755E-002   1.3350665422864949E-002   1.9926437123470309E-002
  -4.2801700410753596E-002   1.2628125644731383E-002   2.0748095333498889E-002
  -4.2292398352965527E-002   1.1965068820159852E-002   2.1553023666259163E-002
  -4.7853069898903366E-002   1.5704160909919024E-002   1.1702046560988791E-002
  -4.7348034606110923E-002   1.4893203631631130E-002   1.2526023953083887E-002
  -4.6842999313318513E-002   1.4171605913726994E-002   1.3358197692455283E-002
  -4.6337964020526118E-002   1.3539367756206908E-002   1.4198567779103440E-002
  -4.5832928727733716E-002   1.2996489159070534E-002   1.5047134213028390E-002
  -5.1494558155403145E-002   1.6434127980020655E-002   5.1867721539262425E-003
  -5.0968863403061893E-002   1.5653719108702099E-002   6.0094855803737475E-003
  -5.0443168650720648E-002   1.4992546404589014E-002   6.8653215786427923E-003
  -4.9917473898379382E-002   1.4450609867682099E-002   7.7542801487326196E-003
  -4.9391779146038151E-002   1.4027909497981023E-002   8.6763612906435306E-003
  -5.5254071353617484E-002   1.7164095050122508E-002  -1.3128921495781931E-003
  -5.4682790917182866E-002   1.6414234585772736E-002  -4.6156608195579985E-004
  -5.4111510480748137E-002   1.5813486895451340E-002   4.4780878203221075E-004
  -5.3540230044313464E-002   1.5361851979157730E-002   1.4152324423859775E-003
  -5.2968949607878790E-002   1.5059329836891955E-002   2.4407048991055280E-003
  -3.8770188021733654E-002   1.0933648481249114E-002   2.8194029650336461E-002
  -3.6026105875061276E-002   1.0176889333489536E-002   2.7525228470241581E-002
  -3.3282023728388954E-002   9.4434756474846560E-003   2.6979689400532025E-002
  -3.0537941581716604E-002   8.7334074232347653E-003   2.6557412441207850E-002
  -2.7793859435044227E-002   8.0466846607396558E-003   2.6258397592268667E-002
  -4.2292398352965527E-002   1.1965068820159852E-002   2.1553023666259163E-002
  -3.9412288720997238E-002   1.1309757065922077E-002   2.0868344141968920E-002
  -3.6532179089029046E-002   1.0610452498789655E-002   2.0332457477885119E-002
  -3.3652069457060792E-002   9.8671551187631788E-003   1.9945363674007816E-002
  -3.0771959825092565E-002   9.0798649258424513E-003   1.9707062730336899E-002
  -4.5832928727733716E-002   1.2996489159070534E-002   1.5047134213028390E-002
  -4.2791260860648300E-002   1.2442624798354479E-002   1.4279238069893271E-002
  -3.9749592993562947E-002   1.1777429350094654E-002   1.3685665536786212E-002
  -3.6707925126477581E-002   1.1000902814291537E-002   1.3266416613706672E-002
  -3.3666257259392228E-002   1.0113045190944803E-002   1.3021491300654858E-002
  -4.9391779146038151E-002   1.4027909497981023E-002   8.6763612906435306E-003
  -4.6163022294014450E-002   1.3575492530787117E-002   7.7579102540148957E-003
  -4.2934265441990777E-002   1.2944406201399819E-002   7.0393135772351643E-003
  -3.9705508589967076E-002   1.2134650509819923E-002   6.5205712603043434E-003
  -3.6476751737943409E-002   1.1146225456047432E-002   6.2016833032224675E-003
  -5.2968949607878790E-002   1.5059329836891955E-002   2.4407048991055280E-003
  -4.9527573021095561E-002   1.4708360263219311E-002   1.3043606943338171E-003
  -4.6086196434312443E-002   1.4111383052704762E-002   3.9340159923229034E-004
  -4.2644819847529297E-002   1.3268398205348392E-002  -2.9217238619913544E-004
  -3.9203443260746096E-002   1.2179405721150172E-002  -7.5236126196032149E-004
  -2.7793859435044227E-002   8.0466846607396558E-003   2.6258397592268667E-002
  -2.5525958774712476E-002   7.3381923902551827E-003   2.5629871737635201E-002
  -2.3258058114380711E-002   6.5628156420367845E-003   2.4970858287644448E-002
  -2.0990157454048940E-002   5.7205544160845515E-003   2.4281357242297325E-002
  -1.8722256793717196E-002   4.8114087123987126E-003   2.3561368601593413E-002
  -3.0771959825092565E-002   9.0798649258424513E-003   1.9707062730336899E-002
  -2.8531786967933348E-002   8.2794372854124720E-003   1.9140516343707170E-002
  -2.6291614110774172E-002   7.4967275628589347E-003   1.8549001946089022E-002
  -2.4051441253614997E-002   6.7317357581821516E-003   1.7932519537482261E-002
  -2.1811268396455835E-002   5.9844618713819075E-003   1.7291069117887192E-002
  -3.3666257259392228E-002   1.0113045190944803E-002   1.3021491300654858E-002
  -3.1448292621037363E-002   9.2206821805698447E-003   1.2601526777639344E-002
  -2.9230327982682613E-002   8.4306394836812931E-003   1.2162113828003404E-002
  -2.7012363344327835E-002   7.7429171002797482E-003   1.1703252451747546E-002
  -2.4794398705973053E-002   7.1575150303648805E-003   1.1224942648871195E-002
  -3.6476751737943409E-002   1.1146225456047432E-002   6.2016833032224675E-003
  -3.4275475734024743E-002   1.0161927075727398E-002   6.0129030394312707E-003
  -3.2074199730106098E-002   9.3645514045037140E-003   5.8101939333880213E-003
  -2.9872923726187418E-002   8.7540984423771246E-003   5.5935559850932553E-003
  -2.7671647722268794E-002   8.3305681893479089E-003   5.3629891945458918E-003
  -3.9203443260746096E-002   1.2179405721150172E-002  -7.5236126196032149E-004
  -3.7013336306895295E-002   1.1103171970884729E-002  -6.2535487091702757E-004
  -3.4823229353044605E-002   1.0298463325325469E-002  -5.0675773775693544E-004
  -3.2633122399193859E-002   9.7652797844749728E-003  -3.9656986248122472E-004
  -3.0443015445343113E-002   9.5036213483310483E-003  -2.9479124508879906E-004
  -1.8722256793717196E-002   4.8114087123987126E-003   2.3561368601593413E-002
  -1.5686251496838166E-002   4.0635677531875580E-003   2.4392157844743689E-002
  -1.2650246199959192E-002   3.7052207606597387E-003   2.5682074753725914E-002
  -9.6142409030801623E-003   3.7363677348149840E-003   2.7431119328539727E-002
  -6.5782356062011882E-003   4.1570086756533842E-003   2.9639291569185544E-002
  -2.1811268396455835E-002   5.9844618713819075E-003   1.7291069117887192E-002
  -1.8577916491094151E-002   5.3346389226268109E-003   1.8249297559358557E-002
  -1.5344564585732509E-002   4.8619999320859697E-003   1.9143091551963504E-002
  -1.2111212680370895E-002   4.5665448997595920E-003   1.9972451095702018E-002
  -8.8778607750091831E-003   4.4482738256474974E-003   2.0737376190573920E-002
  -2.4794398705973053E-002   7.1575150303648805E-003   1.1224942648871195E-002
  -2.1887262306826971E-002   6.6057100920655920E-003   1.2098300280194874E-002
  -1.8980125907680910E-002   6.0187791035122978E-003   1.2383661347953670E-002
  -1.6072989508534835E-002   5.3967220647041965E-003   1.2081025852148174E-002
  -1.3165853109388712E-002   4.7395389756413331E-003   1.1190393792777559E-002
  -2.7671647722268794E-002   8.3305681893479089E-003   5.3629891945458918E-003
  -2.5614288944036639E-002   7.8767812615049421E-003   5.9391660072528468E-003
  -2.3556930165804346E-002   7.1755582749382443E-003   5.4037841416969858E-003
  -2.1499571387572108E-002   6.2268992296490248E-003   3.7568435978778732E-003
  -1.9442212609339898E-002   5.0308041256354186E-003   9.9834437579567753E-004
  -3.0443015445343113E-002   9.5036213483310483E-003  -2.9479124508879906E-004
  -2.9758996402722948E-002   9.1478524309439591E-003  -2.2810525946748150E-004
  -2.9074977360102838E-002   8.3323374463647459E-003  -1.7965400668073783E-003
  -2.8390958317482701E-002   7.0570763945934922E-003  -5.0000956671090654E-003
  -2.7706939274862563E-002   5.3220692756292820E-003  -9.8387720603710926E-003
  -6.5782356062011882E-003   4.1570086756533842E-003   2.9639291569185544E-002
  -6.0512896865474453E-003   6.1517664129696614E-003   3.4088865438571925E-002
  -5.5243437668936191E-003   1.0905263776557234E-002   3.9233649855840491E-002
  -4.9973978472397929E-003   1.8417500766417468E-002   4.5073644820991438E-002
  -4.4704519275859944E-003   2.8688477382548871E-002   5.1608850334025291E-002
  -8.8778607750091831E-003   4.4482738256474974E-003   2.0737376190573920E-002
  -7.5877097402468063E-003   5.6609632585731262E-003   2.5888315802681361E-002
  -6.2975587054843740E-003   9.3583897473597244E-003   3.1870455097123440E-002
  -5.0074076707220597E-003   1.5540553292008048E-002   3.8683794073900435E-002
  -3.7172566359594539E-003   2.4207453892517439E-002   4.6328332733011957E-002
  -1.3165853109388712E-002   4.7395389756413331E-003   1.1190393792777559E-002
  -1.0976507825065526E-002   5.1701601041763134E-003   1.6768696577195180E-002
  -8.7871625407423062E-003   7.8115157181624234E-003   2.3314188178400155E-002
  -6.5978172564190446E-003   1.2663605817598792E-002   3.0826868596392047E-002
  -4.4084719720957899E-003   1.9726430402485784E-002   3.9306737831170557E-002
  -1.9442212609339898E-002   5.0308041256354186E-003   9.9834437579567753E-004
  -1.6217683941003574E-002   4.6793569497800835E-003   6.7300077621134727E-003
  -1.2993155272667194E-002   6.2646416889653514E-003   1.3564849099670751E-002
  -9.7686266043309315E-003   9.7866583431892324E-003   2.1502868388466635E-002
  -6.5440979359944959E-003   1.5245406912454573E-002   3.0544065628502426E-002
  -2.7706939274862563E-002   5.3220692756292820E-003  -9.8387720603710926E-003
  -2.3311238088060904E-002   4.1885537953838536E-003  -4.2277506425644762E-003
  -1.8915536901259244E-002   4.7177676597673912E-003   2.6224378609341625E-003
  -1.4519835714457585E-002   6.9097108687809494E-003   1.0711793450124289E-002
  -1.0124134527655926E-002   1.0764383422422696E-002   2.0040316125005342E-002
 </DataArray>
 </PointData>
 </Piece>
 </UnstructuredGrid>
 </VTKFile>
